<?xml version="1.0"?>
<VTKFile type="UnstructuredGrid" version="0.1" byte_order="LittleEndian">
<UnstructuredGrid>
<Piece NumberOfPoints="29622" NumberOfCells="10370">
<Points>
<DataArray type="Float64" NumberOfComponents="3" format="ascii">
-0.49485421638997129 -0.48903540387187389 0 -0.47966379557855132 -0.48208057761239048 0 -0.45751766390445858 -0.5 0 -0.49485421638997129 -0.48903540387187389 0 -0.48132784707583531 -0.46780503325861211 0 -0.5 -0.39304332915441309 0 -0.49485421638997129 -0.48903540387187389 0 -0.5 -0.5 0 -0.5 -0.39304332915441309 0 -0.49485421638997129 -0.48903540387187389 0 -0.5 -0.5 0 -0.45751766390445858 -0.5 0 -0.49485421638997129 -0.48903540387187389 0 -0.47966379557855132 -0.48208057761239048 0 -0.48132784707583531 -0.46780503325861211 0 -0.49485421638997129 -0.48903540387187389 0 -0.48132784707583531 -0.46780503325861211 0 -0.47966379557855132 -0.48208057761239048 0 -0.47195399330063897 -0.473203497292849 0 -0.48132784707583531 -0.46780503325861211 0 -0.47966379557855132 -0.48208057761239048 0 -0.47195399330063897 -0.473203497292849 0 -0.45751766390445858 -0.5 0 -0.45751766390445858 -0.5 0 -0.42620230597632591 -0.50000000000000089 0 -0.43480942387586652 -0.48036079921444441 0 -0.47195399330063897 -0.473203497292849 0 -0.45305143556040289 -0.47753612750543212 0 -0.45071632046259408 -0.45996853728771042 0 -0.47195399330063897 -0.473203497292849 0 -0.45751766390445858 -0.5 0 -0.45305143556040289 -0.47753612750543212 0 -0.45305143556040289 -0.47753612750543212 0 -0.43480942387586652 -0.48036079921444441 0 -0.43627077375768197 -0.46331343798553171 0 -0.45751766390445858 -0.5 0 -0.45305143556040289 -0.47753612750543212 0 -0.43480942387586652 -0.48036079921444441 0 -0.45047061609287048 -0.44376226569403138 0 -0.44104809386808058 -0.43352676383870747 0 -0.42947864762454918 -0.4467335772825719 0 -0.45047061609287048 -0.44376226569403138 0 -0.45071632046259408 -0.45996853728771042 0 -0.42947864762454918 -0.4467335772825719 0 -0.45305143556040289 -0.47753612750543212 0 -0.45071632046259408 -0.45996853728771042 0 -0.43627077375768197 -0.46331343798553171 0 -0.45071632046259408 -0.45996853728771042 0 -0.42947864762454918 -0.4467335772825719 0 -0.45071632046259408 -0.45996853728771042 0 -0.43627077375768197 -0.46331343798553171 0 -0.42947864762454918 -0.4467335772825719 0 -0.47195399330063897 -0.473203497292849 0 -0.45071632046259408 -0.45996853728771042 0 -0.4676094613981967 -0.46165311892656757 0 -0.47195399330063897 -0.473203497292849 0 -0.45071632046259408 -0.45996853728771042 0 -0.45071632046259408 -0.45996853728771042 0 -0.45984069590491328 -0.45401373694973829 0 -0.4676094613981967 -0.46165311892656757 0 -0.4676094613981967 -0.46165311892656757 0 -0.46780147776169873 -0.44657466264535067 0 -0.45984069590491328 -0.45401373694973829 0 -0.4676094613981967 -0.46165311892656757 0 -0.46780147776169873 -0.44657466264535067 0 -0.45047061609287048 -0.44376226569403138 0 -0.45984069590491328 -0.45401373694973829 0 -0.46780147776169873 -0.44657466264535067 0 -0.45047061609287048 -0.44376226569403138 0 -0.45071632046259408 -0.45996853728771042 0 -0.45984069590491328 -0.45401373694973829 0 -0.45047061609287048 -0.44376226569403138 0 -0.46780147776169873 -0.44657466264535067 0 -0.45349168221317732 -0.42411466204654691 0 -0.46780147776169873 -0.44657466264535067 0 -0.48132784707583531 -0.46780503325861211 0 -0.4676094613981967 -0.46165311892656757 0 -0.46780147776169873 -0.44657466264535067 0 -0.48132784707583531 -0.46780503325861211 0 -0.47195399330063897 -0.473203497292849 0 -0.4676094613981967 -0.46165311892656757 0 -0.48132784707583531 -0.46780503325861211 0 -0.46780147776169873 -0.44657466264535067 0 -0.5 -0.39304332915441309 0 -0.46811911363238717 -0.42163169162870001 0 -0.46780147776169873 -0.44657466264535067 0 -0.48132784707583531 -0.46780503325861211 0 -0.5 -0.39304332915441309 0 -0.5 -0.39304332915441309 0 -0.46843674950307651 -0.39668872061204918 0 -0.46811911363238717 -0.42163169162870001 0 -0.5 -0.39304332915441309 0 -0.46843674950307651 -0.39668872061204918 0 -0.46875438537376568 -0.37174574959539841 0 -0.46843674950307651 -0.39668872061204918 0 -0.46875438537376568 -0.37174574959539841 0 -0.45710457142705352 -0.38504504192178968 0 -0.46843674950307651 -0.39668872061204918 0 -0.46875438537376568 -0.37174574959539841 0 -0.45710457142705352 -0.38504504192178968 0 -0.46843674950307651 -0.39668872061204918 0 -0.45814675552769368 -0.40820001903729841 0 -0.45710457142705352 -0.38504504192178968 0 -0.43918188666465519 -0.40165466144774348 0 -0.45814675552769368 -0.40820001903729841 0 -0.45710457142705352 -0.38504504192178968 0 -0.43918188666465519 -0.40165466144774348 0 -0.44104219080419582 -0.37347083416253418 0 -0.45710457142705352 -0.38504504192178968 0 -0.4572122904922577 -0.36774700747612332 0 -0.44104219080419582 -0.37347083416253418 0 -0.46780147776169873 -0.44657466264535067 0 -0.45349168221317732 -0.42411466204654691 0 -0.46811911363238717 -0.42163169162870001 0 -0.46780147776169873 -0.44657466264535067 0 -0.45349168221317732 -0.42411466204654691 0 -0.46780147776169873 -0.44657466264535067 0 -0.46811911363238717 -0.42163169162870001 0 -0.46843674950307651 -0.39668872061204918 0 -0.46811911363238717 -0.42163169162870001 0 -0.45814675552769368 -0.40820001903729841 0 -0.45349168221317732 -0.42411466204654691 0 -0.46811911363238717 -0.42163169162870001 0 -0.45814675552769368 -0.40820001903729841 0 -0.46843674950307651 -0.39668872061204918 0 -0.46811911363238717 -0.42163169162870001 0 -0.43918188666465519 -0.40165466144774348 0 -0.45349168221317732 -0.42411466204654691 0 -0.43918188666465519 -0.40165466144774348 0 -0.45349168221317732 -0.42411466204654691 0 -0.45814675552769368 -0.40820001903729841 0 -0.43918188666465519 -0.40165466144774348 0 -0.45349168221317732 -0.42411466204654691 0 -0.43003658358618901 -0.42326990374997903 0 -0.45349168221317732 -0.42411466204654691 0 -0.44104809386808058 -0.43352676383870747 0 -0.43003658358618901 -0.42326990374997903 0 -0.45047061609287048 -0.44376226569403138 0 -0.45349168221317732 -0.42411466204654691 0 -0.44104809386808058 -0.43352676383870747 0 -0.44104809386808058 -0.43352676383870747 0 -0.43003658358618901 -0.42326990374997903 0 -0.42947864762454918 -0.4467335772825719 0 -0.43003658358618901 -0.42326990374997903 0 -0.40824097478650417 -0.43349861727743327 0 -0.42947864762454918 -0.4467335772825719 0 -0.43918188666465519 -0.40165466144774348 0 -0.43003658358618901 -0.42326990374997903 0 -0.41939074694921452 -0.39847550860422248 0 -0.40933736888919142 -0.41582472602523213 0 -0.41939074694921452 -0.39847550860422248 0 -0.39691773321276591 -0.40451995308690569 0 -0.43003658358618901 -0.42326990374997903 0 -0.40933736888919142 -0.41582472602523213 0 -0.41939074694921452 -0.39847550860422248 0 -0.43003658358618901 -0.42326990374997903 0 -0.40933736888919142 -0.41582472602523213 0 -0.40824097478650417 -0.43349861727743327 0 -0.43918188666465519 -0.40165466144774348 0 -0.42487209111613222 -0.37919466084894071 0 -0.42487209111613222 -0.37919466084894071 0 -0.44104219080419582 -0.37347083416253418 0 -0.43918188666465519 -0.40165466144774348 0 -0.42487209111613222 -0.37919466084894071 0 -0.44104219080419582 -0.37347083416253418 0 -0.43918188666465519 -0.40165466144774348 0 -0.42487209111613222 -0.37919466084894071 0 -0.41939074694921452 -0.39847550860422248 0 -0.41939074694921452 -0.39847550860422248 0 -0.40300003565967968 -0.38693684284679258 0 -0.39691773321276591 -0.40451995308690569 0 -0.42487209111613222 -0.37919466084894071 0 -0.40300003565967968 -0.38693684284679258 0 -0.42487209111613222 -0.37919466084894071 0 -0.41939074694921452 -0.39847550860422248 0 -0.40300003565967968 -0.38693684284679258 0 -0.42487209111613222 -0.37919466084894071 0 -0.40300003565967968 -0.38693684284679258 0 -0.40034883944948352 -0.37081685356611482 0 -0.40300003565967968 -0.38693684284679258 0 -0.38720811424459922 -0.38269289919929472 0 -0.40034883944948352 -0.37081685356611482 0 -0.40300003565967968 -0.38693684284679258 0 -0.39691773321276591 -0.40451995308690569 0 -0.38112798020322552 -0.39467902484464013 0 -0.40300003565967968 -0.38693684284679258 0 -0.38112798020322552 -0.39467902484464013 0 -0.39691773321276591 -0.40451995308690569 0 -0.38092085950929938 -0.40584578046397218 0 -0.38112798020322552 -0.39467902484464013 0 -0.38092085950929938 -0.40584578046397218 0 -0.38112798020322552 -0.39467902484464013 0 -0.37260182642857559 -0.39831487258102538 0 -0.38112798020322552 -0.39467902484464013 0 -0.3755243739538135 -0.38933559825649589 0 -0.37260182642857559 -0.39831487258102538 0 -0.40300003565967968 -0.38693684284679258 0 -0.38112798020322552 -0.39467902484464013 0 -0.38720811424459922 -0.38269289919929472 0 -0.38112798020322552 -0.39467902484464013 0 -0.38066855662570548 -0.38741133800680971 0 -0.38720811424459922 -0.38269289919929472 0 -0.3755243739538135 -0.38933559825649589 0 -0.37881375810118412 -0.38293782972680801 0 -0.37166373307095851 -0.38075684139963512 0 -0.38066855662570548 -0.38741133800680971 0 -0.37881375810118412 -0.38293782972680801 0 -0.38720811424459922 -0.38269289919929472 0 -0.38112798020322552 -0.39467902484464013 0 -0.38066855662570548 -0.38741133800680971 0 -0.3755243739538135 -0.38933559825649589 0 -0.38066855662570548 -0.38741133800680971 0 -0.3755243739538135 -0.38933559825649589 0 -0.37881375810118412 -0.38293782972680801 0 -0.37881375810118412 -0.38293782972680801 0 -0.37785856937865758 -0.37355414846445112 0 -0.37166373307095851 -0.38075684139963512 0 -0.37881375810118412 -0.38293782972680801 0 -0.38720811424459922 -0.38269289919929472 0 -0.37785856937865758 -0.37355414846445112 0 -0.40824097478650417 -0.43349861727743327 0 -0.38700330194845922 -0.4202636572722947 0 -0.40824097478650417 -0.43349861727743327 0 -0.38700330194845922 -0.4202636572722947 0 -0.38330031069482279 -0.4443361399444733 0 -0.40933736888919142 -0.41582472602523213 0 -0.40824097478650417 -0.43349861727743327 0 -0.38700330194845922 -0.4202636572722947 0 -0.40933736888919142 -0.41582472602523213 0 -0.39691773321276591 -0.40451995308690569 0 -0.38700330194845922 -0.4202636572722947 0 -0.38700330194845922 -0.4202636572722947 0 -0.36576562911041288 -0.40702869726715851 0 -0.39691773321276591 -0.40451995308690569 0 -0.38092085950929938 -0.40584578046397218 0 -0.38700330194845922 -0.4202636572722947 0 -0.38092085950929938 -0.40584578046397218 0 -0.38700330194845922 -0.4202636572722947 0 -0.36576562911041288 -0.40702869726715851 0 -0.38700330194845922 -0.4202636572722947 0 -0.38330031069482279 -0.4443361399444733 0 -0.36899964560098858 -0.42578151992596419 0 -0.38330031069482279 -0.4443361399444733 0 -0.36899964560098858 -0.42578151992596419 0 -0.38330031069482279 -0.4443361399444733 0 -0.37270893307682018 -0.44729025694925029 0 -0.36899964560098858 -0.42578151992596419 0 -0.38330031069482279 -0.4443361399444733 0 -0.39760097578865711 -0.46289075996298262 0 -0.40782041891334347 -0.4503593079750462 0 -0.40824097478650417 -0.43349861727743327 0 -0.38330031069482279 -0.4443361399444733 0 -0.40782041891334347 -0.4503593079750462 0 -0.38330031069482279 -0.4443361399444733 0 -0.37641822055265189 -0.46879899397253638 0 -0.37270893307682018 -0.44729025694925029 0 -0.38330031069482279 -0.4443361399444733 0 -0.39760097578865711 -0.46289075996298262 0 -0.38330031069482279 -0.4443361399444733 0 -0.39760097578865711 -0.46289075996298262 0 -0.37641822055265189 -0.46879899397253638 0 -0.39055325385004619 -0.48262702678340219 0 -0.37641822055265189 -0.46879899397253638 0 -0.36916285269217869 -0.5 0 -0.39760097578865711 -0.46289075996298262 0 -0.39055325385004619 -0.48262702678340219 0 -0.37641822055265189 -0.46879899397253638 0 -0.39055325385004619 -0.48262702678340219 0 -0.39768257933425227 -0.5 0 -0.36916285269217869 -0.5 0 -0.39055325385004619 -0.48262702678340219 0 -0.39768257933425227 -0.5 0 -0.41190164088249132 -0.48144537998149178 0 -0.39760097578865711 -0.46289075996298262 0 -0.39055325385004619 -0.48262702678340219 0 -0.41190164088249132 -0.48144537998149178 0 -0.39760097578865711 -0.46289075996298262 0 -0.41190164088249132 -0.48144537998149178 0 -0.39760097578865711 -0.46289075996298262 0 -0.41190164088249132 -0.48144537998149178 0 -0.42048118567218379 -0.46433744540776978 0 -0.39768257933425227 -0.5 0 -0.41190164088249132 -0.48144537998149178 0 -0.42620230597632591 -0.50000000000000089 0 -0.41190164088249132 -0.48144537998149178 0 -0.42620230597632591 -0.50000000000000089 0 -0.41190164088249132 -0.48144537998149178 0 -0.42620230597632591 -0.50000000000000089 0 -0.43480942387586652 -0.48036079921444441 0 -0.41190164088249132 -0.48144537998149178 0 -0.43480942387586652 -0.48036079921444441 0 -0.42048118567218379 -0.46433744540776978 0 -0.43480942387586652 -0.48036079921444441 0 -0.43627077375768197 -0.46331343798553171 0 -0.42048118567218379 -0.46433744540776978 0 -0.43627077375768197 -0.46331343798553171 0 -0.42947864762454918 -0.4467335772825719 0 -0.42048118567218379 -0.46433744540776978 0 -0.40824097478650417 -0.43349861727743327 0 -0.42947864762454918 -0.4467335772825719 0 -0.40824097478650417 -0.43349861727743327 0 -0.42947864762454918 -0.4467335772825719 0 -0.40782041891334347 -0.4503593079750462 0 -0.42947864762454918 -0.4467335772825719 0 -0.40782041891334347 -0.4503593079750462 0 -0.42048118567218379 -0.46433744540776978 0 -0.39760097578865711 -0.46289075996298262 0 -0.40782041891334347 -0.4503593079750462 0 -0.42048118567218379 -0.46433744540776978 0 -0.44010656732289788 -0.26085838252996851 0 -0.43229081015205362 -0.25417199456554668 0 -0.44919232957202387 -0.24371303005310249 0 -0.44010656732289788 -0.26085838252996851 0 -0.4585662804787824 -0.26837484511018372 0 -0.44919232957202387 -0.24371303005310249 0 -0.4585662804787824 -0.26837484511018372 0 -0.43331385691330632 -0.27523940154096399 0 -0.4585662804787824 -0.26837484511018372 0 -0.44508278518625372 -0.29022146997540149 0 -0.43331385691330632 -0.27523940154096399 0 -0.44010656732289788 -0.26085838252996851 0 -0.4585662804787824 -0.26837484511018372 0 -0.43331385691330632 -0.27523940154096399 0 -0.4585662804787824 -0.26837484511018372 0 -0.47428105998689429 -0.28423500876683627 0 -0.44508278518625372 -0.29022146997540149 0 -0.4585662804787824 -0.26837484511018372 0 -0.47206243562756728 -0.25762347179270151 0 -0.47428105998689429 -0.28423500876683627 0 -0.4585662804787824 -0.26837484511018372 0 -0.47206243562756728 -0.25762347179270151 0 -0.44919232957202387 -0.24371303005310249 0 -0.47206243562756728 -0.25762347179270151 0 -0.5 -0.25346781598992812 0 -0.47428105998689429 -0.28423500876683627 0 -0.5 -0.25346781598992812 0 -0.47428105998689429 -0.28423500876683627 0 -0.5 -0.31254948970543461 0 -0.47428105998689429 -0.28423500876683627 0 -0.45729638832408492 -0.30885946939829773 0 -0.5 -0.31254948970543461 0 -0.47428105998689429 -0.28423500876683627 0 -0.45729638832408492 -0.30885946939829773 0 -0.44508278518625372 -0.29022146997540149 0 -0.45729638832408492 -0.30885946939829773 0 -0.44508278518625372 -0.29022146997540149 0 -0.42853737653284157 -0.30510640683750923 0 -0.45729638832408492 -0.30885946939829773 0 -0.43699745755478858 -0.32306842198357949 0 -0.42853737653284157 -0.30510640683750923 0 -0.5 -0.39304332915441309 0 -0.5 -0.31254948970543461 0 -0.47241259606178537 -0.3558508069929105 0 -0.45729638832408492 -0.30885946939829773 0 -0.45839405500437219 -0.33290437505148701 0 -0.43699745755478858 -0.32306842198357949 0 -0.45839405500437219 -0.33290437505148701 0 -0.43067678219142541 -0.34169949368338881 0 -0.43699745755478858 -0.32306842198357949 0 -0.45839405500437219 -0.33290437505148701 0 -0.45127087866163201 -0.35662662241956261 0 -0.43067678219142541 -0.34169949368338881 0 -0.45729638832408492 -0.30885946939829773 0 -0.45839405500437219 -0.33290437505148701 0 -0.5 -0.31254948970543461 0 -0.45839405500437219 -0.33290437505148701 0 -0.5 -0.31254948970543461 0 -0.47241259606178537 -0.3558508069929105 0 -0.5 -0.39304332915441309 0 -0.47241259606178537 -0.3558508069929105 0 -0.46875438537376568 -0.37174574959539841 0 -0.47241259606178537 -0.3558508069929105 0 -0.46875438537376568 -0.37174574959539841 0 -0.4572122904922577 -0.36774700747612332 0 -0.47241259606178537 -0.3558508069929105 0 -0.4572122904922577 -0.36774700747612332 0 -0.45127087866163201 -0.35662662241956261 0 -0.45710457142705352 -0.38504504192178968 0 -0.46875438537376568 -0.37174574959539841 0 -0.4572122904922577 -0.36774700747612332 0 -0.45839405500437219 -0.33290437505148701 0 -0.47241259606178537 -0.3558508069929105 0 -0.45127087866163201 -0.35662662241956261 0 -0.45127087866163201 -0.35662662241956261 0 -0.43067678219142541 -0.34169949368338881 0 -0.45127087866163201 -0.35662662241956261 0 -0.43987209026751978 -0.36123248436258282 0 -0.43067678219142541 -0.34169949368338881 0 -0.4572122904922577 -0.36774700747612332 0 -0.43987209026751978 -0.36123248436258282 0 -0.44104219080419582 -0.37347083416253418 0 -0.4572122904922577 -0.36774700747612332 0 -0.45127087866163201 -0.35662662241956261 0 -0.43987209026751978 -0.36123248436258282 0 -0.4572122904922577 -0.36774700747612332 0 -0.44104219080419582 -0.37347083416253418 0 -0.42487209111613222 -0.37919466084894071 0 -0.44104219080419582 -0.37347083416253418 0 -0.4275783003043449 -0.36113725079068981 0 -0.43987209026751978 -0.36123248436258282 0 -0.44104219080419582 -0.37347083416253418 0 -0.4275783003043449 -0.36113725079068981 0 -0.4275783003043449 -0.36113725079068981 0 -0.4100686429142083 -0.35595984562379013 0 -0.43067678219142541 -0.34169949368338881 0 -0.43987209026751978 -0.36123248436258282 0 -0.4275783003043449 -0.36113725079068981 0 -0.43067678219142541 -0.34169949368338881 0 -0.4100686429142083 -0.35595984562379013 0 -0.40035709127217922 -0.33926472118523682 0 -0.43067678219142541 -0.34169949368338881 0 -0.42487209111613222 -0.37919466084894071 0 -0.4275783003043449 -0.36113725079068981 0 -0.4100686429142083 -0.35595984562379013 0 -0.42487209111613222 -0.37919466084894071 0 -0.4100686429142083 -0.35595984562379013 0 -0.42487209111613222 -0.37919466084894071 0 -0.4100686429142083 -0.35595984562379013 0 -0.40034883944948352 -0.37081685356611482 0 -0.40034883944948352 -0.37081685356611482 0 -0.38747576214499502 -0.36767407004114872 0 -0.38946839061728628 -0.35244280283672202 0 -0.4100686429142083 -0.35595984562379013 0 -0.40034883944948352 -0.37081685356611482 0 -0.38946839061728628 -0.35244280283672202 0 -0.38720811424459922 -0.38269289919929472 0 -0.40034883944948352 -0.37081685356611482 0 -0.38747576214499502 -0.36767407004114872 0 -0.38720811424459922 -0.38269289919929472 0 -0.38747576214499502 -0.36767407004114872 0 -0.37785856937865758 -0.37355414846445112 0 -0.38747576214499502 -0.36767407004114872 0 -0.3803946439638905 -0.36232002362510379 0 -0.38946839061728628 -0.35244280283672202 0 -0.3803946439638905 -0.36232002362510379 0 -0.37401747194061841 -0.35596288952493021 0 -0.37296559159509202 -0.36681209433909601 0 -0.38747576214499502 -0.36767407004114872 0 -0.3803946439638905 -0.36232002362510379 0 -0.37785856937865758 -0.37355414846445112 0 -0.3803946439638905 -0.36232002362510379 0 -0.37785856937865758 -0.37355414846445112 0 -0.37296559159509202 -0.36681209433909601 0 -0.38946839061728628 -0.35244280283672202 0 -0.38238774798475528 -0.33591035907699268 0 -0.37448260438615971 -0.34426094393418077 0 -0.38946839061728628 -0.35244280283672202 0 -0.37401747194061841 -0.35596288952493021 0 -0.37448260438615971 -0.34426094393418077 0 -0.3803946439638905 -0.36232002362510379 0 -0.38946839061728628 -0.35244280283672202 0 -0.37401747194061841 -0.35596288952493021 0 -0.4100686429142083 -0.35595984562379013 0 -0.38946839061728628 -0.35244280283672202 0 -0.40035709127217922 -0.33926472118523682 0 -0.40035709127217922 -0.33926472118523682 0 -0.38797351392448293 -0.32568087391539041 0 -0.41008268572121848 -0.32677236494721501 0 -0.38946839061728628 -0.35244280283672202 0 -0.40035709127217922 -0.33926472118523682 0 -0.38238774798475528 -0.33591035907699268 0 -0.38238774798475528 -0.33591035907699268 0 -0.38797351392448293 -0.32568087391539041 0 -0.37059884822804079 -0.32608535496615632 0 -0.40035709127217922 -0.33926472118523682 0 -0.38238774798475528 -0.33591035907699268 0 -0.38797351392448293 -0.32568087391539041 0 -0.38238774798475528 -0.33591035907699268 0 -0.37059884822804079 -0.32608535496615632 0 -0.37245731417969702 -0.33680980758053142 0 -0.38238774798475528 -0.33591035907699268 0 -0.37245731417969702 -0.33680980758053142 0 -0.37448260438615971 -0.34426094393418077 0 -0.38797351392448293 -0.32568087391539041 0 -0.37059884822804079 -0.32608535496615632 0 -0.37492612108969181 -0.3142072071057001 0 -0.38797351392448293 -0.32568087391539041 0 -0.38948858925101182 -0.31184523621104121 0 -0.37492612108969181 -0.3142072071057001 0 -0.41008268572121848 -0.32677236494721501 0 -0.40729960469588677 -0.30229803823159662 0 -0.38948858925101182 -0.31184523621104121 0 -0.38797351392448293 -0.32568087391539041 0 -0.41008268572121848 -0.32677236494721501 0 -0.38948858925101182 -0.31184523621104121 0 -0.41008268572121848 -0.32677236494721501 0 -0.38948858925101182 -0.31184523621104121 0 -0.40035709127217922 -0.33926472118523682 0 -0.41008268572121848 -0.32677236494721501 0 -0.43067678219142541 -0.34169949368338881 0 -0.41008268572121848 -0.32677236494721501 0 -0.43067678219142541 -0.34169949368338881 0 -0.41008268572121848 -0.32677236494721501 0 -0.43067678219142541 -0.34169949368338881 0 -0.43699745755478858 -0.32306842198357949 0 -0.41008268572121848 -0.32677236494721501 0 -0.43699745755478858 -0.32306842198357949 0 -0.42853737653284157 -0.30510640683750923 0 -0.44508278518625372 -0.29022146997540149 0 -0.42349010575833401 -0.29031445008222201 0 -0.43331385691330632 -0.27523940154096399 0 -0.44508278518625372 -0.29022146997540149 0 -0.42853737653284157 -0.30510640683750923 0 -0.42349010575833401 -0.29031445008222201 0 -0.42349010575833401 -0.29031445008222201 0 -0.40806143334783002 -0.28210395797174442 0 -0.40729960469588677 -0.30229803823159662 0 -0.42349010575833401 -0.29031445008222201 0 -0.40806143334783002 -0.28210395797174442 0 -0.43331385691330632 -0.27523940154096399 0 -0.41008268572121848 -0.32677236494721501 0 -0.42853737653284157 -0.30510640683750923 0 -0.40729960469588677 -0.30229803823159662 0 -0.42853737653284157 -0.30510640683750923 0 -0.42349010575833401 -0.29031445008222201 0 -0.40729960469588677 -0.30229803823159662 0 -0.40729960469588677 -0.30229803823159662 0 -0.38948858925101182 -0.31184523621104121 0 -0.38280900978235383 -0.28896851440252469 0 -0.38948858925101182 -0.31184523621104121 0 -0.38280900978235383 -0.28896851440252469 0 -0.37406820646594491 -0.30170550445788319 0 -0.38948858925101182 -0.31184523621104121 0 -0.37406820646594491 -0.30170550445788319 0 -0.37492612108969181 -0.3142072071057001 0 -0.40806143334783002 -0.28210395797174442 0 -0.40729960469588677 -0.30229803823159662 0 -0.38280900978235383 -0.28896851440252469 0 -0.40806143334783002 -0.28210395797174442 0 -0.38280900978235383 -0.28896851440252469 0 -0.40806143334783002 -0.28210395797174442 0 -0.38280900978235383 -0.28896851440252469 0 -0.39871185054603869 -0.27677795884715362 0 -0.39871185054603869 -0.27677795884715362 0 -0.39860938059960438 -0.26904337260100453 0 -0.41445257499164462 -0.27057269373934362 0 -0.39860938059960438 -0.26904337260100453 0 -0.39810996818713362 -0.26144843047246158 0 -0.41445257499164462 -0.27057269373934362 0 -0.39860938059960438 -0.26904337260100453 0 -0.38962685400876068 -0.27320125552115049 0 -0.39095110290033352 -0.26488203789557568 0 -0.39871185054603869 -0.27677795884715362 0 -0.39860938059960438 -0.26904337260100453 0 -0.38962685400876068 -0.27320125552115049 0 -0.38280900978235383 -0.28896851440252469 0 -0.38962685400876068 -0.27320125552115049 0 -0.37813623778559691 -0.2757487650759663 0 -0.38280900978235383 -0.28896851440252469 0 -0.39871185054603869 -0.27677795884715362 0 -0.38962685400876068 -0.27320125552115049 0 -0.38962685400876068 -0.27320125552115049 0 -0.38159921527471208 -0.26605342888719852 0 -0.39095110290033352 -0.26488203789557568 0 -0.38962685400876068 -0.27320125552115049 0 -0.38159921527471208 -0.26605342888719852 0 -0.37813623778559691 -0.2757487650759663 0 -0.38159921527471208 -0.26605342888719852 0 -0.37813623778559691 -0.2757487650759663 0 -0.37060646000876091 -0.2656695854631318 0 -0.38095164741168391 -0.2563498561797824 0 -0.3946454953443147 -0.25111581076896788 0 -0.36635813716559879 -0.25495480734123471 0 -0.3946454953443147 -0.25111581076896788 0 -0.36635813716559879 -0.25495480734123471 0 -0.37474812662003493 -0.2480042625025452 0 -0.3946454953443147 -0.25111581076896788 0 -0.36635813716559879 -0.25495480734123471 0 -0.38159921527471208 -0.26605342888719852 0 -0.37438277794060287 -0.2608297426875657 0 -0.37060646000876091 -0.2656695854631318 0 -0.38159921527471208 -0.26605342888719852 0 -0.38095164741168391 -0.2563498561797824 0 -0.37438277794060287 -0.2608297426875657 0 -0.38159921527471208 -0.26605342888719852 0 -0.38625279174344318 -0.26037761955139449 0 -0.39095110290033352 -0.26488203789557568 0 -0.38159921527471208 -0.26605342888719852 0 -0.38095164741168391 -0.2563498561797824 0 -0.38625279174344318 -0.26037761955139449 0 -0.38625279174344318 -0.26037761955139449 0 -0.3885141392956068 -0.25526433030317458 0 -0.39212884756338268 -0.25875179694052691 0 -0.38625279174344318 -0.26037761955139449 0 -0.39095110290033352 -0.26488203789557568 0 -0.39212884756338268 -0.25875179694052691 0 -0.38095164741168391 -0.2563498561797824 0 -0.3885141392956068 -0.25526433030317458 0 -0.3946454953443147 -0.25111581076896788 0 -0.38095164741168391 -0.2563498561797824 0 -0.38625279174344318 -0.26037761955139449 0 -0.3885141392956068 -0.25526433030317458 0 -0.39660955792707342 -0.25084925955993409 0 -0.39810996818713362 -0.26144843047246158 0 -0.41445257499164462 -0.27057269373934362 0 -0.39271725459051021 -0.25513166038481522 0 -0.39558053615873617 -0.25539470352659149 0 -0.3946454953443147 -0.25111581076896788 0 -0.39558053615873617 -0.25539470352659149 0 -0.39660955792707342 -0.25084925955993409 0 -0.39810996818713362 -0.26144843047246158 0 -0.3885141392956068 -0.25526433030317458 0 -0.39271725459051021 -0.25513166038481522 0 -0.3946454953443147 -0.25111581076896788 0 -0.39660955792707342 -0.25084925955993409 0 -0.41445257499164462 -0.27057269373934362 0 -0.3885141392956068 -0.25526433030317458 0 -0.39271725459051021 -0.25513166038481522 0 -0.39212884756338268 -0.25875179694052691 0 -0.39271725459051021 -0.25513166038481522 0 -0.39558053615873617 -0.25539470352659149 0 -0.39212884756338268 -0.25875179694052691 0 -0.39558053615873617 -0.25539470352659149 0 -0.39660955792707342 -0.25084925955993409 0 -0.3946454953443147 -0.25111581076896788 0 -0.39558053615873617 -0.25539470352659149 0 -0.3946454953443147 -0.25111581076896788 0 -0.39660955792707342 -0.25084925955993409 0 -0.3946454953443147 -0.25111581076896788 0 -0.39095110290033352 -0.26488203789557568 0 -0.39212884756338268 -0.25875179694052691 0 -0.39810996818713362 -0.26144843047246158 0 -0.39558053615873617 -0.25539470352659149 0 -0.39212884756338268 -0.25875179694052691 0 -0.39810996818713362 -0.26144843047246158 0 -0.39860938059960438 -0.26904337260100453 0 -0.39095110290033352 -0.26488203789557568 0 -0.39810996818713362 -0.26144843047246158 0 -0.39660955792707342 -0.25084925955993409 0 -0.41544737069407062 -0.25762699815209289 0 -0.41305431339371562 -0.24861747250264279 0 -0.39660955792707342 -0.25084925955993409 0 -0.41544737069407062 -0.25762699815209289 0 -0.41445257499164462 -0.27057269373934362 0 -0.41544737069407062 -0.25762699815209289 0 -0.42440311049531892 -0.25168108644196319 0 -0.41305431339371562 -0.24861747250264279 0 -0.41544737069407062 -0.25762699815209289 0 -0.41445257499164462 -0.27057269373934362 0 -0.42691419670745179 -0.26223096694888948 0 -0.40806143334783002 -0.28210395797174442 0 -0.43331385691330632 -0.27523940154096399 0 -0.40806143334783002 -0.28210395797174442 0 -0.39871185054603869 -0.27677795884715362 0 -0.41445257499164462 -0.27057269373934362 0 -0.40806143334783002 -0.28210395797174442 0 -0.41445257499164462 -0.27057269373934362 0 -0.43331385691330632 -0.27523940154096399 0 -0.41445257499164462 -0.27057269373934362 0 -0.43331385691330632 -0.27523940154096399 0 -0.42691419670745179 -0.26223096694888948 0 -0.44010656732289788 -0.26085838252996851 0 -0.43331385691330632 -0.27523940154096399 0 -0.42691419670745179 -0.26223096694888948 0 -0.44010656732289788 -0.26085838252996851 0 -0.43229081015205362 -0.25417199456554668 0 -0.42691419670745179 -0.26223096694888948 0 -0.43229081015205362 -0.25417199456554668 0 -0.42440311049531892 -0.25168108644196319 0 -0.42691419670745179 -0.26223096694888948 0 -0.41544737069407062 -0.25762699815209289 0 -0.42440311049531892 -0.25168108644196319 0 -0.42691419670745179 -0.26223096694888948 0 -0.43229081015205362 -0.25417199456554668 0 -0.42440311049531892 -0.25168108644196319 0 -0.42949906886035771 -0.2463856854453515 0 -0.32283211294546338 -0.26562263696370042 0 -0.33476312054528728 -0.25708724346025841 0 -0.31524025484529539 -0.24633488066413101 0 -0.32283211294546338 -0.26562263696370042 0 -0.31524025484529539 -0.24633488066413101 0 -0.32283211294546338 -0.26562263696370042 0 -0.30458347269285779 -0.26268955606795308 0 -0.31524025484529539 -0.24633488066413101 0 -0.32283211294546338 -0.26562263696370042 0 -0.3304239710456281 -0.28491039326327122 0 -0.31157618436438339 -0.28029125651555831 0 -0.32283211294546338 -0.26562263696370042 0 -0.3304239710456281 -0.28491039326327122 0 -0.32283211294546338 -0.26562263696370042 0 -0.31157618436438339 -0.28029125651555831 0 -0.30458347269285779 -0.26268955606795308 0 -0.32283211294546338 -0.26562263696370042 0 -0.33604732664861009 -0.27455389337527719 0 -0.3304239710456281 -0.28491039326327122 0 -0.32283211294546338 -0.26562263696370042 0 -0.33526703067793778 -0.26564234312803131 0 -0.33604732664861009 -0.27455389337527719 0 -0.33604732664861009 -0.27455389337527719 0 -0.3369357948806076 -0.28144400949699699 0 -0.3304239710456281 -0.28491039326327122 0 -0.33604732664861009 -0.27455389337527719 0 -0.34671445835268849 -0.26642492479899921 0 -0.3439851661365918 -0.28003850931616381 0 -0.33604732664861009 -0.27455389337527719 0 -0.3439851661365918 -0.28003850931616381 0 -0.3369357948806076 -0.28144400949699699 0 -0.33526703067793778 -0.26564234312803131 0 -0.33604732664861009 -0.27455389337527719 0 -0.34671445835268849 -0.26642492479899921 0 -0.33526703067793778 -0.26564234312803131 0 -0.33476312054528728 -0.25708724346025841 0 -0.34671445835268849 -0.26642492479899921 0 -0.33476312054528728 -0.25708724346025841 0 -0.34801697513192281 -0.25390758607183572 0 -0.34671445835268849 -0.26642492479899921 0 -0.32283211294546338 -0.26562263696370042 0 -0.33526703067793778 -0.26564234312803131 0 -0.33476312054528728 -0.25708724346025841 0 -0.33476312054528728 -0.25708724346025841 0 -0.34801697513192281 -0.25390758607183572 0 -0.33542008743563279 -0.2451751824225199 0 -0.34801697513192281 -0.25390758607183572 0 -0.36075725608683479 -0.25252399222535399 0 -0.35559992002597007 -0.2440154841809076 0 -0.34801697513192281 -0.25390758607183572 0 -0.36075725608683479 -0.25252399222535399 0 -0.34671445835268849 -0.26642492479899921 0 -0.36075725608683479 -0.25252399222535399 0 -0.36635813716559879 -0.25495480734123471 0 -0.37060646000876091 -0.2656695854631318 0 -0.36075725608683479 -0.25252399222535399 0 -0.36635813716559879 -0.25495480734123471 0 -0.36512292251027972 -0.2486019884582186 0 -0.36635813716559879 -0.25495480734123471 0 -0.37438277794060287 -0.2608297426875657 0 -0.37060646000876091 -0.2656695854631318 0 -0.38095164741168391 -0.2563498561797824 0 -0.36635813716559879 -0.25495480734123471 0 -0.37438277794060287 -0.2608297426875657 0 -0.36635813716559879 -0.25495480734123471 0 -0.37474812662003493 -0.2480042625025452 0 -0.36512292251027972 -0.2486019884582186 0 -0.36075725608683479 -0.25252399222535399 0 -0.36129152276450049 -0.28201018559850127 0 -0.36075725608683479 -0.25252399222535399 0 -0.37060646000876091 -0.2656695854631318 0 -0.36129152276450049 -0.28201018559850127 0 -0.37813623778559691 -0.2757487650759663 0 -0.37060646000876091 -0.2656695854631318 0 -0.36129152276450049 -0.28201018559850127 0 -0.36075725608683479 -0.25252399222535399 0 -0.34671445835268849 -0.26642492479899921 0 -0.36129152276450049 -0.28201018559850127 0 -0.34671445835268849 -0.26642492479899921 0 -0.3439851661365918 -0.28003850931616381 0 -0.36129152276450049 -0.28201018559850127 0 -0.34772555594805649 -0.29036259723189622 0 -0.36129152276450049 -0.28201018559850127 0 -0.36182578944216631 -0.31149637897164861 0 -0.3439851661365918 -0.28003850931616381 0 -0.34772555594805649 -0.29036259723189622 0 -0.36129152276450049 -0.28201018559850127 0 -0.34772555594805649 -0.29036259723189622 0 -0.34682914589746999 -0.30153795677248801 0 -0.34101992379458718 -0.29455448865626349 0 -0.38280900978235383 -0.28896851440252469 0 -0.37813623778559691 -0.2757487650759663 0 -0.36129152276450049 -0.28201018559850127 0 -0.38280900978235383 -0.28896851440252469 0 -0.36129152276450049 -0.28201018559850127 0 -0.37406820646594491 -0.30170550445788319 0 -0.36129152276450049 -0.28201018559850127 0 -0.36182578944216631 -0.31149637897164861 0 -0.36129152276450049 -0.28201018559850127 0 -0.37406820646594491 -0.30170550445788319 0 -0.36182578944216631 -0.31149637897164861 0 -0.37406820646594491 -0.30170550445788319 0 -0.36182578944216631 -0.31149637897164861 0 -0.37492612108969181 -0.3142072071057001 0 -0.34772555594805649 -0.29036259723189622 0 -0.36182578944216631 -0.31149637897164861 0 -0.34682914589746999 -0.30153795677248801 0 -0.36182578944216631 -0.31149637897164861 0 -0.34682914589746999 -0.30153795677248801 0 -0.35014837504727508 -0.31097185002676653 0 -0.34682914589746999 -0.30153795677248801 0 -0.35014837504727508 -0.31097185002676653 0 -0.34133000127675289 -0.3117143833911511 0 -0.34133000127675289 -0.3117143833911511 0 -0.33223827764122182 -0.30004415858739392 0 -0.32884587052191733 -0.31289253674887108 0 -0.34682914589746999 -0.30153795677248801 0 -0.33223827764122182 -0.30004415858739392 0 -0.34101992379458718 -0.29455448865626349 0 -0.34682914589746999 -0.30153795677248801 0 -0.34133000127675289 -0.3117143833911511 0 -0.33223827764122182 -0.30004415858739392 0 -0.33223827764122182 -0.30004415858739392 0 -0.33728671569160029 -0.28627324203327592 0 -0.3152297866469731 -0.29827970437485918 0 -0.33223827764122182 -0.30004415858739392 0 -0.34101992379458718 -0.29455448865626349 0 -0.33728671569160029 -0.28627324203327592 0 -0.34772555594805649 -0.29036259723189622 0 -0.34101992379458718 -0.29455448865626349 0 -0.33728671569160029 -0.28627324203327592 0 -0.3439851661365918 -0.28003850931616381 0 -0.34772555594805649 -0.29036259723189622 0 -0.33728671569160029 -0.28627324203327592 0 -0.3439851661365918 -0.28003850931616381 0 -0.33728671569160029 -0.28627324203327592 0 -0.3369357948806076 -0.28144400949699699 0 -0.33728671569160029 -0.28627324203327592 0 -0.3369357948806076 -0.28144400949699699 0 -0.3304239710456281 -0.28491039326327122 0 -0.33728671569160029 -0.28627324203327592 0 -0.3304239710456281 -0.28491039326327122 0 -0.3152297866469731 -0.29827970437485918 0 -0.33728671569160029 -0.28627324203327592 0 -0.3152297866469731 -0.29827970437485918 0 -0.3304239710456281 -0.28491039326327122 0 -0.3152297866469731 -0.29827970437485918 0 -0.31157618436438339 -0.28029125651555831 0 -0.3152297866469731 -0.29827970437485918 0 -0.31422413592869902 -0.31743272776447279 0 -0.32884587052191733 -0.31289253674887108 0 -0.33223827764122182 -0.30004415858739392 0 -0.3152297866469731 -0.29827970437485918 0 -0.32884587052191733 -0.31289253674887108 0 -0.31422413592869902 -0.31743272776447279 0 -0.31927989166815879 -0.33670294927020528 0 -0.32853347472783639 -0.32568834179478451 0 -0.31422413592869902 -0.31743272776447279 0 -0.32853347472783639 -0.32568834179478451 0 -0.32884587052191733 -0.31289253674887108 0 -0.31927989166815879 -0.33670294927020528 0 -0.33456050343839111 -0.33560920325654842 0 -0.32892688952284788 -0.34630243927364579 0 -0.31927989166815879 -0.33670294927020528 0 -0.33456050343839111 -0.33560920325654842 0 -0.32853347472783639 -0.32568834179478451 0 -0.33456050343839111 -0.33560920325654842 0 -0.33929897840474083 -0.32319258203362711 0 -0.32853347472783639 -0.32568834179478451 0 -0.33456050343839111 -0.33560920325654842 0 -0.34063501355090869 -0.34693830561089889 0 -0.32892688952284788 -0.34630243927364579 0 -0.33456050343839111 -0.33560920325654842 0 -0.34504188372250172 -0.33592722246308898 0 -0.34063501355090869 -0.34693830561089889 0 -0.33456050343839111 -0.33560920325654842 0 -0.33929897840474083 -0.32319258203362711 0 -0.34504188372250172 -0.33592722246308898 0 -0.33929897840474083 -0.32319258203362711 0 -0.32853347472783639 -0.32568834179478451 0 -0.32884587052191733 -0.31289253674887108 0 -0.34133000127675289 -0.3117143833911511 0 -0.33929897840474083 -0.32319258203362711 0 -0.35060856357271131 -0.31913868097177861 0 -0.34133000127675289 -0.3117143833911511 0 -0.33929897840474083 -0.32319258203362711 0 -0.32884587052191733 -0.31289253674887108 0 -0.36182578944216631 -0.31149637897164861 0 -0.35060856357271131 -0.31913868097177861 0 -0.36236005611983202 -0.3409825723447959 0 -0.35014837504727508 -0.31097185002676653 0 -0.34133000127675289 -0.3117143833911511 0 -0.35060856357271131 -0.31913868097177861 0 -0.33929897840474083 -0.32319258203362711 0 -0.35060856357271131 -0.31913868097177861 0 -0.34504188372250172 -0.33592722246308898 0 -0.36182578944216631 -0.31149637897164861 0 -0.35014837504727508 -0.31097185002676653 0 -0.35060856357271131 -0.31913868097177861 0 -0.36182578944216631 -0.31149637897164861 0 -0.36236005611983202 -0.3409825723447959 0 -0.36182578944216631 -0.31149637897164861 0 -0.37059884822804079 -0.32608535496615632 0 -0.36236005611983202 -0.3409825723447959 0 -0.36182578944216631 -0.31149637897164861 0 -0.37059884822804079 -0.32608535496615632 0 -0.37492612108969181 -0.3142072071057001 0 -0.37245731417969702 -0.33680980758053142 0 -0.36236005611983202 -0.3409825723447959 0 -0.37448260438615971 -0.34426094393418077 0 -0.37059884822804079 -0.32608535496615632 0 -0.37245731417969702 -0.33680980758053142 0 -0.36236005611983202 -0.3409825723447959 0 -0.35060856357271131 -0.31913868097177861 0 -0.35468203150014871 -0.34275916091433012 0 -0.35060856357271131 -0.31913868097177861 0 -0.35468203150014871 -0.34275916091433012 0 -0.34504188372250172 -0.33592722246308898 0 -0.35060856357271131 -0.31913868097177861 0 -0.36236005611983202 -0.3409825723447959 0 -0.35468203150014871 -0.34275916091433012 0 -0.34504188372250172 -0.33592722246308898 0 -0.34730753831272593 -0.34538685922746698 0 -0.34063501355090869 -0.34693830561089889 0 -0.35468203150014871 -0.34275916091433012 0 -0.34504188372250172 -0.33592722246308898 0 -0.34730753831272593 -0.34538685922746698 0 -0.34730753831272593 -0.34538685922746698 0 -0.34887122447734481 -0.35592274792154999 0 -0.34063501355090869 -0.34693830561089889 0 -0.35468203150014871 -0.34275916091433012 0 -0.34730753831272593 -0.34538685922746698 0 -0.34887122447734481 -0.35592274792154999 0 -0.35468203150014871 -0.34275916091433012 0 -0.34887122447734481 -0.35592274792154999 0 -0.358755499427586 -0.36637964085688163 0 -0.36236005611983202 -0.3409825723447959 0 -0.35468203150014871 -0.34275916091433012 0 -0.358755499427586 -0.36637964085688163 0 -0.35468203150014871 -0.34275916091433012 0 -0.358755499427586 -0.36637964085688163 0 -0.36236005611983202 -0.3409825723447959 0 -0.36289432279749773 -0.37046876571794318 0 -0.358755499427586 -0.36637964085688163 0 -0.36236005611983202 -0.3409825723447959 0 -0.36843861381102688 -0.35291879288046252 0 -0.36289432279749773 -0.37046876571794318 0 -0.36236005611983202 -0.3409825723447959 0 -0.36289432279749773 -0.37046876571794318 0 -0.36236005611983202 -0.3409825723447959 0 -0.36843861381102688 -0.35291879288046252 0 -0.37448260438615971 -0.34426094393418077 0 -0.37401747194061841 -0.35596288952493021 0 -0.36843861381102688 -0.35291879288046252 0 -0.37448260438615971 -0.34426094393418077 0 -0.37401747194061841 -0.35596288952493021 0 -0.36843861381102688 -0.35291879288046252 0 -0.36289432279749773 -0.37046876571794318 0 -0.37785856937865758 -0.37355414846445112 0 -0.37003119626130082 -0.37369109823104057 0 -0.37296559159509202 -0.36681209433909601 0 -0.37003119626130082 -0.37369109823104057 0 -0.37296559159509202 -0.36681209433909601 0 -0.36289432279749773 -0.37046876571794318 0 -0.37401747194061841 -0.35596288952493021 0 -0.37296559159509202 -0.36681209433909601 0 -0.36289432279749773 -0.37046876571794318 0 -0.36289432279749773 -0.37046876571794318 0 -0.358755499427586 -0.36637964085688163 0 -0.36477376446429832 -0.37686364123407801 0 -0.37003119626130082 -0.37369109823104057 0 -0.36289432279749773 -0.37046876571794318 0 -0.36477376446429832 -0.37686364123407801 0 -0.358755499427586 -0.36637964085688163 0 -0.35097894450571637 -0.37083881405636682 0 -0.35437395489609541 -0.37929674451861578 0 -0.358755499427586 -0.36637964085688163 0 -0.34839114446565489 -0.36492314902673528 0 -0.35097894450571637 -0.37083881405636682 0 -0.34887122447734481 -0.35592274792154999 0 -0.358755499427586 -0.36637964085688163 0 -0.34839114446565489 -0.36492314902673528 0 -0.34887122447734481 -0.35592274792154999 0 -0.34839114446565489 -0.36492314902673528 0 -0.33493578144888347 -0.35887016711687841 0 -0.34839114446565489 -0.36492314902673528 0 -0.35097894450571637 -0.37083881405636682 0 -0.34239517923352952 -0.37275572182323441 0 -0.35097894450571637 -0.37083881405636682 0 -0.34239517923352952 -0.37275572182323441 0 -0.35437395489609541 -0.37929674451861578 0 -0.34239517923352952 -0.37275572182323441 0 -0.33493578144888347 -0.35887016711687841 0 -0.31729017267945342 -0.37681960929470648 0 -0.34839114446565489 -0.36492314902673528 0 -0.34239517923352952 -0.37275572182323441 0 -0.33493578144888347 -0.35887016711687841 0 -0.34887122447734481 -0.35592274792154999 0 -0.34063501355090869 -0.34693830561089889 0 -0.33493578144888347 -0.35887016711687841 0 -0.34063501355090869 -0.34693830561089889 0 -0.32892688952284788 -0.34630243927364579 0 -0.33493578144888347 -0.35887016711687841 0 -0.32892688952284788 -0.34630243927364579 0 -0.33493578144888347 -0.35887016711687841 0 -0.31516358625109059 -0.35553384982399189 0 -0.31927989166815879 -0.33670294927020528 0 -0.31516358625109059 -0.35553384982399189 0 -0.30430281764213141 -0.34502201071979538 0 -0.31927989166815879 -0.33670294927020528 0 -0.32892688952284788 -0.34630243927364579 0 -0.31516358625109059 -0.35553384982399189 0 -0.33493578144888347 -0.35887016711687841 0 -0.31516358625109059 -0.35553384982399189 0 -0.31729017267945342 -0.37681960929470648 0 -0.31516358625109059 -0.35553384982399189 0 -0.29425011618554131 -0.36246143415289889 0 -0.31729017267945342 -0.37681960929470648 0 -0.29425011618554131 -0.36246143415289889 0 -0.31729017267945342 -0.37681960929470648 0 -0.29425011618554131 -0.36246143415289889 0 -0.31729017267945342 -0.37681960929470648 0 -0.29953903879506422 -0.38050833176702498 0 -0.31516358625109059 -0.35553384982399189 0 -0.30430281764213141 -0.34502201071979538 0 -0.29425011618554131 -0.36246143415289889 0 -0.29425011618554131 -0.36246143415289889 0 -0.2712100596916297 -0.34810325901109102 0 -0.29079013738089082 -0.34291013415811739 0 -0.30430281764213141 -0.34502201071979538 0 -0.29425011618554131 -0.36246143415289889 0 -0.29079013738089082 -0.34291013415811739 0 -0.29425011618554131 -0.36246143415289889 0 -0.2712100596916297 -0.34810325901109102 0 -0.29425011618554131 -0.36246143415289889 0 -0.27871097237567111 -0.37336117949457481 0 -0.29953903879506422 -0.38050833176702498 0 -0.29425011618554131 -0.36246143415289889 0 -0.27871097237567111 -0.37336117949457481 0 -0.2712100596916297 -0.34810325901109102 0 -0.27871097237567111 -0.37336117949457481 0 -0.26021245460069309 -0.36910979395736082 0 -0.2712100596916297 -0.34810325901109102 0 -0.26021245460069309 -0.36910979395736082 0 -0.25233789448144839 -0.34879846937914188 0 -0.24780058098437621 -0.36906566620035891 0 -0.26021245460069309 -0.36910979395736082 0 -0.25233789448144839 -0.34879846937914188 0 -0.2712100596916297 -0.34810325901109102 0 -0.26021245460069309 -0.36910979395736082 0 -0.2712100596916297 -0.34810325901109102 0 -0.2712100596916297 -0.34810325901109102 0 -0.28362270653440003 -0.32439385159721051 0 -0.2712100596916297 -0.34810325901109102 0 -0.27111592855771849 -0.32229262905802603 0 -0.28362270653440003 -0.32439385159721051 0 -0.25233789448144839 -0.34879846937914188 0 -0.2712100596916297 -0.34810325901109102 0 -0.2490589995130878 -0.33429909139960301 0 -0.27111592855771849 -0.32229262905802603 0 -0.2490589995130878 -0.33429909139960301 0 -0.2712100596916297 -0.34810325901109102 0 -0.2490589995130878 -0.33429909139960301 0 -0.2712100596916297 -0.34810325901109102 0 -0.27111592855771849 -0.32229262905802603 0 -0.2490589995130878 -0.33429909139960301 0 -0.25353646602606589 -0.3209638071760379 0 -0.26211628043869101 -0.31081584409556701 0 -0.2431357343990431 -0.30735227651364311 0 -0.25353646602606589 -0.3209638071760379 0 -0.27111592855771849 -0.32229262905802603 0 -0.2490589995130878 -0.33429909139960301 0 -0.25353646602606589 -0.3209638071760379 0 -0.27111592855771849 -0.32229262905802603 0 -0.26211628043869101 -0.31081584409556701 0 -0.27111592855771849 -0.32229262905802603 0 -0.27661794251674038 -0.31460699177302298 0 -0.26211628043869101 -0.31081584409556701 0 -0.27111592855771849 -0.32229262905802603 0 -0.27661794251674038 -0.31460699177302298 0 -0.29317285760234579 -0.3102861667164426 0 -0.28362270653440003 -0.32439385159721051 0 -0.30203035672497541 -0.32750168619376319 0 -0.29317285760234579 -0.3102861667164426 0 -0.27111592855771849 -0.32229262905802603 0 -0.29317285760234579 -0.3102861667164426 0 -0.27111592855771849 -0.32229262905802603 0 -0.28362270653440003 -0.32439385159721051 0 -0.29317285760234579 -0.3102861667164426 0 -0.2712100596916297 -0.34810325901109102 0 -0.28362270653440003 -0.32439385159721051 0 -0.29079013738089082 -0.34291013415811739 0 -0.28362270653440003 -0.32439385159721051 0 -0.29079013738089082 -0.34291013415811739 0 -0.30203035672497541 -0.32750168619376319 0 -0.30430281764213141 -0.34502201071979538 0 -0.29079013738089082 -0.34291013415811739 0 -0.30203035672497541 -0.32750168619376319 0 -0.31927989166815879 -0.33670294927020528 0 -0.30430281764213141 -0.34502201071979538 0 -0.30203035672497541 -0.32750168619376319 0 -0.31422413592869902 -0.31743272776447279 0 -0.31927989166815879 -0.33670294927020528 0 -0.30203035672497541 -0.32750168619376319 0 -0.31422413592869902 -0.31743272776447279 0 -0.30203035672497541 -0.32750168619376319 0 -0.29317285760234579 -0.3102861667164426 0 -0.3152297866469731 -0.29827970437485918 0 -0.29613246210248317 -0.29180249802625241 0 -0.29317285760234579 -0.3102861667164426 0 -0.3152297866469731 -0.29827970437485918 0 -0.29317285760234579 -0.3102861667164426 0 -0.3152297866469731 -0.29827970437485918 0 -0.31422413592869902 -0.31743272776447279 0 -0.29317285760234579 -0.3102861667164426 0 -0.29613246210248317 -0.29180249802625241 0 -0.29332664111729712 -0.27684364447900273 0 -0.31157618436438339 -0.28029125651555831 0 -0.3152297866469731 -0.29827970437485918 0 -0.29613246210248317 -0.29180249802625241 0 -0.31157618436438339 -0.28029125651555831 0 -0.29613246210248317 -0.29180249802625241 0 -0.27902704863103212 -0.28431712583216789 0 -0.29332664111729712 -0.27684364447900273 0 -0.29613246210248317 -0.29180249802625241 0 -0.2832165339691235 -0.29970507234876209 0 -0.27902704863103212 -0.28431712583216789 0 -0.27661794251674038 -0.31460699177302298 0 -0.29317285760234579 -0.3102861667164426 0 -0.2832165339691235 -0.29970507234876209 0 -0.29613246210248317 -0.29180249802625241 0 -0.29317285760234579 -0.3102861667164426 0 -0.2832165339691235 -0.29970507234876209 0 -0.27661794251674038 -0.31460699177302298 0 -0.2832165339691235 -0.29970507234876209 0 -0.26740689868424322 -0.294207829800534 0 -0.27661794251674038 -0.31460699177302298 0 -0.26740689868424322 -0.294207829800534 0 -0.27661794251674038 -0.31460699177302298 0 -0.26211628043869101 -0.31081584409556701 0 -0.26740689868424322 -0.294207829800534 0 -0.26211628043869101 -0.31081584409556701 0 -0.26740689868424322 -0.294207829800534 0 -0.2431357343990431 -0.30735227651364311 0 -0.26740689868424322 -0.294207829800534 0 -0.24401608157629889 -0.284645358213933 0 -0.2431357343990431 -0.30735227651364311 0 -0.26740689868424322 -0.294207829800534 0 -0.25819585485174579 -0.27380866782804492 0 -0.24401608157629889 -0.284645358213933 0 -0.26740689868424322 -0.294207829800534 0 -0.25819585485174579 -0.27380866782804492 0 -0.27902704863103212 -0.28431712583216789 0 -0.26740689868424322 -0.294207829800534 0 -0.25819585485174579 -0.27380866782804492 0 -0.2832165339691235 -0.29970507234876209 0 -0.27902704863103212 -0.28431712583216789 0 -0.26740689868424322 -0.294207829800534 0 -0.27902704863103212 -0.28431712583216789 0 -0.27588390106130017 -0.26953504251041199 0 -0.25819585485174579 -0.27380866782804492 0 -0.27588390106130017 -0.26953504251041199 0 -0.25819585485174579 -0.27380866782804492 0 -0.2611968910486121 -0.25947921393684831 0 -0.25819585485174579 -0.27380866782804492 0 -0.24898481101924899 -0.25340950585555583 0 -0.24489642875355369 -0.26193843991422289 0 -0.25059524740695288 -0.25004991155547401 0 -0.2611968910486121 -0.25947921393684831 0 -0.27214358321973381 -0.24881156792502829 0 -0.25819585485174579 -0.27380866782804492 0 -0.24898481101924899 -0.25340950585555583 0 -0.25819585485174579 -0.27380866782804492 0 -0.2611968910486121 -0.25947921393684831 0 -0.24898481101924899 -0.25340950585555583 0 -0.25059524740695288 -0.25004991155547401 0 -0.2611968910486121 -0.25947921393684831 0 -0.24898481101924899 -0.25340950585555583 0 -0.27588390106130017 -0.26953504251041199 0 -0.2611968910486121 -0.25947921393684831 0 -0.27214358321973381 -0.24881156792502829 0 -0.27588390106130017 -0.26953504251041199 0 -0.28826843814776892 -0.26152109157517678 0 -0.27214358321973381 -0.24881156792502829 0 -0.28826843814776892 -0.26152109157517678 0 -0.29369191903251463 -0.2475732242945802 0 -0.27214358321973381 -0.24881156792502829 0 -0.28826843814776892 -0.26152109157517678 0 -0.30458347269285779 -0.26268955606795308 0 -0.29369191903251463 -0.2475732242945802 0 -0.27902704863103212 -0.28431712583216789 0 -0.27588390106130017 -0.26953504251041199 0 -0.29332664111729712 -0.27684364447900273 0 -0.27588390106130017 -0.26953504251041199 0 -0.28826843814776892 -0.26152109157517678 0 -0.29332664111729712 -0.27684364447900273 0 -0.28826843814776892 -0.26152109157517678 0 -0.29332664111729712 -0.27684364447900273 0 -0.30458347269285779 -0.26268955606795308 0 -0.29332664111729712 -0.27684364447900273 0 -0.31157618436438339 -0.28029125651555831 0 -0.30458347269285779 -0.26268955606795308 0 -0.30458347269285779 -0.26268955606795308 0 -0.29369191903251463 -0.2475732242945802 0 -0.31524025484529539 -0.24633488066413101 0 -0.33947692408993702 -0.45053900051504248 0 -0.32778880730845378 -0.47199473556850441 0 -0.35127740522716289 -0.4624703186731623 0 -0.33947692408993702 -0.45053900051504248 0 -0.31953952714470613 -0.45844922002762523 0 -0.32778880730845378 -0.47199473556850441 0 -0.33947692408993702 -0.45053900051504248 0 -0.32294378664178652 -0.44509729717026469 0 -0.33264123820424352 -0.43499253865892268 0 -0.33947692408993702 -0.45053900051504248 0 -0.34718654969370999 -0.43624756140549131 0 -0.33264123820424352 -0.43499253865892268 0 -0.32294378664178652 -0.44509729717026469 0 -0.31659593990825941 -0.43140708835283181 0 -0.30928009124943001 -0.44728071794402419 0 -0.33947692408993702 -0.45053900051504248 0 -0.32294378664178652 -0.44509729717026469 0 -0.31953952714470613 -0.45844922002762523 0 -0.32294378664178652 -0.44509729717026469 0 -0.31953952714470613 -0.45844922002762523 0 -0.30928009124943001 -0.44728071794402419 0 -0.31953952714470613 -0.45844922002762523 0 -0.32778880730845378 -0.47199473556850441 0 -0.30254264328530178 -0.46932916331849711 0 -0.32778880730845378 -0.47199473556850441 0 -0.31212339940803158 -0.5 0 -0.30254264328530178 -0.46932916331849711 0 -0.32778880730845378 -0.47199473556850441 0 -0.34064312605010522 -0.5 0 -0.31212339940803158 -0.5 0 -0.32778880730845378 -0.47199473556850441 0 -0.34447798005218327 -0.47834162122385621 0 -0.35127740522716289 -0.4624703186731623 0 -0.32778880730845378 -0.47199473556850441 0 -0.34064312605010522 -0.5 0 -0.34447798005218327 -0.47834162122385621 0 -0.34447798005218327 -0.47834162122385621 0 -0.359564090080012 -0.48132386746754241 0 -0.35127740522716289 -0.4624703186731623 0 -0.34064312605010522 -0.5 0 -0.34447798005218327 -0.47834162122385621 0 -0.359564090080012 -0.48132386746754241 0 -0.34064312605010522 -0.5 0 -0.36916285269217869 -0.5 0 -0.359564090080012 -0.48132386746754241 0 -0.37641822055265189 -0.46879899397253638 0 -0.359564090080012 -0.48132386746754241 0 -0.35127740522716289 -0.4624703186731623 0 -0.37641822055265189 -0.46879899397253638 0 -0.36916285269217869 -0.5 0 -0.359564090080012 -0.48132386746754241 0 -0.37641822055265189 -0.46879899397253638 0 -0.36065266518752542 -0.45176826346095961 0 -0.37270893307682018 -0.44729025694925029 0 -0.37641822055265189 -0.46879899397253638 0 -0.37270893307682018 -0.44729025694925029 0 -0.37641822055265189 -0.46879899397253638 0 -0.35127740522716289 -0.4624703186731623 0 -0.36065266518752542 -0.45176826346095961 0 -0.35127740522716289 -0.4624703186731623 0 -0.35192384534367999 -0.44786557832309892 0 -0.36065266518752542 -0.45176826346095961 0 -0.33947692408993702 -0.45053900051504248 0 -0.35127740522716289 -0.4624703186731623 0 -0.35192384534367999 -0.44786557832309892 0 -0.33947692408993702 -0.45053900051504248 0 -0.35192384534367999 -0.44786557832309892 0 -0.34718654969370999 -0.43624756140549131 0 -0.35192384534367999 -0.44786557832309892 0 -0.36102568252006489 -0.43830274756083881 0 -0.36065266518752542 -0.45176826346095961 0 -0.35192384534367999 -0.44786557832309892 0 -0.36102568252006489 -0.43830274756083881 0 -0.34718654969370999 -0.43624756140549131 0 -0.36102568252006489 -0.43830274756083881 0 -0.36065266518752542 -0.45176826346095961 0 -0.37270893307682018 -0.44729025694925029 0 -0.36102568252006489 -0.43830274756083881 0 -0.37270893307682018 -0.44729025694925029 0 -0.36899964560098858 -0.42578151992596419 0 -0.37270893307682018 -0.44729025694925029 0 -0.36899964560098858 -0.42578151992596419 0 -0.36102568252006489 -0.43830274756083881 0 -0.36899964560098858 -0.42578151992596419 0 -0.35562956941671131 -0.42754794560063653 0 -0.36899964560098858 -0.42578151992596419 0 -0.36286286666808859 -0.41781926079392923 0 -0.35562956941671131 -0.42754794560063653 0 -0.36899964560098858 -0.42578151992596419 0 -0.36576562911041288 -0.40702869726715851 0 -0.36286286666808859 -0.41781926079392923 0 -0.36899964560098858 -0.42578151992596419 0 -0.36576562911041288 -0.40702869726715851 0 -0.38700330194845922 -0.4202636572722947 0 -0.36899964560098858 -0.42578151992596419 0 -0.36576562911041288 -0.40702869726715851 0 -0.36576562911041288 -0.40702869726715851 0 -0.36286286666808859 -0.41781926079392923 0 -0.34980184849645701 -0.40938764120259918 0 -0.36899964560098858 -0.42578151992596419 0 -0.36286286666808859 -0.41781926079392923 0 -0.36286286666808859 -0.41781926079392923 0 -0.34980184849645701 -0.40938764120259918 0 -0.35048864947679492 -0.41947815680734452 0 -0.36286286666808859 -0.41781926079392923 0 -0.35048864947679492 -0.41947815680734452 0 -0.35562956941671131 -0.42754794560063653 0 -0.34980184849645701 -0.40938764120259918 0 -0.35048864947679492 -0.41947815680734452 0 -0.3419802294323292 -0.4160898829575122 0 -0.35048864947679492 -0.41947815680734452 0 -0.34216873337038811 -0.4265460534820455 0 -0.3419802294323292 -0.4160898829575122 0 -0.35048864947679492 -0.41947815680734452 0 -0.35562956941671131 -0.42754794560063653 0 -0.34216873337038811 -0.4265460534820455 0 -0.34718654969370999 -0.43624756140549131 0 -0.35562956941671131 -0.42754794560063653 0 -0.34216873337038811 -0.4265460534820455 0 -0.36102568252006489 -0.43830274756083881 0 -0.34718654969370999 -0.43624756140549131 0 -0.35562956941671131 -0.42754794560063653 0 -0.358755499427586 -0.36637964085688163 0 -0.36477376446429832 -0.37686364123407801 0 -0.36282896735502318 -0.39000012079943303 0 -0.358755499427586 -0.36637964085688163 0 -0.36282896735502318 -0.39000012079943303 0 -0.36477376446429832 -0.37686364123407801 0 -0.37166373307095851 -0.38075684139963512 0 -0.36282896735502318 -0.39000012079943303 0 -0.37785856937865758 -0.37355414846445112 0 -0.37003119626130082 -0.37369109823104057 0 -0.37166373307095851 -0.38075684139963512 0 -0.37003119626130082 -0.37369109823104057 0 -0.36477376446429832 -0.37686364123407801 0 -0.37166373307095851 -0.38075684139963512 0 -0.3755243739538135 -0.38933559825649589 0 -0.36282896735502318 -0.39000012079943303 0 -0.3755243739538135 -0.38933559825649589 0 -0.37166373307095851 -0.38075684139963512 0 -0.36282896735502318 -0.39000012079943303 0 -0.36576562911041288 -0.40702869726715851 0 -0.36282896735502318 -0.39000012079943303 0 -0.36576562911041288 -0.40702869726715851 0 -0.36282896735502318 -0.39000012079943303 0 -0.37260182642857559 -0.39831487258102538 0 -0.3755243739538135 -0.38933559825649589 0 -0.36282896735502318 -0.39000012079943303 0 -0.37260182642857559 -0.39831487258102538 0 -0.38092085950929938 -0.40584578046397218 0 -0.36576562911041288 -0.40702869726715851 0 -0.37260182642857559 -0.39831487258102538 0 -0.36576562911041288 -0.40702869726715851 0 -0.36282896735502318 -0.39000012079943303 0 -0.34033022917336508 -0.3911777844365143 0 -0.36576562911041288 -0.40702869726715851 0 -0.34033022917336508 -0.3911777844365143 0 -0.36576562911041288 -0.40702869726715851 0 -0.34980184849645701 -0.40938764120259918 0 -0.34033022917336508 -0.3911777844365143 0 -0.36282896735502318 -0.39000012079943303 0 -0.35437395489609541 -0.37929674451861578 0 -0.34033022917336508 -0.3911777844365143 0 -0.36282896735502318 -0.39000012079943303 0 -0.34033022917336508 -0.3911777844365143 0 -0.358755499427586 -0.36637964085688163 0 -0.36282896735502318 -0.39000012079943303 0 -0.35437395489609541 -0.37929674451861578 0 -0.34239517923352952 -0.37275572182323441 0 -0.35437395489609541 -0.37929674451861578 0 -0.34033022917336508 -0.3911777844365143 0 -0.34033022917336508 -0.3911777844365143 0 -0.31729017267945342 -0.37681960929470648 0 -0.34239517923352952 -0.37275572182323441 0 -0.34033022917336508 -0.3911777844365143 0 -0.31729017267945342 -0.37681960929470648 0 -0.34980184849645701 -0.40938764120259918 0 -0.34033022917336508 -0.3911777844365143 0 -0.3333434742467295 -0.40564363852146451 0 -0.34033022917336508 -0.3911777844365143 0 -0.3333434742467295 -0.40564363852146451 0 -0.31472092386701139 -0.39251826617316571 0 -0.34033022917336508 -0.3911777844365143 0 -0.31472092386701139 -0.39251826617316571 0 -0.31472092386701139 -0.39251826617316571 0 -0.31949109241072271 -0.40695340025340082 0 -0.30768914942794112 -0.41316184033381442 0 -0.3333434742467295 -0.40564363852146451 0 -0.31472092386701139 -0.39251826617316571 0 -0.31949109241072271 -0.40695340025340082 0 -0.34033022917336508 -0.3911777844365143 0 -0.31472092386701139 -0.39251826617316571 0 -0.31729017267945342 -0.37681960929470648 0 -0.33264123820424352 -0.43499253865892268 0 -0.34216873337038811 -0.4265460534820455 0 -0.32730695913358948 -0.41899907705510958 0 -0.34718654969370999 -0.43624756140549131 0 -0.33264123820424352 -0.43499253865892268 0 -0.34216873337038811 -0.4265460534820455 0 -0.34980184849645701 -0.40938764120259918 0 -0.3333434742467295 -0.40564363852146451 0 -0.3419802294323292 -0.4160898829575122 0 -0.34216873337038811 -0.4265460534820455 0 -0.3419802294323292 -0.4160898829575122 0 -0.32730695913358948 -0.41899907705510958 0 -0.3333434742467295 -0.40564363852146451 0 -0.3419802294323292 -0.4160898829575122 0 -0.32730695913358948 -0.41899907705510958 0 -0.32730695913358948 -0.41899907705510958 0 -0.31949109241072271 -0.40695340025340082 0 -0.30768914942794112 -0.41316184033381442 0 -0.32730695913358948 -0.41899907705510958 0 -0.31659593990825941 -0.43140708835283181 0 -0.30768914942794112 -0.41316184033381442 0 -0.3333434742467295 -0.40564363852146451 0 -0.32730695913358948 -0.41899907705510958 0 -0.31949109241072271 -0.40695340025340082 0 -0.33264123820424352 -0.43499253865892268 0 -0.32730695913358948 -0.41899907705510958 0 -0.31659593990825941 -0.43140708835283181 0 -0.32294378664178652 -0.44509729717026469 0 -0.33264123820424352 -0.43499253865892268 0 -0.31659593990825941 -0.43140708835283181 0 -0.31659593990825941 -0.43140708835283181 0 -0.30116910120875479 -0.4327365399191711 0 -0.30928009124943001 -0.44728071794402419 0 -0.30116910120875479 -0.4327365399191711 0 -0.30768914942794112 -0.41316184033381442 0 -0.29428959114817571 -0.42058968508403138 0 -0.31659593990825941 -0.43140708835283181 0 -0.30116910120875479 -0.4327365399191711 0 -0.30768914942794112 -0.41316184033381442 0 -0.30768914942794112 -0.41316184033381442 0 -0.29428959114817571 -0.42058968508403138 0 -0.28911161856065759 -0.39385874790981679 0 -0.29428959114817571 -0.42058968508403138 0 -0.28911161856065759 -0.39385874790981679 0 -0.28055419517705099 -0.41809716856934698 0 -0.29428959114817571 -0.42058968508403138 0 -0.28191097607081861 -0.43069309412154289 0 -0.28055419517705099 -0.41809716856934698 0 -0.30116910120875479 -0.4327365399191711 0 -0.29428959114817571 -0.42058968508403138 0 -0.28191097607081861 -0.43069309412154289 0 -0.31472092386701139 -0.39251826617316571 0 -0.29953903879506422 -0.38050833176702498 0 -0.28911161856065759 -0.39385874790981679 0 -0.31472092386701139 -0.39251826617316571 0 -0.31729017267945342 -0.37681960929470648 0 -0.29953903879506422 -0.38050833176702498 0 -0.31472092386701139 -0.39251826617316571 0 -0.30768914942794112 -0.41316184033381442 0 -0.28911161856065759 -0.39385874790981679 0 -0.31472092386701139 -0.39251826617316571 0 -0.28911161856065759 -0.39385874790981679 0 -0.28911161856065759 -0.39385874790981679 0 -0.27565146641475752 -0.40371298183943721 0 -0.28055419517705099 -0.41809716856934698 0 -0.27871097237567111 -0.37336117949457481 0 -0.29953903879506422 -0.38050833176702498 0 -0.28911161856065759 -0.39385874790981679 0 -0.27871097237567111 -0.37336117949457481 0 -0.28911161856065759 -0.39385874790981679 0 -0.26900981611120689 -0.38974001894866023 0 -0.27871097237567111 -0.37336117949457481 0 -0.26021245460069309 -0.36910979395736082 0 -0.26900981611120689 -0.38974001894866023 0 -0.28911161856065759 -0.39385874790981679 0 -0.26900981611120689 -0.38974001894866023 0 -0.27565146641475752 -0.40371298183943721 0 -0.26900981611120689 -0.38974001894866023 0 -0.27565146641475752 -0.40371298183943721 0 -0.26115753520571239 -0.40828108158714482 0 -0.26900981611120689 -0.38974001894866023 0 -0.26115753520571239 -0.40828108158714482 0 -0.2492148495097499 -0.39011632890362719 0 -0.26021245460069309 -0.36910979395736082 0 -0.26900981611120689 -0.38974001894866023 0 -0.2492148495097499 -0.39011632890362719 0 -0.26021245460069309 -0.36910979395736082 0 -0.2492148495097499 -0.39011632890362719 0 -0.26021245460069309 -0.36910979395736082 0 -0.2492148495097499 -0.39011632890362719 0 -0.24780058098437621 -0.36906566620035891 0 -0.28191097607081861 -0.43069309412154289 0 -0.2694580369415101 -0.4190999998916532 0 -0.25814706465220311 -0.42981066701586029 0 -0.28191097607081861 -0.43069309412154289 0 -0.25814706465220311 -0.42981066701586029 0 -0.27807688488560028 -0.44849847018182731 0 -0.28191097607081861 -0.43069309412154289 0 -0.28055419517705099 -0.41809716856934698 0 -0.2694580369415101 -0.4190999998916532 0 -0.27565146641475752 -0.40371298183943721 0 -0.28055419517705099 -0.41809716856934698 0 -0.2694580369415101 -0.4190999998916532 0 -0.27565146641475752 -0.40371298183943721 0 -0.2694580369415101 -0.4190999998916532 0 -0.26115753520571239 -0.40828108158714482 0 -0.2694580369415101 -0.4190999998916532 0 -0.26115753520571239 -0.40828108158714482 0 -0.25814706465220311 -0.42981066701586029 0 -0.26115753520571239 -0.40828108158714482 0 -0.25814706465220311 -0.42981066701586029 0 -0.2382172444188061 -0.41112286384989338 0 -0.25814706465220311 -0.42981066701586029 0 -0.25677198870167001 -0.44826044896924988 0 -0.24237122713312539 -0.43352525392010449 0 -0.25814706465220311 -0.42981066701586029 0 -0.25677198870167001 -0.44826044896924988 0 -0.27807688488560028 -0.44849847018182731 0 -0.25677198870167001 -0.44826044896924988 0 -0.2671326616220428 -0.47449578623611888 0 -0.2484527787808474 -0.46609939256093919 0 -0.25677198870167001 -0.44826044896924988 0 -0.27807688488560028 -0.44849847018182731 0 -0.2671326616220428 -0.47449578623611888 0 -0.27807688488560028 -0.44849847018182731 0 -0.28401907426526729 -0.46630226495485272 0 -0.2671326616220428 -0.47449578623611888 0 -0.25814706465220311 -0.42981066701586029 0 -0.27807688488560028 -0.44849847018182731 0 -0.28191097607081861 -0.43069309412154289 0 -0.27807688488560028 -0.44849847018182731 0 -0.2928331284941954 -0.44914004173998578 0 -0.30116910120875479 -0.4327365399191711 0 -0.28191097607081861 -0.43069309412154289 0 -0.2928331284941954 -0.44914004173998578 0 -0.2928331284941954 -0.44914004173998578 0 -0.28401907426526729 -0.46630226495485272 0 -0.30254264328530178 -0.46932916331849711 0 -0.27807688488560028 -0.44849847018182731 0 -0.2928331284941954 -0.44914004173998578 0 -0.28401907426526729 -0.46630226495485272 0 -0.31953952714470613 -0.45844922002762523 0 -0.30928009124943001 -0.44728071794402419 0 -0.30254264328530178 -0.46932916331849711 0 -0.2928331284941954 -0.44914004173998578 0 -0.30928009124943001 -0.44728071794402419 0 -0.30254264328530178 -0.46932916331849711 0 -0.30116910120875479 -0.4327365399191711 0 -0.2928331284941954 -0.44914004173998578 0 -0.30928009124943001 -0.44728071794402419 0 -0.31212339940803158 -0.5 0 -0.30254264328530178 -0.46932916331849711 0 -0.29076093054498031 -0.48323680163013538 0 -0.28401907426526729 -0.46630226495485272 0 -0.30254264328530178 -0.46932916331849711 0 -0.29076093054498031 -0.48323680163013538 0 -0.31212339940803158 -0.5 0 -0.29076093054498031 -0.48323680163013538 0 -0.28360367276595788 -0.5 0 -0.28360367276595788 -0.5 0 -0.2671326616220428 -0.47449578623611888 0 -0.25508394612388419 -0.5 0 -0.29076093054498031 -0.48323680163013538 0 -0.28360367276595788 -0.5 0 -0.2671326616220428 -0.47449578623611888 0 -0.28401907426526729 -0.46630226495485272 0 -0.29076093054498031 -0.48323680163013538 0 -0.2671326616220428 -0.47449578623611888 0 -0.2671326616220428 -0.47449578623611888 0 -0.2375072020822577 -0.48294963976573613 0 -0.2484527787808474 -0.46609939256093919 0 -0.2671326616220428 -0.47449578623611888 0 -0.25508394612388419 -0.5 0 -0.2375072020822577 -0.48294963976573613 0 -0.25508394612388419 -0.5 0 -0.2375072020822577 -0.48294963976573613 0 -0.22656421948181049 -0.5 0 -0.2375072020822577 -0.48294963976573613 0 -0.2484527787808474 -0.46609939256093919 0 -0.22966266026127899 -0.46427005690286782 0 -0.2375072020822577 -0.48294963976573613 0 -0.22966266026127899 -0.46427005690286782 0 -0.2157907941861491 -0.48092628371723189 0 -0.2375072020822577 -0.48294963976573613 0 -0.22656421948181049 -0.5 0 -0.2157907941861491 -0.48092628371723189 0 -0.25677198870167001 -0.44826044896924988 0 -0.23183691400197201 -0.44565973052365931 0 -0.24237122713312539 -0.43352525392010449 0 -0.25677198870167001 -0.44826044896924988 0 -0.24168108543644209 -0.45607240723917902 0 -0.23183691400197201 -0.44565973052365931 0 -0.25677198870167001 -0.44826044896924988 0 -0.23183691400197201 -0.44565973052365931 0 -0.24168108543644209 -0.45607240723917902 0 -0.22966266026127899 -0.46427005690286782 0 -0.23183691400197201 -0.44565973052365931 0 -0.24168108543644209 -0.45607240723917902 0 -0.2484527787808474 -0.46609939256093919 0 -0.22966266026127899 -0.46427005690286782 0 -0.25677198870167001 -0.44826044896924988 0 -0.24168108543644209 -0.45607240723917902 0 -0.2484527787808474 -0.46609939256093919 0 -0.22966266026127899 -0.46427005690286782 0 -0.20812079112521789 -0.46120494929907402 0 -0.22966266026127899 -0.46427005690286782 0 -0.21990961660111219 -0.45332671202555469 0 -0.20812079112521789 -0.46120494929907402 0 -0.22966266026127899 -0.46427005690286782 0 -0.21990961660111219 -0.45332671202555469 0 -0.23183691400197201 -0.44565973052365931 0 -0.23183691400197201 -0.44565973052365931 0 -0.2069018393022739 -0.44305901207807169 0 -0.23183691400197201 -0.44565973052365931 0 -0.2069018393022739 -0.44305901207807169 0 -0.22688292389097589 -0.43277255924186009 0 -0.21990961660111219 -0.45332671202555469 0 -0.23183691400197201 -0.44565973052365931 0 -0.20834480504175951 -0.44512316631436161 0 -0.23183691400197201 -0.44565973052365931 0 -0.2069018393022739 -0.44305901207807169 0 -0.20834480504175951 -0.44512316631436161 0 -0.2069018393022739 -0.44305901207807169 0 -0.20834480504175951 -0.44512316631436161 0 -0.20259304185531979 -0.44760755227314097 0 -0.2069018393022739 -0.44305901207807169 0 -0.20834480504175951 -0.44512316631436161 0 -0.21990961660111219 -0.45332671202555469 0 -0.20834480504175951 -0.44512316631436161 0 -0.21054876038637349 -0.45273407017044481 0 -0.20834480504175951 -0.44512316631436161 0 -0.21054876038637349 -0.45273407017044481 0 -0.20581982877740471 -0.45128145304278922 0 -0.20834480504175951 -0.44512316631436161 0 -0.20581982877740471 -0.45128145304278922 0 -0.20259304185531979 -0.44760755227314097 0 -0.21054876038637349 -0.45273407017044481 0 -0.20581982877740471 -0.45128145304278922 0 -0.20812079112521789 -0.46120494929907402 0 -0.20581982877740471 -0.45128145304278922 0 -0.20812079112521789 -0.46120494929907402 0 -0.19727758863051181 -0.45132336805782258 0 -0.21990961660111219 -0.45332671202555469 0 -0.21054876038637349 -0.45273407017044481 0 -0.20812079112521789 -0.46120494929907402 0 -0.20812079112521789 -0.46120494929907402 0 -0.19484539932659281 -0.47713305633571379 0 -0.18657892198915671 -0.45813984169528021 0 -0.20812079112521789 -0.46120494929907402 0 -0.18657892198915671 -0.45813984169528021 0 -0.20812079112521789 -0.46120494929907402 0 -0.19727758863051181 -0.45132336805782258 0 -0.18657892198915671 -0.45813984169528021 0 -0.2069018393022739 -0.44305901207807169 0 -0.18948635924806881 -0.44124258438489877 0 -0.19727758863051181 -0.45132336805782258 0 -0.18948635924806881 -0.44124258438489877 0 -0.18657892198915671 -0.45813984169528021 0 -0.2069018393022739 -0.44305901207807169 0 -0.20259304185531979 -0.44760755227314097 0 -0.18948635924806881 -0.44124258438489877 0 -0.19727758863051181 -0.45132336805782258 0 -0.20259304185531979 -0.44760755227314097 0 -0.18948635924806881 -0.44124258438489877 0 -0.20581982877740471 -0.45128145304278922 0 -0.19727758863051181 -0.45132336805782258 0 -0.20259304185531979 -0.44760755227314097 0 -0.22656421948181049 -0.5 0 -0.2157907941861491 -0.48092628371723189 0 -0.1980444928397368 -0.5 0 -0.22966266026127899 -0.46427005690286782 0 -0.20812079112521789 -0.46120494929907402 0 -0.2157907941861491 -0.48092628371723189 0 -0.20812079112521789 -0.46120494929907402 0 -0.2157907941861491 -0.48092628371723189 0 -0.19484539932659281 -0.47713305633571379 0 -0.19484539932659281 -0.47713305633571379 0 -0.1980444928397368 -0.5 0 -0.18133194436630659 -0.4863058817101818 0 -0.2157907941861491 -0.48092628371723189 0 -0.19484539932659281 -0.47713305633571379 0 -0.1980444928397368 -0.5 0 -0.18133194436630659 -0.4863058817101818 0 -0.1695247661976631 -0.5 0 -0.1655623192563401 -0.48019343432959077 0 -0.1980444928397368 -0.5 0 -0.18133194436630659 -0.4863058817101818 0 -0.1695247661976631 -0.5 0 -0.1695247661976631 -0.5 0 -0.1655623192563401 -0.48019343432959077 0 -0.15373207664451899 -0.48704269265950229 0 -0.1588703522790284 -0.47172082108655189 0 -0.1655623192563401 -0.48019343432959077 0 -0.15469027776709959 -0.47758850589863322 0 -0.1655623192563401 -0.48019343432959077 0 -0.15373207664451899 -0.48704269265950229 0 -0.15469027776709959 -0.47758850589863322 0 -0.1655623192563401 -0.48019343432959077 0 -0.17868274421120039 -0.4742029178856042 0 -0.1677727641040648 -0.46678462014028038 0 -0.1588703522790284 -0.47172082108655189 0 -0.1655623192563401 -0.48019343432959077 0 -0.1677727641040648 -0.46678462014028038 0 -0.18133194436630659 -0.4863058817101818 0 -0.1655623192563401 -0.48019343432959077 0 -0.17868274421120039 -0.4742029178856042 0 -0.19484539932659281 -0.47713305633571379 0 -0.17868274421120039 -0.4742029178856042 0 -0.18657892198915671 -0.45813984169528021 0 -0.19484539932659281 -0.47713305633571379 0 -0.18133194436630659 -0.4863058817101818 0 -0.17868274421120039 -0.4742029178856042 0 -0.17868274421120039 -0.4742029178856042 0 -0.18657892198915671 -0.45813984169528021 0 -0.1677727641040648 -0.46678462014028038 0 -0.18657892198915671 -0.45813984169528021 0 -0.17829330332104609 -0.44847082921584902 0 -0.16503705285309539 -0.45507473409148691 0 -0.18657892198915671 -0.45813984169528021 0 -0.1677727641040648 -0.46678462014028038 0 -0.16503705285309539 -0.45507473409148691 0 -0.18657892198915671 -0.45813984169528021 0 -0.16503705285309539 -0.45507473409148691 0 -0.18948635924806881 -0.44124258438489877 0 -0.17829330332104609 -0.44847082921584902 0 -0.1720708791938633 -0.43942615669173007 0 -0.18948635924806881 -0.44124258438489877 0 -0.1720708791938633 -0.43942615669173007 0 -0.18948635924806881 -0.44124258438489877 0 -0.18657892198915671 -0.45813984169528021 0 -0.17829330332104609 -0.44847082921584902 0 -0.1720708791938633 -0.43942615669173007 0 -0.14328437306120531 -0.43642373546841429 0 -0.1720708791938633 -0.43942615669173007 0 -0.16503705285309539 -0.45507473409148691 0 -0.14772443677375541 -0.45261139022605001 0 -0.17829330332104609 -0.44847082921584902 0 -0.1720708791938633 -0.43942615669173007 0 -0.16503705285309539 -0.45507473409148691 0 -0.1720708791938633 -0.43942615669173007 0 -0.16503705285309539 -0.45507473409148691 0 -0.16503705285309539 -0.45507473409148691 0 -0.14772443677375541 -0.45261139022605001 0 -0.16503705285309539 -0.45507473409148691 0 -0.15669891229156649 -0.45862054329001511 0 -0.14772443677375541 -0.45261139022605001 0 -0.1677727641040648 -0.46678462014028038 0 -0.16503705285309539 -0.45507473409148691 0 -0.16044499443490109 -0.46120326207285139 0 -0.16503705285309539 -0.45507473409148691 0 -0.15669891229156649 -0.45862054329001511 0 -0.16044499443490109 -0.46120326207285139 0 -0.16044499443490109 -0.46120326207285139 0 -0.16010972716796981 -0.46623042096455219 0 -0.15437703177068021 -0.4648877435743326 0 -0.15669891229156649 -0.45862054329001511 0 -0.16044499443490109 -0.46120326207285139 0 -0.15437703177068021 -0.4648877435743326 0 -0.1588703522790284 -0.47172082108655189 0 -0.1677727641040648 -0.46678462014028038 0 -0.16010972716796981 -0.46623042096455219 0 -0.1677727641040648 -0.46678462014028038 0 -0.16044499443490109 -0.46120326207285139 0 -0.16010972716796981 -0.46623042096455219 0 -0.1588703522790284 -0.47172082108655189 0 -0.16010972716796981 -0.46623042096455219 0 -0.15437703177068021 -0.4648877435743326 0 -0.15669891229156649 -0.45862054329001511 0 -0.15437703177068021 -0.4648877435743326 0 -0.14780827232911209 -0.46234775994295713 0 -0.15437703177068021 -0.4648877435743326 0 -0.14780827232911209 -0.46234775994295713 0 -0.1510232271120267 -0.47198705686418352 0 -0.15669891229156649 -0.45862054329001511 0 -0.14780827232911209 -0.46234775994295713 0 -0.14772443677375541 -0.45261139022605001 0 -0.14780827232911209 -0.46234775994295713 0 -0.14772443677375541 -0.45261139022605001 0 -0.13898271886655961 -0.45915668870203658 0 -0.14780827232911209 -0.46234775994295713 0 -0.1510232271120267 -0.47198705686418352 0 -0.14259214218169039 -0.47170847306594421 0 -0.14780827232911209 -0.46234775994295713 0 -0.13898271886655961 -0.45915668870203658 0 -0.14259214218169039 -0.47170847306594421 0 -0.1720708791938633 -0.43942615669173007 0 -0.14772443677375541 -0.45261139022605001 0 -0.14328437306120531 -0.43642373546841429 0 -0.13041182069441559 -0.45014804636061112 0 -0.14328437306120531 -0.43642373546841429 0 -0.1144978669285472 -0.43342131424510028 0 -0.14772443677375541 -0.45261139022605001 0 -0.13041182069441559 -0.45014804636061112 0 -0.14328437306120531 -0.43642373546841429 0 -0.14772443677375541 -0.45261139022605001 0 -0.13041182069441559 -0.45014804636061112 0 -0.14772443677375541 -0.45261139022605001 0 -0.13041182069441559 -0.45014804636061112 0 -0.13898271886655961 -0.45915668870203658 0 -0.13041182069441559 -0.45014804636061112 0 -0.12812679042635369 -0.4736338620561753 0 -0.1172320913349795 -0.44827275464751171 0 -0.13041182069441559 -0.45014804636061112 0 -0.13898271886655961 -0.45915668870203658 0 -0.12812679042635369 -0.4736338620561753 0 -0.13898271886655961 -0.45915668870203658 0 -0.12812679042635369 -0.4736338620561753 0 -0.14259214218169039 -0.47170847306594421 0 -0.13041182069441559 -0.45014804636061112 0 -0.13898271886655961 -0.45915668870203658 0 -0.12812679042635369 -0.4736338620561753 0 -0.143152537091979 -0.4859470556687811 0 -0.14259214218169039 -0.47170847306594421 0 -0.1283723102502615 -0.49662016383431629 0 -0.13902148951772611 -0.49899496946483962 0 -0.1141883482570055 -0.48641244582059712 0 -0.12812679042635369 -0.4736338620561753 0 -0.13902148951772611 -0.49899496946483962 0 -0.143152537091979 -0.4859470556687811 0 -0.12812679042635369 -0.4736338620561753 0 -0.13902148951772611 -0.49899496946483962 0 -0.1141883482570055 -0.48641244582059712 0 -0.12812679042635369 -0.4736338620561753 0 -0.13902148951772611 -0.49899496946483962 0 -0.13902148951772611 -0.49899496946483962 0 -0.1141883482570055 -0.48641244582059712 0 -0.1283723102502615 -0.49662016383431629 0 -0.13902148951772611 -0.49899496946483962 0 -0.1121559362476179 -0.5 0 -0.13902148951772611 -0.49899496946483962 0 -0.14100503955558941 -0.50000000000000044 0 -0.143152537091979 -0.4859470556687811 0 -0.14100503955558941 -0.50000000000000044 0 -0.15373207664451899 -0.48704269265950229 0 -0.1695247661976631 -0.5 0 -0.14100503955558941 -0.50000000000000044 0 -0.15373207664451899 -0.48704269265950229 0 -0.13902148951772611 -0.49899496946483962 0 -0.143152537091979 -0.4859470556687811 0 -0.14100503955558941 -0.50000000000000044 0 -0.143152537091979 -0.4859470556687811 0 -0.15373207664451899 -0.48704269265950229 0 -0.14845751999844281 -0.47852716006000923 0 -0.15373207664451899 -0.48704269265950229 0 -0.14845751999844281 -0.47852716006000923 0 -0.15469027776709959 -0.47758850589863322 0 -0.1588703522790284 -0.47172082108655189 0 -0.15469027776709959 -0.47758850589863322 0 -0.1510232271120267 -0.47198705686418352 0 -0.1588703522790284 -0.47172082108655189 0 -0.15437703177068021 -0.4648877435743326 0 -0.1510232271120267 -0.47198705686418352 0 -0.14845751999844281 -0.47852716006000923 0 -0.15469027776709959 -0.47758850589863322 0 -0.1510232271120267 -0.47198705686418352 0 -0.14845751999844281 -0.47852716006000923 0 -0.1510232271120267 -0.47198705686418352 0 -0.14259214218169039 -0.47170847306594421 0 -0.143152537091979 -0.4859470556687811 0 -0.14845751999844281 -0.47852716006000923 0 -0.14259214218169039 -0.47170847306594421 0 -0.14949455534407299 -0.39478041726358581 0 -0.1405389847136593 -0.39104956752552578 0 -0.13880704920346371 -0.40200604901074838 0 -0.14949455534407299 -0.39478041726358581 0 -0.13880704920346371 -0.40200604901074838 0 -0.15135329741449929 -0.40658724426120602 0 -0.14949455534407299 -0.39478041726358581 0 -0.15135329741449929 -0.40658724426120602 0 -0.1601455585631284 -0.3996472136052146 0 -0.14949455534407299 -0.39478041726358581 0 -0.1601455585631284 -0.3996472136052146 0 -0.15888012459222869 -0.38924657454195832 0 -0.14949455534407299 -0.39478041726358581 0 -0.14866843321912421 -0.38514223323369201 0 -0.15888012459222869 -0.38924657454195832 0 -0.14866843321912421 -0.38514223323369201 0 -0.15888012459222869 -0.38924657454195832 0 -0.1570820738191932 -0.37179212253355609 0 -0.14866843321912421 -0.38514223323369201 0 -0.13827213961799559 -0.37927114421765912 0 -0.1570820738191932 -0.37179212253355609 0 -0.14866843321912421 -0.38514223323369201 0 -0.13827213961799559 -0.37927114421765912 0 -0.1405389847136593 -0.39104956752552578 0 -0.14949455534407299 -0.39478041726358581 0 -0.14866843321912421 -0.38514223323369201 0 -0.1405389847136593 -0.39104956752552578 0 -0.13827213961799559 -0.37927114421765912 0 -0.12745274618364011 -0.39404799390194339 0 -0.1405389847136593 -0.39104956752552578 0 -0.13827213961799559 -0.37927114421765912 0 -0.12745274618364011 -0.39404799390194339 0 -0.11926597608187289 -0.37271568155493462 0 -0.12745274618364011 -0.39404799390194339 0 -0.13880704920346371 -0.40200604901074838 0 -0.1224189277706723 -0.41116494477443788 0 -0.12745274618364011 -0.39404799390194339 0 -0.1405389847136593 -0.39104956752552578 0 -0.13880704920346371 -0.40200604901074838 0 -0.13880704920346371 -0.40200604901074838 0 -0.14250949578576719 -0.41483478625161702 0 -0.1224189277706723 -0.41116494477443788 0 -0.14328437306120531 -0.43642373546841429 0 -0.14250949578576719 -0.41483478625161702 0 -0.1224189277706723 -0.41116494477443788 0 -0.14328437306120531 -0.43642373546841429 0 -0.1144978669285472 -0.43342131424510028 0 -0.1224189277706723 -0.41116494477443788 0 -0.14328437306120531 -0.43642373546841429 0 -0.1144978669285472 -0.43342131424510028 0 -0.14328437306120531 -0.43642373546841429 0 -0.14250949578576719 -0.41483478625161702 0 -0.1538401288239406 -0.41817954830316928 0 -0.14328437306120531 -0.43642373546841429 0 -0.1538401288239406 -0.41817954830316928 0 -0.16237050573595421 -0.4266171377746083 0 -0.13880704920346371 -0.40200604901074838 0 -0.14250949578576719 -0.41483478625161702 0 -0.15135329741449929 -0.40658724426120602 0 -0.1538401288239406 -0.41817954830316928 0 -0.15135329741449929 -0.40658724426120602 0 -0.16266472323709039 -0.40982412696582948 0 -0.14250949578576719 -0.41483478625161702 0 -0.1538401288239406 -0.41817954830316928 0 -0.15135329741449929 -0.40658724426120602 0 -0.16266472323709039 -0.40982412696582948 0 -0.17159471920116481 -0.41517264710104568 0 -0.16237050573595421 -0.4266171377746083 0 -0.1538401288239406 -0.41817954830316928 0 -0.16266472323709039 -0.40982412696582948 0 -0.16237050573595421 -0.4266171377746083 0 -0.16266472323709039 -0.40982412696582948 0 -0.17159471920116481 -0.41517264710104568 0 -0.16984062357204199 -0.4027421798794113 0 -0.1720708791938633 -0.43942615669173007 0 -0.14328437306120531 -0.43642373546841429 0 -0.16237050573595421 -0.4266171377746083 0 -0.1720708791938633 -0.43942615669173007 0 -0.16237050573595421 -0.4266171377746083 0 -0.17838954088486711 -0.42536864919236977 0 -0.17159471920116481 -0.41517264710104568 0 -0.16237050573595421 -0.4266171377746083 0 -0.17838954088486711 -0.42536864919236977 0 -0.18948635924806881 -0.44124258438489877 0 -0.1720708791938633 -0.43942615669173007 0 -0.17838954088486711 -0.42536864919236977 0 -0.1720708791938633 -0.43942615669173007 0 -0.17838954088486711 -0.42536864919236977 0 -0.17838954088486711 -0.42536864919236977 0 -0.18470820257587231 -0.41131114169301008 0 -0.19580502093907259 -0.42718507688554119 0 -0.17159471920116481 -0.41517264710104568 0 -0.18470820257587231 -0.41131114169301008 0 -0.16984062357204199 -0.4027421798794113 0 -0.17159471920116481 -0.41517264710104568 0 -0.17838954088486711 -0.42536864919236977 0 -0.18470820257587231 -0.41131114169301008 0 -0.17838954088486711 -0.42536864919236977 0 -0.18470820257587231 -0.41131114169301008 0 -0.18470820257587231 -0.41131114169301008 0 -0.18261151890942581 -0.39641190974232232 0 -0.1708951381975343 -0.39155163211328198 0 -0.18470820257587231 -0.41131114169301008 0 -0.1708951381975343 -0.39155163211328198 0 -0.18470820257587231 -0.41131114169301008 0 -0.16984062357204199 -0.4027421798794113 0 -0.1708951381975343 -0.39155163211328198 0 -0.18470820257587231 -0.41131114169301008 0 -0.18261151890942581 -0.39641190974232232 0 -0.1930361487943707 -0.39278345780268159 0 -0.18261151890942581 -0.39641190974232232 0 -0.18126708349718901 -0.38943223257683862 0 -0.1930361487943707 -0.39278345780268159 0 -0.18261151890942581 -0.39641190974232232 0 -0.1708951381975343 -0.39155163211328198 0 -0.18126708349718901 -0.38943223257683862 0 -0.16266472323709039 -0.40982412696582948 0 -0.16984062357204199 -0.4027421798794113 0 -0.1601455585631284 -0.3996472136052146 0 -0.16984062357204199 -0.4027421798794113 0 -0.16494036123123329 -0.39579690003496648 0 -0.1601455585631284 -0.3996472136052146 0 -0.16494036123123329 -0.39579690003496648 0 -0.1708951381975343 -0.39155163211328198 0 -0.15888012459222869 -0.38924657454195832 0 -0.16984062357204199 -0.4027421798794113 0 -0.16494036123123329 -0.39579690003496648 0 -0.1708951381975343 -0.39155163211328198 0 -0.16494036123123329 -0.39579690003496648 0 -0.1601455585631284 -0.3996472136052146 0 -0.15888012459222869 -0.38924657454195832 0 -0.15135329741449929 -0.40658724426120602 0 -0.16266472323709039 -0.40982412696582948 0 -0.1601455585631284 -0.3996472136052146 0 -0.1708951381975343 -0.39155163211328198 0 -0.1570820738191932 -0.37179212253355609 0 -0.1708951381975343 -0.39155163211328198 0 -0.1696236035998403 -0.37902153028438701 0 -0.1570820738191932 -0.37179212253355609 0 -0.1708951381975343 -0.39155163211328198 0 -0.15888012459222869 -0.38924657454195832 0 -0.1570820738191932 -0.37179212253355609 0 -0.1708951381975343 -0.39155163211328198 0 -0.1696236035998403 -0.37902153028438701 0 -0.173806303622073 -0.38828287331052108 0 -0.173806303622073 -0.38828287331052108 0 -0.1836762163825216 -0.3698895365543633 0 -0.1696236035998403 -0.37902153028438701 0 -0.173806303622073 -0.38828287331052108 0 -0.17785286183965521 -0.37305941967268591 0 -0.173806303622073 -0.38828287331052108 0 -0.1827787955229459 -0.38139534737342112 0 -0.1836762163825216 -0.3698895365543633 0 -0.173806303622073 -0.38828287331052108 0 -0.17785286183965521 -0.37305941967268591 0 -0.1836762163825216 -0.3698895365543633 0 -0.173806303622073 -0.38828287331052108 0 -0.18126708349718901 -0.38943223257683862 0 -0.1827787955229459 -0.38139534737342112 0 -0.1708951381975343 -0.39155163211328198 0 -0.173806303622073 -0.38828287331052108 0 -0.18126708349718901 -0.38943223257683862 0 -0.18126708349718901 -0.38943223257683862 0 -0.1827787955229459 -0.38139534737342112 0 -0.18837208506426359 -0.3834251794275656 0 -0.1827787955229459 -0.38139534737342112 0 -0.18967967526701271 -0.37616427390820523 0 -0.1836762163825216 -0.3698895365543633 0 -0.1827787955229459 -0.38139534737342112 0 -0.18967967526701271 -0.37616427390820523 0 -0.18837208506426359 -0.3834251794275656 0 -0.18837208506426359 -0.3834251794275656 0 -0.1930361487943707 -0.39278345780268159 0 -0.20136409501287081 -0.37425577391235409 0 -0.1930361487943707 -0.39278345780268159 0 -0.20136409501287081 -0.37425577391235409 0 -0.18967967526701271 -0.37616427390820523 0 -0.18837208506426359 -0.3834251794275656 0 -0.20136409501287081 -0.37425577391235409 0 -0.1930361487943707 -0.39278345780268159 0 -0.2102212025694806 -0.38564190034223927 0 -0.20136409501287081 -0.37425577391235409 0 -0.18126708349718901 -0.38943223257683862 0 -0.18837208506426359 -0.3834251794275656 0 -0.1930361487943707 -0.39278345780268159 0 -0.18470820257587231 -0.41131114169301008 0 -0.1930361487943707 -0.39278345780268159 0 -0.2006604301287632 -0.41312132268052848 0 -0.18470820257587231 -0.41131114169301008 0 -0.1930361487943707 -0.39278345780268159 0 -0.1930361487943707 -0.39278345780268159 0 -0.20821857834362081 -0.39995782604109342 0 -0.2006604301287632 -0.41312132268052848 0 -0.20821857834362081 -0.39995782604109342 0 -0.2166741382660255 -0.4124389466286949 0 -0.22112052755624231 -0.39509160637891738 0 -0.1930361487943707 -0.39278345780268159 0 -0.20821857834362081 -0.39995782604109342 0 -0.2102212025694806 -0.38564190034223927 0 -0.20821857834362081 -0.39995782604109342 0 -0.2102212025694806 -0.38564190034223927 0 -0.22112052755624231 -0.39509160637891738 0 -0.2102212025694806 -0.38564190034223927 0 -0.20136409501287081 -0.37425577391235409 0 -0.21483622155450341 -0.36952367628306138 0 -0.2102212025694806 -0.38564190034223927 0 -0.22376230573935521 -0.38066889779956109 0 -0.21483622155450341 -0.36952367628306138 0 -0.2102212025694806 -0.38564190034223927 0 -0.22376230573935521 -0.38066889779956109 0 -0.22112052755624231 -0.39509160637891738 0 -0.2069018393022739 -0.44305901207807169 0 -0.18948635924806881 -0.44124258438489877 0 -0.19580502093907259 -0.42718507688554119 0 -0.19580502093907259 -0.42718507688554119 0 -0.2006604301287632 -0.41312132268052848 0 -0.2120035216183084 -0.42760220339130312 0 -0.2069018393022739 -0.44305901207807169 0 -0.19580502093907259 -0.42718507688554119 0 -0.18948635924806881 -0.44124258438489877 0 -0.17838954088486711 -0.42536864919236977 0 -0.19580502093907259 -0.42718507688554119 0 -0.18470820257587231 -0.41131114169301008 0 -0.19580502093907259 -0.42718507688554119 0 -0.2006604301287632 -0.41312132268052848 0 -0.18470820257587231 -0.41131114169301008 0 -0.19580502093907259 -0.42718507688554119 0 -0.20821857834362081 -0.39995782604109342 0 -0.2006604301287632 -0.41312132268052848 0 -0.2166741382660255 -0.4124389466286949 0 -0.2006604301287632 -0.41312132268052848 0 -0.2166741382660255 -0.4124389466286949 0 -0.2120035216183084 -0.42760220339130312 0 -0.2166741382660255 -0.4124389466286949 0 -0.2120035216183084 -0.42760220339130312 0 -0.223444457048529 -0.42098414327793782 0 -0.2069018393022739 -0.44305901207807169 0 -0.19580502093907259 -0.42718507688554119 0 -0.2120035216183084 -0.42760220339130312 0 -0.2069018393022739 -0.44305901207807169 0 -0.2120035216183084 -0.42760220339130312 0 -0.22688292389097589 -0.43277255924186009 0 -0.22688292389097589 -0.43277255924186009 0 -0.2382172444188061 -0.41112286384989338 0 -0.23183691400197201 -0.44565973052365931 0 -0.22688292389097589 -0.43277255924186009 0 -0.24237122713312539 -0.43352525392010449 0 -0.2120035216183084 -0.42760220339130312 0 -0.22688292389097589 -0.43277255924186009 0 -0.223444457048529 -0.42098414327793782 0 -0.22688292389097589 -0.43277255924186009 0 -0.223444457048529 -0.42098414327793782 0 -0.2382172444188061 -0.41112286384989338 0 -0.2166741382660255 -0.4124389466286949 0 -0.223444457048529 -0.42098414327793782 0 -0.2382172444188061 -0.41112286384989338 0 -0.25814706465220311 -0.42981066701586029 0 -0.2382172444188061 -0.41112286384989338 0 -0.22688292389097589 -0.43277255924186009 0 -0.2382172444188061 -0.41112286384989338 0 -0.24237122713312539 -0.43352525392010449 0 -0.25814706465220311 -0.42981066701586029 0 -0.2382172444188061 -0.41112286384989338 0 -0.24237122713312539 -0.43352525392010449 0 -0.22376230573935521 -0.38066889779956109 0 -0.23495883536803999 -0.3919896694380966 0 -0.24035800379935571 -0.37899867172594792 0 -0.22376230573935521 -0.38066889779956109 0 -0.24035800379935571 -0.37899867172594792 0 -0.2313409707555644 -0.37268782953488921 0 -0.22376230573935521 -0.38066889779956109 0 -0.22112052755624231 -0.39509160637891738 0 -0.23495883536803999 -0.3919896694380966 0 -0.2166741382660255 -0.4124389466286949 0 -0.2382172444188061 -0.41112286384989338 0 -0.22112052755624231 -0.39509160637891738 0 -0.2382172444188061 -0.41112286384989338 0 -0.22112052755624231 -0.39509160637891738 0 -0.23495883536803999 -0.3919896694380966 0 -0.2382172444188061 -0.41112286384989338 0 -0.22112052755624231 -0.39509160637891738 0 -0.2382172444188061 -0.41112286384989338 0 -0.2492148495097499 -0.39011632890362719 0 -0.26115753520571239 -0.40828108158714482 0 -0.2382172444188061 -0.41112286384989338 0 -0.2492148495097499 -0.39011632890362719 0 -0.2382172444188061 -0.41112286384989338 0 -0.23495883536803999 -0.3919896694380966 0 -0.2492148495097499 -0.39011632890362719 0 -0.2492148495097499 -0.39011632890362719 0 -0.24035800379935571 -0.37899867172594792 0 -0.24780058098437621 -0.36906566620035891 0 -0.23495883536803999 -0.3919896694380966 0 -0.2492148495097499 -0.39011632890362719 0 -0.24035800379935571 -0.37899867172594792 0 -0.24035800379935571 -0.37899867172594792 0 -0.24780058098437621 -0.36906566620035891 0 -0.24114939352551329 -0.35858624544759571 0 -0.24035800379935571 -0.37899867172594792 0 -0.2313409707555644 -0.37268782953488921 0 -0.24114939352551329 -0.35858624544759571 0 -0.24035800379935571 -0.37899867172594792 0 -0.24114939352551329 -0.35858624544759571 0 -0.22376230573935521 -0.38066889779956109 0 -0.22725128500969399 -0.36246980210424978 0 -0.21483622155450341 -0.36952367628306138 0 -0.22376230573935521 -0.38066889779956109 0 -0.22725128500969399 -0.36246980210424978 0 -0.22376230573935521 -0.38066889779956109 0 -0.2313409707555644 -0.37268782953488921 0 -0.22725128500969399 -0.36246980210424978 0 -0.2313409707555644 -0.37268782953488921 0 -0.22725128500969399 -0.36246980210424978 0 -0.24114939352551329 -0.35858624544759571 0 -0.2307402642800335 -0.3442707064089387 0 -0.20969204123137239 -0.35572809002202721 0 -0.22725128500969399 -0.36246980210424978 0 -0.2307402642800335 -0.3442707064089387 0 -0.24114939352551329 -0.35858624544759571 0 -0.22725128500969399 -0.36246980210424978 0 -0.2307402642800335 -0.3442707064089387 0 -0.22725128500969399 -0.36246980210424978 0 -0.2307402642800335 -0.3442707064089387 0 -0.20969204123137239 -0.35572809002202721 0 -0.2307402642800335 -0.3442707064089387 0 -0.21827489581142101 -0.3366332961360422 0 -0.20969204123137239 -0.35572809002202721 0 -0.2307402642800335 -0.3442707064089387 0 -0.24114939352551329 -0.35858624544759571 0 -0.24194078325166959 -0.33817381916924327 0 -0.24114939352551329 -0.35858624544759571 0 -0.24194078325166959 -0.33817381916924327 0 -0.25233789448144839 -0.34879846937914188 0 -0.24114939352551329 -0.35858624544759571 0 -0.24194078325166959 -0.33817381916924327 0 -0.25233789448144839 -0.34879846937914188 0 -0.24780058098437621 -0.36906566620035891 0 -0.24114939352551329 -0.35858624544759571 0 -0.25233789448144839 -0.34879846937914188 0 -0.2490589995130878 -0.33429909139960301 0 -0.24194078325166959 -0.33817381916924327 0 -0.2307402642800335 -0.3442707064089387 0 -0.24194078325166959 -0.33817381916924327 0 -0.23440292273820301 -0.32516567120676038 0 -0.2490589995130878 -0.33429909139960301 0 -0.24194078325166959 -0.33817381916924327 0 -0.2490589995130878 -0.33429909139960301 0 -0.24225538722178741 -0.33005919481335327 0 -0.24194078325166959 -0.33817381916924327 0 -0.25353646602606589 -0.3209638071760379 0 -0.2490589995130878 -0.33429909139960301 0 -0.24225538722178741 -0.33005919481335327 0 -0.2490589995130878 -0.33429909139960301 0 -0.24225538722178741 -0.33005919481335327 0 -0.24225538722178741 -0.33005919481335327 0 -0.24194078325166959 -0.33817381916924327 0 -0.23440292273820301 -0.32516567120676038 0 -0.24225538722178741 -0.33005919481335327 0 -0.24194078325166959 -0.33817381916924327 0 -0.2307402642800335 -0.3442707064089387 0 -0.24194078325166959 -0.33817381916924327 0 -0.24225538722178741 -0.33005919481335327 0 -0.23440292273820301 -0.32516567120676038 0 -0.2431357343990431 -0.30735227651364311 0 -0.23440292273820301 -0.32516567120676038 0 -0.23830180588682801 -0.30482844876182541 0 -0.24225538722178741 -0.33005919481335327 0 -0.2431357343990431 -0.30735227651364311 0 -0.25353646602606589 -0.3209638071760379 0 -0.24225538722178741 -0.33005919481335327 0 -0.2431357343990431 -0.30735227651364311 0 -0.23440292273820301 -0.32516567120676038 0 -0.23081076188726901 -0.31393467005515402 0 -0.23830180588682801 -0.30482844876182541 0 -0.24225538722178741 -0.33005919481335327 0 -0.23440292273820301 -0.32516567120676038 0 -0.23440292273820301 -0.32516567120676038 0 -0.23081076188726901 -0.31393467005515402 0 -0.2191458530951432 -0.31565772238103917 0 -0.23440292273820301 -0.32516567120676038 0 -0.2191458530951432 -0.31565772238103917 0 -0.23440292273820301 -0.32516567120676038 0 -0.22308789932052661 -0.32632727483083751 0 -0.2191458530951432 -0.31565772238103917 0 -0.2307402642800335 -0.3442707064089387 0 -0.23440292273820301 -0.32516567120676038 0 -0.22308789932052661 -0.32632727483083751 0 -0.2307402642800335 -0.3442707064089387 0 -0.22308789932052661 -0.32632727483083751 0 -0.21827489581142101 -0.3366332961360422 0 -0.2307402642800335 -0.3442707064089387 0 -0.23440292273820301 -0.32516567120676038 0 -0.21159432229445321 -0.31786201249255358 0 -0.1976352693384876 -0.34387577452345852 0 -0.20782003377046809 -0.33928495679867782 0 -0.21159432229445321 -0.31786201249255358 0 -0.1976352693384876 -0.34387577452345852 0 -0.21159432229445321 -0.31786201249255358 0 -0.20084521038754211 -0.32637643156679752 0 -0.1976352693384876 -0.34387577452345852 0 -0.22308789932052661 -0.32632727483083751 0 -0.21827489581142101 -0.3366332961360422 0 -0.20782003377046809 -0.33928495679867782 0 -0.2191458530951432 -0.31565772238103917 0 -0.20782003377046809 -0.33928495679867782 0 -0.21159432229445321 -0.31786201249255358 0 -0.22308789932052661 -0.32632727483083751 0 -0.2191458530951432 -0.31565772238103917 0 -0.20782003377046809 -0.33928495679867782 0 -0.2191458530951432 -0.31565772238103917 0 -0.20782003377046809 -0.33928495679867782 0 -0.21159432229445321 -0.31786201249255358 0 -0.19856833993115061 -0.31574606436282793 0 -0.20084521038754211 -0.32637643156679752 0 -0.19856833993115061 -0.31574606436282793 0 -0.182634461243292 -0.31052356581855423 0 -0.18621423201910001 -0.32345515767940519 0 -0.19856833993115061 -0.31574606436282793 0 -0.20084521038754211 -0.32637643156679752 0 -0.19558290998607691 -0.32802187488834977 0 -0.19856833993115061 -0.31574606436282793 0 -0.19558290998607691 -0.32802187488834977 0 -0.18621423201910001 -0.32345515767940519 0 -0.20084521038754211 -0.32637643156679752 0 -0.19558290998607691 -0.32802187488834977 0 -0.1976352693384876 -0.34387577452345852 0 -0.19558290998607691 -0.32802187488834977 0 -0.18758316108133649 -0.33609703226990822 0 -0.1976352693384876 -0.34387577452345852 0 -0.19558290998607691 -0.32802187488834977 0 -0.18758316108133649 -0.33609703226990822 0 -0.18621423201910001 -0.32345515767940519 0 -0.18758316108133649 -0.33609703226990822 0 -0.1976352693384876 -0.34387577452345852 0 -0.18736904641091279 -0.34363981031361368 0 -0.20782003377046809 -0.33928495679867782 0 -0.19649421444579279 -0.36291219121631629 0 -0.1976352693384876 -0.34387577452345852 0 -0.18278454550253209 -0.35879019720047572 0 -0.185149333404385 -0.35086061955119402 0 -0.1976352693384876 -0.34387577452345852 0 -0.1836762163825216 -0.3698895365543633 0 -0.20782003377046809 -0.33928495679867782 0 -0.1976352693384876 -0.34387577452345852 0 -0.19649421444579279 -0.36291219121631629 0 -0.1976352693384876 -0.34387577452345852 0 -0.1836762163825216 -0.3698895365543633 0 -0.18278454550253209 -0.35879019720047572 0 -0.1976352693384876 -0.34387577452345852 0 -0.185149333404385 -0.35086061955119402 0 -0.18736904641091279 -0.34363981031361368 0 -0.1976352693384876 -0.34387577452345852 0 -0.19649421444579279 -0.36291219121631629 0 -0.1836762163825216 -0.3698895365543633 0 -0.19649421444579279 -0.36291219121631629 0 -0.20969204123137239 -0.35572809002202721 0 -0.19649421444579279 -0.36291219121631629 0 -0.1836762163825216 -0.3698895365543633 0 -0.20136409501287081 -0.37425577391235409 0 -0.19649421444579279 -0.36291219121631629 0 -0.20969204123137239 -0.35572809002202721 0 -0.18967967526701271 -0.37616427390820523 0 -0.1922071843524619 -0.37185553227332208 0 -0.20136409501287081 -0.37425577391235409 0 -0.1922071843524619 -0.37185553227332208 0 -0.19649421444579279 -0.36291219121631629 0 -0.1922071843524619 -0.37185553227332208 0 -0.19649421444579279 -0.36291219121631629 0 -0.1836762163825216 -0.3698895365543633 0 -0.18967967526701271 -0.37616427390820523 0 -0.1922071843524619 -0.37185553227332208 0 -0.1836762163825216 -0.3698895365543633 0 -0.1922071843524619 -0.37185553227332208 0 -0.20136409501287081 -0.37425577391235409 0 -0.19649421444579279 -0.36291219121631629 0 -0.22725128500969399 -0.36246980210424978 0 -0.21483622155450341 -0.36952367628306138 0 -0.20969204123137239 -0.35572809002202721 0 -0.20136409501287081 -0.37425577391235409 0 -0.21483622155450341 -0.36952367628306138 0 -0.20969204123137239 -0.35572809002202721 0 -0.20136409501287081 -0.37425577391235409 0 -0.20969204123137239 -0.35572809002202721 0 -0.20782003377046809 -0.33928495679867782 0 -0.19649421444579279 -0.36291219121631629 0 -0.20969204123137239 -0.35572809002202721 0 -0.21827489581142101 -0.3366332961360422 0 -0.20782003377046809 -0.33928495679867782 0 -0.20969204123137239 -0.35572809002202721 0 -0.21827489581142101 -0.3366332961360422 0 -0.20969204123137239 -0.35572809002202721 0 -0.219880402739211 -0.25181503776220382 0 -0.24489642875355369 -0.26193843991422289 0 -0.22624664466326569 -0.26962876443151218 0 -0.219880402739211 -0.25181503776220382 0 -0.2453456506564767 -0.25035159632384441 0 -0.219880402739211 -0.25181503776220382 0 -0.2453456506564767 -0.25035159632384441 0 -0.24489642875355369 -0.26193843991422289 0 -0.24898481101924899 -0.25340950585555583 0 -0.24489642875355369 -0.26193843991422289 0 -0.2453456506564767 -0.25035159632384441 0 -0.24489642875355369 -0.26193843991422289 0 -0.2453456506564767 -0.25035159632384441 0 -0.24898481101924899 -0.25340950585555583 0 -0.24489642875355369 -0.26193843991422289 0 -0.25059524740695288 -0.25004991155547401 0 -0.24754692042651941 -0.25022509335756632 0 -0.25059524740695288 -0.25004991155547401 0 -0.24898481101924899 -0.25340950585555583 0 -0.24754692042651941 -0.25022509335756632 0 -0.25059524740695288 -0.25004991155547401 0 -0.24898481101924899 -0.25340950585555583 0 -0.24898481101924899 -0.25340950585555583 0 -0.24754692042651941 -0.25022509335756632 0 -0.2453456506564767 -0.25035159632384441 0 -0.24754692042651941 -0.25022509335756632 0 -0.2453456506564767 -0.25035159632384441 0 -0.24898481101924899 -0.25340950585555583 0 -0.24754692042651941 -0.25022509335756632 0 -0.24489642875355369 -0.26193843991422289 0 -0.22624664466326569 -0.26962876443151218 0 -0.23202114092434811 -0.28879808114763089 0 -0.24489642875355369 -0.26193843991422289 0 -0.23202114092434811 -0.28879808114763089 0 -0.25819585485174579 -0.27380866782804492 0 -0.24489642875355369 -0.26193843991422289 0 -0.24401608157629889 -0.284645358213933 0 -0.24489642875355369 -0.26193843991422289 0 -0.24401608157629889 -0.284645358213933 0 -0.24489642875355369 -0.26193843991422289 0 -0.23202114092434811 -0.28879808114763089 0 -0.24401608157629889 -0.284645358213933 0 -0.22624664466326569 -0.26962876443151218 0 -0.23202114092434811 -0.28879808114763089 0 -0.2081886062359489 -0.27596349890199118 0 -0.24401608157629889 -0.284645358213933 0 -0.2431357343990431 -0.30735227651364311 0 -0.23202114092434811 -0.28879808114763089 0 -0.24401608157629889 -0.284645358213933 0 -0.23830180588682801 -0.30482844876182541 0 -0.23440292273820301 -0.32516567120676038 0 -0.2431357343990431 -0.30735227651364311 0 -0.23830180588682801 -0.30482844876182541 0 -0.24401608157629889 -0.284645358213933 0 -0.2431357343990431 -0.30735227651364311 0 -0.23830180588682801 -0.30482844876182541 0 -0.23081076188726901 -0.31393467005515402 0 -0.2191458530951432 -0.31565772238103917 0 -0.23202114092434811 -0.28879808114763089 0 -0.23081076188726901 -0.31393467005515402 0 -0.23202114092434811 -0.28879808114763089 0 -0.23830180588682801 -0.30482844876182541 0 -0.2191458530951432 -0.31565772238103917 0 -0.23202114092434811 -0.28879808114763089 0 -0.2191458530951432 -0.31565772238103917 0 -0.23202114092434811 -0.28879808114763089 0 -0.21304858131753521 -0.29572906277915217 0 -0.2191458530951432 -0.31565772238103917 0 -0.19828662948472919 -0.30265860556031893 0 -0.21304858131753521 -0.29572906277915217 0 -0.2191458530951432 -0.31565772238103917 0 -0.19828662948472919 -0.30265860556031893 0 -0.2191458530951432 -0.31565772238103917 0 -0.21159432229445321 -0.31786201249255358 0 -0.19828662948472919 -0.30265860556031893 0 -0.21159432229445321 -0.31786201249255358 0 -0.19856833993115061 -0.31574606436282793 0 -0.19828662948472919 -0.30265860556031893 0 -0.19856833993115061 -0.31574606436282793 0 -0.19828662948472919 -0.30265860556031893 0 -0.182634461243292 -0.31052356581855423 0 -0.19828662948472919 -0.30265860556031893 0 -0.19381122211527549 -0.28660454560493898 0 -0.17742740587431691 -0.28965948873959563 0 -0.19828662948472919 -0.30265860556031893 0 -0.17742740587431691 -0.28965948873959563 0 -0.19828662948472919 -0.30265860556031893 0 -0.19381122211527549 -0.28660454560493898 0 -0.21304858131753521 -0.29572906277915217 0 -0.19381122211527549 -0.28660454560493898 0 -0.21304858131753521 -0.29572906277915217 0 -0.2081886062359489 -0.27596349890199118 0 -0.23202114092434811 -0.28879808114763089 0 -0.21304858131753521 -0.29572906277915217 0 -0.2081886062359489 -0.27596349890199118 0 -0.219880402739211 -0.25181503776220382 0 -0.22624664466326569 -0.26962876443151218 0 -0.2081886062359489 -0.27596349890199118 0 -0.2081886062359489 -0.27596349890199118 0 -0.19441515482194541 -0.25327847920056412 0 -0.18282627148966149 -0.27097396544033442 0 -0.19381122211527549 -0.28660454560493898 0 -0.2081886062359489 -0.27596349890199118 0 -0.18282627148966149 -0.27097396544033442 0 -0.219880402739211 -0.25181503776220382 0 -0.2081886062359489 -0.27596349890199118 0 -0.19441515482194541 -0.25327847920056412 0 -0.219880402739211 -0.25181503776220382 0 -0.19441515482194541 -0.25327847920056412 0 -0.16894990690467979 -0.25474192063892442 0 -0.15656818226390479 -0.27666037191887233 0 -0.14348465898741411 -0.25620536207728473 0 -0.19441515482194541 -0.25327847920056412 0 -0.16894990690467979 -0.25474192063892442 0 -0.19441515482194541 -0.25327847920056412 0 -0.16894990690467979 -0.25474192063892442 0 -0.18282627148966149 -0.27097396544033442 0 -0.18282627148966149 -0.27097396544033442 0 -0.15656818226390479 -0.27666037191887233 0 -0.17742740587431691 -0.28965948873959563 0 -0.16894990690467979 -0.25474192063892442 0 -0.18282627148966149 -0.27097396544033442 0 -0.15656818226390479 -0.27666037191887233 0 -0.15656818226390479 -0.27666037191887233 0 -0.17742740587431691 -0.28965948873959563 0 -0.15656818226390479 -0.27666037191887233 0 -0.17742740587431691 -0.28965948873959563 0 -0.1559040992964221 -0.29156247966112209 0 -0.17742740587431691 -0.28965948873959563 0 -0.16344550902426419 -0.30516699332867969 0 -0.1559040992964221 -0.29156247966112209 0 -0.19381122211527549 -0.28660454560493898 0 -0.18282627148966149 -0.27097396544033442 0 -0.17742740587431691 -0.28965948873959563 0 -0.19828662948472919 -0.30265860556031893 0 -0.17742740587431691 -0.28965948873959563 0 -0.182634461243292 -0.31052356581855423 0 -0.17742740587431691 -0.28965948873959563 0 -0.182634461243292 -0.31052356581855423 0 -0.16344550902426419 -0.30516699332867969 0 -0.14273596819013359 -0.29857062809825702 0 -0.15271315540044539 -0.317608291493782 0 -0.13792643156609449 -0.31660996118260398 0 -0.16344550902426419 -0.30516699332867969 0 -0.14273596819013359 -0.29857062809825702 0 -0.15271315540044539 -0.317608291493782 0 -0.16344550902426419 -0.30516699332867969 0 -0.14273596819013359 -0.29857062809825702 0 -0.1559040992964221 -0.29156247966112209 0 -0.14273596819013359 -0.29857062809825702 0 -0.1321908221382421 -0.30582848771654703 0 -0.12556006532294811 -0.29665681700128921 0 -0.14273596819013359 -0.29857062809825702 0 -0.1321908221382421 -0.30582848771654703 0 -0.13792643156609449 -0.31660996118260398 0 -0.1321908221382421 -0.30582848771654703 0 -0.12593166682397261 -0.31942180862689562 0 -0.12221250860588311 -0.30764708607330432 0 -0.1321908221382421 -0.30582848771654703 0 -0.12556006532294811 -0.29665681700128921 0 -0.12221250860588311 -0.30764708607330432 0 -0.14273596819013359 -0.29857062809825702 0 -0.12556006532294811 -0.29665681700128921 0 -0.1377810012006534 -0.28646544234369542 0 -0.12556006532294811 -0.29665681700128921 0 -0.1377810012006534 -0.28646544234369542 0 -0.1222197456654929 -0.28728830630709667 0 -0.1377810012006534 -0.28646544234369542 0 -0.1262895362602621 -0.27920804073568761 0 -0.1222197456654929 -0.28728830630709667 0 -0.14273596819013359 -0.29857062809825702 0 -0.1377810012006534 -0.28646544234369542 0 -0.1559040992964221 -0.29156247966112209 0 -0.15656818226390479 -0.27666037191887233 0 -0.1377810012006534 -0.28646544234369542 0 -0.1559040992964221 -0.29156247966112209 0 -0.15656818226390479 -0.27666037191887233 0 -0.1377810012006534 -0.28646544234369542 0 -0.1351894114054103 -0.27531145268354362 0 -0.15656818226390479 -0.27666037191887233 0 -0.1357089586534927 -0.26366125509814908 0 -0.15656818226390479 -0.27666037191887233 0 -0.1351894114054103 -0.27531145268354362 0 -0.1357089586534927 -0.26366125509814908 0 -0.1377810012006534 -0.28646544234369542 0 -0.1351894114054103 -0.27531145268354362 0 -0.1262895362602621 -0.27920804073568761 0 -0.1351894114054103 -0.27531145268354362 0 -0.1262895362602621 -0.27920804073568761 0 -0.1237611880095134 -0.26840005677391637 0 -0.1351894114054103 -0.27531145268354362 0 -0.1357089586534927 -0.26366125509814908 0 -0.1237611880095134 -0.26840005677391637 0 -0.1357089586534927 -0.26366125509814908 0 -0.13138631030816489 -0.25257813007746482 0 -0.1237611880095134 -0.26840005677391637 0 -0.13138631030816489 -0.25257813007746482 0 -0.14348465898741411 -0.25620536207728473 0 -0.14123905081936811 -0.24435887240762211 0 -0.1357089586534927 -0.26366125509814908 0 -0.13138631030816489 -0.25257813007746482 0 -0.14348465898741411 -0.25620536207728473 0 -0.16894990690467979 -0.25474192063892442 0 -0.14348465898741411 -0.25620536207728473 0 -0.15522258220679089 -0.24477908560778669 0 -0.15656818226390479 -0.27666037191887233 0 -0.1357089586534927 -0.26366125509814908 0 -0.14348465898741411 -0.25620536207728473 0 -0.16894990690467979 -0.25474192063892442 0 -0.14348465898741411 -0.25620536207728473 0 -0.17037810915819801 -0.35068825148088778 0 -0.16199611201137559 -0.34558911755691768 0 -0.16217695080494671 -0.35867573078163117 0 -0.17037810915819801 -0.35068825148088778 0 -0.16217695080494671 -0.35867573078163117 0 -0.17354032143367271 -0.36048718159480092 0 -0.17037810915819801 -0.35068825148088778 0 -0.16199611201137559 -0.34558911755691768 0 -0.1686936364859847 -0.33798793824082651 0 -0.16199611201137559 -0.34558911755691768 0 -0.16217695080494671 -0.35867573078163117 0 -0.1502758047480735 -0.34721763595288269 0 -0.16217695080494671 -0.35867573078163117 0 -0.1570820738191932 -0.37179212253355609 0 -0.1697529657756835 -0.36831271757751172 0 -0.16217695080494671 -0.35867573078163117 0 -0.1570820738191932 -0.37179212253355609 0 -0.15112923272941761 -0.35947923890823219 0 -0.1696236035998403 -0.37902153028438701 0 -0.1570820738191932 -0.37179212253355609 0 -0.1697529657756835 -0.36831271757751172 0 -0.16217695080494671 -0.35867573078163117 0 -0.1697529657756835 -0.36831271757751172 0 -0.17354032143367271 -0.36048718159480092 0 -0.1697529657756835 -0.36831271757751172 0 -0.17354032143367271 -0.36048718159480092 0 -0.17752138218681299 -0.36610781051996749 0 -0.17354032143367271 -0.36048718159480092 0 -0.17752138218681299 -0.36610781051996749 0 -0.18278454550253209 -0.35879019720047572 0 -0.1697529657756835 -0.36831271757751172 0 -0.17752138218681299 -0.36610781051996749 0 -0.17785286183965521 -0.37305941967268591 0 -0.1696236035998403 -0.37902153028438701 0 -0.1697529657756835 -0.36831271757751172 0 -0.17785286183965521 -0.37305941967268591 0 -0.17752138218681299 -0.36610781051996749 0 -0.17785286183965521 -0.37305941967268591 0 -0.1836762163825216 -0.3698895365543633 0 -0.17785286183965521 -0.37305941967268591 0 -0.1836762163825216 -0.3698895365543633 0 -0.17752138218681299 -0.36610781051996749 0 -0.1836762163825216 -0.3698895365543633 0 -0.18278454550253209 -0.35879019720047572 0 -0.18278454550253209 -0.35879019720047572 0 -0.17819214626364599 -0.35291041294745051 0 -0.185149333404385 -0.35086061955119402 0 -0.17354032143367271 -0.36048718159480092 0 -0.18278454550253209 -0.35879019720047572 0 -0.17819214626364599 -0.35291041294745051 0 -0.17037810915819801 -0.35068825148088778 0 -0.17354032143367271 -0.36048718159480092 0 -0.17819214626364599 -0.35291041294745051 0 -0.17037810915819801 -0.35068825148088778 0 -0.17819214626364599 -0.35291041294745051 0 -0.17910842181944231 -0.34372581490989401 0 -0.17037810915819801 -0.35068825148088778 0 -0.17910842181944231 -0.34372581490989401 0 -0.1686936364859847 -0.33798793824082651 0 -0.185149333404385 -0.35086061955119402 0 -0.18736904641091279 -0.34363981031361368 0 -0.17910842181944231 -0.34372581490989401 0 -0.17819214626364599 -0.35291041294745051 0 -0.185149333404385 -0.35086061955119402 0 -0.17910842181944231 -0.34372581490989401 0 -0.18758316108133649 -0.33609703226990822 0 -0.18736904641091279 -0.34363981031361368 0 -0.17910842181944231 -0.34372581490989401 0 -0.18758316108133649 -0.33609703226990822 0 -0.17859719495139831 -0.33235523987188531 0 -0.17910842181944231 -0.34372581490989401 0 -0.18758316108133649 -0.33609703226990822 0 -0.17859719495139831 -0.33235523987188531 0 -0.18621423201910001 -0.32345515767940519 0 -0.17859719495139831 -0.33235523987188531 0 -0.16992677759805569 -0.32279649304551977 0 -0.1686936364859847 -0.33798793824082651 0 -0.17859719495139831 -0.33235523987188531 0 -0.17910842181944231 -0.34372581490989401 0 -0.1686936364859847 -0.33798793824082651 0 -0.17859719495139831 -0.33235523987188531 0 -0.18621423201910001 -0.32345515767940519 0 -0.16992677759805569 -0.32279649304551977 0 -0.182634461243292 -0.31052356581855423 0 -0.18621423201910001 -0.32345515767940519 0 -0.16992677759805569 -0.32279649304551977 0 -0.182634461243292 -0.31052356581855423 0 -0.16344550902426419 -0.30516699332867969 0 -0.16992677759805569 -0.32279649304551977 0 -0.16992677759805569 -0.32279649304551977 0 -0.15809177213793091 -0.33284083858764568 0 -0.15271315540044539 -0.317608291493782 0 -0.16344550902426419 -0.30516699332867969 0 -0.16992677759805569 -0.32279649304551977 0 -0.15271315540044539 -0.317608291493782 0 -0.16992677759805569 -0.32279649304551977 0 -0.1686936364859847 -0.33798793824082651 0 -0.15809177213793091 -0.33284083858764568 0 -0.16199611201137559 -0.34558911755691768 0 -0.1686936364859847 -0.33798793824082651 0 -0.15809177213793091 -0.33284083858764568 0 -0.16199611201137559 -0.34558911755691768 0 -0.15809177213793091 -0.33284083858764568 0 -0.1502758047480735 -0.34721763595288269 0 -0.14415247388619379 -0.32966483471998598 0 -0.13615634332810661 -0.34116958560660332 0 -0.1502758047480735 -0.34721763595288269 0 -0.15809177213793091 -0.33284083858764568 0 -0.14415247388619379 -0.32966483471998598 0 -0.1502758047480735 -0.34721763595288269 0 -0.15809177213793091 -0.33284083858764568 0 -0.14415247388619379 -0.32966483471998598 0 -0.15271315540044539 -0.317608291493782 0 -0.14415247388619379 -0.32966483471998598 0 -0.15271315540044539 -0.317608291493782 0 -0.13792643156609449 -0.31660996118260398 0 -0.14415247388619379 -0.32966483471998598 0 -0.13792643156609449 -0.31660996118260398 0 -0.12987213415438151 -0.32916880487111611 0 -0.13792643156609449 -0.31660996118260398 0 -0.12593166682397261 -0.31942180862689562 0 -0.12987213415438151 -0.32916880487111611 0 -0.1321908221382421 -0.30582848771654703 0 -0.13792643156609449 -0.31660996118260398 0 -0.12593166682397261 -0.31942180862689562 0 -0.13615634332810661 -0.34116958560660332 0 -0.12987213415438151 -0.32916880487111611 0 -0.11954797721235751 -0.33951639511172738 0 -0.14415247388619379 -0.32966483471998598 0 -0.13615634332810661 -0.34116958560660332 0 -0.12987213415438151 -0.32916880487111611 0 -0.13615634332810661 -0.34116958560660332 0 -0.12637955156622571 -0.35168175825312581 0 -0.11954797721235751 -0.33951639511172738 0 -0.13615634332810661 -0.34116958560660332 0 -0.12637955156622571 -0.35168175825312581 0 -0.13782642761859251 -0.36183846242912487 0 -0.13615634332810661 -0.34116958560660332 0 -0.1502758047480735 -0.34721763595288269 0 -0.13782642761859251 -0.36183846242912487 0 -0.1502758047480735 -0.34721763595288269 0 -0.15112923272941761 -0.35947923890823219 0 -0.13782642761859251 -0.36183846242912487 0 -0.16217695080494671 -0.35867573078163117 0 -0.1502758047480735 -0.34721763595288269 0 -0.15112923272941761 -0.35947923890823219 0 -0.13827213961799559 -0.37927114421765912 0 -0.1570820738191932 -0.37179212253355609 0 -0.13782642761859251 -0.36183846242912487 0 -0.1570820738191932 -0.37179212253355609 0 -0.15112923272941761 -0.35947923890823219 0 -0.13782642761859251 -0.36183846242912487 0 -0.12637955156622571 -0.35168175825312581 0 -0.13782642761859251 -0.36183846242912487 0 -0.11926597608187289 -0.37271568155493462 0 -0.13827213961799559 -0.37927114421765912 0 -0.13782642761859251 -0.36183846242912487 0 -0.11926597608187289 -0.37271568155493462 0 -0.11926597608187289 -0.37271568155493462 0 -0.1060820800103324 -0.36578765651885892 0 -0.1110792059801058 -0.35138336920792568 0 -0.11926597608187289 -0.37271568155493462 0 -0.1110792059801058 -0.35138336920792568 0 -0.1060820800103324 -0.36578765651885892 0 -0.095171459228352115 -0.35713800915847732 0 -0.093004181173005282 -0.37291375001574001 0 -0.1060820800103324 -0.36578765651885892 0 -0.095171459228352115 -0.35713800915847732 0 -0.1110792059801058 -0.35138336920792568 0 -0.095171459228352115 -0.35713800915847732 0 -0.1110792059801058 -0.35138336920792568 0 -0.091777942701117859 -0.34376785720284381 0 -0.12637955156622571 -0.35168175825312581 0 -0.11926597608187289 -0.37271568155493462 0 -0.1110792059801058 -0.35138336920792568 0 -0.12637955156622571 -0.35168175825312581 0 -0.1110792059801058 -0.35138336920792568 0 -0.11954797721235751 -0.33951639511172738 0 -0.11954797721235751 -0.33951639511172738 0 -0.116486340626912 -0.32757697677472147 0 -0.1028924358783387 -0.3300510568609169 0 -0.1110792059801058 -0.35138336920792568 0 -0.11954797721235751 -0.33951639511172738 0 -0.1028924358783387 -0.3300510568609169 0 -0.12987213415438151 -0.32916880487111611 0 -0.11954797721235751 -0.33951639511172738 0 -0.116486340626912 -0.32757697677472147 0 -0.12593166682397261 -0.31942180862689562 0 -0.11838009758979109 -0.31627115060292121 0 -0.12221250860588311 -0.30764708607330432 0 -0.12593166682397261 -0.31942180862689562 0 -0.12987213415438151 -0.32916880487111611 0 -0.116486340626912 -0.32757697677472147 0 -0.12593166682397261 -0.31942180862689562 0 -0.11838009758979109 -0.31627115060292121 0 -0.116486340626912 -0.32757697677472147 0 -0.11838009758979109 -0.31627115060292121 0 -0.116486340626912 -0.32757697677472147 0 -0.1116923791977463 -0.31422088916290641 0 -0.116486340626912 -0.32757697677472147 0 -0.1116923791977463 -0.31422088916290641 0 -0.1049808524805452 -0.31260104733727578 0 -0.11838009758979109 -0.31627115060292121 0 -0.1116923791977463 -0.31422088916290641 0 -0.1140455259096496 -0.30760619540956868 0 -0.116486340626912 -0.32757697677472147 0 -0.1028924358783387 -0.3300510568609169 0 -0.094705665776571191 -0.30871874451390818 0 -0.1028924358783387 -0.3300510568609169 0 -0.094705665776571191 -0.30871874451390818 0 -0.116486340626912 -0.32757697677472147 0 -0.094705665776571191 -0.30871874451390818 0 -0.116486340626912 -0.32757697677472147 0 -0.1049808524805452 -0.31260104733727578 0 -0.094705665776571191 -0.30871874451390818 0 -0.1028924358783387 -0.3300510568609169 0 -0.09159086228574205 -0.3238046487769044 0 -0.094705665776571191 -0.30871874451390818 0 -0.1110792059801058 -0.35138336920792568 0 -0.1028924358783387 -0.3300510568609169 0 -0.1110792059801058 -0.35138336920792568 0 -0.1028924358783387 -0.3300510568609169 0 -0.091777942701117859 -0.34376785720284381 0 -0.1028924358783387 -0.3300510568609169 0 -0.087432884607917205 -0.33277140194231469 0 -0.091777942701117859 -0.34376785720284381 0 -0.1028924358783387 -0.3300510568609169 0 -0.087432884607917205 -0.33277140194231469 0 -0.09159086228574205 -0.3238046487769044 0 -0.087432884607917205 -0.33277140194231469 0 -0.078543565328609205 -0.33688360785486771 0 -0.082454875737409936 -0.32565735731511603 0 -0.087432884607917205 -0.33277140194231469 0 -0.078543565328609205 -0.33688360785486771 0 -0.091777942701117859 -0.34376785720284381 0 -0.089244310412011585 -0.31503338391868752 0 -0.09159086228574205 -0.3238046487769044 0 -0.084459327098719963 -0.31712614237624642 0 -0.089244310412011585 -0.31503338391868752 0 -0.084459327098719963 -0.31712614237624642 0 -0.084770748604463875 -0.30814549206771941 0 -0.089244310412011585 -0.31503338391868752 0 -0.09159086228574205 -0.3238046487769044 0 -0.094705665776571191 -0.30871874451390818 0 -0.087432884607917205 -0.33277140194231469 0 -0.09159086228574205 -0.3238046487769044 0 -0.082454875737409936 -0.32565735731511603 0 -0.09159086228574205 -0.3238046487769044 0 -0.082454875737409936 -0.32565735731511603 0 -0.084459327098719963 -0.31712614237624642 0 -0.082454875737409936 -0.32565735731511603 0 -0.084459327098719963 -0.31712614237624642 0 -0.073471524642168301 -0.31939959605711188 0 -0.084459327098719963 -0.31712614237624642 0 -0.073471524642168301 -0.31939959605711188 0 -0.077727542558783738 -0.30994760288463952 0 -0.073471524642168301 -0.31939959605711188 0 -0.077727542558783738 -0.30994760288463952 0 -0.062336611832247903 -0.31208955120119669 0 -0.082454875737409936 -0.32565735731511603 0 -0.073471524642168301 -0.31939959605711188 0 -0.072114872135104424 -0.32825924354600461 0 -0.073471524642168301 -0.31939959605711188 0 -0.064475530610396833 -0.32429323910277702 0 -0.072114872135104424 -0.32825924354600461 0 -0.073471524642168301 -0.31939959605711188 0 -0.064475530610396833 -0.32429323910277702 0 -0.062336611832247903 -0.31208955120119669 0 -0.078543565328609205 -0.33688360785486771 0 -0.063589434575338194 -0.33466255525704192 0 -0.078296807874171731 -0.35378815263639091 0 -0.078543565328609205 -0.33688360785486771 0 -0.072114872135104424 -0.32825924354600461 0 -0.063589434575338194 -0.33466255525704192 0 -0.078543565328609205 -0.33688360785486771 0 -0.082454875737409936 -0.32565735731511603 0 -0.072114872135104424 -0.32825924354600461 0 -0.064475530610396833 -0.32429323910277702 0 -0.072114872135104424 -0.32825924354600461 0 -0.063589434575338194 -0.33466255525704192 0 -0.063589434575338194 -0.33466255525704192 0 -0.078296807874171731 -0.35378815263639091 0 -0.064206943221684853 -0.34781599848244271 0 -0.073015040385982166 -0.36583771281757022 0 -0.078296807874171731 -0.35378815263639091 0 -0.064206943221684853 -0.34781599848244271 0 -0.073015040385982166 -0.36583771281757022 0 -0.063589434575338194 -0.33466255525704192 0 -0.064206943221684853 -0.34781599848244271 0 -0.078296807874171731 -0.35378815263639091 0 -0.064206943221684853 -0.34781599848244271 0 -0.073015040385982166 -0.36583771281757022 0 -0.059343590821338728 -0.36097016756253852 0 -0.063683772153077967 -0.37405162642911338 0 -0.073015040385982166 -0.36583771281757022 0 -0.059343590821338728 -0.36097016756253852 0 -0.073015040385982166 -0.36583771281757022 0 -0.08183654068279006 -0.37268954431211709 0 -0.078296807874171731 -0.35378815263639091 0 -0.063683772153077967 -0.37405162642911338 0 -0.073015040385982166 -0.36583771281757022 0 -0.08182313755027848 -0.38385942715269822 0 -0.073015040385982166 -0.36583771281757022 0 -0.08182313755027848 -0.38385942715269822 0 -0.093004181173005282 -0.37291375001574001 0 -0.078296807874171731 -0.35378815263639091 0 -0.073015040385982166 -0.36583771281757022 0 -0.08183654068279006 -0.37268954431211709 0 -0.08182313755027848 -0.38385942715269822 0 -0.08183654068279006 -0.37268954431211709 0 -0.093004181173005282 -0.37291375001574001 0 -0.078296807874171731 -0.35378815263639091 0 -0.095171459228352115 -0.35713800915847732 0 -0.093004181173005282 -0.37291375001574001 0 -0.078296807874171731 -0.35378815263639091 0 -0.08183654068279006 -0.37268954431211709 0 -0.093004181173005282 -0.37291375001574001 0 -0.087242047055254332 -0.37828098002972549 0 -0.095171459228352115 -0.35713800915847732 0 -0.078296807874171731 -0.35378815263639091 0 -0.091777942701117859 -0.34376785720284381 0 -0.078543565328609205 -0.33688360785486771 0 -0.078296807874171731 -0.35378815263639091 0 -0.091777942701117859 -0.34376785720284381 0 -0.093802440156239938 -0.26200710103042618 0 -0.1024803928049134 -0.25248983375176598 0 -0.1060823145455133 -0.27095739139889469 0 -0.1024803928049134 -0.25248983375176598 0 -0.1180516765755087 -0.25804632408857098 0 -0.1060823145455133 -0.27095739139889469 0 -0.1024803928049134 -0.25248983375176598 0 -0.1180516765755087 -0.25804632408857098 0 -0.1132611434474206 -0.2481528401313787 0 -0.13138631030816489 -0.25257813007746482 0 -0.1180516765755087 -0.25804632408857098 0 -0.1237611880095134 -0.26840005677391637 0 -0.13138631030816489 -0.25257813007746482 0 -0.1180516765755087 -0.25804632408857098 0 -0.1227181660842256 -0.2423306863943781 0 -0.1237611880095134 -0.26840005677391637 0 -0.1145524275731418 -0.27961471929158588 0 -0.1060823145455133 -0.27095739139889469 0 -0.1180516765755087 -0.25804632408857098 0 -0.1237611880095134 -0.26840005677391637 0 -0.1060823145455133 -0.27095739139889469 0 -0.1262895362602621 -0.27920804073568761 0 -0.1237611880095134 -0.26840005677391637 0 -0.1145524275731418 -0.27961471929158588 0 -0.093802440156239938 -0.26200710103042618 0 -0.1060823145455133 -0.27095739139889469 0 -0.083276314858250891 -0.27279428841046682 0 -0.1145524275731418 -0.27961471929158588 0 -0.1060823145455133 -0.27095739139889469 0 -0.10137398237269191 -0.28587317497291992 0 -0.1060823145455133 -0.27095739139889469 0 -0.10137398237269191 -0.28587317497291992 0 -0.083276314858250891 -0.27279428841046682 0 -0.10137398237269191 -0.28587317497291992 0 -0.093579799475700512 -0.29624055479368738 0 -0.087430519537899196 -0.28672405617400332 0 -0.10137398237269191 -0.28587317497291992 0 -0.1018969053100278 -0.2961412311035882 0 -0.093579799475700512 -0.29624055479368738 0 -0.10137398237269191 -0.28587317497291992 0 -0.10899089400918111 -0.2955554998316744 0 -0.11295795749360001 -0.28928438147033392 0 -0.10137398237269191 -0.28587317497291992 0 -0.1018969053100278 -0.2961412311035882 0 -0.10899089400918111 -0.2955554998316744 0 -0.1145524275731418 -0.27961471929158588 0 -0.10137398237269191 -0.28587317497291992 0 -0.11295795749360001 -0.28928438147033392 0 -0.1145524275731418 -0.27961471929158588 0 -0.1222197456654929 -0.28728830630709667 0 -0.11295795749360001 -0.28928438147033392 0 -0.1262895362602621 -0.27920804073568761 0 -0.1145524275731418 -0.27961471929158588 0 -0.1222197456654929 -0.28728830630709667 0 -0.12556006532294811 -0.29665681700128921 0 -0.1222197456654929 -0.28728830630709667 0 -0.11295795749360001 -0.28928438147033392 0 -0.12556006532294811 -0.29665681700128921 0 -0.11295795749360001 -0.28928438147033392 0 -0.11569930031593249 -0.29983896524787951 0 -0.10899089400918111 -0.2955554998316744 0 -0.11295795749360001 -0.28928438147033392 0 -0.11569930031593249 -0.29983896524787951 0 -0.10899089400918111 -0.2955554998316744 0 -0.10989777745946309 -0.30308626952527429 0 -0.11569930031593249 -0.29983896524787951 0 -0.10989777745946309 -0.30308626952527429 0 -0.11569930031593249 -0.29983896524787951 0 -0.1140455259096496 -0.30760619540956868 0 -0.12556006532294811 -0.29665681700128921 0 -0.11569930031593249 -0.29983896524787951 0 -0.12221250860588311 -0.30764708607330432 0 -0.11569930031593249 -0.29983896524787951 0 -0.12221250860588311 -0.30764708607330432 0 -0.1140455259096496 -0.30760619540956868 0 -0.11838009758979109 -0.31627115060292121 0 -0.12221250860588311 -0.30764708607330432 0 -0.1140455259096496 -0.30760619540956868 0 -0.10989777745946309 -0.30308626952527429 0 -0.1140455259096496 -0.30760619540956868 0 -0.10741756985083591 -0.30813179182809969 0 -0.1116923791977463 -0.31422088916290641 0 -0.1140455259096496 -0.30760619540956868 0 -0.10741756985083591 -0.30813179182809969 0 -0.1116923791977463 -0.31422088916290641 0 -0.1049808524805452 -0.31260104733727578 0 -0.10741756985083591 -0.30813179182809969 0 -0.1049808524805452 -0.31260104733727578 0 -0.1028312874400335 -0.3075108730856112 0 -0.10741756985083591 -0.30813179182809969 0 -0.1049808524805452 -0.31260104733727578 0 -0.1028312874400335 -0.3075108730856112 0 -0.099420761099714275 -0.30843559445062563 0 -0.1028312874400335 -0.3075108730856112 0 -0.1052857456079538 -0.30483798144159913 0 -0.10741756985083591 -0.30813179182809969 0 -0.1028312874400335 -0.3075108730856112 0 -0.1052857456079538 -0.30483798144159913 0 -0.10158456862130071 -0.30442055772927412 0 -0.10989777745946309 -0.30308626952527429 0 -0.1052857456079538 -0.30483798144159913 0 -0.10741756985083591 -0.30813179182809969 0 -0.10989777745946309 -0.30308626952527429 0 -0.1052857456079538 -0.30483798144159913 0 -0.1046975246681356 -0.30104041503973628 0 -0.10899089400918111 -0.2955554998316744 0 -0.10989777745946309 -0.30308626952527429 0 -0.1046975246681356 -0.30104041503973628 0 -0.1018969053100278 -0.2961412311035882 0 -0.1046975246681356 -0.30104041503973628 0 -0.099246499036775404 -0.30128934732354529 0 -0.1018969053100278 -0.2961412311035882 0 -0.10899089400918111 -0.2955554998316744 0 -0.1046975246681356 -0.30104041503973628 0 -0.1046975246681356 -0.30104041503973628 0 -0.10158456862130071 -0.30442055772927412 0 -0.099246499036775404 -0.30128934732354529 0 -0.1052857456079538 -0.30483798144159913 0 -0.1046975246681356 -0.30104041503973628 0 -0.10158456862130071 -0.30442055772927412 0 -0.1018969053100278 -0.2961412311035882 0 -0.099246499036775404 -0.30128934732354529 0 -0.093579799475700512 -0.29624055479368738 0 -0.10158456862130071 -0.30442055772927412 0 -0.099246499036775404 -0.30128934732354529 0 -0.098181670292714782 -0.30597126045352391 0 -0.099246499036775404 -0.30128934732354529 0 -0.096226029131258092 -0.30335239769558558 0 -0.098181670292714782 -0.30597126045352391 0 -0.096226029131258092 -0.30335239769558558 0 -0.094152164452482145 -0.30727648303799221 0 -0.093579799475700512 -0.29624055479368738 0 -0.099246499036775404 -0.30128934732354529 0 -0.096226029131258092 -0.30335239769558558 0 -0.093579799475700512 -0.29624055479368738 0 -0.096286707423370643 -0.30613231562162407 0 -0.094705665776571191 -0.30871874451390818 0 -0.099420761099714275 -0.30843559445062563 0 -0.096226029131258092 -0.30335239769558558 0 -0.096286707423370643 -0.30613231562162407 0 -0.094152164452482145 -0.30727648303799221 0 -0.1049808524805452 -0.31260104733727578 0 -0.094705665776571191 -0.30871874451390818 0 -0.099420761099714275 -0.30843559445062563 0 -0.096226029131258092 -0.30335239769558558 0 -0.096286707423370643 -0.30613231562162407 0 -0.098181670292714782 -0.30597126045352391 0 -0.096286707423370643 -0.30613231562162407 0 -0.094152164452482145 -0.30727648303799221 0 -0.094705665776571191 -0.30871874451390818 0 -0.094152164452482145 -0.30727648303799221 0 -0.094705665776571191 -0.30871874451390818 0 -0.1028312874400335 -0.3075108730856112 0 -0.098181670292714782 -0.30597126045352391 0 -0.099420761099714275 -0.30843559445062563 0 -0.1028312874400335 -0.3075108730856112 0 -0.10158456862130071 -0.30442055772927412 0 -0.098181670292714782 -0.30597126045352391 0 -0.096286707423370643 -0.30613231562162407 0 -0.098181670292714782 -0.30597126045352391 0 -0.099420761099714275 -0.30843559445062563 0 -0.084770748604463875 -0.30814549206771941 0 -0.077727542558783738 -0.30994760288463952 0 -0.075844124810908131 -0.29238796859574478 0 -0.094152164452482145 -0.30727648303799221 0 -0.094705665776571191 -0.30871874451390818 0 -0.075844124810908131 -0.29238796859574478 0 -0.094152164452482145 -0.30727648303799221 0 -0.075844124810908131 -0.29238796859574478 0 -0.093579799475700512 -0.29624055479368738 0 -0.094705665776571191 -0.30871874451390818 0 -0.084770748604463875 -0.30814549206771941 0 -0.075844124810908131 -0.29238796859574478 0 -0.094705665776571191 -0.30871874451390818 0 -0.075844124810908131 -0.29238796859574478 0 -0.089244310412011585 -0.31503338391868752 0 -0.094705665776571191 -0.30871874451390818 0 -0.084770748604463875 -0.30814549206771941 0 -0.084459327098719963 -0.31712614237624642 0 -0.084770748604463875 -0.30814549206771941 0 -0.077727542558783738 -0.30994760288463952 0 -0.075844124810908131 -0.29238796859574478 0 -0.052651112141914883 -0.29615119430525838 0 -0.062336611832247903 -0.31208955120119669 0 -0.077727542558783738 -0.30994760288463952 0 -0.075844124810908131 -0.29238796859574478 0 -0.062336611832247903 -0.31208955120119669 0 -0.075844124810908131 -0.29238796859574478 0 -0.05698258384524546 -0.27605719267758111 0 -0.10137398237269191 -0.28587317497291992 0 -0.087430519537899196 -0.28672405617400332 0 -0.083276314858250891 -0.27279428841046682 0 -0.075844124810908131 -0.29238796859574478 0 -0.093579799475700512 -0.29624055479368738 0 -0.087430519537899196 -0.28672405617400332 0 -0.075844124810908131 -0.29238796859574478 0 -0.087430519537899196 -0.28672405617400332 0 -0.083276314858250891 -0.27279428841046682 0 -0.075844124810908131 -0.29238796859574478 0 -0.083276314858250891 -0.27279428841046682 0 -0.05698258384524546 -0.27605719267758111 0 -0.083276314858250891 -0.27279428841046682 0 -0.063197998448463549 -0.25457443183096989 0 -0.05698258384524546 -0.27605719267758111 0 -0.083276314858250891 -0.27279428841046682 0 -0.063197998448463549 -0.25457443183096989 0 -0.083370738416282147 -0.2517868905605774 0 -0.093802440156239938 -0.26200710103042618 0 -0.083276314858250891 -0.27279428841046682 0 -0.083370738416282147 -0.2517868905605774 0 -0.093802440156239938 -0.26200710103042618 0 -0.1024803928049134 -0.25248983375176598 0 -0.083370738416282147 -0.2517868905605774 0 -0.041780072468508483 -0.25363654907423799 0 -0.05698258384524546 -0.27605719267758111 0 -0.024991505512592979 -0.26370659804833729 0 -0.05698258384524546 -0.27605719267758111 0 -0.032869283626720917 -0.28996335800272022 0 -0.024991505512592979 -0.26370659804833729 0 -0.063197998448463549 -0.25457443183096989 0 -0.041780072468508483 -0.25363654907423799 0 -0.05698258384524546 -0.27605719267758111 0 -0.05698258384524546 -0.27605719267758111 0 -0.032869283626720917 -0.28996335800272022 0 -0.052651112141914883 -0.29615119430525838 0 -0.075844124810908131 -0.29238796859574478 0 -0.05698258384524546 -0.27605719267758111 0 -0.052651112141914883 -0.29615119430525838 0 -0.052651112141914883 -0.29615119430525838 0 -0.062336611832247903 -0.31208955120119669 0 -0.040747061740848849 -0.31622011795710309 0 -0.032869283626720917 -0.28996335800272022 0 -0.040747061740848849 -0.31622011795710309 0 -0.023873821366405309 -0.31960828034230432 0 -0.032869283626720917 -0.28996335800272022 0 -0.040747061740848849 -0.31622011795710309 0 -0.032869283626720917 -0.28996335800272022 0 -0.052651112141914883 -0.29615119430525838 0 -0.040747061740848849 -0.31622011795710309 0 -0.032869283626720917 -0.28996335800272022 0 -0.010380234539267411 -0.30297895412728532 0 -0.023873821366405309 -0.31960828034230432 0 -0.010380234539267411 -0.30297895412728532 0 -0.01212746403176403 -0.28233099152615038 0 0.00632714377786576 -0.28933751539522412 0 -0.032869283626720917 -0.28996335800272022 0 -0.010380234539267411 -0.30297895412728532 0 -0.01212746403176403 -0.28233099152615038 0 -0.032869283626720917 -0.28996335800272022 0 -0.024991505512592979 -0.26370659804833729 0 -0.032869283626720917 -0.28996335800272022 0 -0.01212746403176403 -0.28233099152615038 0 -0.024991505512592979 -0.26370659804833729 0 -0.01212746403176403 -0.28233099152615038 0 -0.024991505512592979 -0.26370659804833729 0 0.0038049516362545122 -0.26613471529053567 0 -0.01212746403176403 -0.28233099152615038 0 0.00632714377786576 -0.28933751539522412 0 0.0038049516362545122 -0.26613471529053567 0 -0.024991505512592979 -0.26370659804833729 0 -0.00049652130699871766 -0.2473016026161601 0 0.0038049516362545122 -0.26613471529053567 0 -0.024991505512592979 -0.26370659804833729 0 -0.01711372739846502 -0.23744983809395431 0 -0.041780072468508483 -0.25363654907423799 0 -0.024991505512592979 -0.26370659804833729 0 -0.01711372739846502 -0.23744983809395431 0 -0.037407769894206078 -0.34942639868579428 0 -0.045544406755878009 -0.36424382570552738 0 -0.027405041358677992 -0.3544360249819416 0 -0.045544406755878009 -0.36424382570552738 0 -0.027405041358677992 -0.3544360249819416 0 -0.037407769894206078 -0.34942639868579428 0 -0.045544406755878009 -0.36424382570552738 0 -0.050489604534787222 -0.35286193318020342 0 -0.037407769894206078 -0.34942639868579428 0 -0.050489604534787222 -0.35286193318020342 0 -0.050432594506339787 -0.34134194835640469 0 -0.037407769894206078 -0.34942639868579428 0 -0.027405041358677992 -0.3544360249819416 0 -0.045544406755878009 -0.36424382570552738 0 -0.03010399697818127 -0.37225062347596671 0 -0.046028014585890231 -0.37742954090083541 0 -0.045544406755878009 -0.36424382570552738 0 -0.027405041358677992 -0.3544360249819416 0 -0.03010399697818127 -0.37225062347596671 0 -0.063683772153077967 -0.37405162642911338 0 -0.045544406755878009 -0.36424382570552738 0 -0.05582280531847731 -0.3775962731015054 0 -0.063683772153077967 -0.37405162642911338 0 -0.045544406755878009 -0.36424382570552738 0 -0.059343590821338728 -0.36097016756253852 0 -0.063683772153077967 -0.37405162642911338 0 -0.045544406755878009 -0.36424382570552738 0 -0.045544406755878009 -0.36424382570552738 0 -0.046028014585890231 -0.37742954090083541 0 -0.05582280531847731 -0.3775962731015054 0 -0.064206943221684853 -0.34781599848244271 0 -0.059343590821338728 -0.36097016756253852 0 -0.050489604534787222 -0.35286193318020342 0 -0.045544406755878009 -0.36424382570552738 0 -0.059343590821338728 -0.36097016756253852 0 -0.050489604534787222 -0.35286193318020342 0 -0.064206943221684853 -0.34781599848244271 0 -0.050489604534787222 -0.35286193318020342 0 -0.050432594506339787 -0.34134194835640469 0 -0.063589434575338194 -0.33466255525704192 0 -0.064206943221684853 -0.34781599848244271 0 -0.050432594506339787 -0.34134194835640469 0 -0.064475530610396833 -0.32429323910277702 0 -0.063589434575338194 -0.33466255525704192 0 -0.050865209867125352 -0.32705524945252962 0 -0.063589434575338194 -0.33466255525704192 0 -0.050432594506339787 -0.34134194835640469 0 -0.050865209867125352 -0.32705524945252962 0 -0.062336611832247903 -0.31208955120119669 0 -0.050865209867125352 -0.32705524945252962 0 -0.040747061740848849 -0.31622011795710309 0 -0.064475530610396833 -0.32429323910277702 0 -0.062336611832247903 -0.31208955120119669 0 -0.050865209867125352 -0.32705524945252962 0 -0.050865209867125352 -0.32705524945252962 0 -0.040747061740848849 -0.31622011795710309 0 -0.03785822795627293 -0.33194380224465131 0 -0.040747061740848849 -0.31622011795710309 0 -0.03785822795627293 -0.33194380224465131 0 -0.023873821366405309 -0.31960828034230432 0 -0.037407769894206078 -0.34942639868579428 0 -0.050432594506339787 -0.34134194835640469 0 -0.03785822795627293 -0.33194380224465131 0 -0.037407769894206078 -0.34942639868579428 0 -0.03785822795627293 -0.33194380224465131 0 -0.02382291036271221 -0.33801081867377158 0 -0.050432594506339787 -0.34134194835640469 0 -0.050865209867125352 -0.32705524945252962 0 -0.03785822795627293 -0.33194380224465131 0 -0.03785822795627293 -0.33194380224465131 0 -0.02382291036271221 -0.33801081867377158 0 -0.023873821366405309 -0.31960828034230432 0 -0.02382291036271221 -0.33801081867377158 0 -0.023873821366405309 -0.31960828034230432 0 -0.007323121960877416 -0.32432635561407591 0 -0.010380234539267411 -0.30297895412728532 0 -0.023873821366405309 -0.31960828034230432 0 -0.007323121960877416 -0.32432635561407591 0 -0.010380234539267411 -0.30297895412728532 0 -0.007323121960877416 -0.32432635561407591 0 0.0088493359194770065 -0.31254031549991262 0 -0.02382291036271221 -0.33801081867377158 0 -0.007323121960877416 -0.32432635561407591 0 -0.0086474613884536759 -0.3442939608922525 0 -0.007323121960877416 -0.32432635561407591 0 -0.0086474613884536759 -0.3442939608922525 0 0.010110118581770629 -0.33415189680256352 0 -0.0086474613884536759 -0.3442939608922525 0 -0.0062147334033759091 -0.36504868167649229 0 0.0041026344107457603 -0.34763671413703978 0 -0.0086474613884536759 -0.3442939608922525 0 -0.027405041358677992 -0.3544360249819416 0 -0.0062147334033759091 -0.36504868167649229 0 -0.02382291036271221 -0.33801081867377158 0 -0.0086474613884536759 -0.3442939608922525 0 -0.027405041358677992 -0.3544360249819416 0 -0.037407769894206078 -0.34942639868579428 0 -0.02382291036271221 -0.33801081867377158 0 -0.027405041358677992 -0.3544360249819416 0 -0.0086474613884536759 -0.3442939608922525 0 -0.027405041358677992 -0.3544360249819416 0 -0.027405041358677992 -0.3544360249819416 0 -0.03010399697818127 -0.37225062347596671 0 -0.0062147334033759091 -0.36504868167649229 0 -0.027405041358677992 -0.3544360249819416 0 -0.0062147334033759091 -0.36504868167649229 0 -0.0062147334033759091 -0.36504868167649229 0 -0.003054764863230162 -0.38327110372534579 0 -0.02030995257627809 -0.3899269705726256 0 -0.003054764863230162 -0.38327110372534579 0 -0.02030995257627809 -0.3899269705726256 0 0.0043376777961855089 -0.39967183539507678 0 -0.02030995257627809 -0.3899269705726256 0 -0.0072811505478054747 -0.41683981000625953 0 0.0043376777961855089 -0.39967183539507678 0 -0.02030995257627809 -0.3899269705726256 0 -0.036792179302656013 -0.39113431467744841 0 -0.027788927220704779 -0.41378375976204951 0 -0.03010399697818127 -0.37225062347596671 0 -0.0062147334033759091 -0.36504868167649229 0 -0.02030995257627809 -0.3899269705726256 0 -0.03010399697818127 -0.37225062347596671 0 -0.02030995257627809 -0.3899269705726256 0 -0.036792179302656013 -0.39113431467744841 0 -0.046028014585890231 -0.37742954090083541 0 -0.036792179302656013 -0.39113431467744841 0 -0.048024501039917802 -0.40325687323733189 0 -0.03010399697818127 -0.37225062347596671 0 -0.046028014585890231 -0.37742954090083541 0 -0.036792179302656013 -0.39113431467744841 0 -0.036792179302656013 -0.39113431467744841 0 -0.048024501039917802 -0.40325687323733189 0 -0.027788927220704779 -0.41378375976204951 0 -0.048024501039917802 -0.40325687323733189 0 -0.060929648522520141 -0.39303857513418589 0 -0.062743394463583166 -0.41303775614753019 0 -0.046028014585890231 -0.37742954090083541 0 -0.048024501039917802 -0.40325687323733189 0 -0.060929648522520141 -0.39303857513418589 0 -0.060929648522520141 -0.39303857513418589 0 -0.05582280531847731 -0.3775962731015054 0 -0.062928184575020224 -0.37921779733786498 0 -0.046028014585890231 -0.37742954090083541 0 -0.048024501039917802 -0.40325687323733189 0 -0.063683772153077967 -0.37405162642911338 0 -0.05582280531847731 -0.3775962731015054 0 -0.062928184575020224 -0.37921779733786498 0 -0.046028014585890231 -0.37742954090083541 0 -0.060929648522520141 -0.39303857513418589 0 -0.05582280531847731 -0.3775962731015054 0 -0.050020987493945367 -0.42908420557382848 0 -0.062743394463583166 -0.41303775614753019 0 -0.069327824921961753 -0.42871009669915588 0 -0.050020987493945367 -0.42908420557382848 0 -0.067526044786475031 -0.44514553943992691 0 -0.069327824921961753 -0.42871009669915588 0 -0.048024501039917802 -0.40325687323733189 0 -0.050020987493945367 -0.42908420557382848 0 -0.062743394463583166 -0.41303775614753019 0 -0.048024501039917802 -0.40325687323733189 0 -0.050020987493945367 -0.42908420557382848 0 -0.048024501039917802 -0.40325687323733189 0 -0.050020987493945367 -0.42908420557382848 0 -0.038500534625416652 -0.42303351349818491 0 -0.048024501039917802 -0.40325687323733189 0 -0.038500534625416652 -0.42303351349818491 0 -0.027788927220704779 -0.41378375976204951 0 -0.038500534625416652 -0.42303351349818491 0 -0.02759494078112882 -0.43115801006636117 0 -0.027788927220704779 -0.41378375976204951 0 -0.050020987493945367 -0.42908420557382848 0 -0.038500534625416652 -0.42303351349818491 0 -0.039073316591386471 -0.43788471885135299 0 -0.038500534625416652 -0.42303351349818491 0 -0.02759494078112882 -0.43115801006636117 0 -0.039073316591386471 -0.43788471885135299 0 -0.02759494078112882 -0.43115801006636117 0 -0.039073316591386471 -0.43788471885135299 0 -0.032795773121560033 -0.44103683803272331 0 -0.02759494078112882 -0.43115801006636117 0 -0.027788927220704779 -0.41378375976204951 0 -0.0072811505478054747 -0.41683981000625953 0 -0.02030995257627809 -0.3899269705726256 0 -0.027788927220704779 -0.41378375976204951 0 -0.0072811505478054747 -0.41683981000625953 0 -0.02759494078112882 -0.43115801006636117 0 -0.0072811505478054747 -0.41683981000625953 0 -0.0031373934974118531 -0.4372016448190541 0 -0.023301921484060621 -0.45063997583868909 0 -0.010022809886413971 -0.47531998791934532 0 0.0093628688378709132 -0.45459560444918412 0 -0.0031373934974118531 -0.4372016448190541 0 -0.023301921484060621 -0.45063997583868909 0 0.0093628688378709132 -0.45459560444918412 0 -0.0031373934974118531 -0.4372016448190541 0 -0.023301921484060621 -0.45063997583868909 0 -0.023301921484060621 -0.45063997583868909 0 -0.010022809886413971 -0.47531998791934532 0 -0.023301921484060621 -0.45063997583868909 0 -0.010022809886413971 -0.47531998791934532 0 -0.028588796162435679 -0.46954631477412528 0 -0.030811980946986329 -0.45564493628739638 0 -0.023301921484060621 -0.45063997583868909 0 -0.028588796162435679 -0.46954631477412528 0 -0.030811980946986329 -0.45564493628739638 0 -0.023301921484060621 -0.45063997583868909 0 -0.0031373934974118531 -0.4372016448190541 0 -0.026644178688949759 -0.44442819370350972 0 -0.023301921484060621 -0.45063997583868909 0 -0.02759494078112882 -0.43115801006636117 0 -0.0031373934974118531 -0.4372016448190541 0 -0.026644178688949759 -0.44442819370350972 0 -0.030811980946986329 -0.45564493628739638 0 -0.029784360394689069 -0.44964408308371639 0 -0.023301921484060621 -0.45063997583868909 0 -0.029784360394689069 -0.44964408308371639 0 -0.026644178688949759 -0.44442819370350972 0 -0.023301921484060621 -0.45063997583868909 0 -0.026644178688949759 -0.44442819370350972 0 -0.023301921484060621 -0.45063997583868909 0 -0.02759494078112882 -0.43115801006636117 0 -0.026644178688949759 -0.44442819370350972 0 -0.032795773121560033 -0.44103683803272331 0 -0.029784360394689069 -0.44964408308371639 0 -0.026644178688949759 -0.44442819370350972 0 -0.032795773121560033 -0.44103683803272331 0 -0.010022809886413971 -0.47531998791934532 0 0.003256301711233377 -0.50000000000000111 0 -0.010022809886413971 -0.47531998791934532 0 -0.02611534519419911 -0.5 0 0.003256301711233377 -0.50000000000000111 0 -0.010022809886413971 -0.47531998791934532 0 -0.028588796162435679 -0.46954631477412528 0 -0.02611534519419911 -0.5 0 -0.02611534519419911 -0.5 0 -0.039803585313378589 -0.4780562723954907 0 -0.055486992099631538 -0.5 0 -0.028588796162435679 -0.46954631477412528 0 -0.02611534519419911 -0.5 0 -0.039803585313378589 -0.4780562723954907 0 -0.028588796162435679 -0.46954631477412528 0 -0.039803585313378589 -0.4780562723954907 0 -0.039088269560562112 -0.46383055587424182 0 -0.039803585313378589 -0.4780562723954907 0 -0.050315072388500033 -0.46940335593455701 0 -0.039088269560562112 -0.46383055587424182 0 -0.039803585313378589 -0.4780562723954907 0 -0.063367683790456097 -0.48299527729020941 0 -0.039803585313378589 -0.4780562723954907 0 -0.050315072388500033 -0.46940335593455701 0 -0.063367683790456097 -0.48299527729020941 0 -0.050315072388500033 -0.46940335593455701 0 -0.061612426253942823 -0.4710340446509893 0 -0.063367683790456097 -0.48299527729020941 0 -0.039803585313378589 -0.4780562723954907 0 -0.055486992099631538 -0.5 0 -0.063367683790456097 -0.48299527729020941 0 -0.050020987493945367 -0.42908420557382848 0 -0.044212823192734937 -0.45095705621057419 0 -0.039073316591386471 -0.43788471885135299 0 -0.044212823192734937 -0.45095705621057419 0 -0.035491334829979862 -0.44752354400919658 0 -0.037861064916830348 -0.4542976889400574 0 -0.044212823192734937 -0.45095705621057419 0 -0.039073316591386471 -0.43788471885135299 0 -0.035491334829979862 -0.44752354400919658 0 -0.039073316591386471 -0.43788471885135299 0 -0.032795773121560033 -0.44103683803272331 0 -0.035491334829979862 -0.44752354400919658 0 -0.029784360394689069 -0.44964408308371639 0 -0.032795773121560033 -0.44103683803272331 0 -0.035491334829979862 -0.44752354400919658 0 -0.029784360394689069 -0.44964408308371639 0 -0.035491334829979862 -0.44752354400919658 0 -0.037861064916830348 -0.4542976889400574 0 -0.030811980946986329 -0.45564493628739638 0 -0.029784360394689069 -0.44964408308371639 0 -0.037861064916830348 -0.4542976889400574 0 -0.030811980946986329 -0.45564493628739638 0 -0.037861064916830348 -0.4542976889400574 0 -0.039088269560562112 -0.46383055587424182 0 -0.030811980946986329 -0.45564493628739638 0 -0.028588796162435679 -0.46954631477412528 0 -0.039088269560562112 -0.46383055587424182 0 -0.050315072388500033 -0.46940335593455701 0 -0.039088269560562112 -0.46383055587424182 0 -0.045514289833599987 -0.45929623242347523 0 -0.044212823192734937 -0.45095705621057419 0 -0.037861064916830348 -0.4542976889400574 0 -0.045514289833599987 -0.45929623242347523 0 -0.037861064916830348 -0.4542976889400574 0 -0.039088269560562112 -0.46383055587424182 0 -0.045514289833599987 -0.45929623242347523 0 -0.052017473947972938 -0.45491153791032518 0 -0.052504179579060617 -0.46120775297293559 0 -0.070686340472129239 -0.46437073004333929 0 -0.044212823192734937 -0.45095705621057419 0 -0.045514289833599987 -0.45929623242347523 0 -0.052017473947972938 -0.45491153791032518 0 -0.052017473947972938 -0.45491153791032518 0 -0.070686340472129239 -0.46437073004333929 0 -0.061612426253942823 -0.4710340446509893 0 -0.052504179579060617 -0.46120775297293559 0 -0.070686340472129239 -0.46437073004333929 0 -0.045514289833599987 -0.45929623242347523 0 -0.052017473947972938 -0.45491153791032518 0 -0.052504179579060617 -0.46120775297293559 0 -0.052017473947972938 -0.45491153791032518 0 -0.052504179579060617 -0.46120775297293559 0 -0.050315072388500033 -0.46940335593455701 0 -0.045514289833599987 -0.45929623242347523 0 -0.052504179579060617 -0.46120775297293559 0 -0.050315072388500033 -0.46940335593455701 0 -0.061612426253942823 -0.4710340446509893 0 -0.052504179579060617 -0.46120775297293559 0 -0.050020987493945367 -0.42908420557382848 0 -0.052017473947972938 -0.45491153791032518 0 -0.067526044786475031 -0.44514553943992691 0 -0.050020987493945367 -0.42908420557382848 0 -0.052017473947972938 -0.45491153791032518 0 -0.050020987493945367 -0.42908420557382848 0 -0.044212823192734937 -0.45095705621057419 0 -0.052017473947972938 -0.45491153791032518 0 -0.044212823192734937 -0.45095705621057419 0 -0.052017473947972938 -0.45491153791032518 0 -0.067526044786475031 -0.44514553943992691 0 -0.08151789346304511 -0.44100924641631378 0 -0.069327824921961753 -0.42871009669915588 0 -0.067526044786475031 -0.44514553943992691 0 -0.080414484205961589 -0.45540973187285982 0 -0.08151789346304511 -0.44100924641631378 0 -0.052017473947972938 -0.45491153791032518 0 -0.067526044786475031 -0.44514553943992691 0 -0.070686340472129239 -0.46437073004333929 0 -0.067526044786475031 -0.44514553943992691 0 -0.070686340472129239 -0.46437073004333929 0 -0.080414484205961589 -0.45540973187285982 0 -0.092986935311868885 -0.4526932212883662 0 -0.089355206996286032 -0.47382992217635228 0 -0.080414484205961589 -0.45540973187285982 0 -0.092986935311868885 -0.4526932212883662 0 -0.089355206996286032 -0.47382992217635228 0 -0.070686340472129239 -0.46437073004333929 0 -0.080414484205961589 -0.45540973187285982 0 -0.089355206996286032 -0.47382992217635228 0 -0.092986935311868885 -0.4526932212883662 0 -0.08151789346304511 -0.44100924641631378 0 -0.096618663627448031 -0.4315565204003794 0 -0.080414484205961589 -0.45540973187285982 0 -0.092986935311868885 -0.4526932212883662 0 -0.08151789346304511 -0.44100924641631378 0 -0.055486992099631538 -0.5 0 -0.073803126677764133 -0.49188946757381441 0 -0.063367683790456097 -0.48299527729020941 0 -0.055486992099631538 -0.5 0 -0.073803126677764133 -0.49188946757381441 0 -0.084858639005063963 -0.499999999999998 0 -0.073803126677764133 -0.49188946757381441 0 -0.063367683790456097 -0.48299527729020941 0 -0.086931782267533536 -0.48793428218492818 0 -0.063367683790456097 -0.48299527729020941 0 -0.086931782267533536 -0.48793428218492818 0 -0.070686340472129239 -0.46437073004333929 0 -0.074101999623629081 -0.47602366031574511 0 -0.089355206996286032 -0.47382992217635228 0 -0.063367683790456097 -0.48299527729020941 0 -0.074101999623629081 -0.47602366031574511 0 -0.086931782267533536 -0.48793428218492818 0 -0.061612426253942823 -0.4710340446509893 0 -0.063367683790456097 -0.48299527729020941 0 -0.074101999623629081 -0.47602366031574511 0 -0.061612426253942823 -0.4710340446509893 0 -0.070686340472129239 -0.46437073004333929 0 -0.074101999623629081 -0.47602366031574511 0 -0.070686340472129239 -0.46437073004333929 0 -0.089355206996286032 -0.47382992217635228 0 -0.089355206996286032 -0.47382992217635228 0 -0.086931782267533536 -0.48793428218492818 0 -0.074101999623629081 -0.47602366031574511 0 -0.089355206996286032 -0.47382992217635228 0 -0.086931782267533536 -0.48793428218492818 0 -0.086931782267533536 -0.48793428218492818 0 -0.084858639005063963 -0.499999999999998 0 -0.1076520462588975 -0.49227722300962218 0 -0.086931782267533536 -0.48793428218492818 0 -0.084858639005063963 -0.499999999999998 0 -0.073803126677764133 -0.49188946757381441 0 -0.086931782267533536 -0.48793428218492818 0 -0.084858639005063963 -0.499999999999998 0 -0.089355206996286032 -0.47382992217635228 0 -0.086931782267533536 -0.48793428218492818 0 -0.1076520462588975 -0.49227722300962218 0 -0.084858639005063963 -0.499999999999998 0 -0.1076520462588975 -0.49227722300962218 0 -0.1121559362476179 -0.5 0 -0.086931782267533536 -0.48793428218492818 0 -0.1076520462588975 -0.49227722300962218 0 -0.089355206996286032 -0.47382992217635228 0 -0.1141883482570055 -0.48641244582059712 0 -0.102503431311431 -0.46781551435191682 0 -0.089355206996286032 -0.47382992217635228 0 -0.1076520462588975 -0.49227722300962218 0 -0.1141883482570055 -0.48641244582059712 0 -0.089355206996286032 -0.47382992217635228 0 -0.1141883482570055 -0.48641244582059712 0 -0.12812679042635369 -0.4736338620561753 0 -0.1142409773588887 -0.46912588869074728 0 -0.1141883482570055 -0.48641244582059712 0 -0.1142409773588887 -0.46912588869074728 0 -0.1141883482570055 -0.48641244582059712 0 -0.102503431311431 -0.46781551435191682 0 -0.1283723102502615 -0.49662016383431629 0 -0.1076520462588975 -0.49227722300962218 0 -0.1283723102502615 -0.49662016383431629 0 -0.1076520462588975 -0.49227722300962218 0 -0.1141883482570055 -0.48641244582059712 0 -0.1283723102502615 -0.49662016383431629 0 -0.1076520462588975 -0.49227722300962218 0 -0.1121559362476179 -0.5 0 -0.092986935311868885 -0.4526932212883662 0 -0.096618663627448031 -0.4315565204003794 0 -0.092986935311868885 -0.4526932212883662 0 -0.10104056135595731 -0.44320724517296528 0 -0.096618663627448031 -0.4315565204003794 0 -0.10498177350752121 -0.44972284876535878 0 -0.1073781156784173 -0.44413214086210812 0 -0.11301159247096119 -0.44767223650871002 0 -0.10498177350752121 -0.44972284876535878 0 -0.1073781156784173 -0.44413214086210812 0 -0.10104056135595731 -0.44320724517296528 0 -0.11301159247096119 -0.44767223650871002 0 -0.10559250381579049 -0.43249248838871313 0 -0.1073781156784173 -0.44413214086210812 0 -0.11301159247096119 -0.44767223650871002 0 -0.10559250381579049 -0.43249248838871313 0 -0.1073781156784173 -0.44413214086210812 0 -0.10104056135595731 -0.44320724517296528 0 -0.10559250381579049 -0.43249248838871313 0 -0.092986935311868885 -0.4526932212883662 0 -0.10498177350752121 -0.44972284876535878 0 -0.10104056135595731 -0.44320724517296528 0 -0.092986935311868885 -0.4526932212883662 0 -0.102503431311431 -0.46781551435191682 0 -0.1044206743904896 -0.45721822867494682 0 -0.092986935311868885 -0.4526932212883662 0 -0.10498177350752121 -0.44972284876535878 0 -0.1044206743904896 -0.45721822867494682 0 -0.092986935311868885 -0.4526932212883662 0 -0.089355206996286032 -0.47382992217635228 0 -0.102503431311431 -0.46781551435191682 0 -0.102503431311431 -0.46781551435191682 0 -0.1044206743904896 -0.45721822867494682 0 -0.1108844657410331 -0.46082912517593783 0 -0.1142409773588887 -0.46912588869074728 0 -0.102503431311431 -0.46781551435191682 0 -0.1108844657410331 -0.46082912517593783 0 -0.1044206743904896 -0.45721822867494682 0 -0.11183404689138331 -0.45326840560210652 0 -0.1108844657410331 -0.46082912517593783 0 -0.10498177350752121 -0.44972284876535878 0 -0.1044206743904896 -0.45721822867494682 0 -0.11183404689138331 -0.45326840560210652 0 -0.12812679042635369 -0.4736338620561753 0 -0.1169729837674148 -0.45577739940401879 0 -0.1172320913349795 -0.44827275464751171 0 -0.12812679042635369 -0.4736338620561753 0 -0.1172320913349795 -0.44827275464751171 0 -0.11183404689138331 -0.45326840560210652 0 -0.1108844657410331 -0.46082912517593783 0 -0.1169729837674148 -0.45577739940401879 0 -0.12812679042635369 -0.4736338620561753 0 -0.1142409773588887 -0.46912588869074728 0 -0.1169729837674148 -0.45577739940401879 0 -0.1142409773588887 -0.46912588869074728 0 -0.1108844657410331 -0.46082912517593783 0 -0.1169729837674148 -0.45577739940401879 0 -0.13041182069441559 -0.45014804636061112 0 -0.1172320913349795 -0.44827275464751171 0 -0.13041182069441559 -0.45014804636061112 0 -0.1144978669285472 -0.43342131424510028 0 -0.13041182069441559 -0.45014804636061112 0 -0.1172320913349795 -0.44827275464751171 0 -0.1144978669285472 -0.43342131424510028 0 -0.10498177350752121 -0.44972284876535878 0 -0.11183404689138331 -0.45326840560210652 0 -0.11301159247096119 -0.44767223650871002 0 -0.1169729837674148 -0.45577739940401879 0 -0.11301159247096119 -0.44767223650871002 0 -0.11183404689138331 -0.45326840560210652 0 -0.1169729837674148 -0.45577739940401879 0 -0.11301159247096119 -0.44767223650871002 0 -0.1169729837674148 -0.45577739940401879 0 -0.1172320913349795 -0.44827275464751171 0 -0.11301159247096119 -0.44767223650871002 0 -0.1172320913349795 -0.44827275464751171 0 -0.11301159247096119 -0.44767223650871002 0 -0.11301159247096119 -0.44767223650871002 0 -0.11183862654340029 -0.43571763598504071 0 -0.10559250381579049 -0.43249248838871313 0 -0.1172320913349795 -0.44827275464751171 0 -0.11301159247096119 -0.44767223650871002 0 -0.11183862654340029 -0.43571763598504071 0 -0.1172320913349795 -0.44827275464751171 0 -0.11183862654340029 -0.43571763598504071 0 -0.1172320913349795 -0.44827275464751171 0 -0.11183862654340029 -0.43571763598504071 0 -0.1144978669285472 -0.43342131424510028 0 -0.1144978669285472 -0.43342131424510028 0 -0.10559250381579049 -0.43249248838871313 0 -0.11183862654340029 -0.43571763598504071 0 -0.1144978669285472 -0.43342131424510028 0 -0.10559250381579049 -0.43249248838871313 0 -0.1144978669285472 -0.43342131424510028 0 -0.10559250381579049 -0.43249248838871313 0 -0.097118483149437329 -0.41515430774988082 0 -0.10559250381579049 -0.43249248838871313 0 -0.097118483149437329 -0.41515430774988082 0 -0.098465757079053987 -0.42080641510443101 0 -0.10559250381579049 -0.43249248838871313 0 -0.097118483149437329 -0.41515430774988082 0 -0.1144978669285472 -0.43342131424510028 0 -0.097118483149437329 -0.41515430774988082 0 -0.096618663627448031 -0.4315565204003794 0 -0.098465757079053987 -0.42080641510443101 0 -0.10559250381579049 -0.43249248838871313 0 -0.096618663627448031 -0.4315565204003794 0 -0.098465757079053987 -0.42080641510443101 0 -0.096618663627448031 -0.4315565204003794 0 -0.098465757079053987 -0.42080641510443101 0 -0.09131618289263338 -0.42118902075360642 0 -0.10559250381579049 -0.43249248838871313 0 -0.096618663627448031 -0.4315565204003794 0 -0.10104056135595731 -0.44320724517296528 0 -0.10559250381579049 -0.43249248838871313 0 -0.096618663627448031 -0.4315565204003794 0 -0.1087161756486279 -0.40648450735968528 0 -0.097118483149437329 -0.41515430774988082 0 -0.08947081034985839 -0.39950686745128933 0 -0.1144978669285472 -0.43342131424510028 0 -0.1087161756486279 -0.40648450735968528 0 -0.097118483149437329 -0.41515430774988082 0 -0.097118483149437329 -0.41515430774988082 0 -0.098465757079053987 -0.42080641510443101 0 -0.09131618289263338 -0.42118902075360642 0 -0.1144978669285472 -0.43342131424510028 0 -0.1087161756486279 -0.40648450735968528 0 -0.1224189277706723 -0.41116494477443788 0 -0.1224189277706723 -0.41116494477443788 0 -0.10771155447183881 -0.392039347395089 0 -0.12745274618364011 -0.39404799390194339 0 -0.1224189277706723 -0.41116494477443788 0 -0.10771155447183881 -0.392039347395089 0 -0.1087161756486279 -0.40648450735968528 0 -0.1224189277706723 -0.41116494477443788 0 -0.10771155447183881 -0.392039347395089 0 -0.11926597608187289 -0.37271568155493462 0 -0.1060820800103324 -0.36578765651885892 0 -0.10771155447183881 -0.392039347395089 0 -0.12745274618364011 -0.39404799390194339 0 -0.11926597608187289 -0.37271568155493462 0 -0.10771155447183881 -0.392039347395089 0 -0.12745274618364011 -0.39404799390194339 0 -0.11926597608187289 -0.37271568155493462 0 -0.093004181173005282 -0.37291375001574001 0 -0.10771155447183881 -0.392039347395089 0 -0.087242047055254332 -0.37828098002972549 0 -0.1060820800103324 -0.36578765651885892 0 -0.093004181173005282 -0.37291375001574001 0 -0.10771155447183881 -0.392039347395089 0 -0.093004181173005282 -0.37291375001574001 0 -0.10771155447183881 -0.392039347395089 0 -0.10771155447183881 -0.392039347395089 0 -0.08947081034985839 -0.39950686745128933 0 -0.085541473248292144 -0.38586989966653651 0 -0.1087161756486279 -0.40648450735968528 0 -0.10771155447183881 -0.392039347395089 0 -0.08947081034985839 -0.39950686745128933 0 -0.08947081034985839 -0.39950686745128933 0 -0.08182313755027848 -0.38385942715269822 0 -0.097118483149437329 -0.41515430774988082 0 -0.080023333862228777 -0.39718605254387301 0 -0.097118483149437329 -0.41515430774988082 0 -0.080023333862228777 -0.39718605254387301 0 -0.08947081034985839 -0.39950686745128933 0 -0.080023333862228777 -0.39718605254387301 0 -0.08947081034985839 -0.39950686745128933 0 -0.08182313755027848 -0.38385942715269822 0 -0.08947081034985839 -0.39950686745128933 0 -0.08182313755027848 -0.38385942715269822 0 -0.085541473248292144 -0.38586989966653651 0 -0.10771155447183881 -0.392039347395089 0 -0.087242047055254332 -0.37828098002972549 0 -0.085541473248292144 -0.38586989966653651 0 -0.08182313755027848 -0.38385942715269822 0 -0.085541473248292144 -0.38586989966653651 0 -0.08183654068279006 -0.37268954431211709 0 -0.087242047055254332 -0.37828098002972549 0 -0.08182313755027848 -0.38385942715269822 0 -0.087242047055254332 -0.37828098002972549 0 -0.08182313755027848 -0.38385942715269822 0 -0.085541473248292144 -0.38586989966653651 0 -0.063683772153077967 -0.37405162642911338 0 -0.08182313755027848 -0.38385942715269822 0 -0.062928184575020224 -0.37921779733786498 0 -0.063683772153077967 -0.37405162642911338 0 -0.08182313755027848 -0.38385942715269822 0 -0.080023333862228777 -0.39718605254387301 0 -0.08182313755027848 -0.38385942715269822 0 -0.062928184575020224 -0.37921779733786498 0 -0.080023333862228777 -0.39718605254387301 0 -0.062928184575020224 -0.37921779733786498 0 -0.060929648522520141 -0.39303857513418589 0 -0.080023333862228777 -0.39718605254387301 0 -0.062928184575020224 -0.37921779733786498 0 -0.060929648522520141 -0.39303857513418589 0 -0.070916654968999099 -0.40451638211163238 0 -0.062743394463583166 -0.41303775614753019 0 -0.060929648522520141 -0.39303857513418589 0 -0.080023333862228777 -0.39718605254387301 0 -0.070916654968999099 -0.40451638211163238 0 -0.080023333862228777 -0.39718605254387301 0 -0.070916654968999099 -0.40451638211163238 0 -0.079970243027664298 -0.41480314462094048 0 -0.070916654968999099 -0.40451638211163238 0 -0.062743394463583166 -0.41303775614753019 0 -0.079970243027664298 -0.41480314462094048 0 -0.062743394463583166 -0.41303775614753019 0 -0.069327824921961753 -0.42871009669915588 0 -0.079970243027664298 -0.41480314462094048 0 -0.069327824921961753 -0.42871009669915588 0 -0.084407767579563156 -0.42362471589239981 0 -0.079970243027664298 -0.41480314462094048 0 -0.096618663627448031 -0.4315565204003794 0 -0.069327824921961753 -0.42871009669915588 0 -0.084407767579563156 -0.42362471589239981 0 -0.096618663627448031 -0.4315565204003794 0 -0.069327824921961753 -0.42871009669915588 0 -0.08151789346304511 -0.44100924641631378 0 -0.096618663627448031 -0.4315565204003794 0 -0.069327824921961753 -0.42871009669915588 0 -0.096618663627448031 -0.4315565204003794 0 -0.084407767579563156 -0.42362471589239981 0 -0.09131618289263338 -0.42118902075360642 0 -0.097118483149437329 -0.41515430774988082 0 -0.09131618289263338 -0.42118902075360642 0 -0.079970243027664298 -0.41480314462094048 0 -0.097118483149437329 -0.41515430774988082 0 -0.08947081034985839 -0.39950686745128933 0 -0.097118483149437329 -0.41515430774988082 0 -0.080023333862228777 -0.39718605254387301 0 -0.079970243027664298 -0.41480314462094048 0 -0.084407767579563156 -0.42362471589239981 0 -0.09131618289263338 -0.42118902075360642 0 -0.079970243027664298 -0.41480314462094048 0 -0.078240114253452148 -0.083814870570574657 0 -0.084952060431875781 -0.081918205236142905 0 -0.076918039781887007 -0.074479876344429513 0 -0.078240114253452148 -0.083814870570574657 0 -0.084952060431875781 -0.081918205236142905 0 -0.088831131679795894 -0.092209968925990649 0 -0.078240114253452148 -0.083814870570574657 0 -0.088831131679795894 -0.092209968925990649 0 -0.074322129968702189 -0.097867910260506619 0 -0.084952060431875781 -0.081918205236142905 0 -0.093347101542302136 -0.082966039752135901 0 -0.087423914901941721 -0.076120270587583888 0 -0.084952060431875781 -0.081918205236142905 0 -0.088831131679795894 -0.092209968925990649 0 -0.093347101542302136 -0.082966039752135901 0 -0.093347101542302136 -0.082966039752135901 0 -0.087423914901941721 -0.076120270587583888 0 -0.09443149301990876 -0.076262422902199367 0 -0.087423914901941721 -0.076120270587583888 0 -0.084081336985305191 -0.068744388051314054 0 -0.09443149301990876 -0.076262422902199367 0 -0.087423914901941721 -0.076120270587583888 0 -0.084081336985305191 -0.068744388051314054 0 -0.076918039781887007 -0.074479876344429513 0 -0.084952060431875781 -0.081918205236142905 0 -0.087423914901941721 -0.076120270587583888 0 -0.076918039781887007 -0.074479876344429513 0 -0.087423914901941721 -0.076120270587583888 0 -0.084081336985305191 -0.068744388051314054 0 -0.065142029229774162 -0.065774241371869185 0 -0.066660028878948008 -0.071081174214890339 0 -0.057271864652240989 -0.084480758157658542 0 -0.076918039781887007 -0.074479876344429513 0 -0.069859854520757436 -0.066514111767508738 0 -0.066660028878948008 -0.071081174214890339 0 -0.078240114253452148 -0.083814870570574657 0 -0.076918039781887007 -0.074479876344429513 0 -0.066660028878948008 -0.071081174214890339 0 -0.084081336985305191 -0.068744388051314054 0 -0.076918039781887007 -0.074479876344429513 0 -0.069859854520757436 -0.066514111767508738 0 -0.084081336985305191 -0.068744388051314054 0 -0.069859854520757436 -0.066514111767508738 0 -0.077881882477406239 -0.055064393334736547 0 -0.084081336985305191 -0.068744388051314054 0 -0.069859854520757436 -0.066514111767508738 0 -0.069859854520757436 -0.066514111767508738 0 -0.065142029229774162 -0.065774241371869185 0 -0.069859854520757436 -0.066514111767508738 0 -0.065142029229774162 -0.065774241371869185 0 -0.066660028878948008 -0.071081174214890339 0 -0.069859854520757436 -0.066514111767508738 0 -0.066660028878948008 -0.071081174214890339 0 -0.065142029229774162 -0.065774241371869185 0 -0.066660028878948008 -0.071081174214890339 0 -0.066660028878948008 -0.071081174214890339 0 -0.074322129968702189 -0.097867910260506619 0 -0.057271864652240989 -0.084480758157658542 0 -0.078240114253452148 -0.083814870570574657 0 -0.066660028878948008 -0.071081174214890339 0 -0.074322129968702189 -0.097867910260506619 0 -0.074322129968702189 -0.097867910260506619 0 -0.057271864652240989 -0.084480758157658542 0 -0.059068423004080189 -0.095634756723340597 0 -0.066660028878948008 -0.071081174214890339 0 -0.074322129968702189 -0.097867910260506619 0 -0.074322129968702189 -0.097867910260506619 0 -0.057432720535391849 -0.1044541171995559 0 -0.059068423004080189 -0.095634756723340597 0 -0.074322129968702189 -0.097867910260506619 0 -0.079272267848405978 -0.1151736120803752 0 -0.068625317902254998 -0.1079204260031153 0 -0.074322129968702189 -0.097867910260506619 0 -0.057432720535391849 -0.1044541171995559 0 -0.068625317902254998 -0.1079204260031153 0 -0.074322129968702189 -0.097867910260506619 0 -0.079272267848405978 -0.1151736120803752 0 -0.074322129968702189 -0.097867910260506619 0 -0.057432720535391849 -0.1044541171995559 0 -0.06453492198304786 -0.1164467774778781 0 -0.056457006617691111 -0.1219011061966373 0 -0.068622282056706202 -0.12818128688391409 0 -0.068625317902254998 -0.1079204260031153 0 -0.06453492198304786 -0.1164467774778781 0 -0.057432720535391849 -0.1044541171995559 0 -0.068625317902254998 -0.1079204260031153 0 -0.06453492198304786 -0.1164467774778781 0 -0.079272267848405978 -0.1151736120803752 0 -0.06453492198304786 -0.1164467774778781 0 -0.079272267848405978 -0.1151736120803752 0 -0.068622282056706202 -0.12818128688391409 0 -0.079272267848405978 -0.1151736120803752 0 -0.083750381358792675 -0.1284598765970584 0 -0.068622282056706202 -0.12818128688391409 0 -0.079272267848405978 -0.1151736120803752 0 -0.090963634255588843 -0.1194276257715948 0 -0.083750381358792675 -0.1284598765970584 0 -0.079272267848405978 -0.1151736120803752 0 -0.090963634255588843 -0.1194276257715948 0 -0.093777227440389896 -0.107740146163522 0 -0.074322129968702189 -0.097867910260506619 0 -0.079272267848405978 -0.1151736120803752 0 -0.085023576440310777 -0.10221729419281581 0 -0.088831131679795894 -0.092209968925990649 0 -0.074322129968702189 -0.097867910260506619 0 -0.085023576440310777 -0.10221729419281581 0 -0.088831131679795894 -0.092209968925990649 0 -0.074322129968702189 -0.097867910260506619 0 -0.079272267848405978 -0.1151736120803752 0 -0.085023576440310777 -0.10221729419281581 0 -0.093777227440389896 -0.107740146163522 0 -0.085023576440310777 -0.10221729419281581 0 -0.098293155206129218 -0.098546029650168121 0 -0.093777227440389896 -0.107740146163522 0 -0.088831131679795894 -0.092209968925990649 0 -0.085023576440310777 -0.10221729419281581 0 -0.098293155206129218 -0.098546029650168121 0 -0.1098380154193974 -0.1105152781956011 0 -0.1101026952335291 -0.10683031654983 0 -0.1033401333908895 -0.086552027591474345 0 -0.1098380154193974 -0.1105152781956011 0 -0.1033401333908895 -0.086552027591474345 0 -0.098293155206129218 -0.098546029650168121 0 -0.1098380154193974 -0.1105152781956011 0 -0.1033401333908895 -0.086552027591474345 0 -0.098293155206129218 -0.098546029650168121 0 -0.093777227440389896 -0.107740146163522 0 -0.1009492540329095 -0.1084169934097145 0 -0.098293155206129218 -0.098546029650168121 0 -0.1009492540329095 -0.1084169934097145 0 -0.1098380154193974 -0.1105152781956011 0 -0.1013807090463807 -0.1178251212445425 0 -0.1098380154193974 -0.1105152781956011 0 -0.1163358974479053 -0.13447852879972791 0 -0.090963634255588843 -0.1194276257715948 0 -0.1013807090463807 -0.1178251212445425 0 -0.09663758558397495 -0.12793937277247569 0 -0.093777227440389896 -0.107740146163522 0 -0.1009492540329095 -0.1084169934097145 0 -0.1013807090463807 -0.1178251212445425 0 -0.090963634255588843 -0.1194276257715948 0 -0.093777227440389896 -0.107740146163522 0 -0.1013807090463807 -0.1178251212445425 0 -0.1009492540329095 -0.1084169934097145 0 -0.1013807090463807 -0.1178251212445425 0 -0.1098380154193974 -0.1105152781956011 0 -0.1098380154193974 -0.1105152781956011 0 -0.1247589529873689 -0.1193319215051903 0 -0.1163358974479053 -0.13447852879972791 0 -0.1098380154193974 -0.1105152781956011 0 -0.1163358974479053 -0.13447852879972791 0 -0.1247589529873689 -0.1193319215051903 0 -0.1101026952335291 -0.10683031654983 0 -0.1356029041876648 -0.10581244298265 0 -0.1098380154193974 -0.1105152781956011 0 -0.1247589529873689 -0.1193319215051903 0 -0.1101026952335291 -0.10683031654983 0 -0.1101026952335291 -0.10683031654983 0 -0.12838165174081231 -0.096915342677769994 0 -0.1356029041876648 -0.10581244298265 0 -0.1101026952335291 -0.10683031654983 0 -0.1210610733193667 -0.090921918861455023 0 -0.1033401333908895 -0.086552027591474345 0 -0.1101026952335291 -0.10683031654983 0 -0.1210610733193667 -0.090921918861455023 0 -0.12838165174081231 -0.096915342677769994 0 -0.1101026952335291 -0.10683031654983 0 -0.1356029041876648 -0.10581244298265 0 -0.1033401333908895 -0.086552027591474345 0 -0.13038437074479181 -0.076005836238556057 0 -0.1033401333908895 -0.086552027591474345 0 -0.10723285386504799 -0.072375112144938594 0 -0.13038437074479181 -0.076005836238556057 0 -0.1210610733193667 -0.090921918861455023 0 -0.1033401333908895 -0.086552027591474345 0 -0.13038437074479181 -0.076005836238556057 0 -0.1033401333908895 -0.086552027591474345 0 -0.1010125045826788 -0.077968068664576826 0 -0.1033401333908895 -0.086552027591474345 0 -0.1010125045826788 -0.077968068664576826 0 -0.10723285386504799 -0.072375112144938594 0 -0.093347101542302136 -0.082966039752135901 0 -0.1033401333908895 -0.086552027591474345 0 -0.1010125045826788 -0.077968068664576826 0 -0.093347101542302136 -0.082966039752135901 0 -0.09443149301990876 -0.076262422902199367 0 -0.1010125045826788 -0.077968068664576826 0 -0.088831131679795894 -0.092209968925990649 0 -0.093347101542302136 -0.082966039752135901 0 -0.1033401333908895 -0.086552027591474345 0 -0.088831131679795894 -0.092209968925990649 0 -0.098293155206129218 -0.098546029650168121 0 -0.1033401333908895 -0.086552027591474345 0 -0.088831131679795894 -0.092209968925990649 0 -0.1033401333908895 -0.086552027591474345 0 -0.084081336985305191 -0.068744388051314054 0 -0.09443149301990876 -0.076262422902199367 0 -0.10723285386504799 -0.072375112144938594 0 -0.084081336985305191 -0.068744388051314054 0 -0.10723285386504799 -0.072375112144938594 0 -0.084081336985305191 -0.068744388051314054 0 -0.10723285386504799 -0.072375112144938594 0 -0.094158237316760568 -0.056848190050645488 0 -0.09443149301990876 -0.076262422902199367 0 -0.1010125045826788 -0.077968068664576826 0 -0.10723285386504799 -0.072375112144938594 0 -0.10723285386504799 -0.072375112144938594 0 -0.1236295906840658 -0.065414749250661236 0 -0.13038437074479181 -0.076005836238556057 0 -0.10723285386504799 -0.072375112144938594 0 -0.13038437074479181 -0.076005836238556057 0 -0.10723285386504799 -0.072375112144938594 0 -0.1236295906840658 -0.065414749250661236 0 -0.1097148422084304 -0.052972350382792778 0 -0.1097148422084304 -0.052972350382792778 0 -0.1126215772566809 -0.037585222401375823 0 -0.13185584460904631 -0.053058786526185557 0 -0.1236295906840658 -0.065414749250661236 0 -0.1097148422084304 -0.052972350382792778 0 -0.13185584460904631 -0.053058786526185557 0 -0.12475164722507889 -0.033455912091534618 0 -0.1126215772566809 -0.037585222401375823 0 -0.13185584460904631 -0.053058786526185557 0 -0.12475164722507889 -0.033455912091534618 0 -0.1126215772566809 -0.037585222401375823 0 -0.11628392383191311 -0.025306093008944219 0 -0.1097148422084304 -0.052972350382792778 0 -0.1126215772566809 -0.037585222401375823 0 -0.091880271047613468 -0.035084706339442523 0 -0.10723285386504799 -0.072375112144938594 0 -0.1097148422084304 -0.052972350382792778 0 -0.094158237316760568 -0.056848190050645488 0 -0.1097148422084304 -0.052972350382792778 0 -0.094158237316760568 -0.056848190050645488 0 -0.091880271047613468 -0.035084706339442523 0 -0.11764744984111131 -0.013853037656883751 0 -0.1157952204751049 -0.0087421127031452953 0 -0.1198770481880274 0.0048746676511459506 0 -0.1058786596178206 -0.015105019344148469 0 -0.1198770481880274 0.0048746676511459506 0 -0.11764744984111131 -0.013853037656883751 0 -0.1198770481880274 0.0048746676511459506 0 -0.11764744984111131 -0.013853037656883751 0 -0.13185606356650309 -0.00067556194706120819 0 -0.1198770481880274 0.0048746676511459506 0 -0.1157952204751049 -0.0087421127031452953 0 -0.1058786596178206 -0.015105019344148469 0 -0.1198770481880274 0.0048746676511459506 0 -0.11764744984111131 -0.013853037656883751 0 -0.1157952204751049 -0.0087421127031452953 0 -0.1058786596178206 -0.015105019344148469 0 -0.11764744984111131 -0.013853037656883751 0 -0.1157952204751049 -0.0087421127031452953 0 -0.1126215772566809 -0.037585222401375823 0 -0.11628392383191311 -0.025306093008944219 0 -0.1058786596178206 -0.015105019344148469 0 -0.12475164722507889 -0.033455912091534618 0 -0.11764744984111131 -0.013853037656883751 0 -0.11628392383191311 -0.025306093008944219 0 -0.12475164722507889 -0.033455912091534618 0 -0.11764744984111131 -0.013853037656883751 0 -0.11764744984111131 -0.013853037656883751 0 -0.11628392383191311 -0.025306093008944219 0 -0.11764744984111131 -0.013853037656883751 0 -0.11628392383191311 -0.025306093008944219 0 -0.1058786596178206 -0.015105019344148469 0 -0.1126215772566809 -0.037585222401375823 0 -0.1058786596178206 -0.015105019344148469 0 -0.091880271047613468 -0.035084706339442523 0 -0.101304070511976 -0.01810902414694791 0 -0.1058786596178206 -0.015105019344148469 0 -0.091880271047613468 -0.035084706339442523 0 -0.1058786596178206 -0.015105019344148469 0 -0.091880271047613468 -0.035084706339442523 0 -0.101304070511976 -0.01810902414694791 0 -0.088528354562710077 -0.023451096732066079 0 -0.091880271047613468 -0.035084706339442523 0 -0.094619980710139079 -0.00094113599173017482 0 -0.1058786596178206 -0.015105019344148469 0 -0.1198770481880274 0.0048746676511459506 0 -0.101304070511976 -0.01810902414694791 0 -0.094619980710139079 -0.00094113599173017482 0 -0.1058786596178206 -0.015105019344148469 0 -0.094619980710139079 -0.00094113599173017482 0 -0.079819819240501522 -0.01502082105974034 0 -0.071070722981565443 0.00038426089980352529 0 -0.101304070511976 -0.01810902414694791 0 -0.094619980710139079 -0.00094113599173017482 0 -0.079819819240501522 -0.01502082105974034 0 -0.088528354562710077 -0.023451096732066079 0 -0.091880271047613468 -0.035084706339442523 0 -0.068108725223217245 -0.033498505653633957 0 -0.101304070511976 -0.01810902414694791 0 -0.079819819240501522 -0.01502082105974034 0 -0.101304070511976 -0.01810902414694791 0 -0.079819819240501522 -0.01502082105974034 0 -0.088528354562710077 -0.023451096732066079 0 -0.079819819240501522 -0.01502082105974034 0 -0.088528354562710077 -0.023451096732066079 0 -0.068108725223217245 -0.033498505653633957 0 -0.079819819240501522 -0.01502082105974034 0 -0.068108725223217245 -0.033498505653633957 0 -0.058335567969027093 -0.01193261797253198 0 -0.068108725223217245 -0.033498505653633957 0 -0.058335567969027093 -0.01193261797253198 0 -0.079819819240501522 -0.01502082105974034 0 -0.058335567969027093 -0.01193261797253198 0 -0.079819819240501522 -0.01502082105974034 0 -0.058335567969027093 -0.01193261797253198 0 -0.071070722981565443 0.00038426089980352529 0 -0.084081336985305191 -0.068744388051314054 0 -0.094158237316760568 -0.056848190050645488 0 -0.077881882477406239 -0.055064393334736547 0 -0.094158237316760568 -0.056848190050645488 0 -0.091880271047613468 -0.035084706339442523 0 -0.077881882477406239 -0.055064393334736547 0 -0.084081336985305191 -0.068744388051314054 0 -0.077881882477406239 -0.055064393334736547 0 -0.091880271047613468 -0.035084706339442523 0 -0.077881882477406239 -0.055064393334736547 0 -0.091880271047613468 -0.035084706339442523 0 -0.068108725223217245 -0.033498505653633957 0 -0.077881882477406239 -0.055064393334736547 0 -0.068108725223217245 -0.033498505653633957 0 -0.068149302153560409 -0.053888440762525261 0 -0.058276221784171772 -0.041771351090063649 0 -0.068108725223217245 -0.033498505653633957 0 -0.077881882477406239 -0.055064393334736547 0 -0.065142029229774162 -0.065774241371869185 0 -0.068149302153560409 -0.053888440762525261 0 -0.058276221784171772 -0.041771351090063649 0 -0.068108725223217245 -0.033498505653633957 0 -0.068149302153560409 -0.053888440762525261 0 -0.077881882477406239 -0.055064393334736547 0 -0.069859854520757436 -0.066514111767508738 0 -0.068149302153560409 -0.053888440762525261 0 -0.077881882477406239 -0.055064393334736547 0 -0.069859854520757436 -0.066514111767508738 0 -0.077881882477406239 -0.055064393334736547 0 -0.069859854520757436 -0.066514111767508738 0 -0.065142029229774162 -0.065774241371869185 0 -0.068149302153560409 -0.053888440762525261 0 -0.065142029229774162 -0.065774241371869185 0 -0.058276221784171772 -0.041771351090063649 0 -0.065142029229774162 -0.065774241371869185 0 -0.058276221784171772 -0.041771351090063649 0 -0.046067224163580139 -0.047473940467895187 0 -0.065142029229774162 -0.065774241371869185 0 -0.046067224163580139 -0.047473940467895187 0 -0.035482661457512138 -0.061122927087295047 0 -0.058276221784171772 -0.041771351090063649 0 -0.046067224163580139 -0.047473940467895187 0 -0.051410414338568307 -0.01776846080825829 0 -0.046067224163580139 -0.047473940467895187 0 -0.051410414338568307 -0.01776846080825829 0 -0.034695852536791923 -0.03753551971815746 0 -0.046067224163580139 -0.047473940467895187 0 -0.02714471254115159 -0.045547001243098781 0 -0.034695852536791923 -0.03753551971815746 0 -0.046067224163580139 -0.047473940467895187 0 -0.041112453185647768 -0.02923039906365469 0 -0.046067224163580139 -0.047473940467895187 0 -0.051410414338568307 -0.01776846080825829 0 -0.041112453185647768 -0.02923039906365469 0 -0.034695852536791923 -0.03753551971815746 0 -0.033747572190683577 -0.02618519295968106 0 -0.02599530337970353 -0.032274265934476437 0 -0.046067224163580139 -0.047473940467895187 0 -0.035482661457512138 -0.061122927087295047 0 -0.02714471254115159 -0.045547001243098781 0 -0.054129548608327548 -0.002651426771132242 0 -0.058335567969027093 -0.01193261797253198 0 -0.071070722981565443 0.00038426089980352529 0 -0.054129548608327548 -0.002651426771132242 0 -0.052608203043089767 -0.011109351393570071 0 -0.054129548608327548 -0.002651426771132242 0 -0.058335567969027093 -0.01193261797253198 0 -0.054129548608327548 -0.002651426771132242 0 -0.058335567969027093 -0.01193261797253198 0 -0.052608203043089767 -0.011109351393570071 0 -0.058335567969027093 -0.01193261797253198 0 -0.052608203043089767 -0.011109351393570071 0 -0.052608203043089767 -0.011109351393570071 0 -0.049372601051152383 -0.010644257407550961 0 -0.051410414338568307 -0.01776846080825829 0 -0.054129548608327548 -0.002651426771132242 0 -0.052608203043089767 -0.011109351393570071 0 -0.049372601051152383 -0.010644257407550961 0 -0.052608203043089767 -0.011109351393570071 0 -0.051410414338568307 -0.01776846080825829 0 -0.058335567969027093 -0.01193261797253198 0 -0.052608203043089767 -0.011109351393570071 0 -0.051410414338568307 -0.01776846080825829 0 -0.052608203043089767 -0.011109351393570071 0 -0.049372601051152383 -0.010644257407550961 0 -0.049372601051152383 -0.010644257407550961 0 -0.051410414338568307 -0.01776846080825829 0 -0.068108725223217245 -0.033498505653633957 0 -0.058276221784171772 -0.041771351090063649 0 -0.051410414338568307 -0.01776846080825829 0 -0.068108725223217245 -0.033498505653633957 0 -0.058335567969027093 -0.01193261797253198 0 -0.051410414338568307 -0.01776846080825829 0 -0.058276221784171772 -0.041771351090063649 0 -0.051410414338568307 -0.01776846080825829 0 -0.033747572190683577 -0.02618519295968106 0 -0.039332989870129259 -0.017369547087643489 0 -0.02322217411399689 -0.01708313159200809 0 -0.041112453185647768 -0.02923039906365469 0 -0.033747572190683577 -0.02618519295968106 0 -0.039332989870129259 -0.017369547087643489 0 -0.034695852536791923 -0.03753551971815746 0 -0.041112453185647768 -0.02923039906365469 0 -0.033747572190683577 -0.02618519295968106 0 -0.051410414338568307 -0.01776846080825829 0 -0.041112453185647768 -0.02923039906365469 0 -0.039332989870129259 -0.017369547087643489 0 -0.039332989870129259 -0.017369547087643489 0 -0.031594138203677097 -0.0080887341473911793 0 -0.02322217411399689 -0.01708313159200809 0 -0.049372601051152383 -0.010644257407550961 0 -0.031594138203677097 -0.0080887341473911793 0 -0.049372601051152383 -0.010644257407550961 0 -0.031594138203677097 -0.0080887341473911793 0 -0.042202478754792043 0.0144225188092575 0 -0.049372601051152383 -0.010644257407550961 0 -0.039332989870129259 -0.017369547087643489 0 -0.031594138203677097 -0.0080887341473911793 0 -0.049372601051152383 -0.010644257407550961 0 -0.051410414338568307 -0.01776846080825829 0 -0.039332989870129259 -0.017369547087643489 0 -0.031594138203677097 -0.0080887341473911793 0 -0.02322217411399689 -0.01708313159200809 0 -0.01381567535620187 -0.0055332108872310336 0 -0.031594138203677097 -0.0080887341473911793 0 -0.01381567535620187 -0.0055332108872310336 0 -0.02322217411399689 -0.01708313159200809 0 -0.01207603229397454 -0.011910850602099 0 -0.01381567535620187 -0.0055332108872310336 0 -0.02322217411399689 -0.01708313159200809 0 -0.01357688955797188 -0.025580422107468279 0 -0.01207603229397454 -0.011910850602099 0 -0.033747572190683577 -0.02618519295968106 0 -0.02322217411399689 -0.01708313159200809 0 -0.02599530337970353 -0.032274265934476437 0 -0.02322217411399689 -0.01708313159200809 0 -0.01357688955797188 -0.025580422107468279 0 -0.02599530337970353 -0.032274265934476437 0 -0.01357688955797188 -0.025580422107468279 0 -0.000196678936145564 -0.020618198175398689 0 -0.0029404273112356889 -0.033348019466363163 0 -0.01357688955797188 -0.025580422107468279 0 -0.000196678936145564 -0.020618198175398689 0 -0.01207603229397454 -0.011910850602099 0 -0.01207603229397454 -0.011910850602099 0 -0.01381567535620187 -0.0055332108872310336 0 9.2994626588645875e-05 -0.0066853786883017728 0 -0.01207603229397454 -0.011910850602099 0 -0.01381567535620187 -0.0055332108872310336 0 -0.000196678936145564 -0.020618198175398689 0 -0.01207603229397454 -0.011910850602099 0 9.2994626588645875e-05 -0.0066853786883017728 0 -0.01381567535620187 -0.0055332108872310336 0 -0.0039028350278822849 0.007084725468534175 0 9.2994626588645875e-05 -0.0066853786883017728 0 -0.02714471254115159 -0.045547001243098781 0 -0.01509612529506261 -0.03864426431082528 0 -0.0058232936852503636 -0.056471612802719749 0 -0.035482661457512138 -0.061122927087295047 0 -0.02714471254115159 -0.045547001243098781 0 -0.0058232936852503636 -0.056471612802719749 0 -0.035482661457512138 -0.061122927087295047 0 -0.0058232936852503636 -0.056471612802719749 0 -0.034695852536791923 -0.03753551971815746 0 -0.02714471254115159 -0.045547001243098781 0 -0.02599530337970353 -0.032274265934476437 0 -0.01357688955797188 -0.025580422107468279 0 -0.02599530337970353 -0.032274265934476437 0 -0.01509612529506261 -0.03864426431082528 0 -0.02714471254115159 -0.045547001243098781 0 -0.02599530337970353 -0.032274265934476437 0 -0.01509612529506261 -0.03864426431082528 0 -0.01509612529506261 -0.03864426431082528 0 -0.0029404273112356889 -0.033348019466363163 0 -0.0058232936852503636 -0.056471612802719749 0 -0.01357688955797188 -0.025580422107468279 0 -0.01509612529506261 -0.03864426431082528 0 -0.0029404273112356889 -0.033348019466363163 0 -0.0058232936852503636 -0.056471612802719749 0 -0.0055829579384821266 -0.089872009817903206 0 -0.027495091906489459 -0.084288343478106528 0 -0.035482661457512138 -0.061122927087295047 0 -0.0058232936852503636 -0.056471612802719749 0 -0.027495091906489459 -0.084288343478106528 0 -0.035482661457512138 -0.061122927087295047 0 -0.027495091906489459 -0.084288343478106528 0 -0.046655069534311013 -0.078709322439071264 0 -0.027495091906489459 -0.084288343478106528 0 -0.046655069534311013 -0.078709322439071264 0 -0.047883700425536267 -0.097880342100428314 0 -0.046655069534311013 -0.078709322439071264 0 -0.057271864652240989 -0.084480758157658542 0 -0.047883700425536267 -0.097880342100428314 0 -0.057271864652240989 -0.084480758157658542 0 -0.047883700425536267 -0.097880342100428314 0 -0.057271864652240989 -0.084480758157658542 0 -0.059068423004080189 -0.095634756723340597 0 -0.047883700425536267 -0.097880342100428314 0 -0.065142029229774162 -0.065774241371869185 0 -0.046655069534311013 -0.078709322439071264 0 -0.057271864652240989 -0.084480758157658542 0 -0.065142029229774162 -0.065774241371869185 0 -0.035482661457512138 -0.061122927087295047 0 -0.066660028878948008 -0.071081174214890339 0 -0.057271864652240989 -0.084480758157658542 0 -0.065142029229774162 -0.065774241371869185 0 -0.035482661457512138 -0.061122927087295047 0 -0.046655069534311013 -0.078709322439071264 0 -0.051178947470205613 -0.1144995999952141 0 -0.057432720535391849 -0.1044541171995559 0 -0.040543311102081557 -0.1110403241386054 0 -0.051178947470205613 -0.1144995999952141 0 -0.046988208991606717 -0.1248047717112615 0 -0.056457006617691111 -0.1219011061966373 0 -0.051178947470205613 -0.1144995999952141 0 -0.046988208991606717 -0.1248047717112615 0 -0.042591524654458077 -0.11814158285773529 0 -0.06453492198304786 -0.1164467774778781 0 -0.051178947470205613 -0.1144995999952141 0 -0.056457006617691111 -0.1219011061966373 0 -0.06453492198304786 -0.1164467774778781 0 -0.051178947470205613 -0.1144995999952141 0 -0.057432720535391849 -0.1044541171995559 0 -0.057432720535391849 -0.1044541171995559 0 -0.047883700425536267 -0.097880342100428314 0 -0.040543311102081557 -0.1110403241386054 0 -0.057432720535391849 -0.1044541171995559 0 -0.040543311102081557 -0.1110403241386054 0 -0.057432720535391849 -0.1044541171995559 0 -0.059068423004080189 -0.095634756723340597 0 -0.047883700425536267 -0.097880342100428314 0 -0.047883700425536267 -0.097880342100428314 0 -0.035992496864948161 -0.11485247599614699 0 -0.019564200379616679 -0.1074732252651909 0 -0.047883700425536267 -0.097880342100428314 0 -0.035992496864948161 -0.11485247599614699 0 -0.040543311102081557 -0.1110403241386054 0 -0.047883700425536267 -0.097880342100428314 0 -0.035992496864948161 -0.11485247599614699 0 -0.047883700425536267 -0.097880342100428314 0 -0.019564200379616679 -0.1074732252651909 0 -0.027495091906489459 -0.084288343478106528 0 -0.047883700425536267 -0.097880342100428314 0 -0.019564200379616679 -0.1074732252651909 0 -0.035992496864948161 -0.11485247599614699 0 -0.024101293304360751 -0.13182460989186631 0 -0.038254658843448343 -0.12551074244744831 0 -0.051178947470205613 -0.1144995999952141 0 -0.040543311102081557 -0.1110403241386054 0 -0.042591524654458077 -0.11814158285773529 0 -0.035992496864948161 -0.11485247599614699 0 -0.040543311102081557 -0.1110403241386054 0 -0.042591524654458077 -0.11814158285773529 0 -0.046988208991606717 -0.1248047717112615 0 -0.042591524654458077 -0.11814158285773529 0 -0.038254658843448343 -0.12551074244744831 0 -0.035992496864948161 -0.11485247599614699 0 -0.042591524654458077 -0.11814158285773529 0 -0.038254658843448343 -0.12551074244744831 0 -0.035992496864948161 -0.11485247599614699 0 -0.02253313057288104 -0.11949984407074909 0 -0.024101293304360751 -0.13182460989186631 0 -0.02253313057288104 -0.11949984407074909 0 -0.019564200379616679 -0.1074732252651909 0 -0.010474531742598591 -0.1238490651297921 0 -0.035992496864948161 -0.11485247599614699 0 -0.024101293304360751 -0.13182460989186631 0 -0.035992496864948161 -0.11485247599614699 0 -0.02253313057288104 -0.11949984407074909 0 -0.019564200379616679 -0.1074732252651909 0 -0.0055829579384821266 -0.089872009817903206 0 -0.027495091906489459 -0.084288343478106528 0 -0.019564200379616679 -0.1074732252651909 0 -0.0055829579384821266 -0.089872009817903206 0 -0.019564200379616679 -0.1074732252651909 0 0.008755299666303458 -0.11706610842995251 0 -0.010474531742598591 -0.1238490651297921 0 0.0016256503768235129 -0.1281843828229571 0 0.008755299666303458 -0.11706610842995251 0 -0.019564200379616679 -0.1074732252651909 0 0.008755299666303458 -0.11706610842995251 0 -0.019564200379616679 -0.1074732252651909 0 -0.010474531742598591 -0.1238490651297921 0 0.008755299666303458 -0.11706610842995251 0 -0.010474531742598591 -0.1238490651297921 0 -0.0061755514744574747 -0.13939955945566099 0 0.0016256503768235129 -0.1281843828229571 0 -0.010474531742598591 -0.1238490651297921 0 -0.0061755514744574747 -0.13939955945566099 0 -0.024101293304360751 -0.13182460989186631 0 -0.0061755514744574747 -0.13939955945566099 0 -0.024101293304360751 -0.13182460989186631 0 -0.032265036642118862 -0.1482774500291669 0 -0.02253313057288104 -0.11949984407074909 0 -0.010474531742598591 -0.1238490651297921 0 -0.024101293304360751 -0.13182460989186631 0 -0.0061755514744574747 -0.13939955945566099 0 -0.032265036642118862 -0.1482774500291669 0 -0.0061755514744574747 -0.13939955945566099 0 -0.017631658665500999 -0.16273691252173469 0 -0.032265036642118862 -0.1482774500291669 0 -0.0061755514744574747 -0.13939955945566099 0 -0.017631658665500999 -0.16273691252173469 0 0.0065196069439187616 -0.1586795582308056 0 -0.00135817117020914 -0.18493631818518841 0 -0.017631658665500999 -0.16273691252173469 0 0.0065196069439187616 -0.1586795582308056 0 -0.00135817117020914 -0.18493631818518841 0 -0.031231494468976759 -0.18056782706328869 0 -0.017631658665500999 -0.16273691252173469 0 -0.017631658665500999 -0.16273691252173469 0 -0.041279305181162559 -0.1645607621662975 0 -0.032265036642118862 -0.1482774500291669 0 -0.031231494468976759 -0.18056782706328869 0 -0.017631658665500999 -0.16273691252173469 0 -0.041279305181162559 -0.1645607621662975 0 -0.041279305181162559 -0.1645607621662975 0 -0.058354521809780249 -0.15715534060267269 0 -0.032265036642118862 -0.1482774500291669 0 -0.031231494468976759 -0.18056782706328869 0 -0.049044640124178251 -0.17566387998290109 0 -0.049711650640844221 -0.19357316099733629 0 -0.031231494468976759 -0.18056782706328869 0 -0.041279305181162559 -0.1645607621662975 0 -0.049044640124178251 -0.17566387998290109 0 -0.049044640124178251 -0.17566387998290109 0 -0.049711650640844221 -0.19357316099733629 0 -0.064646228520127469 -0.18246230908491001 0 -0.041279305181162559 -0.1645607621662975 0 -0.049044640124178251 -0.17566387998290109 0 -0.058354521809780249 -0.15715534060267269 0 -0.049044640124178251 -0.17566387998290109 0 -0.058354521809780249 -0.15715534060267269 0 -0.064646228520127469 -0.18246230908491001 0 -0.058354521809780249 -0.15715534060267269 0 -0.044727194245541578 -0.13792490225132811 0 -0.064408364707044807 -0.14201504997649891 0 -0.055561102951258851 -0.13150482878756631 0 -0.044727194245541578 -0.13792490225132811 0 -0.064408364707044807 -0.14201504997649891 0 -0.056457006617691111 -0.1219011061966373 0 -0.055561102951258851 -0.13150482878756631 0 -0.068622282056706202 -0.12818128688391409 0 -0.046988208991606717 -0.1248047717112615 0 -0.056457006617691111 -0.1219011061966373 0 -0.055561102951258851 -0.13150482878756631 0 -0.046988208991606717 -0.1248047717112615 0 -0.055561102951258851 -0.13150482878756631 0 -0.044727194245541578 -0.13792490225132811 0 -0.024101293304360751 -0.13182460989186631 0 -0.044727194245541578 -0.13792490225132811 0 -0.032265036642118862 -0.1482774500291669 0 -0.024101293304360751 -0.13182460989186631 0 -0.044727194245541578 -0.13792490225132811 0 -0.038254658843448343 -0.12551074244744831 0 -0.046988208991606717 -0.1248047717112615 0 -0.044727194245541578 -0.13792490225132811 0 -0.038254658843448343 -0.12551074244744831 0 -0.058354521809780249 -0.15715534060267269 0 -0.044727194245541578 -0.13792490225132811 0 -0.032265036642118862 -0.1482774500291669 0 -0.058354521809780249 -0.15715534060267269 0 -0.032265036642118862 -0.1482774500291669 0 -0.024991505512592979 -0.26370659804833729 0 -0.01711372739846502 -0.23744983809395431 0 -0.00049652130699871766 -0.2473016026161601 0 -0.01711372739846502 -0.23744983809395431 0 -0.00049652130699871766 -0.2473016026161601 0 0.0091491673758014591 -0.2336055957509223 0 -0.01711372739846502 -0.23744983809395431 0 -0.0092359492843370593 -0.21119307813957131 0 -0.01711372739846502 -0.23744983809395431 0 -0.0092359492843370593 -0.21119307813957131 0 0.0091491673758014591 -0.2336055957509223 0 -0.01711372739846502 -0.23744983809395431 0 -0.0092359492843370593 -0.21119307813957131 0 -0.034389638829642508 -0.21738151833063341 0 -0.0092359492843370593 -0.21119307813957131 0 -0.025440413837531019 -0.19954238369590491 0 -0.034389638829642508 -0.21738151833063341 0 -0.00135817117020914 -0.18493631818518841 0 -0.0092359492843370593 -0.21119307813957131 0 -0.025440413837531019 -0.19954238369590491 0 -0.00135817117020914 -0.18493631818518841 0 -0.0092359492843370593 -0.21119307813957131 0 -0.00135817117020914 -0.18493631818518841 0 -0.031231494468976759 -0.18056782706328869 0 -0.025440413837531019 -0.19954238369590491 0 -0.031231494468976759 -0.18056782706328869 0 -0.025440413837531019 -0.19954238369590491 0 -0.049711650640844221 -0.19357316099733629 0 -0.049711650640844221 -0.19357316099733629 0 -0.070053956969725439 -0.19825852001767891 0 -0.064646228520127469 -0.18246230908491001 0 -0.049711650640844221 -0.19357316099733629 0 -0.05891793380338059 -0.217278769950395 0 -0.070053956969725439 -0.19825852001767891 0 -0.049711650640844221 -0.19357316099733629 0 -0.05891793380338059 -0.217278769950395 0 -0.034389638829642508 -0.21738151833063341 0 -0.025440413837531019 -0.19954238369590491 0 -0.049711650640844221 -0.19357316099733629 0 -0.034389638829642508 -0.21738151833063341 0 -0.05891793380338059 -0.217278769950395 0 -0.034389638829642508 -0.21738151833063341 0 -0.046614547137775353 -0.2363946847203478 0 -0.01711372739846502 -0.23744983809395431 0 -0.034389638829642508 -0.21738151833063341 0 -0.046614547137775353 -0.2363946847203478 0 -0.05891793380338059 -0.217278769950395 0 -0.046614547137775353 -0.2363946847203478 0 -0.068394407380387184 -0.23487536875765391 0 -0.063197998448463549 -0.25457443183096989 0 -0.046614547137775353 -0.2363946847203478 0 -0.068394407380387184 -0.23487536875765391 0 -0.063197998448463549 -0.25457443183096989 0 -0.041780072468508483 -0.25363654907423799 0 -0.046614547137775353 -0.2363946847203478 0 -0.041780072468508483 -0.25363654907423799 0 -0.01711372739846502 -0.23744983809395431 0 -0.046614547137775353 -0.2363946847203478 0 -0.083370738416282147 -0.2517868905605774 0 -0.068394407380387184 -0.23487536875765391 0 -0.091595874336266328 -0.23322504066893271 0 -0.1024803928049134 -0.25248983375176598 0 -0.083370738416282147 -0.2517868905605774 0 -0.091595874336266328 -0.23322504066893271 0 -0.063197998448463549 -0.25457443183096989 0 -0.083370738416282147 -0.2517868905605774 0 -0.068394407380387184 -0.23487536875765391 0 -0.05891793380338059 -0.217278769950395 0 -0.068394407380387184 -0.23487536875765391 0 -0.079467493443516085 -0.21874619314844909 0 -0.068394407380387184 -0.23487536875765391 0 -0.091595874336266328 -0.23322504066893271 0 -0.079467493443516085 -0.21874619314844909 0 -0.091595874336266328 -0.23322504066893271 0 -0.079467493443516085 -0.21874619314844909 0 -0.095585387280427384 -0.21316117448857089 0 -0.079467493443516085 -0.21874619314844909 0 -0.070053956969725439 -0.19825852001767891 0 -0.088370645944284121 -0.1976845175827309 0 -0.079467493443516085 -0.21874619314844909 0 -0.088370645944284121 -0.1976845175827309 0 -0.095585387280427384 -0.21316117448857089 0 -0.05891793380338059 -0.217278769950395 0 -0.079467493443516085 -0.21874619314844909 0 -0.070053956969725439 -0.19825852001767891 0 -0.070053956969725439 -0.19825852001767891 0 -0.088370645944284121 -0.1976845175827309 0 -0.079209789466200275 -0.17980616934225241 0 -0.088370645944284121 -0.1976845175827309 0 -0.1104003138189916 -0.1969255828543951 0 -0.094738057006563306 -0.1829913446695248 0 -0.088370645944284121 -0.1976845175827309 0 -0.1104003138189916 -0.1969255828543951 0 -0.095585387280427384 -0.21316117448857089 0 -0.1104003138189916 -0.1969255828543951 0 -0.113799354248535 -0.2138306931932509 0 -0.13070414052114429 -0.21031281733319801 0 -0.113799354248535 -0.2138306931932509 0 -0.1226970215924227 -0.22764777181289719 0 -0.13070414052114429 -0.21031281733319801 0 -0.113799354248535 -0.2138306931932509 0 -0.095585387280427384 -0.21316117448857089 0 -0.1054327338998151 -0.2243038262406476 0 -0.1104003138189916 -0.1969255828543951 0 -0.113799354248535 -0.2138306931932509 0 -0.095585387280427384 -0.21316117448857089 0 -0.091595874336266328 -0.23322504066893271 0 -0.095585387280427384 -0.21316117448857089 0 -0.1054327338998151 -0.2243038262406476 0 -0.091595874336266328 -0.23322504066893271 0 -0.1054327338998151 -0.2243038262406476 0 -0.10970668582916381 -0.23818721836705661 0 -0.113799354248535 -0.2138306931932509 0 -0.1054327338998151 -0.2243038262406476 0 -0.1226970215924227 -0.22764777181289719 0 -0.1054327338998151 -0.2243038262406476 0 -0.1226970215924227 -0.22764777181289719 0 -0.10970668582916381 -0.23818721836705661 0 -0.1180516765755087 -0.25804632408857098 0 -0.1227181660842256 -0.2423306863943781 0 -0.1132611434474206 -0.2481528401313787 0 -0.1226970215924227 -0.22764777181289719 0 -0.10970668582916381 -0.23818721836705661 0 -0.1227181660842256 -0.2423306863943781 0 -0.10970668582916381 -0.23818721836705661 0 -0.1227181660842256 -0.2423306863943781 0 -0.1132611434474206 -0.2481528401313787 0 -0.1024803928049134 -0.25248983375176598 0 -0.10970668582916381 -0.23818721836705661 0 -0.1132611434474206 -0.2481528401313787 0 -0.1024803928049134 -0.25248983375176598 0 -0.091595874336266328 -0.23322504066893271 0 -0.10970668582916381 -0.23818721836705661 0 -0.079720317720212736 -0.15147061896928729 0 -0.096968972816658394 -0.15867012347329221 0 -0.095093150283929451 -0.14237019556209621 0 -0.079720317720212736 -0.15147061896928729 0 -0.07875868991760257 -0.14024152349695659 0 -0.095093150283929451 -0.14237019556209621 0 -0.083750381358792675 -0.1284598765970584 0 -0.07875868991760257 -0.14024152349695659 0 -0.095093150283929451 -0.14237019556209621 0 -0.083750381358792675 -0.1284598765970584 0 -0.095093150283929451 -0.14237019556209621 0 -0.09663758558397495 -0.12793937277247569 0 -0.090963634255588843 -0.1194276257715948 0 -0.083750381358792675 -0.1284598765970584 0 -0.09663758558397495 -0.12793937277247569 0 -0.07875868991760257 -0.14024152349695659 0 -0.068622282056706202 -0.12818128688391409 0 -0.064408364707044807 -0.14201504997649891 0 -0.083750381358792675 -0.1284598765970584 0 -0.07875868991760257 -0.14024152349695659 0 -0.068622282056706202 -0.12818128688391409 0 -0.055561102951258851 -0.13150482878756631 0 -0.068622282056706202 -0.12818128688391409 0 -0.064408364707044807 -0.14201504997649891 0 -0.058354521809780249 -0.15715534060267269 0 -0.079720317720212736 -0.15147061896928729 0 -0.064408364707044807 -0.14201504997649891 0 -0.079720317720212736 -0.15147061896928729 0 -0.07875868991760257 -0.14024152349695659 0 -0.064408364707044807 -0.14201504997649891 0 -0.058354521809780249 -0.15715534060267269 0 -0.079720317720212736 -0.15147061896928729 0 -0.084444006977441616 -0.1660332311761786 0 -0.058354521809780249 -0.15715534060267269 0 -0.079209789466200275 -0.17980616934225241 0 -0.084444006977441616 -0.1660332311761786 0 -0.058354521809780249 -0.15715534060267269 0 -0.084444006977441616 -0.1660332311761786 0 -0.058354521809780249 -0.15715534060267269 0 -0.064646228520127469 -0.18246230908491001 0 -0.079209789466200275 -0.17980616934225241 0 -0.070053956969725439 -0.19825852001767891 0 -0.064646228520127469 -0.18246230908491001 0 -0.079209789466200275 -0.17980616934225241 0 -0.088370645944284121 -0.1976845175827309 0 -0.079209789466200275 -0.17980616934225241 0 -0.094738057006563306 -0.1829913446695248 0 -0.079209789466200275 -0.17980616934225241 0 -0.084444006977441616 -0.1660332311761786 0 -0.094738057006563306 -0.1829913446695248 0 -0.079720317720212736 -0.15147061896928729 0 -0.084444006977441616 -0.1660332311761786 0 -0.096968972816658394 -0.15867012347329221 0 -0.084444006977441616 -0.1660332311761786 0 -0.096968972816658394 -0.15867012347329221 0 -0.1105334921451028 -0.1749111217496844 0 -0.084444006977441616 -0.1660332311761786 0 -0.1105334921451028 -0.1749111217496844 0 -0.084444006977441616 -0.1660332311761786 0 -0.094738057006563306 -0.1829913446695248 0 -0.1105334921451028 -0.1749111217496844 0 -0.1104003138189916 -0.1969255828543951 0 -0.094738057006563306 -0.1829913446695248 0 -0.1105334921451028 -0.1749111217496844 0 -0.1105334921451028 -0.1749111217496844 0 -0.12535270337507581 -0.15990724899838751 0 -0.1366229773127641 -0.1837890123231902 0 -0.1104003138189916 -0.1969255828543951 0 -0.1105334921451028 -0.1749111217496844 0 -0.1366229773127641 -0.1837890123231902 0 -0.1105334921451028 -0.1749111217496844 0 -0.1366229773127641 -0.1837890123231902 0 -0.096968972816658394 -0.15867012347329221 0 -0.1228337794764132 -0.1584417794038547 0 -0.12535270337507581 -0.15990724899838751 0 -0.096968972816658394 -0.15867012347329221 0 -0.12535270337507581 -0.15990724899838751 0 -0.096968972816658394 -0.15867012347329221 0 -0.1105334921451028 -0.1749111217496844 0 -0.12535270337507581 -0.15990724899838751 0 -0.1228337794764132 -0.1584417794038547 0 -0.1163358974479053 -0.13447852879972791 0 -0.13372020093396619 -0.14262720508792989 0 -0.1228337794764132 -0.1584417794038547 0 -0.1163358974479053 -0.13447852879972791 0 -0.096968972816658394 -0.15867012347329221 0 -0.1228337794764132 -0.1584417794038547 0 -0.10981797091451211 -0.14910854075688659 0 -0.1228337794764132 -0.1584417794038547 0 -0.10981797091451211 -0.14910854075688659 0 -0.1163358974479053 -0.13447852879972791 0 -0.10981797091451211 -0.14910854075688659 0 -0.095093150283929451 -0.14237019556209621 0 -0.1163358974479053 -0.13447852879972791 0 -0.096968972816658394 -0.15867012347329221 0 -0.10981797091451211 -0.14910854075688659 0 -0.095093150283929451 -0.14237019556209621 0 -0.1013807090463807 -0.1178251212445425 0 -0.09663758558397495 -0.12793937277247569 0 -0.1163358974479053 -0.13447852879972791 0 -0.095093150283929451 -0.14237019556209621 0 -0.09663758558397495 -0.12793937277247569 0 -0.1163358974479053 -0.13447852879972791 0 -0.1247589529873689 -0.1193319215051903 0 -0.1163358974479053 -0.13447852879972791 0 -0.13372020093396619 -0.14262720508792989 0 -0.1247589529873689 -0.1193319215051903 0 -0.14820044177604541 -0.1281571168856622 0 -0.13372020093396619 -0.14262720508792989 0 -0.14820044177604541 -0.1281571168856622 0 -0.1542604279388281 -0.14227891522890679 0 -0.13372020093396619 -0.14262720508792989 0 -0.14820044177604541 -0.1281571168856622 0 -0.1542604279388281 -0.14227891522890679 0 -0.1627185041981529 -0.13219729420462109 0 -0.1542604279388281 -0.14227891522890679 0 -0.13372020093396619 -0.14262720508792989 0 -0.15373643393349321 -0.1611443745234826 0 -0.13372020093396619 -0.14262720508792989 0 -0.12535270337507581 -0.15990724899838751 0 -0.15373643393349321 -0.1611443745234826 0 -0.1228337794764132 -0.1584417794038547 0 -0.13372020093396619 -0.14262720508792989 0 -0.12535270337507581 -0.15990724899838751 0 -0.12535270337507581 -0.15990724899838751 0 -0.15373643393349321 -0.1611443745234826 0 -0.1366229773127641 -0.1837890123231902 0 -0.15373643393349321 -0.1611443745234826 0 -0.1694506002014288 -0.18757524697757899 0 -0.12535270337507581 -0.15990724899838751 0 -0.1366229773127641 -0.1837890123231902 0 -0.15373643393349321 -0.1611443745234826 0 -0.15373643393349321 -0.1611443745234826 0 -0.1821201644919104 -0.16238150004857879 0 -0.15373643393349321 -0.1611443745234826 0 -0.1821201644919104 -0.16238150004857879 0 -0.1694506002014288 -0.18757524697757899 0 -0.1821201644919104 -0.16238150004857879 0 -0.1694506002014288 -0.18757524697757899 0 -0.19379890898413071 -0.17683459307420779 0 -0.1821201644919104 -0.16238150004857879 0 -0.1694506002014288 -0.18757524697757899 0 -0.1821201644919104 -0.16238150004857879 0 -0.17155722826922179 -0.1449761868806855 0 -0.1921146200112992 -0.14250727412609071 0 -0.1821201644919104 -0.16238150004857879 0 -0.1921146200112992 -0.14250727412609071 0 -0.17524671547322351 -0.12786749151049881 0 -0.17155722826922179 -0.1449761868806855 0 -0.1921146200112992 -0.14250727412609071 0 -0.17524671547322351 -0.12786749151049881 0 -0.1921146200112992 -0.14250727412609071 0 -0.18670902145459281 -0.1191040684327469 0 -0.1542604279388281 -0.14227891522890679 0 -0.1627185041981529 -0.13219729420462109 0 -0.17155722826922179 -0.1449761868806855 0 -0.17524671547322351 -0.12786749151049881 0 -0.1627185041981529 -0.13219729420462109 0 -0.17155722826922179 -0.1449761868806855 0 -0.17524671547322351 -0.12786749151049881 0 -0.1627185041981529 -0.13219729420462109 0 -0.16250662366085711 -0.1185952451931863 0 -0.14820044177604541 -0.1281571168856622 0 -0.1627185041981529 -0.13219729420462109 0 -0.16250662366085711 -0.1185952451931863 0 -0.1542604279388281 -0.14227891522890679 0 -0.15373643393349321 -0.1611443745234826 0 -0.17155722826922179 -0.1449761868806855 0 -0.15373643393349321 -0.1611443745234826 0 -0.1821201644919104 -0.16238150004857879 0 -0.17155722826922179 -0.1449761868806855 0 -0.15522258220679089 -0.24477908560778669 0 -0.14333946920790491 -0.2294569886672235 0 -0.16763173603513851 -0.23245613934898821 0 -0.15522258220679089 -0.24477908560778669 0 -0.14123905081936811 -0.24435887240762211 0 -0.14333946920790491 -0.2294569886672235 0 -0.14348465898741411 -0.25620536207728473 0 -0.15522258220679089 -0.24477908560778669 0 -0.14123905081936811 -0.24435887240762211 0 -0.13138631030816489 -0.25257813007746482 0 -0.14123905081936811 -0.24435887240762211 0 -0.13242069041579241 -0.23834026106624051 0 -0.13138631030816489 -0.25257813007746482 0 -0.1227181660842256 -0.2423306863943781 0 -0.13242069041579241 -0.23834026106624051 0 -0.1226970215924227 -0.22764777181289719 0 -0.1227181660842256 -0.2423306863943781 0 -0.13242069041579241 -0.23834026106624051 0 -0.14123905081936811 -0.24435887240762211 0 -0.13242069041579241 -0.23834026106624051 0 -0.14333946920790491 -0.2294569886672235 0 -0.1226970215924227 -0.22764777181289719 0 -0.13242069041579241 -0.23834026106624051 0 -0.14333946920790491 -0.2294569886672235 0 -0.1226970215924227 -0.22764777181289719 0 -0.14333946920790491 -0.2294569886672235 0 -0.13070414052114429 -0.21031281733319801 0 -0.14333946920790491 -0.2294569886672235 0 -0.15678103591094511 -0.21276899390657841 0 -0.16763173603513851 -0.23245613934898821 0 -0.1366229773127641 -0.1837890123231902 0 -0.1694506002014288 -0.18757524697757899 0 -0.15678103591094511 -0.21276899390657841 0 -0.14333946920790491 -0.2294569886672235 0 -0.13070414052114429 -0.21031281733319801 0 -0.15678103591094511 -0.21276899390657841 0 -0.1104003138189916 -0.1969255828543951 0 -0.1366229773127641 -0.1837890123231902 0 -0.13070414052114429 -0.21031281733319801 0 -0.1366229773127641 -0.1837890123231902 0 -0.13070414052114429 -0.21031281733319801 0 -0.15678103591094511 -0.21276899390657841 0 -0.1694506002014288 -0.18757524697757899 0 -0.15678103591094511 -0.21276899390657841 0 -0.1694506002014288 -0.18757524697757899 0 -0.17513217362906811 -0.2073926596223053 0 -0.15678103591094511 -0.21276899390657841 0 -0.1694506002014288 -0.18757524697757899 0 -0.17513217362906811 -0.2073926596223053 0 -0.1939131805847831 -0.19985277271361301 0 -0.1694506002014288 -0.18757524697757899 0 -0.1939131805847831 -0.19985277271361301 0 -0.19379890898413071 -0.17683459307420779 0 -0.17513217362906811 -0.2073926596223053 0 -0.1882628913527345 -0.22281259662362221 0 -0.1939131805847831 -0.19985277271361301 0 -0.17513217362906811 -0.2073926596223053 0 -0.15678103591094511 -0.21276899390657841 0 -0.16763173603513851 -0.23245613934898821 0 -0.17513217362906811 -0.2073926596223053 0 -0.16763173603513851 -0.23245613934898821 0 -0.1882628913527345 -0.22281259662362221 0 -0.19441515482194541 -0.25327847920056412 0 -0.16894990690467979 -0.25474192063892442 0 -0.16763173603513851 -0.23245613934898821 0 -0.19441515482194541 -0.25327847920056412 0 -0.16763173603513851 -0.23245613934898821 0 -0.1882628913527345 -0.22281259662362221 0 -0.16894990690467979 -0.25474192063892442 0 -0.15522258220679089 -0.24477908560778669 0 -0.16763173603513851 -0.23245613934898821 0 -0.219880402739211 -0.25181503776220382 0 -0.19441515482194541 -0.25327847920056412 0 -0.20674722185319511 -0.2345889935936484 0 -0.19441515482194541 -0.25327847920056412 0 -0.20674722185319511 -0.2345889935936484 0 -0.1882628913527345 -0.22281259662362221 0 -0.20674722185319511 -0.2345889935936484 0 -0.1882628913527345 -0.22281259662362221 0 -0.2091315935591978 -0.21662383188908929 0 -0.20674722185319511 -0.2345889935936484 0 -0.2091315935591978 -0.21662383188908929 0 -0.22362799058216651 -0.2245573636333382 0 -0.2091315935591978 -0.21662383188908929 0 -0.1939131805847831 -0.19985277271361301 0 -0.21482891535745621 -0.19991243898374619 0 -0.2091315935591978 -0.21662383188908929 0 -0.21482891535745621 -0.19991243898374619 0 -0.22593877717202199 -0.21180384354955761 0 -0.1882628913527345 -0.22281259662362221 0 -0.2091315935591978 -0.21662383188908929 0 -0.1939131805847831 -0.19985277271361301 0 -0.1939131805847831 -0.19985277271361301 0 -0.19379890898413071 -0.17683459307420779 0 -0.20680906225179341 -0.18721099781699299 0 -0.21482891535745621 -0.19991243898374619 0 -0.20680906225179341 -0.18721099781699299 0 -0.22005095318596091 -0.18388132114826231 0 -0.1939131805847831 -0.19985277271361301 0 -0.21482891535745621 -0.19991243898374619 0 -0.20680906225179341 -0.18721099781699299 0 -0.21482891535745621 -0.19991243898374619 0 -0.23206994554400109 -0.196382068865884 0 -0.22593877717202199 -0.21180384354955761 0 -0.21482891535745621 -0.19991243898374619 0 -0.23206994554400109 -0.196382068865884 0 -0.22005095318596091 -0.18388132114826231 0 -0.23206994554400109 -0.196382068865884 0 -0.24358344246471439 -0.19158045559441569 0 -0.23861870510142411 -0.17727437257379591 0 -0.24358344246471439 -0.19158045559441569 0 -0.24725779665830391 -0.20054974283342891 0 -0.25028721978338742 -0.19371089023616611 0 -0.24358344246471439 -0.19158045559441569 0 -0.2491857197856916 -0.1881539994391043 0 -0.25028721978338742 -0.19371089023616611 0 -0.23206994554400109 -0.196382068865884 0 -0.24725779665830391 -0.20054974283342891 0 -0.24112825112839739 -0.21032916605117341 0 -0.23206994554400109 -0.196382068865884 0 -0.24358344246471439 -0.19158045559441569 0 -0.24725779665830391 -0.20054974283342891 0 -0.24725779665830391 -0.20054974283342891 0 -0.24112825112839739 -0.21032916605117341 0 -0.25521199120448118 -0.20608867607345219 0 -0.24112825112839739 -0.21032916605117341 0 -0.24642641019704661 -0.22247541380929459 0 -0.25392376853803972 -0.21594652707730211 0 -0.2091315935591978 -0.21662383188908929 0 -0.22593877717202199 -0.21180384354955761 0 -0.22362799058216651 -0.2245573636333382 0 -0.24112825112839739 -0.21032916605117341 0 -0.22593877717202199 -0.21180384354955761 0 -0.23523524517534511 -0.22505702465694549 0 -0.23206994554400109 -0.196382068865884 0 -0.24112825112839739 -0.21032916605117341 0 -0.22593877717202199 -0.21180384354955761 0 -0.20674722185319511 -0.2345889935936484 0 -0.22362799058216651 -0.2245573636333382 0 -0.23124900575331131 -0.23885322501217501 0 -0.22362799058216651 -0.2245573636333382 0 -0.23523524517534511 -0.22505702465694549 0 -0.23124900575331131 -0.23885322501217501 0 -0.22593877717202199 -0.21180384354955761 0 -0.22362799058216651 -0.2245573636333382 0 -0.23523524517534511 -0.22505702465694549 0 -0.24642641019704661 -0.22247541380929459 0 -0.24552422698312379 -0.2457455520674697 0 -0.24112825112839739 -0.21032916605117341 0 -0.23523524517534511 -0.22505702465694549 0 -0.24642641019704661 -0.22247541380929459 0 -0.23523524517534511 -0.22505702465694549 0 -0.24642641019704661 -0.22247541380929459 0 -0.2417959214028399 -0.23748869097786729 0 -0.23523524517534511 -0.22505702465694549 0 -0.2417959214028399 -0.23748869097786729 0 -0.23124900575331131 -0.23885322501217501 0 -0.24642641019704661 -0.22247541380929459 0 -0.24552422698312379 -0.2457455520674697 0 -0.25745970649811001 -0.23572969511482039 0 -0.2417959214028399 -0.23748869097786729 0 -0.24552422698312379 -0.2457455520674697 0 -0.23124900575331131 -0.23885322501217501 0 -0.24642641019704661 -0.22247541380929459 0 -0.2417959214028399 -0.23748869097786729 0 -0.24552422698312379 -0.2457455520674697 0 -0.2417959214028399 -0.23748869097786729 0 -0.24552422698312379 -0.2457455520674697 0 -0.25059524740695288 -0.25004991155547401 0 -0.24754692042651941 -0.25022509335756632 0 -0.24552422698312379 -0.2457455520674697 0 -0.2453456506564767 -0.25035159632384441 0 -0.24754692042651941 -0.25022509335756632 0 -0.24552422698312379 -0.2457455520674697 0 -0.24754692042651941 -0.25022509335756632 0 -0.24552422698312379 -0.2457455520674697 0 -0.2453456506564767 -0.25035159632384441 0 -0.24552422698312379 -0.2457455520674697 0 -0.2453456506564767 -0.25035159632384441 0 -0.24552422698312379 -0.2457455520674697 0 -0.23124900575331131 -0.23885322501217501 0 -0.219880402739211 -0.25181503776220382 0 -0.2453456506564767 -0.25035159632384441 0 -0.23124900575331131 -0.23885322501217501 0 -0.219880402739211 -0.25181503776220382 0 -0.20674722185319511 -0.2345889935936484 0 -0.23124900575331131 -0.23885322501217501 0 -0.2160290277721203 -0.1395524278271662 0 -0.1921146200112992 -0.14250727412609071 0 -0.20508583101114591 -0.16338247531478869 0 -0.2160290277721203 -0.1395524278271662 0 -0.20508583101114591 -0.16338247531478869 0 -0.22805149753038129 -0.1643834505809996 0 -0.2160290277721203 -0.1395524278271662 0 -0.1921146200112992 -0.14250727412609071 0 -0.20210907553068599 -0.1226330482036016 0 -0.2160290277721203 -0.1395524278271662 0 -0.21500619943136981 -0.11666867666619091 0 -0.20210907553068599 -0.1226330482036016 0 -0.1921146200112992 -0.14250727412609071 0 -0.20210907553068599 -0.1226330482036016 0 -0.1921146200112992 -0.14250727412609071 0 -0.20210907553068599 -0.1226330482036016 0 -0.18670902145459281 -0.1191040684327469 0 -0.1821201644919104 -0.16238150004857879 0 -0.1921146200112992 -0.14250727412609071 0 -0.20508583101114591 -0.16338247531478869 0 -0.1821201644919104 -0.16238150004857879 0 -0.20508583101114591 -0.16338247531478869 0 -0.1821201644919104 -0.16238150004857879 0 -0.19379890898413071 -0.17683459307420779 0 -0.20508583101114591 -0.16338247531478869 0 -0.19379890898413071 -0.17683459307420779 0 -0.20916977005217979 -0.17540736419247949 0 -0.20508583101114591 -0.16338247531478869 0 -0.19379890898413071 -0.17683459307420779 0 -0.20680906225179341 -0.18721099781699299 0 -0.20916977005217979 -0.17540736419247949 0 -0.20916977005217979 -0.17540736419247949 0 -0.21952497029072451 -0.1684165975116568 0 -0.22005095318596091 -0.18388132114826231 0 -0.20680906225179341 -0.18721099781699299 0 -0.20916977005217979 -0.17540736419247949 0 -0.22005095318596091 -0.18388132114826231 0 -0.20508583101114591 -0.16338247531478869 0 -0.22805149753038129 -0.1643834505809996 0 -0.21952497029072451 -0.1684165975116568 0 -0.20508583101114591 -0.16338247531478869 0 -0.22805149753038129 -0.1643834505809996 0 -0.20916977005217979 -0.17540736419247949 0 -0.20508583101114591 -0.16338247531478869 0 -0.21952497029072451 -0.1684165975116568 0 -0.22805149753038129 -0.1643834505809996 0 -0.21952497029072451 -0.1684165975116568 0 -0.23861870510142411 -0.17727437257379591 0 -0.23206994554400109 -0.196382068865884 0 -0.22005095318596091 -0.18388132114826231 0 -0.23861870510142411 -0.17727437257379591 0 -0.21952497029072451 -0.1684165975116568 0 -0.23861870510142411 -0.17727437257379591 0 -0.21952497029072451 -0.1684165975116568 0 -0.22005095318596091 -0.18388132114826231 0 -0.23861870510142411 -0.17727437257379591 0 -0.23861870510142411 -0.17727437257379591 0 -0.25771243991212323 -0.18613214763593611 0 -0.2491857197856916 -0.1881539994391043 0 -0.23861870510142411 -0.17727437257379591 0 -0.25771243991212323 -0.18613214763593611 0 -0.23861870510142411 -0.17727437257379591 0 -0.25771243991212323 -0.18613214763593611 0 -0.25101716404961671 -0.16538442584721061 0 -0.24358344246471439 -0.19158045559441569 0 -0.2491857197856916 -0.1881539994391043 0 -0.23861870510142411 -0.17727437257379591 0 -0.22805149753038129 -0.1643834505809996 0 -0.25101716404961671 -0.16538442584721061 0 -0.22805149753038129 -0.1643834505809996 0 -0.24252248370888921 -0.13906060170419321 0 -0.25101716404961671 -0.16538442584721061 0 -0.22805149753038129 -0.1643834505809996 0 -0.23861870510142411 -0.17727437257379591 0 -0.25101716404961671 -0.16538442584721061 0 -0.24252248370888921 -0.13906060170419321 0 -0.25101716404961671 -0.16538442584721061 0 -0.25607245445027549 -0.15330591863931409 0 -0.24252248370888921 -0.13906060170419321 0 -0.25101716404961671 -0.16538442584721061 0 -0.2160290277721203 -0.1395524278271662 0 -0.22805149753038129 -0.1643834505809996 0 -0.24252248370888921 -0.13906060170419321 0 -0.2160290277721203 -0.1395524278271662 0 -0.22731348718107061 -0.12823146819429879 0 -0.21500619943136981 -0.11666867666619091 0 -0.2160290277721203 -0.1395524278271662 0 -0.22731348718107061 -0.12823146819429879 0 -0.24252248370888921 -0.13906060170419321 0 -0.22731348718107061 -0.12823146819429879 0 -0.24252248370888921 -0.13906060170419321 0 -0.23402780336816259 -0.11273677756117551 0 -0.24252248370888921 -0.13906060170419321 0 -0.23918338790704849 -0.1157771695894054 0 -0.2519772804193724 -0.12964821717384239 0 -0.24252248370888921 -0.13906060170419321 0 -0.23402780336816259 -0.11273677756117551 0 -0.24252248370888921 -0.13906060170419321 0 -0.25345957737028418 -0.1422243138163761 0 -0.2519772804193724 -0.12964821717384239 0 -0.24589355376940389 -0.1197343415923325 0 -0.23918338790704849 -0.1157771695894054 0 -0.2519772804193724 -0.12964821717384239 0 -0.23918338790704849 -0.1157771695894054 0 -0.2519772804193724 -0.12964821717384239 0 -0.24252248370888921 -0.13906060170419321 0 -0.23918338790704849 -0.1157771695894054 0 -0.23402780336816259 -0.11273677756117551 0 -0.24589355376940389 -0.1197343415923325 0 -0.23918338790704849 -0.1157771695894054 0 -0.24589355376940389 -0.1197343415923325 0 -0.23428392411290661 -0.1051067475620189 0 -0.23918338790704849 -0.1157771695894054 0 -0.23276245469109699 -0.10881563930539349 0 -0.23428392411290661 -0.1051067475620189 0 -0.24589355376940389 -0.1197343415923325 0 -0.23918338790704849 -0.1157771695894054 0 -0.23428392411290661 -0.1051067475620189 0 -0.23918338790704849 -0.1157771695894054 0 -0.23276245469109699 -0.10881563930539349 0 -0.23918338790704849 -0.1157771695894054 0 -0.23276245469109699 -0.10881563930539349 0 -0.23402780336816259 -0.11273677756117551 0 -0.23918338790704849 -0.1157771695894054 0 -0.23402780336816259 -0.11273677756117551 0 -0.24589355376940389 -0.1197343415923325 0 -0.2471185865220428 -0.10611116084315959 0 -0.23428392411290661 -0.1051067475620189 0 -0.2471185865220428 -0.10611116084315959 0 -0.24030469594817791 -0.09630013348455696 0 -0.25043698654984042 -0.09007265746859866 0 -0.24030469594817791 -0.09630013348455696 0 -0.23428392411290661 -0.1051067475620189 0 -0.2312333685779874 -0.09182142569442675 0 -0.2471185865220428 -0.10611116084315959 0 -0.24030469594817791 -0.09630013348455696 0 -0.23428392411290661 -0.1051067475620189 0 -0.23276245469109699 -0.10881563930539349 0 -0.2322542278381117 -0.10724071549824481 0 -0.22105695079066889 -0.096124614939958858 0 -0.23276245469109699 -0.10881563930539349 0 -0.22105695079066889 -0.096124614939958858 0 -0.2197079689344115 -0.1024552813834784 0 -0.23402780336816259 -0.11273677756117551 0 -0.21679093993952619 -0.1025717183395019 0 -0.2322542278381117 -0.10724071549824481 0 -0.23428392411290661 -0.1051067475620189 0 -0.22105695079066889 -0.096124614939958858 0 -0.23402780336816259 -0.11273677756117551 0 -0.21679093993952619 -0.1025717183395019 0 -0.23276245469109699 -0.10881563930539349 0 -0.2197079689344115 -0.1024552813834784 0 -0.23402780336816259 -0.11273677756117551 0 -0.23276245469109699 -0.10881563930539349 0 -0.2322542278381117 -0.10724071549824481 0 -0.23276245469109699 -0.10881563930539349 0 -0.2322542278381117 -0.10724071549824481 0 -0.23428392411290661 -0.1051067475620189 0 -0.23428392411290661 -0.1051067475620189 0 -0.2312333685779874 -0.09182142569442675 0 -0.22267429445640599 -0.090479153531708073 0 -0.23428392411290661 -0.1051067475620189 0 -0.22267429445640599 -0.090479153531708073 0 -0.23428392411290661 -0.1051067475620189 0 -0.22105695079066889 -0.096124614939958858 0 -0.22267429445640599 -0.090479153531708073 0 -0.22105695079066889 -0.096124614939958858 0 -0.2197079689344115 -0.1024552813834784 0 -0.21679093993952619 -0.1025717183395019 0 -0.23276245469109699 -0.10881563930539349 0 -0.22105695079066889 -0.096124614939958858 0 -0.2197079689344115 -0.1024552813834784 0 -0.23402780336816259 -0.11273677756117551 0 -0.21500619943136981 -0.11666867666619091 0 -0.21679093993952619 -0.1025717183395019 0 -0.22731348718107061 -0.12823146819429879 0 -0.23402780336816259 -0.11273677756117551 0 -0.21500619943136981 -0.11666867666619091 0 -0.23276245469109699 -0.10881563930539349 0 -0.23402780336816259 -0.11273677756117551 0 -0.2439945728241126 -0.064939689346654811 0 -0.2297380873970678 -0.067692063896601512 0 -0.2439945728241126 -0.064939689346654811 0 -0.24137888927523499 -0.078755138241854775 0 -0.2439945728241126 -0.064939689346654811 0 -0.24137888927523499 -0.078755138241854775 0 -0.25311922496262851 -0.076102733709373191 0 -0.2439945728241126 -0.064939689346654811 0 -0.24137888927523499 -0.078755138241854775 0 -0.2297380873970678 -0.067692063896601512 0 -0.24137888927523499 -0.078755138241854775 0 -0.23845061397811221 -0.088388675854580795 0 -0.23095344940492971 -0.084091073924781157 0 -0.24137888927523499 -0.078755138241854775 0 -0.25311922496262851 -0.076102733709373191 0 -0.25043698654984042 -0.09007265746859866 0 -0.24137888927523499 -0.078755138241854775 0 -0.23845061397811221 -0.088388675854580795 0 -0.25043698654984042 -0.09007265746859866 0 -0.24030469594817791 -0.09630013348455696 0 -0.23845061397811221 -0.088388675854580795 0 -0.25043698654984042 -0.09007265746859866 0 -0.24030469594817791 -0.09630013348455696 0 -0.23845061397811221 -0.088388675854580795 0 -0.2312333685779874 -0.09182142569442675 0 -0.21998363191120751 -0.087089043722152204 0 -0.2297380873970678 -0.067692063896601512 0 -0.21712915130706961 -0.083492530768668555 0 -0.21998363191120751 -0.087089043722152204 0 -0.23095344940492971 -0.084091073924781157 0 -0.2297380873970678 -0.067692063896601512 0 -0.2312333685779874 -0.09182142569442675 0 -0.22267429445640599 -0.090479153531708073 0 -0.23095344940492971 -0.084091073924781157 0 -0.2312333685779874 -0.09182142569442675 0 -0.22267429445640599 -0.090479153531708073 0 -0.23845061397811221 -0.088388675854580795 0 -0.2312333685779874 -0.09182142569442675 0 -0.23095344940492971 -0.084091073924781157 0 -0.22267429445640599 -0.090479153531708073 0 -0.21998363191120751 -0.087089043722152204 0 -0.23095344940492971 -0.084091073924781157 0 -0.22267429445640599 -0.090479153531708073 0 -0.2186001053592144 -0.089840221033505946 0 -0.22105695079066889 -0.096124614939958858 0 -0.22267429445640599 -0.090479153531708073 0 -0.2186001053592144 -0.089840221033505946 0 -0.22267429445640599 -0.090479153531708073 0 -0.21998363191120751 -0.087089043722152204 0 -0.2186001053592144 -0.089840221033505946 0 -0.21998363191120751 -0.087089043722152204 0 -0.2186001053592144 -0.089840221033505946 0 -0.22267429445640599 -0.090479153531708073 0 -0.21998363191120751 -0.087089043722152204 0 -0.21998363191120751 -0.087089043722152204 0 -0.2297380873970678 -0.067692063896601512 0 -0.24137888927523499 -0.078755138241854775 0 -0.23095344940492971 -0.084091073924781157 0 -0.2297380873970678 -0.067692063896601512 0 -0.2297380873970678 -0.067692063896601512 0 -0.2025820199117199 -0.072934847569037675 0 -0.2297380873970678 -0.067692063896601512 0 -0.2084830181433375 -0.08010491084127612 0 -0.21712915130706961 -0.083492530768668555 0 -0.2297380873970678 -0.067692063896601512 0 -0.2084830181433375 -0.08010491084127612 0 -0.2025820199117199 -0.072934847569037675 0 -0.2186001053592144 -0.089840221033505946 0 -0.20266304943732799 -0.087340900871571078 0 -0.21324825955502349 -0.1004825008863945 0 -0.21712915130706961 -0.083492530768668555 0 -0.2186001053592144 -0.089840221033505946 0 -0.20266304943732799 -0.087340900871571078 0 -0.2186001053592144 -0.089840221033505946 0 -0.20266304943732799 -0.087340900871571078 0 -0.2084830181433375 -0.08010491084127612 0 -0.21712915130706961 -0.083492530768668555 0 -0.20266304943732799 -0.087340900871571078 0 -0.21998363191120751 -0.087089043722152204 0 -0.21712915130706961 -0.083492530768668555 0 -0.21998363191120751 -0.087089043722152204 0 -0.21712915130706961 -0.083492530768668555 0 -0.2186001053592144 -0.089840221033505946 0 -0.20266304943732799 -0.087340900871571078 0 -0.19998712653523509 -0.092662040798007245 0 -0.21324825955502349 -0.1004825008863945 0 -0.20266304943732799 -0.087340900871571078 0 -0.1951760066868399 -0.080679974246598896 0 -0.18672599351544289 -0.084841580709626357 0 -0.20266304943732799 -0.087340900871571078 0 -0.18672599351544289 -0.084841580709626357 0 -0.20266304943732799 -0.087340900871571078 0 -0.19998712653523509 -0.092662040798007245 0 -0.18672599351544289 -0.084841580709626357 0 -0.19998712653523509 -0.092662040798007245 0 -0.18672599351544289 -0.084841580709626357 0 -0.2084830181433375 -0.08010491084127612 0 -0.20266304943732799 -0.087340900871571078 0 -0.1951760066868399 -0.080679974246598896 0 -0.2025820199117199 -0.072934847569037675 0 -0.17542595242637199 -0.078177631241474574 0 -0.1951760066868399 -0.080679974246598896 0 -0.2025820199117199 -0.072934847569037675 0 -0.17542595242637199 -0.078177631241474574 0 -0.2025820199117199 -0.072934847569037675 0 -0.1810019857113119 -0.059274777341667889 0 -0.1974703084310688 -0.055644633873762582 0 -0.2084830181433375 -0.08010491084127612 0 -0.1951760066868399 -0.080679974246598896 0 -0.2025820199117199 -0.072934847569037675 0 -0.2121035310500719 -0.10275882228111199 0 -0.20210907553068599 -0.1226330482036016 0 -0.21500619943136981 -0.11666867666619091 0 -0.2121035310500719 -0.10275882228111199 0 -0.20210907553068599 -0.1226330482036016 0 -0.21500619943136981 -0.11666867666619091 0 -0.21679093993952619 -0.1025717183395019 0 -0.2121035310500719 -0.10275882228111199 0 -0.2197079689344115 -0.1024552813834784 0 -0.21679093993952619 -0.1025717183395019 0 -0.21679093993952619 -0.1025717183395019 0 -0.2121035310500719 -0.10275882228111199 0 -0.21324825955502349 -0.1004825008863945 0 -0.21679093993952619 -0.1025717183395019 0 -0.2121035310500719 -0.10275882228111199 0 -0.2121035310500719 -0.10275882228111199 0 -0.21324825955502349 -0.1004825008863945 0 -0.2186001053592144 -0.089840221033505946 0 -0.21324825955502349 -0.1004825008863945 0 -0.22105695079066889 -0.096124614939958858 0 -0.2186001053592144 -0.089840221033505946 0 -0.21324825955502349 -0.1004825008863945 0 -0.22105695079066889 -0.096124614939958858 0 -0.21679093993952619 -0.1025717183395019 0 -0.21324825955502349 -0.1004825008863945 0 -0.21679093993952619 -0.1025717183395019 0 -0.21324825955502349 -0.1004825008863945 0 -0.19998712653523509 -0.092662040798007245 0 -0.2121035310500719 -0.10275882228111199 0 -0.21324825955502349 -0.1004825008863945 0 -0.19998712653523509 -0.092662040798007245 0 -0.21324825955502349 -0.1004825008863945 0 -0.2121035310500719 -0.10275882228111199 0 -0.18660332209593611 -0.10377669584829 0 -0.19998712653523509 -0.092662040798007245 0 -0.18660332209593611 -0.10377669584829 0 -0.18672599351544289 -0.084841580709626357 0 -0.19998712653523509 -0.092662040798007245 0 -0.2121035310500719 -0.10275882228111199 0 -0.18660332209593611 -0.10377669584829 0 -0.20210907553068599 -0.1226330482036016 0 -0.18670902145459281 -0.1191040684327469 0 -0.18660332209593611 -0.10377669584829 0 -0.2121035310500719 -0.10275882228111199 0 -0.20210907553068599 -0.1226330482036016 0 -0.18660332209593611 -0.10377669584829 0 -0.18670902145459281 -0.1191040684327469 0 -0.17447592483708291 -0.1146042412093445 0 -0.18660332209593611 -0.10377669584829 0 -0.17524671547322351 -0.12786749151049881 0 -0.18670902145459281 -0.1191040684327469 0 -0.17447592483708291 -0.1146042412093445 0 -0.17524671547322351 -0.12786749151049881 0 -0.17447592483708291 -0.1146042412093445 0 -0.16250662366085711 -0.1185952451931863 0 -0.17447592483708291 -0.1146042412093445 0 -0.16250662366085711 -0.1185952451931863 0 -0.16110311314180051 -0.10479456941547 0 -0.16250662366085711 -0.1185952451931863 0 -0.16110311314180051 -0.10479456941547 0 -0.14893166532055069 -0.1137621840903265 0 -0.16110311314180051 -0.10479456941547 0 -0.16148845420001881 -0.091349065989462075 0 -0.14758723569600629 -0.096865398721705756 0 -0.17116085110791349 -0.098304373287820102 0 -0.1754485149938988 -0.093297161898058381 0 -0.16148845420001881 -0.091349065989462075 0 -0.16110311314180051 -0.10479456941547 0 -0.17116085110791349 -0.098304373287820102 0 -0.16148845420001881 -0.091349065989462075 0 -0.16110311314180051 -0.10479456941547 0 -0.18660332209593611 -0.10377669584829 0 -0.16110311314180051 -0.10479456941547 0 -0.17116085110791349 -0.098304373287820102 0 -0.18660332209593611 -0.10377669584829 0 -0.17447592483708291 -0.1146042412093445 0 -0.16110311314180051 -0.10479456941547 0 -0.18660332209593611 -0.10377669584829 0 -0.17116085110791349 -0.098304373287820102 0 -0.18660332209593611 -0.10377669584829 0 -0.1754485149938988 -0.093297161898058381 0 -0.18660332209593611 -0.10377669584829 0 -0.18672599351544289 -0.084841580709626357 0 -0.1754485149938988 -0.093297161898058381 0 -0.18672599351544289 -0.084841580709626357 0 -0.16730086034246211 -0.081795244722262239 0 -0.18672599351544289 -0.084841580709626357 0 -0.1754485149938988 -0.093297161898058381 0 -0.16730086034246211 -0.081795244722262239 0 -0.18672599351544289 -0.084841580709626357 0 -0.17542595242637199 -0.078177631241474574 0 -0.16730086034246211 -0.081795244722262239 0 -0.1951760066868399 -0.080679974246598896 0 -0.18672599351544289 -0.084841580709626357 0 -0.17542595242637199 -0.078177631241474574 0 -0.18672599351544289 -0.084841580709626357 0 -0.17542595242637199 -0.078177631241474574 0 -0.17542595242637199 -0.078177631241474574 0 -0.1687133282451507 -0.079473578693202387 0 -0.1710660263694003 -0.075606461216561713 0 -0.1810019857113119 -0.059274777341667889 0 -0.17542595242637199 -0.078177631241474574 0 -0.1710660263694003 -0.075606461216561713 0 -0.1810019857113119 -0.059274777341667889 0 -0.16795871172158591 -0.065782447586673704 0 -0.1710660263694003 -0.075606461216561713 0 -0.1810019857113119 -0.059274777341667889 0 -0.2025820199117199 -0.072934847569037675 0 -0.17542595242637199 -0.078177631241474574 0 -0.1810019857113119 -0.059274777341667889 0 -0.17542595242637199 -0.078177631241474574 0 -0.1710660263694003 -0.075606461216561713 0 -0.16795871172158591 -0.065782447586673704 0 -0.1710660263694003 -0.075606461216561713 0 -0.1572559069534043 -0.067462248535222535 0 -0.1710660263694003 -0.075606461216561713 0 -0.1572559069534043 -0.067462248535222535 0 -0.17542595242637199 -0.078177631241474574 0 -0.1710660263694003 -0.075606461216561713 0 -0.1687133282451507 -0.079473578693202387 0 -0.1710660263694003 -0.075606461216561713 0 -0.1687133282451507 -0.079473578693202387 0 -0.1572559069534043 -0.067462248535222535 0 -0.1618726483907981 -0.080943968323375054 0 -0.15381040672582261 -0.073183423921576299 0 -0.1710660263694003 -0.075606461216561713 0 -0.1572559069534043 -0.067462248535222535 0 -0.1618726483907981 -0.080943968323375054 0 -0.16795871172158591 -0.065782447586673704 0 -0.1572559069534043 -0.067462248535222535 0 -0.1649445784972505 -0.05776023841684548 0 -0.16730086034246211 -0.081795244722262239 0 -0.16148845420001881 -0.091349065989462075 0 -0.15086427964278501 -0.086519556748622176 0 -0.16730086034246211 -0.081795244722262239 0 -0.1618726483907981 -0.080943968323375054 0 -0.15086427964278501 -0.086519556748622176 0 -0.1754485149938988 -0.093297161898058381 0 -0.16730086034246211 -0.081795244722262239 0 -0.16148845420001881 -0.091349065989462075 0 -0.16730086034246211 -0.081795244722262239 0 -0.16148845420001881 -0.091349065989462075 0 -0.1710660263694003 -0.075606461216561713 0 -0.1687133282451507 -0.079473578693202387 0 -0.1618726483907981 -0.080943968323375054 0 -0.17542595242637199 -0.078177631241474574 0 -0.1687133282451507 -0.079473578693202387 0 -0.16730086034246211 -0.081795244722262239 0 -0.1687133282451507 -0.079473578693202387 0 -0.16730086034246211 -0.081795244722262239 0 -0.16730086034246211 -0.081795244722262239 0 -0.1618726483907981 -0.080943968323375054 0 -0.1687133282451507 -0.079473578693202387 0 -0.1618726483907981 -0.080943968323375054 0 -0.1687133282451507 -0.079473578693202387 0 -0.16730086034246211 -0.081795244722262239 0 -0.1618726483907981 -0.080943968323375054 0 -0.16148845420001881 -0.091349065989462075 0 -0.15086427964278501 -0.086519556748622176 0 -0.14758723569600629 -0.096865398721705756 0 -0.1618726483907981 -0.080943968323375054 0 -0.15086427964278501 -0.086519556748622176 0 -0.140761781760737 -0.077633268099755876 0 -0.1618726483907981 -0.080943968323375054 0 -0.140761781760737 -0.077633268099755876 0 -0.15086427964278501 -0.086519556748622176 0 -0.14261933509966351 -0.082758883688786478 0 -0.140761781760737 -0.077633268099755876 0 -0.14261933509966351 -0.082758883688786478 0 -0.140761781760737 -0.077633268099755876 0 -0.15086427964278501 -0.086519556748622176 0 -0.14261933509966351 -0.082758883688786478 0 -0.14488103531096641 -0.089220910044464613 0 -0.14261933509966351 -0.082758883688786478 0 -0.14488103531096641 -0.089220910044464613 0 -0.13845329080541091 -0.090739801018744085 0 -0.15086427964278501 -0.086519556748622176 0 -0.14488103531096641 -0.089220910044464613 0 -0.14758723569600629 -0.096865398721705756 0 -0.14488103531096641 -0.089220910044464613 0 -0.13845329080541091 -0.090739801018744085 0 -0.14758723569600629 -0.096865398721705756 0 -0.1618726483907981 -0.080943968323375054 0 -0.14882992095385289 -0.07462467747704081 0 -0.140761781760737 -0.077633268099755876 0 -0.1572559069534043 -0.067462248535222535 0 -0.14872051312124379 -0.068855460221435197 0 -0.15381040672582261 -0.073183423921576299 0 -0.1572559069534043 -0.067462248535222535 0 -0.14872051312124379 -0.068855460221435197 0 -0.1434457875374075 -0.059318035853884878 0 -0.1572559069534043 -0.067462248535222535 0 -0.1434457875374075 -0.059318035853884878 0 -0.1618726483907981 -0.080943968323375054 0 -0.15381040672582261 -0.073183423921576299 0 -0.14882992095385289 -0.07462467747704081 0 -0.14872051312124379 -0.068855460221435197 0 -0.15381040672582261 -0.073183423921576299 0 -0.14882992095385289 -0.07462467747704081 0 -0.14882992095385289 -0.07462467747704081 0 -0.140761781760737 -0.077633268099755876 0 -0.13896004199301371 -0.072661660960836441 0 -0.14872051312124379 -0.068855460221435197 0 -0.14882992095385289 -0.07462467747704081 0 -0.13896004199301371 -0.072661660960836441 0 -0.14872051312124379 -0.068855460221435197 0 -0.13896004199301371 -0.072661660960836441 0 -0.14872051312124379 -0.068855460221435197 0 -0.14074554681517781 -0.063473485890585518 0 -0.1434457875374075 -0.059318035853884878 0 -0.14872051312124379 -0.068855460221435197 0 -0.14074554681517781 -0.063473485890585518 0 -0.13896004199301371 -0.072661660960836441 0 -0.1236295906840658 -0.065414749250661236 0 -0.13896004199301371 -0.072661660960836441 0 -0.13185584460904631 -0.053058786526185557 0 -0.13896004199301371 -0.072661660960836441 0 -0.13185584460904631 -0.053058786526185557 0 -0.14074554681517781 -0.063473485890585518 0 -0.13896004199301371 -0.072661660960836441 0 -0.13185584460904631 -0.053058786526185557 0 -0.140761781760737 -0.077633268099755876 0 -0.13038437074479181 -0.076005836238556057 0 -0.13896004199301371 -0.072661660960836441 0 -0.13038437074479181 -0.076005836238556057 0 -0.140761781760737 -0.077633268099755876 0 -0.13896004199301371 -0.072661660960836441 0 -0.13038437074479181 -0.076005836238556057 0 -0.140761781760737 -0.077633268099755876 0 -0.13896004199301371 -0.072661660960836441 0 -0.1236295906840658 -0.065414749250661236 0 -0.13896004199301371 -0.072661660960836441 0 -0.13038437074479181 -0.076005836238556057 0 -0.13845329080541091 -0.090739801018744085 0 -0.1361553754103933 -0.082314778560356572 0 -0.13115371716119459 -0.087080291232536494 0 -0.14261933509966351 -0.082758883688786478 0 -0.13845329080541091 -0.090739801018744085 0 -0.1361553754103933 -0.082314778560356572 0 -0.140761781760737 -0.077633268099755876 0 -0.13038437074479181 -0.076005836238556057 0 -0.1361553754103933 -0.082314778560356572 0 -0.14261933509966351 -0.082758883688786478 0 -0.140761781760737 -0.077633268099755876 0 -0.1361553754103933 -0.082314778560356572 0 -0.1210610733193667 -0.090921918861455023 0 -0.13038437074479181 -0.076005836238556057 0 -0.13115371716119459 -0.087080291232536494 0 -0.13038437074479181 -0.076005836238556057 0 -0.1361553754103933 -0.082314778560356572 0 -0.13115371716119459 -0.087080291232536494 0 -0.13845329080541091 -0.090739801018744085 0 -0.13115371716119459 -0.087080291232536494 0 -0.12838165174081231 -0.096915342677769994 0 -0.1210610733193667 -0.090921918861455023 0 -0.13115371716119459 -0.087080291232536494 0 -0.12838165174081231 -0.096915342677769994 0 -0.13845329080541091 -0.090739801018744085 0 -0.1356029041876648 -0.10581244298265 0 -0.14758723569600629 -0.096865398721705756 0 -0.13845329080541091 -0.090739801018744085 0 -0.12838165174081231 -0.096915342677769994 0 -0.1356029041876648 -0.10581244298265 0 -0.1247589529873689 -0.1193319215051903 0 -0.1356029041876648 -0.10581244298265 0 -0.14893166532055069 -0.1137621840903265 0 -0.1247589529873689 -0.1193319215051903 0 -0.14820044177604541 -0.1281571168856622 0 -0.14893166532055069 -0.1137621840903265 0 -0.14820044177604541 -0.1281571168856622 0 -0.16250662366085711 -0.1185952451931863 0 -0.14893166532055069 -0.1137621840903265 0 -0.16110311314180051 -0.10479456941547 0 -0.1356029041876648 -0.10581244298265 0 -0.16110311314180051 -0.10479456941547 0 -0.1356029041876648 -0.10581244298265 0 -0.14758723569600629 -0.096865398721705756 0 -0.16110311314180051 -0.10479456941547 0 -0.1356029041876648 -0.10581244298265 0 -0.14893166532055069 -0.1137621840903265 0 -0.14358266213150489 -0.02843637399512329 0 -0.15563065601751849 -0.017209070785198739 0 -0.15643813379250829 -0.034416267856934663 0 -0.14358266213150489 -0.02843637399512329 0 -0.15563065601751849 -0.017209070785198739 0 -0.1368713473976361 -0.01376384135295897 0 -0.15563065601751849 -0.017209070785198739 0 -0.1368713473976361 -0.01376384135295897 0 -0.14738187898061639 0.0050318030858907794 0 -0.15563065601751849 -0.017209070785198739 0 -0.1649960424305798 -0.0013444332500506589 0 -0.14738187898061639 0.0050318030858907794 0 -0.13185606356650309 -0.00067556194706120819 0 -0.1368713473976361 -0.01376384135295897 0 -0.14738187898061639 0.0050318030858907794 0 -0.11764744984111131 -0.013853037656883751 0 -0.13185606356650309 -0.00067556194706120819 0 -0.1368713473976361 -0.01376384135295897 0 -0.12475164722507889 -0.033455912091534618 0 -0.14358266213150489 -0.02843637399512329 0 -0.1368713473976361 -0.01376384135295897 0 -0.12475164722507889 -0.033455912091534618 0 -0.11764744984111131 -0.013853037656883751 0 -0.1368713473976361 -0.01376384135295897 0 -0.12475164722507889 -0.033455912091534618 0 -0.14358266213150489 -0.02843637399512329 0 -0.14462690005238821 -0.044139329528078197 0 -0.12475164722507889 -0.033455912091534618 0 -0.13185584460904631 -0.053058786526185557 0 -0.12475164722507889 -0.033455912091534618 0 -0.13185584460904631 -0.053058786526185557 0 -0.14462690005238821 -0.044139329528078197 0 -0.13185584460904631 -0.053058786526185557 0 -0.1434457875374075 -0.059318035853884878 0 -0.14462690005238821 -0.044139329528078197 0 -0.14074554681517781 -0.063473485890585518 0 -0.13185584460904631 -0.053058786526185557 0 -0.1434457875374075 -0.059318035853884878 0 -0.15417653881640489 -0.056417581413079447 0 -0.14462690005238821 -0.044139329528078197 0 -0.16031888698752489 -0.047005087109959223 0 -0.1434457875374075 -0.059318035853884878 0 -0.15417653881640489 -0.056417581413079447 0 -0.14462690005238821 -0.044139329528078197 0 -0.1572559069534043 -0.067462248535222535 0 -0.1434457875374075 -0.059318035853884878 0 -0.15417653881640489 -0.056417581413079447 0 -0.14462690005238821 -0.044139329528078197 0 -0.15643813379250829 -0.034416267856934663 0 -0.16031888698752489 -0.047005087109959223 0 -0.14358266213150489 -0.02843637399512329 0 -0.14462690005238821 -0.044139329528078197 0 -0.15643813379250829 -0.034416267856934663 0 -0.15643813379250829 -0.034416267856934663 0 -0.1696337454181549 -0.038002114069643739 0 -0.16031888698752489 -0.047005087109959223 0 -0.1696337454181549 -0.038002114069643739 0 -0.16031888698752489 -0.047005087109959223 0 -0.17045601678382291 -0.048277338671521529 0 -0.15643813379250829 -0.034416267856934663 0 -0.1696337454181549 -0.038002114069643739 0 -0.16826750378216279 -0.0273174898715817 0 -0.16795871172158591 -0.065782447586673704 0 -0.1649445784972505 -0.05776023841684548 0 -0.1810019857113119 -0.059274777341667889 0 -0.1572559069534043 -0.067462248535222535 0 -0.15417653881640489 -0.056417581413079447 0 -0.1649445784972505 -0.05776023841684548 0 -0.15417653881640489 -0.056417581413079447 0 -0.16031888698752489 -0.047005087109959223 0 -0.1649445784972505 -0.05776023841684548 0 -0.16031888698752489 -0.047005087109959223 0 -0.17045601678382291 -0.048277338671521529 0 -0.1649445784972505 -0.05776023841684548 0 -0.1810019857113119 -0.059274777341667889 0 -0.17945558940118561 -0.0424965762794835 0 -0.1909379450532224 -0.04294309346677333 0 -0.17045601678382291 -0.048277338671521529 0 -0.1649445784972505 -0.05776023841684548 0 -0.1810019857113119 -0.059274777341667889 0 -0.1810019857113119 -0.059274777341667889 0 -0.1909379450532224 -0.04294309346677333 0 -0.17045601678382291 -0.048277338671521529 0 -0.1810019857113119 -0.059274777341667889 0 -0.17945558940118561 -0.0424965762794835 0 -0.1696337454181549 -0.038002114069643739 0 -0.18286634176172509 -0.028499924628381839 0 -0.16826750378216279 -0.0273174898715817 0 -0.1696337454181549 -0.038002114069643739 0 -0.17945558940118561 -0.0424965762794835 0 -0.18286634176172509 -0.028499924628381839 0 -0.1696337454181549 -0.038002114069643739 0 -0.17045601678382291 -0.048277338671521529 0 -0.17945558940118561 -0.0424965762794835 0 -0.17945558940118561 -0.0424965762794835 0 -0.1909379450532224 -0.04294309346677333 0 -0.17945558940118561 -0.0424965762794835 0 -0.18286634176172509 -0.028499924628381839 0 -0.1909379450532224 -0.04294309346677333 0 -0.18286634176172509 -0.028499924628381839 0 -0.1747174137839857 -0.013989881529586501 0 -0.19159911500729959 -0.0090173167708576182 0 -0.18286634176172509 -0.028499924628381839 0 -0.16826750378216279 -0.0273174898715817 0 -0.1747174137839857 -0.013989881529586501 0 -0.15563065601751849 -0.017209070785198739 0 -0.15643813379250829 -0.034416267856934663 0 -0.16826750378216279 -0.0273174898715817 0 -0.15563065601751849 -0.017209070785198739 0 -0.16826750378216279 -0.0273174898715817 0 -0.1747174137839857 -0.013989881529586501 0 -0.15563065601751849 -0.017209070785198739 0 -0.1649960424305798 -0.0013444332500506589 0 -0.1747174137839857 -0.013989881529586501 0 -0.1649960424305798 -0.0013444332500506589 0 -0.1747174137839857 -0.013989881529586501 0 -0.18032818442133461 0.0030944576768450671 0 -0.1747174137839857 -0.013989881529586501 0 -0.19159911500729959 -0.0090173167708576182 0 -0.18032818442133461 0.0030944576768450671 0 -0.19159911500729959 -0.0090173167708576182 0 -0.20221915323356951 -0.024400231183600411 0 -0.20803845558677481 0.00032958680966351309 0 -0.18286634176172509 -0.028499924628381839 0 -0.19159911500729959 -0.0090173167708576182 0 -0.20221915323356951 -0.024400231183600411 0 -0.20221915323356951 -0.024400231183600411 0 -0.2182832628110612 -0.02409044135282308 0 -0.21606949445719531 -0.043920390207273549 0 -0.20221915323356951 -0.024400231183600411 0 -0.2182832628110612 -0.02409044135282308 0 -0.20803845558677481 0.00032958680966351309 0 -0.2182832628110612 -0.02409044135282308 0 -0.2297161767028757 -0.01276427073918516 0 -0.20803845558677481 0.00032958680966351309 0 -0.1974703084310688 -0.055644633873762582 0 -0.1909379450532224 -0.04294309346677333 0 -0.21606949445719531 -0.043920390207273549 0 -0.1810019857113119 -0.059274777341667889 0 -0.1974703084310688 -0.055644633873762582 0 -0.1909379450532224 -0.04294309346677333 0 -0.18286634176172509 -0.028499924628381839 0 -0.20221915323356951 -0.024400231183600411 0 -0.1909379450532224 -0.04294309346677333 0 -0.20221915323356951 -0.024400231183600411 0 -0.1909379450532224 -0.04294309346677333 0 -0.20221915323356951 -0.024400231183600411 0 -0.1909379450532224 -0.04294309346677333 0 -0.21606949445719531 -0.043920390207273549 0 -0.1909379450532224 -0.04294309346677333 0 -0.21606949445719531 -0.043920390207273549 0 -0.2297380873970678 -0.067692063896601512 0 -0.2025820199117199 -0.072934847569037675 0 -0.21606949445719531 -0.043920390207273549 0 -0.2025820199117199 -0.072934847569037675 0 -0.1974703084310688 -0.055644633873762582 0 -0.21606949445719531 -0.043920390207273549 0 -0.2297380873970678 -0.067692063896601512 0 -0.21606949445719531 -0.043920390207273549 0 -0.2412010438611682 -0.04489768694777669 0 -0.2182832628110612 -0.02409044135282308 0 -0.21606949445719531 -0.043920390207273549 0 -0.2347614667351636 -0.032959987100867033 0 -0.21606949445719531 -0.043920390207273549 0 -0.2412010438611682 -0.04489768694777669 0 -0.21606949445719531 -0.043920390207273549 0 -0.2347614667351636 -0.032959987100867033 0 -0.2412010438611682 -0.04489768694777669 0 -0.2440858056658213 -0.034863944644476473 0 -0.24774098130548611 -0.045152007103079442 0 -0.25139389781897659 -0.025858128288033862 0 -0.24774098130548611 -0.045152007103079442 0 -0.25139389781897659 -0.025858128288033862 0 -0.2347614667351636 -0.032959987100867033 0 -0.2440858056658213 -0.034863944644476473 0 -0.24221421249563549 -0.042882975661112668 0 -0.2440858056658213 -0.034863944644476473 0 -0.24221421249563549 -0.042882975661112668 0 -0.24774098130548611 -0.045152007103079442 0 -0.24774098130548611 -0.045152007103079442 0 -0.2412010438611682 -0.04489768694777669 0 -0.24221421249563549 -0.042882975661112668 0 -0.24774098130548611 -0.045152007103079442 0 -0.2412010438611682 -0.04489768694777669 0 -0.2347614667351636 -0.032959987100867033 0 -0.24221421249563549 -0.042882975661112668 0 -0.2412010438611682 -0.04489768694777669 0 -0.24221421249563549 -0.042882975661112668 0 -0.2412010438611682 -0.04489768694777669 0 -0.2439945728241126 -0.064939689346654811 0 -0.24774098130548611 -0.045152007103079442 0 -0.2439945728241126 -0.064939689346654811 0 -0.24774098130548611 -0.045152007103079442 0 -0.25572573773316237 -0.053227125558533442 0 -0.2439945728241126 -0.064939689346654811 0 -0.24774098130548611 -0.045152007103079442 0 -0.2412010438611682 -0.04489768694777669 0 -0.2297380873970678 -0.067692063896601512 0 -0.2412010438611682 -0.04489768694777669 0 -0.2439945728241126 -0.064939689346654811 0 -0.2297380873970678 -0.067692063896601512 0 -0.2412010438611682 -0.04489768694777669 0 -0.2297161767028757 -0.01276427073918516 0 -0.20803845558677481 0.00032958680966351309 0 -0.22774142163249911 0.0091431922092035378 0 -0.2297161767028757 -0.01276427073918516 0 -0.20803845558677481 0.00032958680966351309 0 -0.2297161767028757 -0.01276427073918516 0 -0.24204198335637811 -0.0026304284190125991 0 -0.22774142163249911 0.0091431922092035378 0 -0.2182832628110612 -0.02409044135282308 0 -0.2347614667351636 -0.032959987100867033 0 -0.2297161767028757 -0.01276427073918516 0 -0.2347614667351636 -0.032959987100867033 0 -0.2440858056658213 -0.034863944644476473 0 -0.25139389781897659 -0.025858128288033862 0 -0.2297161767028757 -0.01276427073918516 0 -0.25139389781897659 -0.025858128288033862 0 -0.2347614667351636 -0.032959987100867033 0 -0.2297161767028757 -0.01276427073918516 0 -0.25139389781897659 -0.025858128288033862 0 -0.2297161767028757 -0.01276427073918516 0 -0.24204198335637811 -0.0026304284190125991 0 -0.25139389781897659 -0.025858128288033862 0 -0.24204198335637811 -0.0026304284190125991 0 -0.25139389781897659 -0.025858128288033862 0 -0.25689548211398672 0.003199995621086429 0 -0.25139389781897659 -0.025858128288033862 0 -0.26984759387636559 -0.014041463527519501 0 -0.25689548211398672 0.003199995621086429 0 -0.25139389781897659 -0.025858128288033862 0 -0.25689548211398672 0.003199995621086429 0 -0.25139389781897659 -0.025858128288033862 0 -0.26675773112962292 -0.02552373069298047 0 -0.26727750325299909 -0.035452202582159593 0 -0.25139389781897659 -0.025858128288033862 0 -0.26727750325299909 -0.035452202582159593 0 -0.25139389781897659 -0.025858128288033862 0 -0.26675773112962292 -0.02552373069298047 0 -0.26984759387636559 -0.014041463527519501 0 -0.27851192957014997 -0.026743128374208891 0 -0.26984759387636559 -0.014041463527519501 0 -0.28864607908777817 -0.013410858519567959 0 -0.26675773112962292 -0.02552373069298047 0 -0.27851192957014997 -0.026743128374208891 0 -0.26727750325299909 -0.035452202582159593 0 -0.26675773112962292 -0.02552373069298047 0 -0.27851192957014997 -0.026743128374208891 0 -0.26984759387636559 -0.014041463527519501 0 -0.27990087635976602 -0.003018000538219144 0 -0.26984759387636559 -0.014041463527519501 0 -0.28864607908777817 -0.013410858519567959 0 -0.27990087635976602 -0.003018000538219144 0 -0.26984759387636559 -0.014041463527519501 0 -0.25689548211398672 0.003199995621086429 0 -0.28864607908777817 -0.013410858519567959 0 -0.3032781762320706 -0.0097023071216711578 0 -0.29743804133862511 0.003483344366603097 0 -0.27990087635976602 -0.003018000538219144 0 -0.28864607908777817 -0.013410858519567959 0 -0.29743804133862511 0.003483344366603097 0 -0.27851192957014997 -0.026743128374208891 0 -0.28864607908777817 -0.013410858519567959 0 -0.29885231162422943 -0.028394401401333209 0 -0.29885231162422943 -0.028394401401333209 0 -0.3032781762320706 -0.0097023071216711578 0 -0.31352446129195483 -0.018778397937512389 0 -0.29885231162422943 -0.028394401401333209 0 -0.31352446129195483 -0.018778397937512389 0 -0.31965502108147442 -0.035426996869095777 0 -0.28864607908777817 -0.013410858519567959 0 -0.29885231162422943 -0.028394401401333209 0 -0.3032781762320706 -0.0097023071216711578 0 -0.3032781762320706 -0.0097023071216711578 0 -0.31747393394203732 -0.001863909567955442 0 -0.29743804133862511 0.003483344366603097 0 -0.3032781762320706 -0.0097023071216711578 0 -0.31747393394203732 -0.001863909567955442 0 -0.31352446129195483 -0.018778397937512389 0 -0.30268311159776867 -0.051358972544276273 0 -0.29704198669421772 -0.07108551390525536 0 -0.32085389399589009 -0.060148233214039018 0 -0.29885231162422943 -0.028394401401333209 0 -0.30268311159776867 -0.051358972544276273 0 -0.31965502108147442 -0.035426996869095777 0 -0.27851192957014997 -0.026743128374208891 0 -0.29885231162422943 -0.028394401401333209 0 -0.28316110868702171 -0.045046276876285332 0 -0.29885231162422943 -0.028394401401333209 0 -0.30268311159776867 -0.051358972544276273 0 -0.28316110868702171 -0.045046276876285332 0 -0.30268311159776867 -0.051358972544276273 0 -0.28316110868702171 -0.045046276876285332 0 -0.2855689324071588 -0.060482121324474732 0 -0.30268311159776867 -0.051358972544276273 0 -0.2855689324071588 -0.060482121324474732 0 -0.29704198669421772 -0.07108551390525536 0 -0.2855689324071588 -0.060482121324474732 0 -0.27330184580748867 -0.049790191914642588 0 -0.26999151135174121 -0.059296009121439557 0 -0.28316110868702171 -0.045046276876285332 0 -0.2855689324071588 -0.060482121324474732 0 -0.27330184580748867 -0.049790191914642588 0 -0.27330184580748867 -0.049790191914642588 0 -0.26999151135174121 -0.059296009121439557 0 -0.26370898028782003 -0.05399611679630615 0 -0.27330184580748867 -0.049790191914642588 0 -0.26423017741157101 -0.045793226526082587 0 -0.26370898028782003 -0.05399611679630615 0 -0.28316110868702171 -0.045046276876285332 0 -0.27330184580748867 -0.049790191914642588 0 -0.26727750325299909 -0.035452202582159593 0 -0.28316110868702171 -0.045046276876285332 0 -0.26727750325299909 -0.035452202582159593 0 -0.27851192957014997 -0.026743128374208891 0 -0.28316110868702171 -0.045046276876285332 0 -0.26727750325299909 -0.035452202582159593 0 -0.27330184580748867 -0.049790191914642588 0 -0.26727750325299909 -0.035452202582159593 0 -0.26423017741157101 -0.045793226526082587 0 -0.24774098130548611 -0.045152007103079442 0 -0.26423017741157101 -0.045793226526082587 0 -0.25139389781897659 -0.025858128288033862 0 -0.26727750325299909 -0.035452202582159593 0 -0.25678487252697929 -0.037916338356032801 0 -0.24774098130548611 -0.045152007103079442 0 -0.26423017741157101 -0.045793226526082587 0 -0.25678487252697929 -0.037916338356032801 0 -0.24774098130548611 -0.045152007103079442 0 -0.25139389781897659 -0.025858128288033862 0 -0.25678487252697929 -0.037916338356032801 0 -0.26727750325299909 -0.035452202582159593 0 -0.26423017741157101 -0.045793226526082587 0 -0.25678487252697929 -0.037916338356032801 0 -0.24774098130548611 -0.045152007103079442 0 -0.26423017741157101 -0.045793226526082587 0 -0.25572573773316237 -0.053227125558533442 0 -0.25892856322235341 -0.062056514856587801 0 -0.26370898028782003 -0.05399611679630615 0 -0.25572573773316237 -0.053227125558533442 0 -0.26999151135174121 -0.059296009121439557 0 -0.25892856322235341 -0.062056514856587801 0 -0.26370898028782003 -0.05399611679630615 0 -0.26423017741157101 -0.045793226526082587 0 -0.26370898028782003 -0.05399611679630615 0 -0.25572573773316237 -0.053227125558533442 0 -0.2439945728241126 -0.064939689346654811 0 -0.25892856322235341 -0.062056514856587801 0 -0.25572573773316237 -0.053227125558533442 0 -0.25892856322235341 -0.062056514856587801 0 -0.25311922496262851 -0.076102733709373191 0 -0.2708571129416012 -0.084689668633171261 0 -0.2439945728241126 -0.064939689346654811 0 -0.25892856322235341 -0.062056514856587801 0 -0.25311922496262851 -0.076102733709373191 0 -0.2439945728241126 -0.064939689346654811 0 -0.25892856322235341 -0.062056514856587801 0 -0.25311922496262851 -0.076102733709373191 0 -0.25043698654984042 -0.09007265746859866 0 -0.2708571129416012 -0.084689668633171261 0 -0.25043698654984042 -0.09007265746859866 0 -0.2708571129416012 -0.084689668633171261 0 -0.25943706990829662 -0.10077879803539221 0 -0.2855689324071588 -0.060482121324474732 0 -0.26999151135174121 -0.059296009121439557 0 -0.2708571129416012 -0.084689668633171261 0 -0.26999151135174121 -0.059296009121439557 0 -0.25892856322235341 -0.062056514856587801 0 -0.2708571129416012 -0.084689668633171261 0 -0.26999151135174121 -0.059296009121439557 0 -0.2708571129416012 -0.084689668633171261 0 -0.25704994899653738 -0.1129371750871289 0 -0.27172271453146107 -0.110083328144903 0 -0.25924093494536249 -0.12760566462448369 0 -0.24589355376940389 -0.1197343415923325 0 -0.25704994899653738 -0.1129371750871289 0 -0.25924093494536249 -0.12760566462448369 0 -0.24589355376940389 -0.1197343415923325 0 -0.25924093494536249 -0.12760566462448369 0 -0.24589355376940389 -0.1197343415923325 0 -0.2471185865220428 -0.10611116084315959 0 -0.25704994899653738 -0.1129371750871289 0 -0.2471185865220428 -0.10611116084315959 0 -0.25043698654984042 -0.09007265746859866 0 -0.25943706990829662 -0.10077879803539221 0 -0.25704994899653738 -0.1129371750871289 0 -0.25943706990829662 -0.10077879803539221 0 -0.27172271453146107 -0.110083328144903 0 -0.2471185865220428 -0.10611116084315959 0 -0.25704994899653738 -0.1129371750871289 0 -0.25943706990829662 -0.10077879803539221 0 -0.2708571129416012 -0.084689668633171261 0 -0.25943706990829662 -0.10077879803539221 0 -0.27172271453146107 -0.110083328144903 0 -0.2708571129416012 -0.084689668633171261 0 -0.27172271453146107 -0.110083328144903 0 -0.2708571129416012 -0.084689668633171261 0 -0.27172271453146107 -0.110083328144903 0 -0.28672673625944589 -0.1021220064600224 0 -0.27172271453146107 -0.110083328144903 0 -0.27258831612132128 -0.13547698765663471 0 -0.27172271453146107 -0.110083328144903 0 -0.25924093494536249 -0.12760566462448369 0 -0.27258831612132128 -0.13547698765663471 0 -0.27172271453146107 -0.110083328144903 0 -0.28691958767254833 -0.1243973353974567 0 -0.27258831612132128 -0.13547698765663471 0 -0.28691958767254833 -0.1243973353974567 0 -0.28672673625944589 -0.1021220064600224 0 -0.30088212174597012 -0.1161029123977744 0 -0.27172271453146107 -0.110083328144903 0 -0.28691958767254833 -0.1243973353974567 0 -0.28672673625944589 -0.1021220064600224 0 -0.28672673625944589 -0.1021220064600224 0 -0.30088212174597012 -0.1161029123977744 0 -0.3026482693622623 -0.093063435996171007 0 -0.30088212174597012 -0.1161029123977744 0 -0.3026482693622623 -0.093063435996171007 0 -0.31697768559104722 -0.10979650810583511 0 -0.30088212174597012 -0.1161029123977744 0 -0.31697768559104722 -0.10979650810583511 0 -0.31337406678903817 -0.12870181871927189 0 -0.2855689324071588 -0.060482121324474732 0 -0.2708571129416012 -0.084689668633171261 0 -0.28856860753293723 -0.082288549263818955 0 -0.2855689324071588 -0.060482121324474732 0 -0.28856860753293723 -0.082288549263818955 0 -0.29704198669421772 -0.07108551390525536 0 -0.28672673625944589 -0.1021220064600224 0 -0.28856860753293723 -0.082288549263818955 0 -0.3026482693622623 -0.093063435996171007 0 -0.2708571129416012 -0.084689668633171261 0 -0.28672673625944589 -0.1021220064600224 0 -0.28856860753293723 -0.082288549263818955 0 -0.28856860753293723 -0.082288549263818955 0 -0.3026482693622623 -0.093063435996171007 0 -0.29704198669421772 -0.07108551390525536 0 -0.3026482693622623 -0.093063435996171007 0 -0.29704198669421772 -0.07108551390525536 0 -0.31385725052879498 -0.077435565373216539 0 -0.29704198669421772 -0.07108551390525536 0 -0.31385725052879498 -0.077435565373216539 0 -0.32085389399589009 -0.060148233214039018 0 -0.31385725052879498 -0.077435565373216539 0 -0.32952678568074212 -0.073362134767917184 0 -0.32085389399589009 -0.060148233214039018 0 -0.3026482693622623 -0.093063435996171007 0 -0.31385725052879498 -0.077435565373216539 0 -0.32328085854762778 -0.088614874437333235 0 -0.31385725052879498 -0.077435565373216539 0 -0.32328085854762778 -0.088614874437333235 0 -0.32952678568074212 -0.073362134767917184 0 -0.32328085854762778 -0.088614874437333235 0 -0.34124845310711172 -0.082541008824658355 0 -0.32952678568074212 -0.073362134767917184 0 -0.32328085854762778 -0.088614874437333235 0 -0.34124845310711172 -0.082541008824658355 0 -0.33410343398993619 -0.1070110256589776 0 -0.32952678568074212 -0.073362134767917184 0 -0.34839347222428613 -0.058070991990338737 0 -0.32085389399589009 -0.060148233214039018 0 -0.34124845310711172 -0.082541008824658355 0 -0.32952678568074212 -0.073362134767917184 0 -0.34839347222428613 -0.058070991990338737 0 -0.31697768559104722 -0.10979650810583511 0 -0.32776596992639673 -0.12871535559547581 0 -0.31337406678903817 -0.12870181871927189 0 -0.31697768559104722 -0.10979650810583511 0 -0.33410343398993619 -0.1070110256589776 0 -0.32776596992639673 -0.12871535559547581 0 -0.3026482693622623 -0.093063435996171007 0 -0.32328085854762778 -0.088614874437333235 0 -0.31697768559104722 -0.10979650810583511 0 -0.32328085854762778 -0.088614874437333235 0 -0.31697768559104722 -0.10979650810583511 0 -0.33410343398993619 -0.1070110256589776 0 -0.34124845310711172 -0.082541008824658355 0 -0.33410343398993619 -0.1070110256589776 0 -0.34124845310711172 -0.082541008824658355 0 -0.33410343398993619 -0.1070110256589776 0 -0.34672362387192951 -0.097417856408277576 0 -0.32328085854762778 -0.088614874437333235 0 -0.33410343398993619 -0.1070110256589776 0 -0.33410343398993619 -0.1070110256589776 0 -0.32776596992639673 -0.12871535559547581 0 -0.34828425737083929 -0.13111550732816921 0 -0.33410343398993619 -0.1070110256589776 0 -0.32776596992639673 -0.12871535559547581 0 -0.33410343398993619 -0.1070110256589776 0 -0.34828425737083929 -0.13111550732816921 0 -0.35474955368110678 -0.1110883552882854 0 -0.37069913304914098 -0.1193632437614618 0 -0.34828425737083929 -0.13111550732816921 0 -0.33410343398993619 -0.1070110256589776 0 -0.35474955368110678 -0.1110883552882854 0 -0.34828425737083929 -0.13111550732816921 0 -0.33410343398993619 -0.1070110256589776 0 -0.35474955368110678 -0.1110883552882854 0 -0.34672362387192951 -0.097417856408277576 0 -0.35474955368110678 -0.1110883552882854 0 -0.34672362387192951 -0.097417856408277576 0 -0.36915259797164529 -0.090060442986693245 0 -0.35474955368110678 -0.1110883552882854 0 -0.37069913304914098 -0.1193632437614618 0 -0.36915259797164529 -0.090060442986693245 0 -0.34124845310711172 -0.082541008824658355 0 -0.34839347222428613 -0.058070991990338737 0 -0.34124845310711172 -0.082541008824658355 0 -0.35668696764917701 -0.075630806224267808 0 -0.34839347222428613 -0.058070991990338737 0 -0.35668696764917701 -0.075630806224267808 0 -0.37298475090107491 -0.064843214874260341 0 -0.34839347222428613 -0.058070991990338737 0 -0.34124845310711172 -0.082541008824658355 0 -0.34672362387192951 -0.097417856408277576 0 -0.35668696764917701 -0.075630806224267808 0 -0.34672362387192951 -0.097417856408277576 0 -0.35668696764917701 -0.075630806224267808 0 -0.36915259797164529 -0.090060442986693245 0 -0.35668696764917701 -0.075630806224267808 0 -0.36915259797164529 -0.090060442986693245 0 -0.37298475090107491 -0.064843214874260341 0 -0.37298475090107491 -0.064843214874260341 0 -0.36852919634310399 -0.047257105603825837 0 -0.34839347222428613 -0.058070991990338737 0 -0.34839347222428613 -0.058070991990338737 0 -0.35553849134146043 -0.033600975156019279 0 -0.34839347222428613 -0.058070991990338737 0 -0.35553849134146043 -0.033600975156019279 0 -0.33645411096473232 -0.042906284237312048 0 -0.36852919634310399 -0.047257105603825837 0 -0.34839347222428613 -0.058070991990338737 0 -0.35553849134146043 -0.033600975156019279 0 -0.36852919634310399 -0.047257105603825837 0 -0.35553849134146043 -0.033600975156019279 0 -0.37619206704044378 -0.03054928226226088 0 -0.35553849134146043 -0.033600975156019279 0 -0.36268351045863201 -0.0091309583216990682 0 -0.37619206704044378 -0.03054928226226088 0 -0.36268351045863201 -0.0091309583216990682 0 -0.38509976353395808 -0.012849838875288179 0 -0.37619206704044378 -0.03054928226226088 0 -0.36268351045863201 -0.0091309583216990682 0 -0.38509976353395808 -0.012849838875288179 0 -0.37627368421505869 -0.0010685545029741181 0 -0.36268351045863201 -0.0091309583216990682 0 -0.38509976353395808 -0.012849838875288179 0 -0.36268351045863201 -0.0091309583216990682 0 -0.34463919580281849 -0.0061373870655722172 0 -0.36268351045863201 -0.0091309583216990682 0 -0.34463919580281849 -0.0061373870655722172 0 -0.35332273029837558 0.00088249528103173278 0 -0.36268351045863201 -0.0091309583216990682 0 -0.34463919580281849 -0.0061373870655722172 0 -0.3477260740399486 -0.018112541677388919 0 -0.36268351045863201 -0.0091309583216990682 0 -0.35332273029837558 0.00088249528103173278 0 -0.35978811967700752 0.0064522657015292717 0 -0.34463919580281849 -0.0061373870655722172 0 -0.35332273029837558 0.00088249528103173278 0 -0.34726460473325371 0.0047143686437314822 0 -0.35553849134146043 -0.033600975156019279 0 -0.36268351045863201 -0.0091309583216990682 0 -0.35553849134146043 -0.033600975156019279 0 -0.36268351045863201 -0.0091309583216990682 0 -0.3477260740399486 -0.018112541677388919 0 -0.35553849134146043 -0.033600975156019279 0 -0.3477260740399486 -0.018112541677388919 0 -0.33782967618055049 -0.02728422395706737 0 -0.3477260740399486 -0.018112541677388919 0 -0.33782967618055049 -0.02728422395706737 0 -0.3378903018471634 -0.014739590961638949 0 -0.33782967618055049 -0.02728422395706737 0 -0.3378903018471634 -0.014739590961638949 0 -0.3266449523055181 -0.016969946119117538 0 -0.34463919580281849 -0.0061373870655722172 0 -0.3326116109069811 -0.005193855989048729 0 -0.33994319695020792 0.0081901150208087414 0 -0.34463919580281849 -0.0061373870655722172 0 -0.3477260740399486 -0.018112541677388919 0 -0.3378903018471634 -0.014739590961638949 0 -0.34463919580281849 -0.0061373870655722172 0 -0.3378903018471634 -0.014739590961638949 0 -0.3326116109069811 -0.005193855989048729 0 -0.3378903018471634 -0.014739590961638949 0 -0.3326116109069811 -0.005193855989048729 0 -0.3266449523055181 -0.016969946119117538 0 -0.31747393394203732 -0.001863909567955442 0 -0.31352446129195483 -0.018778397937512389 0 -0.3266449523055181 -0.016969946119117538 0 -0.3326116109069811 -0.005193855989048729 0 -0.31747393394203732 -0.001863909567955442 0 -0.3266449523055181 -0.016969946119117538 0 -0.33782967618055049 -0.02728422395706737 0 -0.3266449523055181 -0.016969946119117538 0 -0.31965502108147442 -0.035426996869095777 0 -0.31352446129195483 -0.018778397937512389 0 -0.3266449523055181 -0.016969946119117538 0 -0.31965502108147442 -0.035426996869095777 0 -0.31965502108147442 -0.035426996869095777 0 -0.32085389399589009 -0.060148233214039018 0 -0.33645411096473232 -0.042906284237312048 0 -0.30268311159776867 -0.051358972544276273 0 -0.31965502108147442 -0.035426996869095777 0 -0.32085389399589009 -0.060148233214039018 0 -0.34839347222428613 -0.058070991990338737 0 -0.32085389399589009 -0.060148233214039018 0 -0.33645411096473232 -0.042906284237312048 0 -0.35553849134146043 -0.033600975156019279 0 -0.33782967618055049 -0.02728422395706737 0 -0.33645411096473232 -0.042906284237312048 0 -0.33782967618055049 -0.02728422395706737 0 -0.31965502108147442 -0.035426996869095777 0 -0.33645411096473232 -0.042906284237312048 0 -0.3085243477061943 -0.2292725517163873 0 -0.29369191903251463 -0.2475732242945802 0 -0.31524025484529539 -0.24633488066413101 0 -0.3085243477061943 -0.2292725517163873 0 -0.31524025484529539 -0.24633488066413101 0 -0.3085243477061943 -0.2292725517163873 0 -0.29268355817580632 -0.2303963642524004 0 -0.29369191903251463 -0.2475732242945802 0 -0.29369191903251463 -0.2475732242945802 0 -0.31524025484529539 -0.24633488066413101 0 -0.3085243477061943 -0.2292725517163873 0 -0.30180844056708989 -0.21221022276864501 0 -0.3085243477061943 -0.2292725517163873 0 -0.29716255850380452 -0.22126142711986721 0 -0.30180844056708989 -0.21221022276864501 0 -0.3085243477061943 -0.2292725517163873 0 -0.29716255850380452 -0.22126142711986721 0 -0.29268355817580632 -0.2303963642524004 0 -0.29716255850380452 -0.22126142711986721 0 -0.29268355817580632 -0.2303963642524004 0 -0.28922522440413762 -0.21489689667812911 0 -0.29268355817580632 -0.2303963642524004 0 -0.27910567481445547 -0.22392715143847061 0 -0.28922522440413762 -0.21489689667812911 0 -0.29268355817580632 -0.2303963642524004 0 -0.28148487981085663 -0.2364808600764359 0 -0.27910567481445547 -0.22392715143847061 0 -0.29268355817580632 -0.2303963642524004 0 -0.28148487981085663 -0.2364808600764359 0 -0.29369191903251463 -0.2475732242945802 0 -0.28148487981085663 -0.2364808600764359 0 -0.29369191903251463 -0.2475732242945802 0 -0.27214358321973381 -0.24881156792502829 0 -0.29369191903251463 -0.2475732242945802 0 -0.27214358321973381 -0.24881156792502829 0 -0.28148487981085663 -0.2364808600764359 0 -0.27214358321973381 -0.24881156792502829 0 -0.26979966381177273 -0.23169599247169989 0 -0.27214358321973381 -0.24881156792502829 0 -0.25745970649811001 -0.23572969511482039 0 -0.26979966381177273 -0.23169599247169989 0 -0.25059524740695288 -0.25004991155547401 0 -0.27214358321973381 -0.24881156792502829 0 -0.25745970649811001 -0.23572969511482039 0 -0.25059524740695288 -0.25004991155547401 0 -0.27214358321973381 -0.24881156792502829 0 -0.25059524740695288 -0.25004991155547401 0 -0.25745970649811001 -0.23572969511482039 0 -0.25059524740695288 -0.25004991155547401 0 -0.24552422698312379 -0.2457455520674697 0 -0.25745970649811001 -0.23572969511482039 0 -0.24642641019704661 -0.22247541380929459 0 -0.26280270753508439 -0.22041879566708961 0 -0.25392376853803972 -0.21594652707730211 0 -0.24642641019704661 -0.22247541380929459 0 -0.25745970649811001 -0.23572969511482039 0 -0.26280270753508439 -0.22041879566708961 0 -0.25745970649811001 -0.23572969511482039 0 -0.26280270753508439 -0.22041879566708961 0 -0.26979966381177273 -0.23169599247169989 0 -0.26280270753508439 -0.22041879566708961 0 -0.26979966381177273 -0.23169599247169989 0 -0.27910567481445547 -0.22392715143847061 0 -0.28148487981085663 -0.2364808600764359 0 -0.26979966381177273 -0.23169599247169989 0 -0.27910567481445547 -0.22392715143847061 0 -0.26280270753508439 -0.22041879566708961 0 -0.27910567481445547 -0.22392715143847061 0 -0.27864958990498762 -0.21186127747667721 0 -0.26280270753508439 -0.22041879566708961 0 -0.27864958990498762 -0.21186127747667721 0 -0.26963823647458091 -0.20762251640780241 0 -0.27864958990498762 -0.21186127747667721 0 -0.26963823647458091 -0.20762251640780241 0 -0.27659761642188579 -0.19489317041072141 0 -0.27864958990498762 -0.21186127747667721 0 -0.27659761642188579 -0.19489317041072141 0 -0.28498880591566472 -0.2063263844377588 0 -0.26280270753508439 -0.22041879566708961 0 -0.26963823647458091 -0.20762251640780241 0 -0.25521199120448118 -0.20608867607345219 0 -0.26963823647458091 -0.20762251640780241 0 -0.25521199120448118 -0.20608867607345219 0 -0.26291631574761742 -0.20223568956292459 0 -0.24112825112839739 -0.21032916605117341 0 -0.25521199120448118 -0.20608867607345219 0 -0.25392376853803972 -0.21594652707730211 0 -0.26280270753508439 -0.22041879566708961 0 -0.25521199120448118 -0.20608867607345219 0 -0.25392376853803972 -0.21594652707730211 0 -0.2491857197856916 -0.1881539994391043 0 -0.25501515517804491 -0.19095376764027111 0 -0.25771243991212323 -0.18613214763593611 0 -0.25501515517804491 -0.19095376764027111 0 -0.25639398483018189 -0.1973164856736104 0 -0.25920039950311308 -0.19272739351284099 0 -0.25501515517804491 -0.19095376764027111 0 -0.25920039950311308 -0.19272739351284099 0 -0.25823202173599702 -0.18774225890687229 0 -0.25501515517804491 -0.19095376764027111 0 -0.25823202173599702 -0.18774225890687229 0 -0.25771243991212323 -0.18613214763593611 0 -0.2491857197856916 -0.1881539994391043 0 -0.25501515517804491 -0.19095376764027111 0 -0.25028721978338742 -0.19371089023616611 0 -0.25501515517804491 -0.19095376764027111 0 -0.25028721978338742 -0.19371089023616611 0 -0.25639398483018189 -0.1973164856736104 0 -0.24725779665830391 -0.20054974283342891 0 -0.25028721978338742 -0.19371089023616611 0 -0.25639398483018189 -0.1973164856736104 0 -0.24725779665830391 -0.20054974283342891 0 -0.25521199120448118 -0.20608867607345219 0 -0.25639398483018189 -0.1973164856736104 0 -0.25521199120448118 -0.20608867607345219 0 -0.25639398483018189 -0.1973164856736104 0 -0.26291631574761742 -0.20223568956292459 0 -0.25639398483018189 -0.1973164856736104 0 -0.26291631574761742 -0.20223568956292459 0 -0.26415737924756189 -0.1938308763412524 0 -0.25639398483018189 -0.1973164856736104 0 -0.26415737924756189 -0.1938308763412524 0 -0.25920039950311308 -0.19272739351284099 0 -0.26415737924756189 -0.1938308763412524 0 -0.25920039950311308 -0.19272739351284099 0 -0.25823202173599702 -0.18774225890687229 0 -0.26415737924756189 -0.1938308763412524 0 -0.25823202173599702 -0.18774225890687229 0 -0.25771243991212323 -0.18613214763593611 0 -0.27659761642188579 -0.19489317041072141 0 -0.26867338761555221 -0.183528203843212 0 -0.25771243991212323 -0.18613214763593611 0 -0.27659761642188579 -0.19489317041072141 0 -0.25771243991212323 -0.18613214763593611 0 -0.26415737924756189 -0.1938308763412524 0 -0.27659761642188579 -0.19489317041072141 0 -0.25771243991212323 -0.18613214763593611 0 -0.26963823647458091 -0.20762251640780241 0 -0.26291631574761742 -0.20223568956292459 0 -0.27659761642188579 -0.19489317041072141 0 -0.26291631574761742 -0.20223568956292459 0 -0.26415737924756189 -0.1938308763412524 0 -0.27659761642188579 -0.19489317041072141 0 -0.28878582660110252 -0.18797366605675611 0 -0.29548279293164792 -0.20365419318550751 0 -0.30176291824961349 -0.18877021426840621 0 -0.27659761642188579 -0.19489317041072141 0 -0.29548279293164792 -0.20365419318550751 0 -0.27659761642188579 -0.19489317041072141 0 -0.28498880591566472 -0.2063263844377588 0 -0.29548279293164792 -0.20365419318550751 0 -0.27659761642188579 -0.19489317041072141 0 -0.28878582660110252 -0.18797366605675611 0 -0.29548279293164792 -0.20365419318550751 0 -0.27910567481445547 -0.22392715143847061 0 -0.27864958990498762 -0.21186127747667721 0 -0.28922522440413762 -0.21489689667812911 0 -0.27864958990498762 -0.21186127747667721 0 -0.28498880591566472 -0.2063263844377588 0 -0.28922522440413762 -0.21489689667812911 0 -0.29716255850380452 -0.22126142711986721 0 -0.28922522440413762 -0.21489689667812911 0 -0.30180844056708989 -0.21221022276864501 0 -0.28922522440413762 -0.21489689667812911 0 -0.29548279293164792 -0.20365419318550751 0 -0.30180844056708989 -0.21221022276864501 0 -0.28498880591566472 -0.2063263844377588 0 -0.28922522440413762 -0.21489689667812911 0 -0.29548279293164792 -0.20365419318550751 0 -0.30180844056708989 -0.21221022276864501 0 -0.30700966831135318 -0.20174849361848499 0 -0.31773218693866928 -0.21073918432407099 0 -0.29548279293164792 -0.20365419318550751 0 -0.30180844056708989 -0.21221022276864501 0 -0.30700966831135318 -0.20174849361848499 0 -0.3085243477061943 -0.2292725517163873 0 -0.30180844056708989 -0.21221022276864501 0 -0.31773218693866928 -0.21073918432407099 0 -0.30700966831135318 -0.20174849361848499 0 -0.30176291824961349 -0.18877021426840621 0 -0.31694374266810132 -0.1934805085965946 0 -0.29548279293164792 -0.20365419318550751 0 -0.30700966831135318 -0.20174849361848499 0 -0.30176291824961349 -0.18877021426840621 0 -0.30176291824961349 -0.18877021426840621 0 -0.31509104179931519 -0.1721240154684717 0 -0.31694374266810132 -0.1934805085965946 0 -0.30176291824961349 -0.18877021426840621 0 -0.29321913079893408 -0.17436233905145371 0 -0.31509104179931519 -0.1721240154684717 0 -0.30382988962468832 -0.15789455923531909 0 -0.29321913079893408 -0.17436233905145371 0 -0.31509104179931519 -0.1721240154684717 0 -0.30382988962468832 -0.15789455923531909 0 -0.29321913079893408 -0.17436233905145371 0 -0.29152014952297101 -0.1544288344440399 0 -0.29321913079893408 -0.17436233905145371 0 -0.27686667460343128 -0.1781884133676914 0 -0.27899515186531532 -0.1589408019048664 0 -0.29321913079893408 -0.17436233905145371 0 -0.27899515186531532 -0.1589408019048664 0 -0.29152014952297101 -0.1544288344440399 0 -0.29321913079893408 -0.17436233905145371 0 -0.27899515186531532 -0.1589408019048664 0 -0.28878582660110252 -0.18797366605675611 0 -0.29321913079893408 -0.17436233905145371 0 -0.27686667460343128 -0.1781884133676914 0 -0.28878582660110252 -0.18797366605675611 0 -0.30176291824961349 -0.18877021426840621 0 -0.29321913079893408 -0.17436233905145371 0 -0.27659761642188579 -0.19489317041072141 0 -0.27686667460343128 -0.1781884133676914 0 -0.26867338761555221 -0.183528203843212 0 -0.27659761642188579 -0.19489317041072141 0 -0.28878582660110252 -0.18797366605675611 0 -0.27686667460343128 -0.1781884133676914 0 -0.27686667460343128 -0.1781884133676914 0 -0.26867338761555221 -0.183528203843212 0 -0.26351681952476841 -0.1748990839584991 0 -0.27686667460343128 -0.1781884133676914 0 -0.26351681952476841 -0.1748990839584991 0 -0.26921393918814718 -0.16713817941902021 0 -0.26351681952476841 -0.1748990839584991 0 -0.25771243991212323 -0.18613214763593611 0 -0.25101716404961671 -0.16538442584721061 0 -0.26867338761555221 -0.183528203843212 0 -0.26351681952476841 -0.1748990839584991 0 -0.25771243991212323 -0.18613214763593611 0 -0.25771243991212323 -0.18613214763593611 0 -0.25101716404961671 -0.16538442584721061 0 -0.25823202173599702 -0.18774225890687229 0 -0.25771243991212323 -0.18613214763593611 0 -0.25101716404961671 -0.16538442584721061 0 -0.26061455107100417 -0.16580273493571951 0 -0.25607245445027549 -0.15330591863931409 0 -0.25101716404961671 -0.16538442584721061 0 -0.26061455107100417 -0.16580273493571951 0 -0.26351681952476841 -0.1748990839584991 0 -0.25101716404961671 -0.16538442584721061 0 -0.26061455107100417 -0.16580273493571951 0 -0.26351681952476841 -0.1748990839584991 0 -0.26061455107100417 -0.16580273493571951 0 -0.26921393918814718 -0.16713817941902021 0 -0.26061455107100417 -0.16580273493571951 0 -0.2660764988762172 -0.1578598629283248 0 -0.26921393918814718 -0.16713817941902021 0 -0.26061455107100417 -0.16580273493571951 0 -0.2660764988762172 -0.1578598629283248 0 -0.25607245445027549 -0.15330591863931409 0 -0.2660764988762172 -0.1578598629283248 0 -0.26921393918814718 -0.16713817941902021 0 -0.27899515186531532 -0.1589408019048664 0 -0.2660764988762172 -0.1578598629283248 0 -0.27899515186531532 -0.1589408019048664 0 -0.26877412714516258 -0.1535196640741652 0 -0.27686667460343128 -0.1781884133676914 0 -0.26921393918814718 -0.16713817941902021 0 -0.27899515186531532 -0.1589408019048664 0 -0.27899515186531532 -0.1589408019048664 0 -0.27292473703945441 -0.14534637600778291 0 -0.2855913858661086 -0.14314526063254729 0 -0.27292473703945441 -0.14534637600778291 0 -0.27258831612132128 -0.13547698765663471 0 -0.2855913858661086 -0.14314526063254729 0 -0.27292473703945441 -0.14534637600778291 0 -0.2678244514333542 -0.1468296076694949 0 -0.26477117293169677 -0.14351926475827911 0 -0.27292473703945441 -0.14534637600778291 0 -0.26477117293169677 -0.14351926475827911 0 -0.27258831612132128 -0.13547698765663471 0 -0.2678244514333542 -0.1468296076694949 0 -0.26477117293169677 -0.14351926475827911 0 -0.27899515186531532 -0.1589408019048664 0 -0.2678244514333542 -0.1468296076694949 0 -0.26877412714516258 -0.1535196640741652 0 -0.27899515186531532 -0.1589408019048664 0 -0.2678244514333542 -0.1468296076694949 0 -0.27899515186531532 -0.1589408019048664 0 -0.27292473703945441 -0.14534637600778291 0 -0.2678244514333542 -0.1468296076694949 0 -0.2678244514333542 -0.1468296076694949 0 -0.26877412714516258 -0.1535196640741652 0 -0.26244631507818761 -0.1502215711395094 0 -0.2660764988762172 -0.1578598629283248 0 -0.26877412714516258 -0.1535196640741652 0 -0.26244631507818761 -0.1502215711395094 0 -0.2660764988762172 -0.1578598629283248 0 -0.26244631507818761 -0.1502215711395094 0 -0.25607245445027549 -0.15330591863931409 0 -0.2678244514333542 -0.1468296076694949 0 -0.26244631507818761 -0.1502215711395094 0 -0.26477117293169677 -0.14351926475827911 0 -0.26244631507818761 -0.1502215711395094 0 -0.26477117293169677 -0.14351926475827911 0 -0.25345957737028418 -0.1422243138163761 0 -0.24252248370888921 -0.13906060170419321 0 -0.25345957737028418 -0.1422243138163761 0 -0.25607245445027549 -0.15330591863931409 0 -0.26244631507818761 -0.1502215711395094 0 -0.25345957737028418 -0.1422243138163761 0 -0.25607245445027549 -0.15330591863931409 0 -0.24589355376940389 -0.1197343415923325 0 -0.2519772804193724 -0.12964821717384239 0 -0.25533236335055048 -0.13162680317530559 0 -0.24589355376940389 -0.1197343415923325 0 -0.25533236335055048 -0.13162680317530559 0 -0.24589355376940389 -0.1197343415923325 0 -0.25533236335055048 -0.13162680317530559 0 -0.25924093494536249 -0.12760566462448369 0 -0.26477117293169677 -0.14351926475827911 0 -0.25345957737028418 -0.1422243138163761 0 -0.2519772804193724 -0.12964821717384239 0 -0.26477117293169677 -0.14351926475827911 0 -0.2519772804193724 -0.12964821717384239 0 -0.25533236335055048 -0.13162680317530559 0 -0.26477117293169677 -0.14351926475827911 0 -0.2519772804193724 -0.12964821717384239 0 -0.26477117293169677 -0.14351926475827911 0 -0.25533236335055048 -0.13162680317530559 0 -0.26477117293169677 -0.14351926475827911 0 -0.25533236335055048 -0.13162680317530559 0 -0.26300902357511358 -0.13487426756197321 0 -0.26300902357511358 -0.13487426756197321 0 -0.25924093494536249 -0.12760566462448369 0 -0.27258831612132128 -0.13547698765663471 0 -0.25533236335055048 -0.13162680317530559 0 -0.26300902357511358 -0.13487426756197321 0 -0.25924093494536249 -0.12760566462448369 0 -0.25924093494536249 -0.12760566462448369 0 -0.27258831612132128 -0.13547698765663471 0 -0.27292473703945441 -0.14534637600778291 0 -0.27258831612132128 -0.13547698765663471 0 -0.26477117293169677 -0.14351926475827911 0 -0.26300902357511358 -0.13487426756197321 0 -0.27258831612132128 -0.13547698765663471 0 -0.27258831612132128 -0.13547698765663471 0 -0.2855913858661086 -0.14314526063254729 0 -0.28691958767254833 -0.1243973353974567 0 -0.27258831612132128 -0.13547698765663471 0 -0.2855913858661086 -0.14314526063254729 0 -0.28691958767254833 -0.1243973353974567 0 -0.2855913858661086 -0.14314526063254729 0 -0.29981605081892121 -0.13847463196530049 0 -0.28691958767254833 -0.1243973353974567 0 -0.30088212174597012 -0.1161029123977744 0 -0.29981605081892121 -0.13847463196530049 0 -0.27899515186531532 -0.1589408019048664 0 -0.2855913858661086 -0.14314526063254729 0 -0.29152014952297101 -0.1544288344440399 0 -0.2855913858661086 -0.14314526063254729 0 -0.29152014952297101 -0.1544288344440399 0 -0.29981605081892121 -0.13847463196530049 0 -0.30382988962468832 -0.15789455923531909 0 -0.29981605081892121 -0.13847463196530049 0 -0.32142850586285587 -0.1504196855319738 0 -0.30382988962468832 -0.15789455923531909 0 -0.29152014952297101 -0.1544288344440399 0 -0.29981605081892121 -0.13847463196530049 0 -0.30088212174597012 -0.1161029123977744 0 -0.29981605081892121 -0.13847463196530049 0 -0.31337406678903817 -0.12870181871927189 0 -0.29981605081892121 -0.13847463196530049 0 -0.31337406678903817 -0.12870181871927189 0 -0.32142850586285587 -0.1504196855319738 0 -0.32776596992639673 -0.12871535559547581 0 -0.32142850586285587 -0.1504196855319738 0 -0.32776596992639673 -0.12871535559547581 0 -0.31337406678903817 -0.12870181871927189 0 -0.32142850586285587 -0.1504196855319738 0 -0.32776596992639673 -0.12871535559547581 0 -0.32142850586285587 -0.1504196855319738 0 -0.33971637632833412 -0.14614911380185799 0 -0.32142850586285587 -0.1504196855319738 0 -0.33971637632833412 -0.14614911380185799 0 -0.33863806772983529 -0.1652750315563106 0 -0.32776596992639673 -0.12871535559547581 0 -0.33971637632833412 -0.14614911380185799 0 -0.34828425737083929 -0.13111550732816921 0 -0.37069913304914098 -0.1193632437614618 0 -0.34828425737083929 -0.13111550732816921 0 -0.37181420420414552 -0.13907949230613811 0 -0.34828425737083929 -0.13111550732816921 0 -0.37181420420414552 -0.13907949230613811 0 -0.36246508075174338 -0.15521998899736059 0 -0.37181420420414552 -0.13907949230613811 0 -0.36246508075174338 -0.15521998899736059 0 -0.37973921558413981 -0.15610333814278929 0 -0.34828425737083929 -0.13111550732816921 0 -0.36246508075174338 -0.15521998899736059 0 -0.33971637632833412 -0.14614911380185799 0 -0.36246508075174338 -0.15521998899736059 0 -0.33863806772983529 -0.1652750315563106 0 -0.33971637632833412 -0.14614911380185799 0 -0.34828425737083929 -0.13111550732816921 0 -0.36246508075174338 -0.15521998899736059 0 -0.36246508075174338 -0.15521998899736059 0 -0.35859449454169079 -0.1739350696739469 0 -0.33863806772983529 -0.1652750315563106 0 -0.36246508075174338 -0.15521998899736059 0 -0.35859449454169079 -0.1739350696739469 0 -0.37664590413264742 -0.17932447066655191 0 -0.36246508075174338 -0.15521998899736059 0 -0.3767367244195971 -0.16916247886528729 0 -0.37973921558413981 -0.15610333814278929 0 -0.36246508075174338 -0.15521998899736059 0 -0.37664590413264742 -0.17932447066655191 0 -0.3767367244195971 -0.16916247886528729 0 -0.36246508075174338 -0.15521998899736059 0 -0.37664590413264742 -0.17932447066655191 0 -0.35859449454169079 -0.1739350696739469 0 -0.36431841656752528 -0.19204025029311059 0 -0.37664590413264742 -0.17932447066655191 0 -0.35859449454169079 -0.1739350696739469 0 -0.34616430869445369 -0.18103341540521681 0 -0.33863806772983529 -0.1652750315563106 0 -0.35859449454169079 -0.1739350696739469 0 -0.34616430869445369 -0.18103341540521681 0 -0.36431841656752528 -0.19204025029311059 0 -0.34616430869445369 -0.18103341540521681 0 -0.33052231421169548 -0.1820648578646408 0 -0.33863806772983529 -0.1652750315563106 0 -0.34616430869445369 -0.18103341540521681 0 -0.33052231421169548 -0.1820648578646408 0 -0.33577441016677179 -0.19841131829661041 0 -0.30382988962468832 -0.15789455923531909 0 -0.32142850586285587 -0.1504196855319738 0 -0.31509104179931519 -0.1721240154684717 0 -0.32142850586285587 -0.1504196855319738 0 -0.31509104179931519 -0.1721240154684717 0 -0.32142850586285587 -0.1504196855319738 0 -0.33863806772983529 -0.1652750315563106 0 -0.31509104179931519 -0.1721240154684717 0 -0.33052231421169548 -0.1820648578646408 0 -0.33863806772983529 -0.1652750315563106 0 -0.31509104179931519 -0.1721240154684717 0 -0.33052231421169548 -0.1820648578646408 0 -0.31509104179931519 -0.1721240154684717 0 -0.31694374266810132 -0.1934805085965946 0 -0.31694374266810132 -0.1934805085965946 0 -0.31773218693866928 -0.21073918432407099 0 -0.33577441016677179 -0.19841131829661041 0 -0.33052231421169548 -0.1820648578646408 0 -0.31694374266810132 -0.1934805085965946 0 -0.33577441016677179 -0.19841131829661041 0 -0.30700966831135318 -0.20174849361848499 0 -0.31694374266810132 -0.1934805085965946 0 -0.31773218693866928 -0.21073918432407099 0 -0.33259532744413378 -0.2166397526803078 0 -0.33577441016677179 -0.19841131829661041 0 -0.35865239293275869 -0.20889191329427259 0 -0.31773218693866928 -0.21073918432407099 0 -0.33259532744413378 -0.2166397526803078 0 -0.33577441016677179 -0.19841131829661041 0 -0.33577441016677179 -0.19841131829661041 0 -0.3512273820903774 -0.19509422432230261 0 -0.35865239293275869 -0.20889191329427259 0 -0.34616430869445369 -0.18103341540521681 0 -0.3512273820903774 -0.19509422432230261 0 -0.36431841656752528 -0.19204025029311059 0 -0.34616430869445369 -0.18103341540521681 0 -0.33577441016677179 -0.19841131829661041 0 -0.3512273820903774 -0.19509422432230261 0 -0.3512273820903774 -0.19509422432230261 0 -0.36431841656752528 -0.19204025029311059 0 -0.35865239293275869 -0.20889191329427259 0 -0.36431841656752528 -0.19204025029311059 0 -0.38247220718319669 -0.19540894349030219 0 -0.37664590413264742 -0.17932447066655191 0 -0.36431841656752528 -0.19204025029311059 0 -0.37485919850859029 -0.21196428797885281 0 -0.38247220718319669 -0.19540894349030219 0 -0.36431841656752528 -0.19204025029311059 0 -0.37485919850859029 -0.21196428797885281 0 -0.35865239293275869 -0.20889191329427259 0 -0.35865239293275869 -0.20889191329427259 0 -0.37629778282157778 -0.22839689301730209 0 -0.37485919850859029 -0.21196428797885281 0 -0.35865239293275869 -0.20889191329427259 0 -0.37629778282157778 -0.22839689301730209 0 -0.33259532744413378 -0.2166397526803078 0 -0.35865239293275869 -0.20889191329427259 0 -0.34735532009705572 -0.230742880243656 0 -0.35865239293275869 -0.20889191329427259 0 -0.34735532009705572 -0.230742880243656 0 -0.36287334423252537 -0.22874608457151449 0 -0.34735532009705572 -0.230742880243656 0 -0.36287334423252537 -0.22874608457151449 0 -0.36176030056738112 -0.23892828214078121 0 -0.35865239293275869 -0.20889191329427259 0 -0.36287334423252537 -0.22874608457151449 0 -0.37629778282157778 -0.22839689301730209 0 -0.36287334423252537 -0.22874608457151449 0 -0.37050008163678078 -0.23809478566740069 0 -0.37629778282157778 -0.22839689301730209 0 -0.36844635146733168 -0.24423300206222681 0 -0.37474812662003493 -0.2480042625025452 0 -0.36512292251027972 -0.2486019884582186 0 -0.36844635146733168 -0.24423300206222681 0 -0.37474812662003493 -0.2480042625025452 0 -0.37341214803636152 -0.24385494685862261 0 -0.37341214803636152 -0.24385494685862261 0 -0.37050008163678078 -0.23809478566740069 0 -0.38063811315252227 -0.24327911894002349 0 -0.36844635146733168 -0.24423300206222681 0 -0.37341214803636152 -0.24385494685862261 0 -0.37050008163678078 -0.23809478566740069 0 -0.36844635146733168 -0.24423300206222681 0 -0.37050008163678078 -0.23809478566740069 0 -0.36176030056738112 -0.23892828214078121 0 -0.36287334423252537 -0.22874608457151449 0 -0.37050008163678078 -0.23809478566740069 0 -0.36176030056738112 -0.23892828214078121 0 -0.36844635146733168 -0.24423300206222681 0 -0.36176030056738112 -0.23892828214078121 0 -0.36512292251027972 -0.2486019884582186 0 -0.36176030056738112 -0.23892828214078121 0 -0.36512292251027972 -0.2486019884582186 0 -0.35559992002597007 -0.2440154841809076 0 -0.36075725608683479 -0.25252399222535399 0 -0.36512292251027972 -0.2486019884582186 0 -0.35559992002597007 -0.2440154841809076 0 -0.35559992002597007 -0.2440154841809076 0 -0.33542008743563279 -0.2451751824225199 0 -0.34735532009705572 -0.230742880243656 0 -0.35559992002597007 -0.2440154841809076 0 -0.33542008743563279 -0.2451751824225199 0 -0.34801697513192281 -0.25390758607183572 0 -0.35559992002597007 -0.2440154841809076 0 -0.33542008743563279 -0.2451751824225199 0 -0.34735532009705572 -0.230742880243656 0 -0.36176030056738112 -0.23892828214078121 0 -0.35559992002597007 -0.2440154841809076 0 -0.33476312054528728 -0.25708724346025841 0 -0.33542008743563279 -0.2451751824225199 0 -0.31524025484529539 -0.24633488066413101 0 -0.34735532009705572 -0.230742880243656 0 -0.33542008743563279 -0.2451751824225199 0 -0.32515391445869052 -0.2317152491961039 0 -0.33259532744413378 -0.2166397526803078 0 -0.34735532009705572 -0.230742880243656 0 -0.32515391445869052 -0.2317152491961039 0 -0.3085243477061943 -0.2292725517163873 0 -0.31773218693866928 -0.21073918432407099 0 -0.32515391445869052 -0.2317152491961039 0 -0.31773218693866928 -0.21073918432407099 0 -0.33259532744413378 -0.2166397526803078 0 -0.32515391445869052 -0.2317152491961039 0 -0.3085243477061943 -0.2292725517163873 0 -0.32515391445869052 -0.2317152491961039 0 -0.31524025484529539 -0.24633488066413101 0 -0.33542008743563279 -0.2451751824225199 0 -0.32515391445869052 -0.2317152491961039 0 -0.31524025484529539 -0.24633488066413101 0 -0.33542008743563279 -0.2451751824225199 0 -0.31524025484529539 -0.24633488066413101 0 -0.43229081015205362 -0.25417199456554668 0 -0.42949906886035771 -0.2463856854453515 0 -0.44919232957202387 -0.24371303005310249 0 -0.42440311049531892 -0.25168108644196319 0 -0.42949906886035771 -0.2463856854453515 0 -0.41305431339371562 -0.24861747250264279 0 -0.42949906886035771 -0.2463856854453515 0 -0.43090836492202811 -0.2254156914142374 0 -0.41976880550626672 -0.23654170350048351 0 -0.42440311049531892 -0.25168108644196319 0 -0.42949906886035771 -0.2463856854453515 0 -0.42949906886035771 -0.2463856854453515 0 -0.43090836492202811 -0.2254156914142374 0 -0.44808406686863028 -0.22707331867833969 0 -0.43090836492202811 -0.2254156914142374 0 -0.41434245556982457 -0.22342157594547499 0 -0.41976880550626672 -0.23654170350048351 0 -0.41434245556982457 -0.22342157594547499 0 -0.41102770256108911 -0.2354723852957778 0 -0.41976880550626672 -0.23654170350048351 0 -0.41434245556982457 -0.22342157594547499 0 -0.40213925663075251 -0.2299401869925714 0 -0.40478845062749969 -0.2067341123509083 0 -0.41434245556982457 -0.22342157594547499 0 -0.41102770256108911 -0.2354723852957778 0 -0.40213925663075251 -0.2299401869925714 0 -0.41102770256108911 -0.2354723852957778 0 -0.41305431339371562 -0.24861747250264279 0 -0.40583368170488648 -0.2388409875377164 0 -0.41102770256108911 -0.2354723852957778 0 -0.40583368170488648 -0.2388409875377164 0 -0.40213925663075251 -0.2299401869925714 0 -0.42949906886035771 -0.2463856854453515 0 -0.41305431339371562 -0.24861747250264279 0 -0.42949906886035771 -0.2463856854453515 0 -0.41976880550626672 -0.23654170350048351 0 -0.41305431339371562 -0.24861747250264279 0 -0.41102770256108911 -0.2354723852957778 0 -0.41976880550626672 -0.23654170350048351 0 -0.41305431339371562 -0.24861747250264279 0 -0.41305431339371562 -0.24861747250264279 0 -0.40130283749760792 -0.2436274715046727 0 -0.40583368170488648 -0.2388409875377164 0 -0.39394317271039653 -0.2479018727403321 0 -0.38820768994679622 -0.2216554081153172 0 -0.39660955792707342 -0.25084925955993409 0 -0.41305431339371562 -0.24861747250264279 0 -0.40130283749760792 -0.2436274715046727 0 -0.40130283749760792 -0.2436274715046727 0 -0.39394317271039653 -0.2479018727403321 0 -0.40213925663075251 -0.2299401869925714 0 -0.39660955792707342 -0.25084925955993409 0 -0.41305431339371562 -0.24861747250264279 0 -0.40130283749760792 -0.2436274715046727 0 -0.40583368170488648 -0.2388409875377164 0 -0.40213925663075251 -0.2299401869925714 0 -0.39660955792707342 -0.25084925955993409 0 -0.40130283749760792 -0.2436274715046727 0 -0.39394317271039653 -0.2479018727403321 0 -0.39660955792707342 -0.25084925955993409 0 -0.3946454953443147 -0.25111581076896788 0 -0.39394317271039653 -0.2479018727403321 0 -0.39660955792707342 -0.25084925955993409 0 -0.39394317271039653 -0.2479018727403321 0 -0.3946454953443147 -0.25111581076896788 0 -0.39394317271039653 -0.2479018727403321 0 -0.3946454953443147 -0.25111581076896788 0 -0.37474812662003493 -0.2480042625025452 0 -0.38063811315252227 -0.24327911894002349 0 -0.39394317271039653 -0.2479018727403321 0 -0.38063811315252227 -0.24327911894002349 0 -0.37629778282157778 -0.22839689301730209 0 -0.3946454953443147 -0.25111581076896788 0 -0.39394317271039653 -0.2479018727403321 0 -0.38063811315252227 -0.24327911894002349 0 -0.39394317271039653 -0.2479018727403321 0 -0.37629778282157778 -0.22839689301730209 0 -0.37050008163678078 -0.23809478566740069 0 -0.38063811315252227 -0.24327911894002349 0 -0.37629778282157778 -0.22839689301730209 0 -0.37474812662003493 -0.2480042625025452 0 -0.37341214803636152 -0.24385494685862261 0 -0.38063811315252227 -0.24327911894002349 0 -0.37485919850859029 -0.21196428797885281 0 -0.38820768994679622 -0.2216554081153172 0 -0.37629778282157778 -0.22839689301730209 0 -0.39394317271039653 -0.2479018727403321 0 -0.38820768994679622 -0.2216554081153172 0 -0.37629778282157778 -0.22839689301730209 0 -0.39394317271039653 -0.2479018727403321 0 -0.38820768994679622 -0.2216554081153172 0 -0.40213925663075251 -0.2299401869925714 0 -0.38820768994679622 -0.2216554081153172 0 -0.40213925663075251 -0.2299401869925714 0 -0.40478845062749969 -0.2067341123509083 0 -0.38820768994679622 -0.2216554081153172 0 -0.40478845062749969 -0.2067341123509083 0 -0.38247220718319669 -0.19540894349030219 0 -0.38820768994679622 -0.2216554081153172 0 -0.38247220718319669 -0.19540894349030219 0 -0.37485919850859029 -0.21196428797885281 0 -0.38820768994679622 -0.2216554081153172 0 -0.38247220718319669 -0.19540894349030219 0 -0.38247220718319669 -0.19540894349030219 0 -0.39957611728302628 -0.18925461860490819 0 -0.3893584796837779 -0.1801063257933235 0 -0.40478845062749969 -0.2067341123509083 0 -0.38247220718319669 -0.19540894349030219 0 -0.39957611728302628 -0.18925461860490819 0 -0.40478845062749969 -0.2067341123509083 0 -0.39957611728302628 -0.18925461860490819 0 -0.41790782839099799 -0.18687570813132681 0 -0.40478845062749969 -0.2067341123509083 0 -0.42722285246329361 -0.20281832621352711 0 -0.41790782839099799 -0.18687570813132681 0 -0.41434245556982457 -0.22342157594547499 0 -0.42722285246329361 -0.20281832621352711 0 -0.41434245556982457 -0.22342157594547499 0 -0.40478845062749969 -0.2067341123509083 0 -0.42722285246329361 -0.20281832621352711 0 -0.43090836492202811 -0.2254156914142374 0 -0.41434245556982457 -0.22342157594547499 0 -0.42722285246329361 -0.20281832621352711 0 -0.43090836492202811 -0.2254156914142374 0 -0.42722285246329361 -0.20281832621352711 0 -0.44635649750603767 -0.20584682125085449 0 -0.42722285246329361 -0.20281832621352711 0 -0.41790782839099799 -0.18687570813132681 0 -0.44010324935676259 -0.18221507648157939 0 -0.42722285246329361 -0.20281832621352711 0 -0.44010324935676259 -0.18221507648157939 0 -0.42490960957689772 -0.16745050732956049 0 -0.41790782839099799 -0.18687570813132681 0 -0.44010324935676259 -0.18221507648157939 0 -0.42490960957689772 -0.16745050732956049 0 -0.42237231764286082 -0.154014229218493 0 -0.43594905591301342 -0.1501197039167933 0 -0.42490960957689772 -0.16745050732956049 0 -0.40898660839310408 -0.1609359868313075 0 -0.42237231764286082 -0.154014229218493 0 -0.42490960957689772 -0.16745050732956049 0 -0.40898660839310408 -0.1609359868313075 0 -0.40370314458026102 -0.1747990384150212 0 -0.39957611728302628 -0.18925461860490819 0 -0.41790782839099799 -0.18687570813132681 0 -0.40370314458026102 -0.1747990384150212 0 -0.42490960957689772 -0.16745050732956049 0 -0.41790782839099799 -0.18687570813132681 0 -0.40370314458026102 -0.1747990384150212 0 -0.40370314458026102 -0.1747990384150212 0 -0.3893584796837779 -0.1801063257933235 0 -0.3877399313372053 -0.1691080993481742 0 -0.39957611728302628 -0.18925461860490819 0 -0.40370314458026102 -0.1747990384150212 0 -0.3893584796837779 -0.1801063257933235 0 -0.38247220718319669 -0.19540894349030219 0 -0.3767367244195971 -0.16916247886528729 0 -0.38247220718319669 -0.19540894349030219 0 -0.37664590413264742 -0.17932447066655191 0 -0.3767367244195971 -0.16916247886528729 0 -0.38247220718319669 -0.19540894349030219 0 -0.3893584796837779 -0.1801063257933235 0 -0.3767367244195971 -0.16916247886528729 0 -0.3893584796837779 -0.1801063257933235 0 -0.3767367244195971 -0.16916247886528729 0 -0.3877399313372053 -0.1691080993481742 0 -0.3767367244195971 -0.16916247886528729 0 -0.3877399313372053 -0.1691080993481742 0 -0.37973921558413981 -0.15610333814278929 0 -0.3877399313372053 -0.1691080993481742 0 -0.39384892446672842 -0.15840286031217821 0 -0.37973921558413981 -0.15610333814278929 0 -0.40370314458026102 -0.1747990384150212 0 -0.3877399313372053 -0.1691080993481742 0 -0.39384892446672842 -0.15840286031217821 0 -0.40898660839310408 -0.1609359868313075 0 -0.40370314458026102 -0.1747990384150212 0 -0.39384892446672842 -0.15840286031217821 0 -0.40898660839310408 -0.1609359868313075 0 -0.39384892446672842 -0.15840286031217821 0 -0.400622329490672 -0.1434388667923569 0 -0.39384892446672842 -0.15840286031217821 0 -0.400622329490672 -0.1434388667923569 0 -0.38636790906492391 -0.1448482036133463 0 -0.39384892446672842 -0.15840286031217821 0 -0.38636790906492391 -0.1448482036133463 0 -0.37973921558413981 -0.15610333814278929 0 -0.37181420420414552 -0.13907949230613811 0 -0.38636790906492391 -0.1448482036133463 0 -0.37973921558413981 -0.15610333814278929 0 -0.37069913304914098 -0.1193632437614618 0 -0.37181420420414552 -0.13907949230613811 0 -0.38639156327270402 -0.1306946385362959 0 -0.37181420420414552 -0.13907949230613811 0 -0.38636790906492391 -0.1448482036133463 0 -0.38639156327270402 -0.1306946385362959 0 -0.400622329490672 -0.1434388667923569 0 -0.41269787721970769 -0.13456076839363251 0 -0.3996357423838563 -0.1236626326443985 0 -0.400622329490672 -0.1434388667923569 0 -0.38639156327270402 -0.1306946385362959 0 -0.3996357423838563 -0.1236626326443985 0 -0.400622329490672 -0.1434388667923569 0 -0.38636790906492391 -0.1448482036133463 0 -0.38639156327270402 -0.1306946385362959 0 -0.41269787721970769 -0.13456076839363251 0 -0.3996357423838563 -0.1236626326443985 0 -0.41405462021182021 -0.12059725103256549 0 -0.41269787721970769 -0.13456076839363251 0 -0.42450029311672888 -0.12854155882879789 0 -0.41405462021182021 -0.12059725103256549 0 -0.41269787721970769 -0.13456076839363251 0 -0.42495234269793047 -0.14141134391851251 0 -0.42450029311672888 -0.12854155882879789 0 -0.40898660839310408 -0.1609359868313075 0 -0.400622329490672 -0.1434388667923569 0 -0.41323096095516237 -0.14893515077839681 0 -0.400622329490672 -0.1434388667923569 0 -0.41269787721970769 -0.13456076839363251 0 -0.41323096095516237 -0.14893515077839681 0 -0.40898660839310408 -0.1609359868313075 0 -0.41323096095516237 -0.14893515077839681 0 -0.42237231764286082 -0.154014229218493 0 -0.41323096095516237 -0.14893515077839681 0 -0.42495234269793047 -0.14141134391851251 0 -0.42237231764286082 -0.154014229218493 0 -0.41269787721970769 -0.13456076839363251 0 -0.41323096095516237 -0.14893515077839681 0 -0.42495234269793047 -0.14141134391851251 0 -0.42495234269793047 -0.14141134391851251 0 -0.43594905591301342 -0.1501197039167933 0 -0.43904704600101191 -0.13168742571601469 0 -0.42495234269793047 -0.14141134391851251 0 -0.42237231764286082 -0.154014229218493 0 -0.43594905591301342 -0.1501197039167933 0 -0.42450029311672888 -0.12854155882879789 0 -0.43904704600101191 -0.13168742571601469 0 -0.43264031305783113 -0.12329188855949889 0 -0.42495234269793047 -0.14141134391851251 0 -0.42450029311672888 -0.12854155882879789 0 -0.43904704600101191 -0.13168742571601469 0 -0.43904704600101191 -0.13168742571601469 0 -0.44967784007147432 -0.142615649217637 0 -0.45454540904941582 -0.1286507126880625 0 -0.43904704600101191 -0.13168742571601469 0 -0.45454540904941582 -0.1286507126880625 0 -0.44322677495513219 -0.1162928483584431 0 -0.43594905591301342 -0.1501197039167933 0 -0.43904704600101191 -0.13168742571601469 0 -0.44967784007147432 -0.142615649217637 0 -0.43594905591301342 -0.1501197039167933 0 -0.44967784007147432 -0.142615649217637 0 -0.45298364625023169 -0.16161182674963159 0 -0.44967784007147432 -0.142615649217637 0 -0.46586404314369878 -0.14100857701768249 0 -0.45298364625023169 -0.16161182674963159 0 -0.46586404314369878 -0.14100857701768249 0 -0.45298364625023169 -0.16161182674963159 0 -0.46586404314369878 -0.14100857701768249 0 -0.46841228250414368 -0.1638265537426784 0 -0.45298364625023169 -0.16161182674963159 0 -0.44967784007147432 -0.142615649217637 0 -0.46586404314369878 -0.14100857701768249 0 -0.45454540904941582 -0.1286507126880625 0 -0.46586404314369878 -0.14100857701768249 0 -0.45454540904941582 -0.1286507126880625 0 -0.46586404314369878 -0.14100857701768249 0 -0.45454540904941582 -0.1286507126880625 0 -0.46949566145170768 -0.12559563250407579 0 -0.46586404314369878 -0.14100857701768249 0 -0.47447595022110539 -0.1272331263346278 0 -0.48723797511055222 -0.13761479044979291 0 -0.46586404314369878 -0.14100857701768249 0 -0.47447595022110539 -0.1272331263346278 0 -0.46949566145170768 -0.12559563250407579 0 -0.46586404314369878 -0.14100857701768249 0 -0.47447595022110539 -0.1272331263346278 0 -0.47447595022110539 -0.1272331263346278 0 -0.48723797511055222 -0.13761479044979291 0 -0.47447595022110539 -0.1272331263346278 0 -0.48723797511055222 -0.13761479044979291 0 -0.48704348572726353 -0.1238492587224552 0 -0.48723797511055222 -0.13761479044979291 0 -0.5 -0.120664021671708 0 -0.48704348572726353 -0.1238492587224552 0 -0.48723797511055222 -0.13761479044979291 0 -0.49999999999999939 -0.14799645456495741 0 -0.5 -0.120664021671708 0 -0.48723797511055222 -0.13761479044979291 0 -0.49999999999999939 -0.14799645456495741 0 -0.48293202157184828 -0.15964366673248431 0 -0.48723797511055222 -0.13761479044979291 0 -0.49999999999999939 -0.14799645456495741 0 -0.46586404314369878 -0.14100857701768249 0 -0.48293202157184828 -0.15964366673248431 0 -0.46586404314369878 -0.14100857701768249 0 -0.48293202157184828 -0.15964366673248431 0 -0.46841228250414368 -0.1638265537426784 0 -0.46586404314369878 -0.14100857701768249 0 -0.48723797511055222 -0.13761479044979291 0 -0.48293202157184828 -0.15964366673248431 0 -0.48293202157184828 -0.15964366673248431 0 -0.47717967655212201 -0.17460343078770479 0 -0.46841228250414368 -0.1638265537426784 0 -0.49999999999999939 -0.14799645456495741 0 -0.48293202157184828 -0.15964366673248431 0 -0.499999999999999 -0.17827875644728519 0 -0.48293202157184828 -0.15964366673248431 0 -0.499999999999999 -0.17827875644728519 0 -0.47717967655212201 -0.17460343078770479 0 -0.48293202157184828 -0.15964366673248431 0 -0.499999999999999 -0.17827875644728519 0 -0.499999999999999 -0.17827875644728519 0 -0.47717967655212201 -0.17460343078770479 0 -0.48525406288517642 -0.18844858514431689 0 -0.47717967655212201 -0.17460343078770479 0 -0.463102025002818 -0.18226526742588861 0 -0.48525406288517642 -0.18844858514431689 0 -0.47717967655212201 -0.17460343078770479 0 -0.463102025002818 -0.18226526742588861 0 -0.46841228250414368 -0.1638265537426784 0 -0.463102025002818 -0.18226526742588861 0 -0.46841228250414368 -0.1638265537426784 0 -0.45298364625023169 -0.16161182674963159 0 -0.42490960957689772 -0.16745050732956049 0 -0.43594905591301342 -0.1501197039167933 0 -0.45298364625023169 -0.16161182674963159 0 -0.42490960957689772 -0.16745050732956049 0 -0.45298364625023169 -0.16161182674963159 0 -0.44010324935676259 -0.18221507648157939 0 -0.463102025002818 -0.18226526742588861 0 -0.45298364625023169 -0.16161182674963159 0 -0.44010324935676259 -0.18221507648157939 0 -0.45298364625023169 -0.16161182674963159 0 -0.44010324935676259 -0.18221507648157939 0 -0.5 -0.25346781598992812 0 -0.499999999999999 -0.17827875644728519 0 -0.48525406288517642 -0.18844858514431689 0 -0.5 -0.25346781598992812 0 -0.48525406288517642 -0.18844858514431689 0 -0.47298981213985369 -0.23236270461467731 0 -0.42722285246329361 -0.20281832621352711 0 -0.44010324935676259 -0.18221507648157939 0 -0.44635649750603767 -0.20584682125085449 0 -0.463102025002818 -0.18226526742588861 0 -0.44010324935676259 -0.18221507648157939 0 -0.44635649750603767 -0.20584682125085449 0 -0.44635649750603767 -0.20584682125085449 0 -0.46666906487690341 -0.20776095191132829 0 -0.44808406686863028 -0.22707331867833969 0 -0.46666906487690341 -0.20776095191132829 0 -0.44808406686863028 -0.22707331867833969 0 -0.463102025002818 -0.18226526742588861 0 -0.44635649750603767 -0.20584682125085449 0 -0.46666906487690341 -0.20776095191132829 0 -0.463102025002818 -0.18226526742588861 0 -0.46666906487690341 -0.20776095191132829 0 -0.48525406288517642 -0.18844858514431689 0 -0.46666906487690341 -0.20776095191132829 0 -0.48525406288517642 -0.18844858514431689 0 -0.47298981213985369 -0.23236270461467731 0 -0.46666906487690341 -0.20776095191132829 0 -0.48525406288517642 -0.18844858514431689 0 -0.47206243562756728 -0.25762347179270151 0 -0.5 -0.25346781598992812 0 -0.47298981213985369 -0.23236270461467731 0 -0.47298981213985369 -0.23236270461467731 0 -0.44808406686863028 -0.22707331867833969 0 -0.44919232957202387 -0.24371303005310249 0 -0.47206243562756728 -0.25762347179270151 0 -0.47298981213985369 -0.23236270461467731 0 -0.44919232957202387 -0.24371303005310249 0 -0.46666906487690341 -0.20776095191132829 0 -0.47298981213985369 -0.23236270461467731 0 -0.44808406686863028 -0.22707331867833969 0 -0.43090836492202811 -0.2254156914142374 0 -0.44635649750603767 -0.20584682125085449 0 -0.44808406686863028 -0.22707331867833969 0 -0.42949906886035771 -0.2463856854453515 0 -0.44808406686863028 -0.22707331867833969 0 -0.42949906886035771 -0.2463856854453515 0 -0.44919232957202387 -0.24371303005310249 0 -0.42949906886035771 -0.2463856854453515 0 -0.44808406686863028 -0.22707331867833969 0 -0.44919232957202387 -0.24371303005310249 0 -0.4183285585446912 -0.050677376356490458 0 -0.41677824504145339 -0.030157427092185642 0 -0.39217805399236938 -0.048582572027588103 0 -0.4183285585446912 -0.050677376356490458 0 -0.39217805399236938 -0.048582572027588103 0 -0.41046995042736062 -0.07516546489608697 0 -0.4183285585446912 -0.050677376356490458 0 -0.43419827487196272 -0.038385605457537629 0 -0.43816022252939402 -0.062245053997655217 0 -0.4183285585446912 -0.050677376356490458 0 -0.43419827487196272 -0.038385605457537629 0 -0.41677824504145339 -0.030157427092185642 0 -0.43419827487196272 -0.038385605457537629 0 -0.42993226968461062 -0.020287599982467111 0 -0.41677824504145339 -0.030157427092185642 0 -0.42993226968461062 -0.020287599982467111 0 -0.4217292346608259 -0.0010425993288985141 0 -0.44472529084816348 -0.00053841260254529528 0 -0.42993226968461062 -0.020287599982467111 0 -0.4217292346608259 -0.0010425993288985141 0 -0.40751601660928438 -0.016568719428877641 0 -0.4217292346608259 -0.0010425993288985141 0 -0.40751601660928438 -0.016568719428877641 0 -0.39837147550330271 0.01448554233248333 0 -0.42993226968461062 -0.020287599982467111 0 -0.41677824504145339 -0.030157427092185642 0 -0.40751601660928438 -0.016568719428877641 0 -0.41677824504145339 -0.030157427092185642 0 -0.40751601660928438 -0.016568719428877641 0 -0.39555282924350182 -0.027741567937240089 0 -0.42993226968461062 -0.020287599982467111 0 -0.40751601660928438 -0.016568719428877641 0 -0.40751601660928438 -0.016568719428877641 0 -0.39555282924350182 -0.027741567937240089 0 -0.38509976353395808 -0.012849838875288179 0 -0.40751601660928438 -0.016568719428877641 0 -0.38509976353395808 -0.012849838875288179 0 -0.39837147550330271 0.01448554233248333 0 -0.40751601660928438 -0.016568719428877641 0 -0.38509976353395808 -0.012849838875288179 0 -0.39555282924350182 -0.027741567937240089 0 -0.38509976353395808 -0.012849838875288179 0 -0.37619206704044378 -0.03054928226226088 0 -0.39555282924350182 -0.027741567937240089 0 -0.37619206704044378 -0.03054928226226088 0 -0.39217805399236938 -0.048582572027588103 0 -0.36852919634310399 -0.047257105603825837 0 -0.37619206704044378 -0.03054928226226088 0 -0.39217805399236938 -0.048582572027588103 0 -0.41677824504145339 -0.030157427092185642 0 -0.39555282924350182 -0.027741567937240089 0 -0.39217805399236938 -0.048582572027588103 0 -0.37298475090107491 -0.064843214874260341 0 -0.36852919634310399 -0.047257105603825837 0 -0.39217805399236938 -0.048582572027588103 0 -0.36915259797164529 -0.090060442986693245 0 -0.37298475090107491 -0.064843214874260341 0 -0.38859594785455343 -0.076761499782944331 0 -0.37298475090107491 -0.064843214874260341 0 -0.39217805399236938 -0.048582572027588103 0 -0.38859594785455343 -0.076761499782944331 0 -0.36915259797164529 -0.090060442986693245 0 -0.38859594785455343 -0.076761499782944331 0 -0.3938439902994742 -0.098804578110610206 0 -0.38859594785455343 -0.076761499782944331 0 -0.3938439902994742 -0.098804578110610206 0 -0.41046995042736062 -0.07516546489608697 0 -0.39217805399236938 -0.048582572027588103 0 -0.38859594785455343 -0.076761499782944331 0 -0.41046995042736062 -0.07516546489608697 0 -0.37069913304914098 -0.1193632437614618 0 -0.38639156327270402 -0.1306946385362959 0 -0.38652360427607652 -0.1131334100122259 0 -0.37069913304914098 -0.1193632437614618 0 -0.36915259797164529 -0.090060442986693245 0 -0.38652360427607652 -0.1131334100122259 0 -0.36915259797164529 -0.090060442986693245 0 -0.38652360427607652 -0.1131334100122259 0 -0.3938439902994742 -0.098804578110610206 0 -0.36915259797164529 -0.090060442986693245 0 -0.3938439902994742 -0.098804578110610206 0 -0.3938439902994742 -0.098804578110610206 0 -0.418535382627303 -0.10754871323452719 0 -0.38639156327270402 -0.1306946385362959 0 -0.38652360427607652 -0.1131334100122259 0 -0.3996357423838563 -0.1236626326443985 0 -0.3938439902994742 -0.098804578110610206 0 -0.3996357423838563 -0.1236626326443985 0 -0.41405462021182021 -0.12059725103256549 0 -0.38652360427607652 -0.1131334100122259 0 -0.3938439902994742 -0.098804578110610206 0 -0.3996357423838563 -0.1236626326443985 0 -0.42450029311672888 -0.12854155882879789 0 -0.41405462021182021 -0.12059725103256549 0 -0.42579023718367398 -0.1185091003833303 0 -0.41405462021182021 -0.12059725103256549 0 -0.418535382627303 -0.10754871323452719 0 -0.42579023718367398 -0.1185091003833303 0 -0.3938439902994742 -0.098804578110610206 0 -0.41405462021182021 -0.12059725103256549 0 -0.418535382627303 -0.10754871323452719 0 -0.3938439902994742 -0.098804578110610206 0 -0.418535382627303 -0.10754871323452719 0 -0.41536644266847561 -0.092437760932901375 0 -0.418535382627303 -0.10754871323452719 0 -0.42399351775955119 -0.098995846600975587 0 -0.41536644266847561 -0.092437760932901375 0 -0.42399351775955119 -0.098995846600975587 0 -0.41536644266847561 -0.092437760932901375 0 -0.43180528369194199 -0.092521352042267274 0 -0.42399351775955119 -0.098995846600975587 0 -0.43247896384948809 -0.1045582176267144 0 -0.43180528369194199 -0.092521352042267274 0 -0.418535382627303 -0.10754871323452719 0 -0.42399351775955119 -0.098995846600975587 0 -0.43247896384948809 -0.1045582176267144 0 -0.43264031305783113 -0.12329188855949889 0 -0.42579023718367398 -0.1185091003833303 0 -0.44322677495513219 -0.1162928483584431 0 -0.418535382627303 -0.10754871323452719 0 -0.42579023718367398 -0.1185091003833303 0 -0.44322677495513219 -0.1162928483584431 0 -0.418535382627303 -0.10754871323452719 0 -0.43247896384948809 -0.1045582176267144 0 -0.44322677495513219 -0.1162928483584431 0 -0.418535382627303 -0.10754871323452719 0 -0.44322677495513219 -0.1162928483584431 0 -0.42450029311672888 -0.12854155882879789 0 -0.43264031305783113 -0.12329188855949889 0 -0.42579023718367398 -0.1185091003833303 0 -0.41046995042736062 -0.07516546489608697 0 -0.41536644266847561 -0.092437760932901375 0 -0.43180528369194199 -0.092521352042267274 0 -0.3938439902994742 -0.098804578110610206 0 -0.41046995042736062 -0.07516546489608697 0 -0.41536644266847561 -0.092437760932901375 0 -0.41046995042736062 -0.07516546489608697 0 -0.43180528369194199 -0.092521352042267274 0 -0.41046995042736062 -0.07516546489608697 0 -0.43648995813264152 -0.079906062499839059 0 -0.43180528369194199 -0.092521352042267274 0 -0.41046995042736062 -0.07516546489608697 0 -0.43648995813264152 -0.079906062499839059 0 -0.43816022252939402 -0.062245053997655217 0 -0.4183285585446912 -0.050677376356490458 0 -0.41046995042736062 -0.07516546489608697 0 -0.43816022252939402 -0.062245053997655217 0 -0.43648995813264152 -0.079906062499839059 0 -0.45247660833398079 -0.07697498198443406 0 -0.43816022252939402 -0.062245053997655217 0 -0.45247660833398079 -0.07697498198443406 0 -0.45998391148668949 -0.061033232064932247 0 -0.43816022252939402 -0.062245053997655217 0 -0.43648995813264152 -0.079906062499839059 0 -0.45247660833398079 -0.07697498198443406 0 -0.44975020751049483 -0.091684997714352082 0 -0.43648995813264152 -0.079906062499839059 0 -0.43180528369194199 -0.092521352042267274 0 -0.44975020751049483 -0.091684997714352082 0 -0.45247660833398079 -0.07697498198443406 0 -0.46240058530078892 -0.088382760712712088 0 -0.46858472143579211 -0.076345476442554461 0 -0.45247660833398079 -0.07697498198443406 0 -0.44975020751049483 -0.091684997714352082 0 -0.46240058530078892 -0.088382760712712088 0 -0.44975020751049483 -0.091684997714352082 0 -0.46240058530078892 -0.088382760712712088 0 -0.46100564658161342 -0.099222672939933351 0 -0.46240058530078892 -0.088382760712712088 0 -0.470045336610033 -0.096901324356569729 0 -0.47379119491292598 -0.086923511790485797 0 -0.46240058530078892 -0.088382760712712088 0 -0.46858472143579211 -0.076345476442554461 0 -0.47379119491292598 -0.086923511790485797 0 -0.45247660833398079 -0.07697498198443406 0 -0.46858472143579211 -0.076345476442554461 0 -0.45998391148668949 -0.061033232064932247 0 -0.43247896384948809 -0.1045582176267144 0 -0.44322677495513219 -0.1162928483584431 0 -0.45314061695652358 -0.1098772391884477 0 -0.45454540904941582 -0.1286507126880625 0 -0.44322677495513219 -0.1162928483584431 0 -0.43904704600101191 -0.13168742571601469 0 -0.43264031305783113 -0.12329188855949889 0 -0.44322677495513219 -0.1162928483584431 0 -0.43247896384948809 -0.1045582176267144 0 -0.44322677495513219 -0.1162928483584431 0 -0.43247896384948809 -0.1045582176267144 0 -0.43180528369194199 -0.092521352042267274 0 -0.45314061695652358 -0.1098772391884477 0 -0.43180528369194199 -0.092521352042267274 0 -0.45314061695652358 -0.1098772391884477 0 -0.43180528369194199 -0.092521352042267274 0 -0.44975020751049483 -0.091684997714352082 0 -0.45314061695652358 -0.1098772391884477 0 -0.44975020751049483 -0.091684997714352082 0 -0.46100564658161342 -0.099222672939933351 0 -0.45314061695652358 -0.1098772391884477 0 -0.46100564658161342 -0.099222672939933351 0 -0.45314061695652358 -0.1098772391884477 0 -0.46979043462457559 -0.1084141131205814 0 -0.46240058530078892 -0.088382760712712088 0 -0.46100564658161342 -0.099222672939933351 0 -0.470045336610033 -0.096901324356569729 0 -0.46100564658161342 -0.099222672939933351 0 -0.46979043462457559 -0.1084141131205814 0 -0.470045336610033 -0.096901324356569729 0 -0.46949566145170768 -0.12559563250407579 0 -0.44322677495513219 -0.1162928483584431 0 -0.47447595022110539 -0.1272331263346278 0 -0.45314061695652358 -0.1098772391884477 0 -0.45454540904941582 -0.1286507126880625 0 -0.46949566145170768 -0.12559563250407579 0 -0.44322677495513219 -0.1162928483584431 0 -0.46949566145170768 -0.12559563250407579 0 -0.44322677495513219 -0.1162928483584431 0 -0.45314061695652358 -0.1098772391884477 0 -0.47447595022110539 -0.1272331263346278 0 -0.45314061695652358 -0.1098772391884477 0 -0.46979043462457559 -0.1084141131205814 0 -0.47447595022110539 -0.1272331263346278 0 -0.46949566145170768 -0.12559563250407579 0 -0.45314061695652358 -0.1098772391884477 0 -0.47447595022110539 -0.1272331263346278 0 -0.48273515638216802 -0.11402184965337719 0 -0.46979043462457559 -0.1084141131205814 0 -0.47447595022110539 -0.1272331263346278 0 -0.48273515638216802 -0.11402184965337719 0 -0.47447595022110539 -0.1272331263346278 0 -0.48273515638216802 -0.11402184965337719 0 -0.48704348572726353 -0.1238492587224552 0 -0.48273515638216802 -0.11402184965337719 0 -0.4797521929583225 -0.1029696953165153 0 -0.46979043462457559 -0.1084141131205814 0 -0.4797521929583225 -0.1029696953165153 0 -0.46979043462457559 -0.1084141131205814 0 -0.470045336610033 -0.096901324356569729 0 -0.4797521929583225 -0.1029696953165153 0 -0.470045336610033 -0.096901324356569729 0 -0.48370535546809312 -0.093205556725595731 0 -0.49099436254322798 -0.1008105729721249 0 -0.48370535546809312 -0.093205556725595731 0 -0.5 -0.093331588778458707 0 -0.49099436254322798 -0.1008105729721249 0 -0.49215460093053193 -0.11053545835962481 0 -0.5 -0.093331588778458707 0 -0.49215460093053193 -0.11053545835962481 0 -0.5 -0.120664021671708 0 -0.5 -0.093331588778458707 0 -0.4797521929583225 -0.1029696953165153 0 -0.49099436254322798 -0.1008105729721249 0 -0.48370535546809312 -0.093205556725595731 0 -0.48273515638216802 -0.11402184965337719 0 -0.49099436254322798 -0.1008105729721249 0 -0.49215460093053193 -0.11053545835962481 0 -0.48273515638216802 -0.11402184965337719 0 -0.4797521929583225 -0.1029696953165153 0 -0.49099436254322798 -0.1008105729721249 0 -0.48273515638216802 -0.11402184965337719 0 -0.49099436254322798 -0.1008105729721249 0 -0.48273515638216802 -0.11402184965337719 0 -0.49215460093053193 -0.11053545835962481 0 -0.48704348572726353 -0.1238492587224552 0 -0.49215460093053193 -0.11053545835962481 0 -0.5 -0.120664021671708 0 -0.48704348572726353 -0.1238492587224552 0 -0.46858472143579211 -0.076345476442554461 0 -0.48421997574992293 -0.079782440714996974 0 -0.48044497950332582 -0.061270677695084208 0 -0.46858472143579211 -0.076345476442554461 0 -0.48044497950332582 -0.061270677695084208 0 -0.45998391148668949 -0.061033232064932247 0 -0.46858472143579211 -0.076345476442554461 0 -0.47379119491292598 -0.086923511790485797 0 -0.48421997574992293 -0.079782440714996974 0 -0.470045336610033 -0.096901324356569729 0 -0.47379119491292598 -0.086923511790485797 0 -0.48370535546809312 -0.093205556725595731 0 -0.47379119491292598 -0.086923511790485797 0 -0.48370535546809312 -0.093205556725595731 0 -0.48421997574992293 -0.079782440714996974 0 -0.48421997574992293 -0.079782440714996974 0 -0.5 -0.093331588778458707 0 -0.5 -0.065999155885209326 0 -0.48370535546809312 -0.093205556725595731 0 -0.48421997574992293 -0.079782440714996974 0 -0.5 -0.093331588778458707 0 -0.48421997574992293 -0.079782440714996974 0 -0.5 -0.065999155885209326 0 -0.48044497950332582 -0.061270677695084208 0 -0.5 -0.065999155885209326 0 -0.5 -0.038666722991960063 0 -0.48044497950332582 -0.061270677695084208 0 -0.5 -0.038666722991960063 0 -0.47046689834211608 -0.042726865572452123 0 -0.47929729555283052 -0.02334250106621874 0 -0.5 -0.038666722991960063 0 -0.47046689834211608 -0.042726865572452123 0 -0.48044497950332582 -0.061270677695084208 0 -0.47046689834211608 -0.042726865572452123 0 -0.48044497950332582 -0.061270677695084208 0 -0.45998391148668949 -0.061033232064932247 0 -0.47046689834211608 -0.042726865572452123 0 -0.45998391148668949 -0.061033232064932247 0 -0.44998252060549349 -0.045697874833013769 0 -0.47046689834211608 -0.042726865572452123 0 -0.44998252060549349 -0.045697874833013769 0 -0.45234852275993692 -0.024006480536056581 0 -0.43419827487196272 -0.038385605457537629 0 -0.44998252060549349 -0.045697874833013769 0 -0.45234852275993692 -0.024006480536056581 0 -0.45998391148668949 -0.061033232064932247 0 -0.44998252060549349 -0.045697874833013769 0 -0.43816022252939402 -0.062245053997655217 0 -0.43419827487196272 -0.038385605457537629 0 -0.44998252060549349 -0.045697874833013769 0 -0.43816022252939402 -0.062245053997655217 0 -0.42993226968461062 -0.020287599982467111 0 -0.44472529084816348 -0.00053841260254529528 0 -0.45234852275993692 -0.024006480536056581 0 -0.42993226968461062 -0.020287599982467111 0 -0.45234852275993692 -0.024006480536056581 0 -0.43419827487196272 -0.038385605457537629 0 -0.42993226968461062 -0.020287599982467111 0 -0.45234852275993692 -0.024006480536056581 0 -0.45234852275993692 -0.024006480536056581 0 -0.47929729555283052 -0.02334250106621874 0 -0.47367105666209941 2.1853868085840558e-05 0 -0.47046689834211608 -0.042726865572452123 0 -0.45234852275993692 -0.024006480536056581 0 -0.47929729555283052 -0.02334250106621874 0 -0.44472529084816348 -0.00053841260254529528 0 -0.45234852275993692 -0.024006480536056581 0 -0.47367105666209941 2.1853868085840558e-05 0 -0.47929729555283052 -0.02334250106621874 0 -0.5 -0.01133429009871079 0 -0.47367105666209941 2.1853868085840558e-05 0 -0.5 -0.038666722991960063 0 -0.47929729555283052 -0.02334250106621874 0 -0.5 -0.01133429009871079 0 -0.5 0.01599814279453832 0 -0.48015582339618701 0.02638953334019609 0 -0.47367105666209941 2.1853868085840558e-05 0 -0.5 -0.01133429009871079 0 -0.5 0.01599814279453832 0 -0.47367105666209941 2.1853868085840558e-05 0 -0.5 0.01599814279453832 0 -0.48015582339618701 0.02638953334019609 0 -0.5 0.043330575687787587 0 -0.48015582339618701 0.02638953334019609 0 -0.4705551822808961 0.038338431380050393 0 -0.45783076581423471 0.02090684374134498 0 -0.48015582339618701 0.02638953334019609 0 -0.47367105666209941 2.1853868085840558e-05 0 -0.45783076581423471 0.02090684374134498 0 -0.48777397088442292 0.055786594568543457 0 -0.5 0.043330575687787587 0 -0.48023569246263331 0.044879306598192087 0 -0.48777397088442292 0.055786594568543457 0 -0.5 0.043330575687787587 0 -0.50000000000000222 0.070663008581036801 0 -0.48015582339618701 0.02638953334019609 0 -0.5 0.043330575687787587 0 -0.48023569246263331 0.044879306598192087 0 -0.48015582339618701 0.02638953334019609 0 -0.4705551822808961 0.038338431380050393 0 -0.48023569246263331 0.044879306598192087 0 -0.4705551822808961 0.038338431380050393 0 -0.48023569246263331 0.044879306598192087 0 -0.46734974919474209 0.048081449201627102 0 -0.47367632274120369 0.056868442993367893 0 -0.46488695305614203 0.063277765304524516 0 -0.48244347652807212 0.06697038694278093 0 -0.48777397088442292 0.055786594568543457 0 -0.48023569246263331 0.044879306598192087 0 -0.47367632274120369 0.056868442993367893 0 -0.48023569246263331 0.044879306598192087 0 -0.47367632274120369 0.056868442993367893 0 -0.46734974919474209 0.048081449201627102 0 -0.47367632274120369 0.056868442993367893 0 -0.46554739673424422 0.054795265591671728 0 -0.46734974919474209 0.048081449201627102 0 -0.48777397088442292 0.055786594568543457 0 -0.47367632274120369 0.056868442993367893 0 -0.48244347652807212 0.06697038694278093 0 -0.46554739673424422 0.054795265591671728 0 -0.46468809112788489 0.061326832094208868 0 -0.45647542387314599 0.052904338077483029 0 -0.47367632274120369 0.056868442993367893 0 -0.46468809112788489 0.061326832094208868 0 -0.46488695305614203 0.063277765304524516 0 -0.46468809112788489 0.061326832094208868 0 -0.45647542387314599 0.052904338077483029 0 -0.46488695305614203 0.063277765304524516 0 -0.47367632274120369 0.056868442993367893 0 -0.46554739673424422 0.054795265591671728 0 -0.46468809112788489 0.061326832094208868 0 -0.46468809112788489 0.061326832094208868 0 -0.46488695305614203 0.063277765304524516 0 -0.46554739673424422 0.054795265591671728 0 -0.46734974919474209 0.048081449201627102 0 -0.45647542387314599 0.052904338077483029 0 -0.4705551822808961 0.038338431380050393 0 -0.45826186879969127 0.039617600366519713 0 -0.45783076581423471 0.02090684374134498 0 -0.46734974919474209 0.048081449201627102 0 -0.45647542387314599 0.052904338077483029 0 -0.45826186879969127 0.039617600366519713 0 -0.4705551822808961 0.038338431380050393 0 -0.46734974919474209 0.048081449201627102 0 -0.45826186879969127 0.039617600366519713 0 -0.45826186879969127 0.039617600366519713 0 -0.45783076581423471 0.02090684374134498 0 -0.43739894592805351 0.038013247457353128 0 -0.45647542387314599 0.052904338077483029 0 -0.45826186879969127 0.039617600366519713 0 -0.43739894592805351 0.038013247457353128 0 -0.45647542387314599 0.052904338077483029 0 -0.43739894592805351 0.038013247457353128 0 -0.43650208655572498 0.057307644146654367 0 -0.43650208655572498 0.057307644146654367 0 -0.46488695305614203 0.063277765304524516 0 -0.45647542387314599 0.052904338077483029 0 -0.43650208655572498 0.057307644146654367 0 -0.46488695305614203 0.063277765304524516 0 -0.44472529084816348 -0.00053841260254529528 0 -0.47367105666209941 2.1853868085840558e-05 0 -0.45783076581423471 0.02090684374134498 0 -0.45783076581423471 0.02090684374134498 0 -0.42810112065876871 0.017696193036914151 0 -0.43739894592805351 0.038013247457353128 0 -0.45783076581423471 0.02090684374134498 0 -0.42810112065876871 0.017696193036914151 0 -0.44472529084816348 -0.00053841260254529528 0 -0.45783076581423471 0.02090684374134498 0 -0.42810112065876871 0.017696193036914151 0 -0.4217292346608259 -0.0010425993288985141 0 -0.44472529084816348 -0.00053841260254529528 0 -0.42810112065876871 0.017696193036914151 0 -0.4217292346608259 -0.0010425993288985141 0 -0.42810112065876871 0.017696193036914151 0 -0.39837147550330271 0.01448554233248333 0 -0.42810112065876871 0.017696193036914151 0 -0.4134002208602563 0.031600176004947141 0 -0.39837147550330271 0.01448554233248333 0 -0.42810112065876871 0.017696193036914151 0 -0.39837147550330271 0.01448554233248333 0 -0.42810112065876871 0.017696193036914151 0 -0.43739894592805351 0.038013247457353128 0 -0.4134002208602563 0.031600176004947141 0 -0.43650208655572498 0.057307644146654367 0 -0.40811722005530809 0.051337522988783253 0 -0.43739894592805351 0.038013247457353128 0 -0.43650208655572498 0.057307644146654367 0 -0.40811722005530809 0.051337522988783253 0 -0.43739894592805351 0.038013247457353128 0 -0.40811722005530809 0.051337522988783253 0 -0.4134002208602563 0.031600176004947141 0 -0.40811722005530809 0.051337522988783253 0 -0.4134002208602563 0.031600176004947141 0 -0.39501234215584841 0.036468374209201841 0 -0.40811722005530809 0.051337522988783253 0 -0.38079950128593132 0.052912066790546428 0 -0.39400540130279299 0.074190555657996579 0 -0.40811722005530809 0.051337522988783253 0 -0.39501234215584841 0.036468374209201841 0 -0.38079950128593132 0.052912066790546428 0 -0.39501234215584841 0.036468374209201841 0 -0.38079950128593132 0.052912066790546428 0 -0.37472066581688562 0.032093479209295617 0 -0.38079950128593132 0.052912066790546428 0 -0.37472066581688562 0.032093479209295617 0 -0.39837147550330271 0.01448554233248333 0 -0.36864183034783748 0.011274891628045611 0 -0.37472066581688562 0.032093479209295617 0 -0.39501234215584841 0.036468374209201841 0 -0.39837147550330271 0.01448554233248333 0 -0.37472066581688562 0.032093479209295617 0 -0.37627368421505869 -0.0010685545029741181 0 -0.39837147550330271 0.01448554233248333 0 -0.36864183034783748 0.011274891628045611 0 -0.39837147550330271 0.01448554233248333 0 -0.36864183034783748 0.011274891628045611 0 -0.38509976353395808 -0.012849838875288179 0 -0.37627368421505869 -0.0010685545029741181 0 -0.39837147550330271 0.01448554233248333 0 -0.4134002208602563 0.031600176004947141 0 -0.39501234215584841 0.036468374209201841 0 -0.39837147550330271 0.01448554233248333 0 -0.39145296570996602 0.11309098128887871 0 -0.38327060378100669 0.092278173504846933 0 -0.39988103148920118 0.093276346401943072 0 -0.39145296570996602 0.11309098128887871 0 -0.39988103148920118 0.093276346401943072 0 -0.41313606586644169 0.1076957363837853 0 -0.39145296570996602 0.11309098128887871 0 -0.41313606586644169 0.1076957363837853 0 -0.39145296570996602 0.11309098128887871 0 -0.41313606586644169 0.1076957363837853 0 -0.39695529262180701 0.12708680222363061 0 -0.39145296570996602 0.11309098128887871 0 -0.39695529262180701 0.12708680222363061 0 -0.39145296570996602 0.11309098128887871 0 -0.39695529262180701 0.12708680222363061 0 -0.379669102532184 0.13122284739794199 0 -0.39145296570996602 0.11309098128887871 0 -0.36648355068506788 0.1193039355354634 0 -0.39145296570996602 0.11309098128887871 0 -0.36882563244243582 0.1020321993621809 0 -0.36648355068506788 0.1193039355354634 0 -0.39145296570996602 0.11309098128887871 0 -0.379669102532184 0.13122284739794199 0 -0.36648355068506788 0.1193039355354634 0 -0.39145296570996602 0.11309098128887871 0 -0.38327060378100669 0.092278173504846933 0 -0.36882563244243582 0.1020321993621809 0 -0.39145296570996602 0.11309098128887871 0 -0.38327060378100669 0.092278173504846933 0 -0.38327060378100669 0.092278173504846933 0 -0.37508824185204731 0.071465365720815188 0 -0.39400540130279299 0.074190555657996579 0 -0.38327060378100669 0.092278173504846933 0 -0.37508824185204731 0.071465365720815188 0 -0.38079950128593132 0.052912066790546428 0 -0.37508824185204731 0.071465365720815188 0 -0.39400540130279299 0.074190555657996579 0 -0.38327060378100669 0.092278173504846933 0 -0.39400540130279299 0.074190555657996579 0 -0.39988103148920118 0.093276346401943072 0 -0.39400540130279299 0.074190555657996579 0 -0.39988103148920118 0.093276346401943072 0 -0.41754012078579822 0.079126285174207889 0 -0.39988103148920118 0.093276346401943072 0 -0.41754012078579822 0.079126285174207889 0 -0.41313606586644169 0.1076957363837853 0 -0.43650208655572498 0.057307644146654367 0 -0.40811722005530809 0.051337522988783253 0 -0.41754012078579822 0.079126285174207889 0 -0.40811722005530809 0.051337522988783253 0 -0.39400540130279299 0.074190555657996579 0 -0.41754012078579822 0.079126285174207889 0 -0.43650208655572498 0.057307644146654367 0 -0.41754012078579822 0.079126285174207889 0 -0.43423535260663682 0.079374684146812577 0 -0.41754012078579822 0.079126285174207889 0 -0.43423535260663682 0.079374684146812577 0 -0.43481916602291709 0.1023004914786908 0 -0.43481916602291709 0.1023004914786908 0 -0.41313606586644169 0.1076957363837853 0 -0.41754012078579822 0.079126285174207889 0 -0.43481916602291709 0.1023004914786908 0 -0.41313606586644169 0.1076957363837853 0 -0.41313606586644169 0.1076957363837853 0 -0.43473565999692898 0.1223644425561199 0 -0.41644872943855782 0.13157481587043729 0 -0.41313606586644169 0.1076957363837853 0 -0.41644872943855782 0.13157481587043729 0 -0.39695529262180701 0.12708680222363061 0 -0.43481916602291709 0.1023004914786908 0 -0.41313606586644169 0.1076957363837853 0 -0.43473565999692898 0.1223644425561199 0 -0.43481916602291709 0.1023004914786908 0 -0.43473565999692898 0.1223644425561199 0 -0.44846069189659771 0.1110290616779081 0 -0.43473565999692898 0.1223644425561199 0 -0.44846069189659771 0.1110290616779081 0 -0.45206676696457071 0.12680712066595459 0 -0.43481916602291709 0.1023004914786908 0 -0.45650226617939249 0.096905246573596324 0 -0.43481916602291709 0.1023004914786908 0 -0.44846069189659771 0.1110290616779081 0 -0.45650226617939249 0.096905246573596324 0 -0.43481916602291709 0.1023004914786908 0 -0.45650226617939249 0.096905246573596324 0 -0.44397270037895448 0.089846133410492551 0 -0.45650226617939249 0.096905246573596324 0 -0.46417960031917871 0.1067680071151791 0 -0.46735854145966671 0.087525261750522831 0 -0.46417960031917871 0.1067680071151791 0 -0.46735854145966671 0.087525261750522831 0 -0.46983012986319023 0.1117727581965213 0 -0.44846069189659771 0.1110290616779081 0 -0.45650226617939249 0.096905246573596324 0 -0.46417960031917871 0.1067680071151791 0 -0.46735854145966671 0.087525261750522831 0 -0.46983012986319023 0.1117727581965213 0 -0.46417960031917871 0.1067680071151791 0 -0.46983012986319023 0.1117727581965213 0 -0.46983012986319023 0.1117727581965213 0 -0.45206676696457071 0.12680712066595459 0 -0.46983012986319023 0.1117727581965213 0 -0.45206676696457071 0.12680712066595459 0 -0.46361584169467968 0.12722256960512759 0 -0.44846069189659771 0.1110290616779081 0 -0.46417960031917871 0.1067680071151791 0 -0.45206676696457071 0.12680712066595459 0 -0.46417960031917871 0.1067680071151791 0 -0.46983012986319023 0.1117727581965213 0 -0.45206676696457071 0.12680712066595459 0 -0.46983012986319023 0.1117727581965213 0 -0.47209760362241832 0.13401778970737471 0 -0.46361584169467968 0.12722256960512759 0 -0.43650208655572498 0.057307644146654367 0 -0.44686727536217002 0.07508838298413914 0 -0.46488695305614203 0.063277765304524516 0 -0.43650208655572498 0.057307644146654367 0 -0.43423535260663682 0.079374684146812577 0 -0.44686727536217002 0.07508838298413914 0 -0.43423535260663682 0.079374684146812577 0 -0.43481916602291709 0.1023004914786908 0 -0.44397270037895448 0.089846133410492551 0 -0.44686727536217002 0.07508838298413914 0 -0.44397270037895448 0.089846133410492551 0 -0.45591754728726502 0.08252855800465525 0 -0.43423535260663682 0.079374684146812577 0 -0.44686727536217002 0.07508838298413914 0 -0.44397270037895448 0.089846133410492551 0 -0.45650226617939249 0.096905246573596324 0 -0.44397270037895448 0.089846133410492551 0 -0.45591754728726502 0.08252855800465525 0 -0.45650226617939249 0.096905246573596324 0 -0.46735854145966671 0.087525261750522831 0 -0.45591754728726502 0.08252855800465525 0 -0.46735854145966671 0.087525261750522831 0 -0.45591754728726502 0.08252855800465525 0 -0.46488695305614203 0.063277765304524516 0 -0.44686727536217002 0.07508838298413914 0 -0.45591754728726502 0.08252855800465525 0 -0.46488695305614203 0.063277765304524516 0 -0.46735854145966671 0.087525261750522831 0 -0.46488695305614203 0.063277765304524516 0 -0.46735854145966671 0.087525261750522831 0 -0.46488695305614203 0.063277765304524516 0 -0.48244347652807212 0.06697038694278093 0 -0.46488695305614203 0.063277765304524516 0 -0.48244347652807212 0.06697038694278093 0 -0.46735854145966671 0.087525261750522831 0 -0.48244347652807212 0.06697038694278093 0 -0.4824565942374478 0.086112947076896332 0 -0.4824565942374478 0.086112947076896332 0 -0.47677873614061311 0.098866870102153712 0 -0.49297858289498131 0.094855161147669717 0 -0.46735854145966671 0.087525261750522831 0 -0.4824565942374478 0.086112947076896332 0 -0.47677873614061311 0.098866870102153712 0 -0.5 0.093273546935895846 0 -0.49272363416390558 0.082347055441354455 0 -0.50000000000000222 0.070663008581036801 0 -0.48244347652807212 0.06697038694278093 0 -0.4824565942374478 0.086112947076896332 0 -0.49272363416390558 0.082347055441354455 0 -0.4824565942374478 0.086112947076896332 0 -0.49272363416390558 0.082347055441354455 0 -0.49297858289498131 0.094855161147669717 0 -0.5 0.093273546935895846 0 -0.49272363416390558 0.082347055441354455 0 -0.49297858289498131 0.094855161147669717 0 -0.48244347652807212 0.06697038694278093 0 -0.49272363416390558 0.082347055441354455 0 -0.50000000000000222 0.070663008581036801 0 -0.48777397088442292 0.055786594568543457 0 -0.48244347652807212 0.06697038694278093 0 -0.50000000000000222 0.070663008581036801 0 -0.48244347652807212 0.06697038694278093 0 -0.50000000000000222 0.070663008581036801 0 -0.46983012986319023 0.1117727581965213 0 -0.48719221879862651 0.1121428381673569 0 -0.48526343076650791 0.1254422432922058 0 -0.46983012986319023 0.1117727581965213 0 -0.48526343076650791 0.1254422432922058 0 -0.47209760362241832 0.13401778970737471 0 -0.46983012986319023 0.1117727581965213 0 -0.47209760362241832 0.13401778970737471 0 -0.46983012986319023 0.1117727581965213 0 -0.48526343076650791 0.1254422432922058 0 -0.46735854145966671 0.087525261750522831 0 -0.46983012986319023 0.1117727581965213 0 -0.47677873614061311 0.098866870102153712 0 -0.46983012986319023 0.1117727581965213 0 -0.47677873614061311 0.098866870102153712 0 -0.49297858289498131 0.094855161147669717 0 -0.46983012986319023 0.1117727581965213 0 -0.49297858289498131 0.094855161147669717 0 -0.46983012986319023 0.1117727581965213 0 -0.49297858289498131 0.094855161147669717 0 -0.48719221879862651 0.1121428381673569 0 -0.5 0.093273546935895846 0 -0.49297858289498131 0.094855161147669717 0 -0.5 0.11588408529075481 0 -0.49297858289498131 0.094855161147669717 0 -0.5 0.11588408529075481 0 -0.48719221879862651 0.1121428381673569 0 -0.5 0.11588408529075481 0 -0.48719221879862651 0.1121428381673569 0 -0.48526343076650791 0.1254422432922058 0 -0.49999999999999922 0.13849462364561391 0 -0.48526343076650791 0.1254422432922058 0 -0.5 0.11588408529075481 0 -0.49999999999999922 0.13849462364561391 0 -0.48526343076650791 0.1254422432922058 0 -0.49999999999999922 0.13849462364561391 0 -0.48526343076650791 0.1254422432922058 0 -0.48632329437955357 0.14259993890234371 0 -0.48526343076650791 0.1254422432922058 0 -0.47209760362241832 0.13401778970737471 0 -0.48632329437955357 0.14259993890234371 0 -0.47209760362241832 0.13401778970737471 0 -0.47425543750884269 0.15518720020368579 0 -0.48632329437955357 0.14259993890234371 0 -0.47209760362241832 0.13401778970737471 0 -0.47425543750884269 0.15518720020368579 0 -0.47425543750884269 0.15518720020368579 0 -0.48632329437955357 0.14259993890234371 0 -0.5 0.15985783766283809 0 -0.49999999999999922 0.13849462364561391 0 -0.48632329437955357 0.14259993890234371 0 -0.5 0.15985783766283809 0 -0.47425543750884269 0.15518720020368579 0 -0.5 0.15985783766283809 0 -0.48990795912038743 0.1705394446714503 0 -0.5 0.15985783766283809 0 -0.48990795912038743 0.1705394446714503 0 -0.49999999999999922 0.18122105168006231 0 -0.49999999999999922 0.18122105168006231 0 -0.47290614754225418 0.17927990625307069 0 -0.48497979531692648 0.1974883378356522 0 -0.49999999999999922 0.18122105168006231 0 -0.47290614754225418 0.17927990625307069 0 -0.48990795912038743 0.1705394446714503 0 -0.49999999999999922 0.18122105168006231 0 -0.47641327139526701 0.176356610699997 0 -0.49999999999999922 0.18122105168006231 0 -0.47641327139526701 0.176356610699997 0 -0.47290614754225418 0.17927990625307069 0 -0.47641327139526701 0.176356610699997 0 -0.47290614754225418 0.17927990625307069 0 -0.46545784383362432 0.16677863491631059 0 -0.47425543750884269 0.15518720020368579 0 -0.48990795912038743 0.1705394446714503 0 -0.47641327139526701 0.176356610699997 0 -0.47425543750884269 0.15518720020368579 0 -0.47641327139526701 0.176356610699997 0 -0.47425543750884269 0.15518720020368579 0 -0.47641327139526701 0.176356610699997 0 -0.46545784383362432 0.16677863491631059 0 -0.46545784383362432 0.16677863491631059 0 -0.43827301213968167 0.16031681849718851 0 -0.45635691166230602 0.14631694619423261 0 -0.47290614754225418 0.17927990625307069 0 -0.46545784383362432 0.16677863491631059 0 -0.44581229508450931 0.17733876082607899 0 -0.47290614754225418 0.17927990625307069 0 -0.44581229508450931 0.17733876082607899 0 -0.47290614754225418 0.17927990625307069 0 -0.44581229508450931 0.17733876082607899 0 -0.45614867868890657 0.19197316531283021 0 -0.44581229508450931 0.17733876082607899 0 -0.45614867868890657 0.19197316531283021 0 -0.44374144972927199 0.19241335606815421 0 -0.46545784383362432 0.16677863491631059 0 -0.44581229508450931 0.17733876082607899 0 -0.43827301213968167 0.16031681849718851 0 -0.43827301213968167 0.16031681849718851 0 -0.45635691166230602 0.14631694619423261 0 -0.43419376419314759 0.14076586212084591 0 -0.43473565999692898 0.1223644425561199 0 -0.45206676696457071 0.12680712066595459 0 -0.43419376419314759 0.14076586212084591 0 -0.45206676696457071 0.12680712066595459 0 -0.43419376419314759 0.14076586212084591 0 -0.45206676696457071 0.12680712066595459 0 -0.45635691166230602 0.14631694619423261 0 -0.43419376419314759 0.14076586212084591 0 -0.47209760362241832 0.13401778970737471 0 -0.4603592264557359 0.1352169888361178 0 -0.45635691166230602 0.14631694619423261 0 -0.45206676696457071 0.12680712066595459 0 -0.4603592264557359 0.1352169888361178 0 -0.45635691166230602 0.14631694619423261 0 -0.45206676696457071 0.12680712066595459 0 -0.4603592264557359 0.1352169888361178 0 -0.46361584169467968 0.12722256960512759 0 -0.47209760362241832 0.13401778970737471 0 -0.4603592264557359 0.1352169888361178 0 -0.46361584169467968 0.12722256960512759 0 -0.47425543750884269 0.15518720020368579 0 -0.46545784383362432 0.16677863491631059 0 -0.45635691166230602 0.14631694619423261 0 -0.47209760362241832 0.13401778970737471 0 -0.47425543750884269 0.15518720020368579 0 -0.45635691166230602 0.14631694619423261 0 -0.4842114785300824 0.2232348278184943 0 -0.46422713089612522 0.2282525573052531 0 -0.47884287989701441 0.25368825908796711 0 -0.50000000000000044 0.2372394198646382 0 -0.4842114785300824 0.2232348278184943 0 -0.47884287989701441 0.25368825908796711 0 -0.50000000000000044 0.2372394198646382 0 -0.47884287989701441 0.25368825908796711 0 -0.50000000000000044 0.2372394198646382 0 -0.4842114785300824 0.2232348278184943 0 -0.5 0.20923023577235031 0 -0.4842114785300824 0.2232348278184943 0 -0.46783613941891072 0.2035485068111971 0 -0.46422713089612522 0.2282525573052531 0 -0.4842114785300824 0.2232348278184943 0 -0.48497979531692648 0.1974883378356522 0 -0.46783613941891072 0.2035485068111971 0 -0.4842114785300824 0.2232348278184943 0 -0.5 0.20923023577235031 0 -0.48497979531692648 0.1974883378356522 0 -0.49999999999999922 0.18122105168006231 0 -0.5 0.20923023577235031 0 -0.48497979531692648 0.1974883378356522 0 -0.47290614754225418 0.17927990625307069 0 -0.48497979531692648 0.1974883378356522 0 -0.46783613941891072 0.2035485068111971 0 -0.45614867868890657 0.19197316531283021 0 -0.45171864386625221 0.20930895315798639 0 -0.46783613941891072 0.2035485068111971 0 -0.47290614754225418 0.17927990625307069 0 -0.45614867868890657 0.19197316531283021 0 -0.46783613941891072 0.2035485068111971 0 -0.45614867868890657 0.19197316531283021 0 -0.44374144972927199 0.19241335606815421 0 -0.45171864386625221 0.20930895315798639 0 -0.44374144972927199 0.19241335606815421 0 -0.43737393303937572 0.21704384845276611 0 -0.44374144972927199 0.19241335606815421 0 -0.45171864386625221 0.20930895315798639 0 -0.43737393303937572 0.21704384845276611 0 -0.45171864386625221 0.20930895315798639 0 -0.46783613941891072 0.2035485068111971 0 -0.46422713089612522 0.2282525573052531 0 -0.45171864386625221 0.20930895315798639 0 -0.46422713089612522 0.2282525573052531 0 -0.44830711687771713 0.234278546739177 0 -0.44830711687771713 0.234278546739177 0 -0.43100641634947701 0.24167434083737749 0 -0.43737393303937572 0.21704384845276611 0 -0.45171864386625221 0.20930895315798639 0 -0.44830711687771713 0.234278546739177 0 -0.43737393303937572 0.21704384845276611 0 -0.44830711687771713 0.234278546739177 0 -0.44297909837068022 0.24897218353138759 0 -0.45228251015878729 0.25175805989612871 0 -0.44830711687771713 0.234278546739177 0 -0.44297909837068022 0.24897218353138759 0 -0.43100641634947701 0.24167434083737749 0 -0.46422713089612522 0.2282525573052531 0 -0.45983336765998739 0.24496354054567571 0 -0.47884287989701441 0.25368825908796711 0 -0.44830711687771713 0.234278546739177 0 -0.45983336765998739 0.24496354054567571 0 -0.45228251015878729 0.25175805989612871 0 -0.46422713089612522 0.2282525573052531 0 -0.44830711687771713 0.234278546739177 0 -0.45983336765998739 0.24496354054567571 0 -0.43100641634947701 0.24167434083737749 0 -0.40872451834440982 0.2280926064960701 0 -0.41006073509768542 0.24458492045944921 0 -0.43100641634947701 0.24167434083737749 0 -0.40872451834440982 0.2280926064960701 0 -0.41006073509768542 0.24458492045944921 0 -0.43100641634947701 0.24167434083737749 0 -0.41990381710569591 0.25159028712561932 0 -0.44297909837068022 0.24897218353138759 0 -0.43100641634947701 0.24167434083737749 0 -0.44297909837068022 0.24897218353138759 0 -0.43100641634947701 0.24167434083737749 0 -0.43649336971806341 0.25688366259484868 0 -0.43100641634947701 0.24167434083737749 0 -0.43737393303937572 0.21704384845276611 0 -0.43100641634947701 0.24167434083737749 0 -0.4247334787167778 0.22593573626773411 0 -0.43737393303937572 0.21704384845276611 0 -0.4247334787167778 0.22593573626773411 0 -0.40872451834440982 0.2280926064960701 0 -0.42193207239344388 0.20583565537034229 0 -0.43100641634947701 0.24167434083737749 0 -0.4247334787167778 0.22593573626773411 0 -0.40872451834440982 0.2280926064960701 0 -0.40872451834440982 0.2280926064960701 0 -0.42193207239344388 0.20583565537034229 0 -0.40119160634636031 0.1977166966573897 0 -0.4247334787167778 0.22593573626773411 0 -0.42193207239344388 0.20583565537034229 0 -0.43737393303937572 0.21704384845276611 0 -0.44374144972927199 0.19241335606815421 0 -0.42193207239344388 0.20583565537034229 0 -0.43737393303937572 0.21704384845276611 0 -0.44374144972927199 0.19241335606815421 0 -0.42193207239344388 0.20583565537034229 0 -0.41871844262676422 0.1753976153990873 0 -0.42193207239344388 0.20583565537034229 0 -0.40119160634636031 0.1977166966573897 0 -0.41871844262676422 0.1753976153990873 0 -0.37970739420518168 0.18900696055198099 0 -0.38644262033934301 0.21451087215476219 0 -0.36416072233427621 0.20092913781345431 0 -0.40119160634636031 0.1977166966573897 0 -0.37970739420518168 0.18900696055198099 0 -0.38644262033934301 0.21451087215476219 0 -0.38644262033934301 0.21451087215476219 0 -0.36416072233427621 0.20092913781345431 0 -0.40872451834440982 0.2280926064960701 0 -0.40119160634636031 0.1977166966573897 0 -0.38644262033934301 0.21451087215476219 0 -0.40872451834440982 0.2280926064960701 0 -0.38644262033934301 0.21451087215476219 0 -0.40872451834440982 0.2280926064960701 0 -0.38644262033934301 0.21451087215476219 0 -0.3964311172149606 0.23682273221504069 0 -0.38644262033934301 0.21451087215476219 0 -0.38097370010591391 0.24384108033322641 0 -0.36817434966301671 0.2262795368339906 0 -0.38644262033934301 0.21451087215476219 0 -0.38097370010591391 0.24384108033322641 0 -0.3964311172149606 0.23682273221504069 0 -0.41006073509768542 0.24458492045944921 0 -0.40872451834440982 0.2280926064960701 0 -0.3964311172149606 0.23682273221504069 0 -0.41006073509768542 0.24458492045944921 0 -0.3964311172149606 0.23682273221504069 0 -0.39595401218745069 0.25308418163169571 0 -0.38097370010591391 0.24384108033322641 0 -0.3964311172149606 0.23682273221504069 0 -0.39595401218745069 0.25308418163169571 0 -0.41632076142172442 0.15472460357573731 0 -0.40240705081793682 0.15997306505504061 0 -0.40120935069159119 0.14372835320249441 0 -0.41632076142172442 0.15472460357573731 0 -0.41644872943855782 0.13157481587043729 0 -0.40120935069159119 0.14372835320249441 0 -0.43473565999692898 0.1223644425561199 0 -0.41644872943855782 0.13157481587043729 0 -0.43419376419314759 0.14076586212084591 0 -0.43827301213968167 0.16031681849718851 0 -0.41632076142172442 0.15472460357573731 0 -0.43419376419314759 0.14076586212084591 0 -0.41632076142172442 0.15472460357573731 0 -0.41644872943855782 0.13157481587043729 0 -0.43419376419314759 0.14076586212084591 0 -0.41632076142172442 0.15472460357573731 0 -0.43419376419314759 0.14076586212084591 0 -0.43827301213968167 0.16031681849718851 0 -0.41632076142172442 0.15472460357573731 0 -0.41871844262676422 0.1753976153990873 0 -0.44581229508450931 0.17733876082607899 0 -0.43827301213968167 0.16031681849718851 0 -0.41871844262676422 0.1753976153990873 0 -0.44581229508450931 0.17733876082607899 0 -0.44374144972927199 0.19241335606815421 0 -0.41871844262676422 0.1753976153990873 0 -0.44581229508450931 0.17733876082607899 0 -0.41871844262676422 0.1753976153990873 0 -0.41632076142172442 0.15472460357573731 0 -0.41871844262676422 0.1753976153990873 0 -0.40240705081793682 0.15997306505504061 0 -0.41871844262676422 0.1753976153990873 0 -0.40240705081793682 0.15997306505504061 0 -0.39162459016901918 0.1734564699720956 0 -0.40240705081793682 0.15997306505504061 0 -0.39162459016901918 0.1734564699720956 0 -0.38536741499785598 0.15004067301348381 0 -0.40119160634636031 0.1977166966573897 0 -0.41871844262676422 0.1753976153990873 0 -0.39162459016901918 0.1734564699720956 0 -0.41871844262676422 0.1753976153990873 0 -0.39162459016901918 0.1734564699720956 0 -0.40119160634636031 0.1977166966573897 0 -0.37970739420518168 0.18900696055198099 0 -0.39162459016901918 0.1734564699720956 0 -0.37970739420518168 0.18900696055198099 0 -0.39162459016901918 0.1734564699720956 0 -0.36453073771127431 0.1715153245451039 0 -0.39162459016901918 0.1734564699720956 0 -0.36453073771127431 0.1715153245451039 0 -0.39162459016901918 0.1734564699720956 0 -0.36453073771127431 0.1715153245451039 0 -0.37388007634436932 0.15886061719439831 0 -0.39162459016901918 0.1734564699720956 0 -0.38536741499785598 0.15004067301348381 0 -0.37388007634436932 0.15886061719439831 0 -0.38536741499785598 0.15004067301348381 0 -0.379669102532184 0.13122284739794199 0 -0.36928559446877668 0.145575504599851 0 -0.38536741499785598 0.15004067301348381 0 -0.36928559446877668 0.145575504599851 0 -0.37388007634436932 0.15886061719439831 0 -0.38536741499785598 0.15004067301348381 0 -0.40120935069159119 0.14372835320249441 0 -0.39080029021085949 0.13801966895938769 0 -0.40240705081793682 0.15997306505504061 0 -0.38536741499785598 0.15004067301348381 0 -0.40120935069159119 0.14372835320249441 0 -0.41644872943855782 0.13157481587043729 0 -0.40120935069159119 0.14372835320249441 0 -0.39695529262180701 0.12708680222363061 0 -0.40120935069159119 0.14372835320249441 0 -0.39080029021085949 0.13801966895938769 0 -0.39695529262180701 0.12708680222363061 0 -0.39080029021085949 0.13801966895938769 0 -0.39695529262180701 0.12708680222363061 0 -0.379669102532184 0.13122284739794199 0 -0.38536741499785598 0.15004067301348381 0 -0.39080029021085949 0.13801966895938769 0 -0.379669102532184 0.13122284739794199 0 -0.379669102532184 0.13122284739794199 0 -0.3611934238837029 0.1324529912677968 0 -0.36928559446877668 0.145575504599851 0 -0.379669102532184 0.13122284739794199 0 -0.3611934238837029 0.1324529912677968 0 -0.36648355068506788 0.1193039355354634 0 -0.3611934238837029 0.1324529912677968 0 -0.35706366321134098 0.14355221341784449 0 -0.36928559446877668 0.145575504599851 0 -0.3611934238837029 0.1324529912677968 0 -0.34972638908252618 0.1374710283842899 0 -0.34477288681553248 0.1256226861480205 0 -0.3611934238837029 0.1324529912677968 0 -0.34972638908252618 0.1374710283842899 0 -0.35706366321134098 0.14355221341784449 0 -0.34972638908252618 0.1374710283842899 0 -0.34646298257701258 0.14658055290642641 0 -0.33924902912652161 0.13750400280457889 0 -0.34972638908252618 0.1374710283842899 0 -0.34477288681553248 0.1256226861480205 0 -0.33924902912652161 0.13750400280457889 0 -0.34646298257701258 0.14658055290642641 0 -0.35864992604468632 0.15568098993085819 0 -0.34304154168103351 0.1576618555078465 0 -0.34972638908252618 0.1374710283842899 0 -0.34646298257701258 0.14658055290642641 0 -0.35706366321134098 0.14355221341784449 0 -0.34646298257701258 0.14658055290642641 0 -0.35706366321134098 0.14355221341784449 0 -0.35864992604468632 0.15568098993085819 0 -0.35706366321134098 0.14355221341784449 0 -0.35864992604468632 0.15568098993085819 0 -0.36928559446877668 0.145575504599851 0 -0.35864992604468632 0.15568098993085819 0 -0.36928559446877668 0.145575504599851 0 -0.37388007634436932 0.15886061719439831 0 -0.35864992604468632 0.15568098993085819 0 -0.36453073771127431 0.1715153245451039 0 -0.37388007634436932 0.15886061719439831 0 -0.37970739420518168 0.18900696055198099 0 -0.36453073771127431 0.1715153245451039 0 -0.36416072233427621 0.20092913781345431 0 -0.36453073771127431 0.1715153245451039 0 -0.34187882432920941 0.18734740347214629 0 -0.36416072233427621 0.20092913781345431 0 -0.36453073771127431 0.1715153245451039 0 -0.33743688525352938 0.1695741791181111 0 -0.34187882432920941 0.18734740347214629 0 -0.35864992604468632 0.15568098993085819 0 -0.36453073771127431 0.1715153245451039 0 -0.34924155587878591 0.16680067727176601 0 -0.36453073771127431 0.1715153245451039 0 -0.33743688525352938 0.1695741791181111 0 -0.36453073771127431 0.1715153245451039 0 -0.34924155587878591 0.16680067727176601 0 -0.33743688525352938 0.1695741791181111 0 -0.35864992604468632 0.15568098993085819 0 -0.34924155587878591 0.16680067727176601 0 -0.34304154168103351 0.1576618555078465 0 -0.34304154168103351 0.1576618555078465 0 -0.33743688525352938 0.1695741791181111 0 -0.33194721327431642 0.15290747255581391 0 -0.33743688525352938 0.1695741791181111 0 -0.32364541471849562 0.15962761808306231 0 -0.33194721327431642 0.15290747255581391 0 -0.33743688525352938 0.1695741791181111 0 -0.31959692632414172 0.17376566913083971 0 -0.34924155587878591 0.16680067727176601 0 -0.34304154168103351 0.1576618555078465 0 -0.33743688525352938 0.1695741791181111 0 -0.34924155587878591 0.16680067727176601 0 -0.33743688525352938 0.1695741791181111 0 -0.34187882432920941 0.18734740347214629 0 -0.31959692632414172 0.17376566913083971 0 -0.33743688525352938 0.1695741791181111 0 -0.34187882432920941 0.18734740347214629 0 -0.31959692632414172 0.17376566913083971 0 -0.34187882432920941 0.18734740347214629 0 -0.31959692632414172 0.17376566913083971 0 -0.31667547461307077 0.19594335853335301 0 -0.32364541471849562 0.15962761808306231 0 -0.31576921428751131 0.14846131991345771 0 -0.30942834605862563 0.1675675007448644 0 -0.33743688525352938 0.1695741791181111 0 -0.31959692632414172 0.17376566913083971 0 -0.30942834605862563 0.1675675007448644 0 -0.33743688525352938 0.1695741791181111 0 -0.32364541471849562 0.15962761808306231 0 -0.30942834605862563 0.1675675007448644 0 -0.33743688525352938 0.1695741791181111 0 -0.30942834605862563 0.1675675007448644 0 -0.31959692632414172 0.17376566913083971 0 -0.30942834605862563 0.1675675007448644 0 -0.32364541471849562 0.15962761808306231 0 -0.31576921428751131 0.14846131991345771 0 -0.33194721327431642 0.15290747255581391 0 -0.31576921428751131 0.14846131991345771 0 -0.32790842931263547 0.13829255145379371 0 -0.33194721327431642 0.15290747255581391 0 -0.31576921428751131 0.14846131991345771 0 -0.31715550376224289 0.1364763582138637 0 -0.32790842931263547 0.13829255145379371 0 -0.31576921428751131 0.14846131991345771 0 -0.31715550376224289 0.1364763582138637 0 -0.30613413606354761 0.13765348904817151 0 -0.31715550376224289 0.1364763582138637 0 -0.30613413606354761 0.13765348904817151 0 -0.31445151658903647 0.1243748783024395 0 -0.31715550376224289 0.1364763582138637 0 -0.3294881304138621 0.12784940930772329 0 -0.31445151658903647 0.1243748783024395 0 -0.31715550376224289 0.1364763582138637 0 -0.32790842931263547 0.13829255145379371 0 -0.3294881304138621 0.12784940930772329 0 -0.32790842931263547 0.13829255145379371 0 -0.3294881304138621 0.12784940930772329 0 -0.33924902912652161 0.13750400280457889 0 -0.34477288681553248 0.1256226861480205 0 -0.3294881304138621 0.12784940930772329 0 -0.33924902912652161 0.13750400280457889 0 -0.34646298257701258 0.14658055290642641 0 -0.33924902912652161 0.13750400280457889 0 -0.33194721327431642 0.15290747255581391 0 -0.34646298257701258 0.14658055290642641 0 -0.34304154168103351 0.1576618555078465 0 -0.33194721327431642 0.15290747255581391 0 -0.32790842931263547 0.13829255145379371 0 -0.33924902912652161 0.13750400280457889 0 -0.33194721327431642 0.15290747255581391 0 -0.34659904806411618 0.22368385912824049 0 -0.33816870206517008 0.2418705494875045 0 -0.36184882001612789 0.25120191596523961 0 -0.38097370010591391 0.24384108033322641 0 -0.36817434966301671 0.2262795368339906 0 -0.36184882001612789 0.25120191596523961 0 -0.36817434966301671 0.2262795368339906 0 -0.34659904806411618 0.22368385912824049 0 -0.36184882001612789 0.25120191596523961 0 -0.34659904806411618 0.22368385912824049 0 -0.36416072233427621 0.20092913781345431 0 -0.33317934538001798 0.2085403678040082 0 -0.38644262033934301 0.21451087215476219 0 -0.36817434966301671 0.2262795368339906 0 -0.36416072233427621 0.20092913781345431 0 -0.36817434966301671 0.2262795368339906 0 -0.34659904806411618 0.22368385912824049 0 -0.36416072233427621 0.20092913781345431 0 -0.34187882432920941 0.18734740347214629 0 -0.36416072233427621 0.20092913781345431 0 -0.33317934538001798 0.2085403678040082 0 -0.34187882432920941 0.18734740347214629 0 -0.36416072233427621 0.20092913781345431 0 -0.34187882432920941 0.18734740347214629 0 -0.31667547461307077 0.19594335853335301 0 -0.33317934538001798 0.2085403678040082 0 -0.31667547461307077 0.19594335853335301 0 -0.33317934538001798 0.2085403678040082 0 -0.3123710375436678 0.21162782865148039 0 -0.33317934538001798 0.2085403678040082 0 -0.31869288595089612 0.22815348218819509 0 -0.3123710375436678 0.21162782865148039 0 -0.34659904806411618 0.22368385912824049 0 -0.33317934538001798 0.2085403678040082 0 -0.31869288595089612 0.22815348218819509 0 -0.34659904806411618 0.22368385912824049 0 -0.31869288595089612 0.22815348218819509 0 -0.34659904806411618 0.22368385912824049 0 -0.31869288595089612 0.22815348218819509 0 -0.33816870206517008 0.2418705494875045 0 -0.31869288595089612 0.22815348218819509 0 -0.3207186543605689 0.24865522219363589 0 -0.33816870206517008 0.2418705494875045 0 -0.31869288595089612 0.22815348218819509 0 -0.3207186543605689 0.24865522219363589 0 -0.30127403803759578 0.24184846254218009 0 -0.3207186543605689 0.24865522219363589 0 -0.33816870206517008 0.2418705494875045 0 -0.34298410193414131 0.25765826796221142 0 -0.2878963225560261 0.23783253116520189 0 -0.30127403803759578 0.24184846254218009 0 -0.30140137628232772 0.25581537921343828 0 -0.28783678584541489 0.24316849743735339 0 -0.2819927719755364 0.24847261411558719 0 -0.30140137628232772 0.25581537921343828 0 -0.28783678584541489 0.24316849743735339 0 -0.2878963225560261 0.23783253116520189 0 -0.30140137628232772 0.25581537921343828 0 -0.2878963225560261 0.23783253116520189 0 -0.30140137628232772 0.25581537921343828 0 -0.2819927719755364 0.24847261411558719 0 -0.2878963225560261 0.23783253116520189 0 -0.28783678584541489 0.24316849743735339 0 -0.2819927719755364 0.24847261411558719 0 -0.2878963225560261 0.23783253116520189 0 -0.2819927719755364 0.24847261411558719 0 -0.2878963225560261 0.23783253116520189 0 -0.27857745300711062 0.24062441390563011 0 -0.28783678584541489 0.24316849743735339 0 -0.2819927719755364 0.24847261411558719 0 -0.2878963225560261 0.23783253116520189 0 -0.28471446003510442 0.23359567647482071 0 -0.27857745300711062 0.24062441390563011 0 -0.2878963225560261 0.23783253116520189 0 -0.2907867238376759 0.2326231052481485 0 -0.28471446003510442 0.23359567647482071 0 -0.2878963225560261 0.23783253116520189 0 -0.28471446003510442 0.23359567647482071 0 -0.2878963225560261 0.23783253116520189 0 -0.30127403803759578 0.24184846254218009 0 -0.2907867238376759 0.2326231052481485 0 -0.2878963225560261 0.23783253116520189 0 -0.2907867238376759 0.2326231052481485 0 -0.3207186543605689 0.24865522219363589 0 -0.30127403803759578 0.24184846254218009 0 -0.30140137628232772 0.25581537921343828 0 -0.31869288595089612 0.22815348218819509 0 -0.2907867238376759 0.2326231052481485 0 -0.31869288595089612 0.22815348218819509 0 -0.29721258455806959 0.221041652669662 0 -0.2907867238376759 0.2326231052481485 0 -0.31869288595089612 0.22815348218819509 0 -0.30127403803759578 0.24184846254218009 0 -0.2907867238376759 0.2326231052481485 0 -0.31869288595089612 0.22815348218819509 0 -0.29721258455806959 0.221041652669662 0 -0.3123710375436678 0.21162782865148039 0 -0.29721258455806959 0.221041652669662 0 -0.2907867238376759 0.2326231052481485 0 -0.28842231769837828 0.22434226086345219 0 -0.29721258455806959 0.221041652669662 0 -0.28842231769837828 0.22434226086345219 0 -0.28891411216950841 0.21567660690904891 0 -0.29721258455806959 0.221041652669662 0 -0.2907867238376759 0.2326231052481485 0 -0.2907867238376759 0.2326231052481485 0 -0.28579583719130069 0.22914878259512519 0 -0.28842231769837828 0.22434226086345219 0 -0.2907867238376759 0.2326231052481485 0 -0.28579583719130069 0.22914878259512519 0 -0.28471446003510442 0.23359567647482071 0 -0.2907867238376759 0.2326231052481485 0 -0.28471446003510442 0.23359567647482071 0 -0.28579583719130069 0.22914878259512519 0 -0.28471446003510442 0.23359567647482071 0 -0.28235458431957922 0.23045335010833209 0 -0.28471446003510442 0.23359567647482071 0 -0.28235458431957922 0.23045335010833209 0 -0.28579583719130069 0.22914878259512519 0 -0.28235458431957922 0.23045335010833209 0 -0.28290652183536641 0.22500922970511361 0 -0.28243250878847792 0.21959182376574421 0 -0.28842231769837828 0.22434226086345219 0 -0.28891411216950841 0.21567660690904891 0 -0.28290652183536641 0.22500922970511361 0 -0.28243250878847792 0.21959182376574421 0 -0.28842231769837828 0.22434226086345219 0 -0.28579583719130069 0.22914878259512519 0 -0.28290652183536641 0.22500922970511361 0 -0.28842231769837828 0.22434226086345219 0 -0.29721258455806959 0.221041652669662 0 -0.29609489721628451 0.20446028206218361 0 -0.28891411216950841 0.21567660690904891 0 -0.29609489721628451 0.20446028206218361 0 -0.28891411216950841 0.21567660690904891 0 -0.28040825258633151 0.2089470151842025 0 -0.28243250878847792 0.21959182376574421 0 -0.28891411216950841 0.21567660690904891 0 -0.28040825258633151 0.2089470151842025 0 -0.29721258455806959 0.221041652669662 0 -0.29609489721628451 0.20446028206218361 0 -0.3123710375436678 0.21162782865148039 0 -0.31667547461307077 0.19594335853335301 0 -0.29609489721628451 0.20446028206218361 0 -0.3123710375436678 0.21162782865148039 0 -0.31667547461307077 0.19594335853335301 0 -0.29609489721628451 0.20446028206218361 0 -0.29762683167750131 0.17892753260007199 0 -0.29609489721628451 0.20446028206218361 0 -0.28357031667792748 0.19521054517927849 0 -0.29762683167750131 0.17892753260007199 0 -0.29609489721628451 0.20446028206218361 0 -0.28357031667792748 0.19521054517927849 0 -0.28040825258633151 0.2089470151842025 0 -0.26806486487865983 0.19962849998063231 0 -0.25649718147556488 0.1935427170433319 0 -0.27565673703086019 0.18408939606930219 0 -0.28357031667792748 0.19521054517927849 0 -0.26806486487865983 0.19962849998063231 0 -0.27565673703086019 0.18408939606930219 0 -0.28357031667792748 0.19521054517927849 0 -0.26806486487865983 0.19962849998063231 0 -0.28040825258633151 0.2089470151842025 0 -0.25649718147556488 0.1935427170433319 0 -0.25368664238421901 0.1892512595385317 0 -0.27565673703086019 0.18408939606930219 0 -0.25649718147556488 0.1935427170433319 0 -0.25368664238421901 0.1892512595385317 0 -0.25649718147556488 0.1935427170433319 0 -0.25040908159511338 0.19002132091412399 0 -0.25368664238421901 0.1892512595385317 0 -0.25040908159511338 0.19002132091412399 0 -0.25368664238421901 0.1892512595385317 0 -0.25649718147556488 0.1935427170433319 0 -0.25040908159511338 0.19002132091412399 0 -0.25560926976635312 0.2035916052873919 0 -0.25649718147556488 0.1935427170433319 0 -0.26103248667566809 0.2006549656895783 0 -0.25560926976635312 0.2035916052873919 0 -0.26806486487865983 0.19962849998063231 0 -0.25649718147556488 0.1935427170433319 0 -0.26103248667566809 0.2006549656895783 0 -0.26806486487865983 0.19962849998063231 0 -0.26103248667566809 0.2006549656895783 0 -0.26313606797396372 0.20575608991571731 0 -0.26313606797396372 0.20575608991571731 0 -0.25560926976635312 0.2035916052873919 0 -0.26025085862406838 0.21284683740767971 0 -0.26313606797396372 0.20575608991571731 0 -0.26025085862406838 0.21284683740767971 0 -0.27072285992506878 0.21205854121330389 0 -0.26103248667566809 0.2006549656895783 0 -0.26313606797396372 0.20575608991571731 0 -0.25560926976635312 0.2035916052873919 0 -0.25560926976635312 0.2035916052873919 0 -0.25194739826678658 0.21444461515785401 0 -0.26025085862406838 0.21284683740767971 0 -0.25194739826678658 0.21444461515785401 0 -0.26025085862406838 0.21284683740767971 0 -0.2551855299144159 0.22331770328677139 0 -0.26025085862406838 0.21284683740767971 0 -0.26379945917494552 0.21942789216232239 0 -0.2551855299144159 0.22331770328677139 0 -0.26025085862406838 0.21284683740767971 0 -0.27072285992506878 0.21205854121330389 0 -0.26379945917494552 0.21942789216232239 0 -0.27072285992506878 0.21205854121330389 0 -0.2762141549422647 0.2171977857798976 0 -0.27018851440145158 0.2214425513639445 0 -0.27072285992506878 0.21205854121330389 0 -0.27018851440145158 0.2214425513639445 0 -0.26379945917494552 0.21942789216232239 0 -0.26806486487865983 0.19962849998063231 0 -0.27072285992506878 0.21205854121330389 0 -0.28040825258633151 0.2089470151842025 0 -0.26806486487865983 0.19962849998063231 0 -0.26313606797396372 0.20575608991571731 0 -0.27072285992506878 0.21205854121330389 0 -0.28243250878847792 0.21959182376574421 0 -0.28040825258633151 0.2089470151842025 0 -0.2762141549422647 0.2171977857798976 0 -0.27072285992506878 0.21205854121330389 0 -0.28040825258633151 0.2089470151842025 0 -0.2762141549422647 0.2171977857798976 0 -0.28235458431957922 0.23045335010833209 0 -0.27190528306925288 0.2277052940984525 0 -0.26660445029023933 0.23649628734503669 0 -0.28471446003510442 0.23359567647482071 0 -0.28235458431957922 0.23045335010833209 0 -0.26660445029023933 0.23649628734503669 0 -0.2762141549422647 0.2171977857798976 0 -0.27731863900999382 0.22394899737229271 0 -0.27018851440145158 0.2214425513639445 0 -0.28243250878847792 0.21959182376574421 0 -0.2762141549422647 0.2171977857798976 0 -0.27731863900999382 0.22394899737229271 0 -0.28290652183536641 0.22500922970511361 0 -0.28243250878847792 0.21959182376574421 0 -0.27731863900999382 0.22394899737229271 0 -0.28235458431957922 0.23045335010833209 0 -0.28290652183536641 0.22500922970511361 0 -0.27731863900999382 0.22394899737229271 0 -0.28235458431957922 0.23045335010833209 0 -0.27731863900999382 0.22394899737229271 0 -0.27190528306925288 0.2277052940984525 0 -0.27190528306925288 0.2277052940984525 0 -0.26306022732500117 0.2261852843026565 0 -0.26660445029023933 0.23649628734503669 0 -0.27190528306925288 0.2277052940984525 0 -0.27018851440145158 0.2214425513639445 0 -0.26306022732500117 0.2261852843026565 0 -0.27731863900999382 0.22394899737229271 0 -0.27190528306925288 0.2277052940984525 0 -0.27018851440145158 0.2214425513639445 0 -0.27018851440145158 0.2214425513639445 0 -0.26379945917494552 0.21942789216232239 0 -0.26306022732500117 0.2261852843026565 0 -0.26379945917494552 0.21942789216232239 0 -0.26306022732500117 0.2261852843026565 0 -0.2551855299144159 0.22331770328677139 0 -0.25194739826678658 0.21444461515785401 0 -0.2551855299144159 0.22331770328677139 0 -0.24648494098598731 0.22005601514351311 0 -0.2551855299144159 0.22331770328677139 0 -0.25669282748587019 0.23259828520318579 0 -0.25087712384573357 0.23287003298724779 0 -0.2551855299144159 0.22331770328677139 0 -0.25087712384573357 0.23287003298724779 0 -0.24644648607505501 0.2281382003786194 0 -0.26306022732500117 0.2261852843026565 0 -0.2551855299144159 0.22331770328677139 0 -0.25669282748587019 0.23259828520318579 0 -0.26306022732500117 0.2261852843026565 0 -0.25669282748587019 0.23259828520318579 0 -0.26660445029023933 0.23649628734503669 0 -0.26305761738569661 0.24901977672961981 0 -0.26660445029023933 0.23649628734503669 0 -0.24910725770640421 0.24333336453792839 0 -0.26660445029023933 0.23649628734503669 0 -0.24849444054537431 0.23939689821525401 0 -0.26660445029023933 0.23649628734503669 0 -0.24910725770640421 0.24333336453792839 0 -0.24849444054537431 0.23939689821525401 0 -0.25669282748587019 0.23259828520318579 0 -0.26660445029023933 0.23649628734503669 0 -0.24849444054537431 0.23939689821525401 0 -0.25669282748587019 0.23259828520318579 0 -0.25087712384573357 0.23287003298724779 0 -0.24849444054537431 0.23939689821525401 0 -0.26305761738569661 0.24901977672961981 0 -0.27170183260557451 0.24576845768534011 0 -0.27087126593366828 0.2513959023754001 0 -0.28471446003510442 0.23359567647482071 0 -0.26660445029023933 0.23649628734503669 0 -0.28471446003510442 0.23359567647482071 0 -0.26660445029023933 0.23649628734503669 0 -0.27857745300711062 0.24062441390563011 0 -0.26305761738569661 0.24901977672961981 0 -0.27170183260557451 0.24576845768534011 0 -0.26660445029023933 0.23649628734503669 0 -0.27170183260557451 0.24576845768534011 0 -0.26660445029023933 0.23649628734503669 0 -0.27857745300711062 0.24062441390563011 0 -0.2819927719755364 0.24847261411558719 0 -0.27170183260557451 0.24576845768534011 0 -0.27087126593366828 0.2513959023754001 0 -0.2819927719755364 0.24847261411558719 0 -0.27170183260557451 0.24576845768534011 0 -0.27857745300711062 0.24062441390563011 0 -0.28518277179751822 0.15278882486671649 0 -0.28766266813640529 0.13625926891107989 0 -0.30106383526101399 0.14893341760148229 0 -0.28766266813640529 0.13625926891107989 0 -0.27158793862335862 0.1232191378894497 0 -0.28657099432327149 0.1233271659253648 0 -0.28766266813640529 0.13625926891107989 0 -0.28657099432327149 0.1233271659253648 0 -0.29945736628912001 0.124267034381024 0 -0.28766266813640529 0.13625926891107989 0 -0.30613413606354761 0.13765348904817151 0 -0.29945736628912001 0.124267034381024 0 -0.30613413606354761 0.13765348904817151 0 -0.29945736628912001 0.124267034381024 0 -0.31445151658903647 0.1243748783024395 0 -0.28766266813640529 0.13625926891107989 0 -0.30613413606354761 0.13765348904817151 0 -0.30106383526101399 0.14893341760148229 0 -0.31576921428751131 0.14846131991345771 0 -0.30106383526101399 0.14893341760148229 0 -0.30942834605862563 0.1675675007448644 0 -0.31576921428751131 0.14846131991345771 0 -0.30613413606354761 0.13765348904817151 0 -0.30106383526101399 0.14893341760148229 0 -0.28518277179751822 0.15278882486671649 0 -0.30942834605862563 0.1675675007448644 0 -0.30942834605862563 0.1675675007448644 0 -0.29762683167750131 0.17892753260007199 0 -0.28496631052191529 0.16581491245971641 0 -0.30942834605862563 0.1675675007448644 0 -0.28496631052191529 0.16581491245971641 0 -0.28518277179751822 0.15278882486671649 0 -0.30106383526101399 0.14893341760148229 0 -0.30942834605862563 0.1675675007448644 0 -0.31959692632414172 0.17376566913083971 0 -0.31667547461307077 0.19594335853335301 0 -0.29762683167750131 0.17892753260007199 0 -0.31959692632414172 0.17376566913083971 0 -0.30942834605862563 0.1675675007448644 0 -0.29762683167750131 0.17892753260007199 0 -0.31959692632414172 0.17376566913083971 0 -0.29762683167750131 0.17892753260007199 0 -0.29762683167750131 0.17892753260007199 0 -0.27565673703086019 0.18408939606930219 0 -0.28357031667792748 0.19521054517927849 0 -0.29762683167750131 0.17892753260007199 0 -0.27565673703086019 0.18408939606930219 0 -0.29762683167750131 0.17892753260007199 0 -0.28496631052191529 0.16581491245971641 0 -0.27565673703086019 0.18408939606930219 0 -0.28518277179751822 0.15278882486671649 0 -0.30942834605862563 0.1675675007448644 0 -0.28496631052191529 0.16581491245971641 0 -0.28496631052191529 0.16581491245971641 0 -0.26267374514664682 0.17816660984174881 0 -0.26050427498520512 0.16406232417456759 0 -0.28518277179751822 0.15278882486671649 0 -0.28496631052191529 0.16581491245971641 0 -0.26050427498520512 0.16406232417456759 0 -0.28496631052191529 0.16581491245971641 0 -0.26050427498520512 0.16406232417456759 0 -0.28496631052191529 0.16581491245971641 0 -0.27565673703086019 0.18408939606930219 0 -0.26267374514664682 0.17816660984174881 0 -0.25368664238421901 0.1892512595385317 0 -0.27565673703086019 0.18408939606930219 0 -0.26267374514664682 0.17816660984174881 0 -0.26267374514664682 0.17816660984174881 0 -0.26050427498520512 0.16406232417456759 0 -0.24486444091635681 0.17578049771397569 0 -0.25368664238421901 0.1892512595385317 0 -0.26267374514664682 0.17816660984174881 0 -0.24486444091635681 0.17578049771397569 0 -0.25368664238421901 0.1892512595385317 0 -0.27565673703086019 0.18408939606930219 0 -0.26050427498520512 0.16406232417456759 0 -0.26093719753641031 0.1380101489885692 0 -0.24107654509340781 0.14443116564150069 0 -0.28518277179751822 0.15278882486671649 0 -0.28766266813640529 0.13625926891107989 0 -0.26093719753641031 0.1380101489885692 0 -0.28518277179751822 0.15278882486671649 0 -0.26093719753641031 0.1380101489885692 0 -0.28518277179751822 0.15278882486671649 0 -0.26050427498520512 0.16406232417456759 0 -0.26093719753641031 0.1380101489885692 0 -0.28766266813640529 0.13625926891107989 0 -0.26093719753641031 0.1380101489885692 0 -0.27158793862335862 0.1232191378894497 0 -0.26093719753641031 0.1380101489885692 0 -0.2544178763525049 0.11356856211053359 0 -0.2366916232753026 0.1232314731104219 0 -0.26093719753641031 0.1380101489885692 0 -0.2544178763525049 0.11356856211053359 0 -0.27158793862335862 0.1232191378894497 0 -0.25330340275947699 0.097640948961847704 0 -0.27264934242637939 0.1050991248953607 0 -0.25981594507570271 0.084526567999776564 0 -0.2544178763525049 0.11356856211053359 0 -0.25330340275947699 0.097640948961847704 0 -0.27264934242637939 0.1050991248953607 0 -0.27264934242637939 0.1050991248953607 0 -0.28914392796916011 0.097088267411390469 0 -0.27732285337025731 0.085859091051527503 0 -0.2544178763525049 0.11356856211053359 0 -0.27264934242637939 0.1050991248953607 0 -0.27158793862335862 0.1232191378894497 0 -0.27264934242637939 0.1050991248953607 0 -0.27158793862335862 0.1232191378894497 0 -0.28657099432327149 0.1233271659253648 0 -0.27264934242637939 0.1050991248953607 0 -0.28657099432327149 0.1233271659253648 0 -0.29288964788521482 0.1099875623263946 0 -0.28657099432327149 0.1233271659253648 0 -0.29288964788521482 0.1099875623263946 0 -0.29945736628912001 0.124267034381024 0 -0.29288964788521482 0.1099875623263946 0 -0.28914392796916011 0.097088267411390469 0 -0.30552967341059017 0.095916531967890101 0 -0.27264934242637939 0.1050991248953607 0 -0.29288964788521482 0.1099875623263946 0 -0.28914392796916011 0.097088267411390469 0 -0.30552967341059017 0.095916531967890101 0 -0.30582849486463859 0.1126967726448716 0 -0.31748883559990448 0.10793760663304031 0 -0.29288964788521482 0.1099875623263946 0 -0.30552967341059017 0.095916531967890101 0 -0.30582849486463859 0.1126967726448716 0 -0.30582849486463859 0.1126967726448716 0 -0.29945736628912001 0.124267034381024 0 -0.31445151658903647 0.1243748783024395 0 -0.29288964788521482 0.1099875623263946 0 -0.30582849486463859 0.1126967726448716 0 -0.29945736628912001 0.124267034381024 0 -0.30589916628940222 0.07606050917594244 0 -0.30792272299738588 0.058980034031233891 0 -0.31510734235460719 0.071010772432459193 0 -0.30589916628940222 0.07606050917594244 0 -0.29237918003016311 0.083423889299875431 0 -0.29322574800932538 0.064451547412265026 0 -0.30589916628940222 0.07606050917594244 0 -0.29322574800932538 0.064451547412265026 0 -0.30792272299738588 0.058980034031233891 0 -0.30552967341059017 0.095916531967890101 0 -0.30589916628940222 0.07606050917594244 0 -0.29237918003016311 0.083423889299875431 0 -0.30552967341059017 0.095916531967890101 0 -0.30589916628940222 0.07606050917594244 0 -0.31846271887825922 0.083342286020994444 0 -0.28914392796916011 0.097088267411390469 0 -0.30552967341059017 0.095916531967890101 0 -0.29237918003016311 0.083423889299875431 0 -0.28914392796916011 0.097088267411390469 0 -0.29237918003016311 0.083423889299875431 0 -0.27732285337025731 0.085859091051527503 0 -0.29237918003016311 0.083423889299875431 0 -0.28194865789219042 0.073029360435535567 0 -0.27732285337025731 0.085859091051527503 0 -0.28194865789219042 0.073029360435535567 0 -0.29322574800932538 0.064451547412265026 0 -0.27821606472516441 0.056334982979923669 0 -0.29237918003016311 0.083423889299875431 0 -0.28194865789219042 0.073029360435535567 0 -0.29322574800932538 0.064451547412265026 0 -0.28194865789219042 0.073029360435535567 0 -0.26749963726242931 0.071561805919426236 0 -0.27821606472516441 0.056334982979923669 0 -0.28194865789219042 0.073029360435535567 0 -0.26749963726242931 0.071561805919426236 0 -0.27732285337025731 0.085859091051527503 0 -0.26749963726242931 0.071561805919426236 0 -0.27732285337025731 0.085859091051527503 0 -0.25981594507570271 0.084526567999776564 0 -0.27264934242637939 0.1050991248953607 0 -0.27732285337025731 0.085859091051527503 0 -0.25981594507570271 0.084526567999776564 0 -0.25330340275947699 0.097640948961847704 0 -0.25981594507570271 0.084526567999776564 0 -0.24212914814080441 0.085811078060409302 0 -0.26749963726242931 0.071561805919426236 0 -0.25981594507570271 0.084526567999776564 0 -0.24469319669088871 0.067914101683764758 0 -0.26749963726242931 0.071561805919426236 0 -0.26011863152298398 0.059255676562700907 0 -0.24469319669088871 0.067914101683764758 0 -0.26011863152298398 0.059255676562700907 0 -0.24933364105965389 0.052640536924998073 0 -0.24469319669088871 0.067914101683764758 0 -0.26011863152298398 0.059255676562700907 0 -0.26302806369437087 0.046859293256697583 0 -0.24933364105965389 0.052640536924998073 0 -0.26620662450804328 0.032312477138676389 0 -0.24410272171733879 0.03737309415361658 0 -0.26302806369437087 0.046859293256697583 0 -0.26620662450804328 0.032312477138676389 0 -0.24410272171733879 0.03737309415361658 0 -0.26302806369437087 0.046859293256697583 0 -0.24410272171733879 0.03737309415361658 0 -0.24933364105965389 0.052640536924998073 0 -0.26302806369437087 0.046859293256697583 0 -0.26620662450804328 0.032312477138676389 0 -0.28019069863304108 0.043238991780269902 0 -0.26620662450804328 0.032312477138676389 0 -0.28019069863304108 0.043238991780269902 0 -0.28135434353481942 0.029995919267577279 0 -0.26011863152298398 0.059255676562700907 0 -0.26302806369437087 0.046859293256697583 0 -0.27821606472516441 0.056334982979923669 0 -0.26749963726242931 0.071561805919426236 0 -0.26011863152298398 0.059255676562700907 0 -0.27821606472516441 0.056334982979923669 0 -0.26302806369437087 0.046859293256697583 0 -0.28019069863304108 0.043238991780269902 0 -0.27821606472516441 0.056334982979923669 0 -0.25689548211398672 0.003199995621086429 0 -0.26357965990100207 0.01851218637870573 0 -0.24720763565175199 0.021624765903760879 0 -0.26620662450804328 0.032312477138676389 0 -0.24720763565175199 0.021624765903760879 0 -0.24410272171733879 0.03737309415361658 0 -0.26620662450804328 0.032312477138676389 0 -0.26357965990100207 0.01851218637870573 0 -0.24720763565175199 0.021624765903760879 0 -0.26357965990100207 0.01851218637870573 0 -0.28032519182805637 0.013170569081568511 0 -0.28135434353481942 0.029995919267577279 0 -0.26620662450804328 0.032312477138676389 0 -0.26357965990100207 0.01851218637870573 0 -0.28135434353481942 0.029995919267577279 0 -0.27990087635976602 -0.003018000538219144 0 -0.25689548211398672 0.003199995621086429 0 -0.28032519182805637 0.013170569081568511 0 -0.25689548211398672 0.003199995621086429 0 -0.26357965990100207 0.01851218637870573 0 -0.28032519182805637 0.013170569081568511 0 -0.28032519182805637 0.013170569081568511 0 -0.30004961895609761 0.02657049449790622 0 -0.29743804133862511 0.003483344366603097 0 -0.27990087635976602 -0.003018000538219144 0 -0.28032519182805637 0.013170569081568511 0 -0.29743804133862511 0.003483344366603097 0 -0.28032519182805637 0.013170569081568511 0 -0.28135434353481942 0.029995919267577279 0 -0.30004961895609761 0.02657049449790622 0 -0.30004961895609761 0.02657049449790622 0 -0.31189304158979342 0.0119659997261742 0 -0.32043564802057051 0.032843585271704688 0 -0.31747393394203732 -0.001863909567955442 0 -0.29743804133862511 0.003483344366603097 0 -0.31189304158979342 0.0119659997261742 0 -0.30004961895609761 0.02657049449790622 0 -0.29743804133862511 0.003483344366603097 0 -0.31189304158979342 0.0119659997261742 0 -0.29322574800932538 0.064451547412265026 0 -0.27821606472516441 0.056334982979923669 0 -0.29319200621210101 0.045762910520291543 0 -0.28019069863304108 0.043238991780269902 0 -0.27821606472516441 0.056334982979923669 0 -0.29319200621210101 0.045762910520291543 0 -0.28135434353481942 0.029995919267577279 0 -0.30004961895609761 0.02657049449790622 0 -0.29319200621210101 0.045762910520291543 0 -0.28019069863304108 0.043238991780269902 0 -0.28135434353481942 0.029995919267577279 0 -0.29319200621210101 0.045762910520291543 0 -0.30004961895609761 0.02657049449790622 0 -0.29319200621210101 0.045762910520291543 0 -0.30939173150839128 0.043758965060423011 0 -0.30004961895609761 0.02657049449790622 0 -0.30939173150839128 0.043758965060423011 0 -0.32043564802057051 0.032843585271704688 0 -0.29322574800932538 0.064451547412265026 0 -0.29319200621210101 0.045762910520291543 0 -0.30792272299738588 0.058980034031233891 0 -0.29319200621210101 0.045762910520291543 0 -0.30939173150839128 0.043758965060423011 0 -0.30792272299738588 0.058980034031233891 0 -0.30792272299738588 0.058980034031233891 0 -0.32897825445134699 0.053721170817235403 0 -0.31510734235460719 0.071010772432459193 0 -0.30939173150839128 0.043758965060423011 0 -0.30792272299738588 0.058980034031233891 0 -0.32897825445134699 0.053721170817235403 0 -0.32043564802057051 0.032843585271704688 0 -0.32897825445134699 0.053721170817235403 0 -0.33079493267916371 0.024263657414093351 0 -0.30939173150839128 0.043758965060423011 0 -0.32043564802057051 0.032843585271704688 0 -0.32897825445134699 0.053721170817235403 0 -0.32043564802057051 0.032843585271704688 0 -0.32897825445134699 0.053721170817235403 0 -0.33988209188044038 0.036822071806506228 0 -0.32897825445134699 0.053721170817235403 0 -0.34410762036403097 0.047605227336887442 0 -0.32897825445134699 0.053721170817235403 0 -0.33079493267916371 0.024263657414093351 0 -0.33988209188044038 0.036822071806506228 0 -0.32897825445134699 0.053721170817235403 0 -0.33079493267916371 0.024263657414093351 0 -0.32897825445134699 0.053721170817235403 0 -0.34736247347057009 0.060964970125011023 0 -0.34410762036403097 0.047605227336887442 0 -0.31747393394203732 -0.001863909567955442 0 -0.31189304158979342 0.0119659997261742 0 -0.33079493267916371 0.024263657414093351 0 -0.3326116109069811 -0.005193855989048729 0 -0.31747393394203732 -0.001863909567955442 0 -0.33079493267916371 0.024263657414093351 0 -0.31189304158979342 0.0119659997261742 0 -0.32043564802057051 0.032843585271704688 0 -0.31189304158979342 0.0119659997261742 0 -0.32043564802057051 0.032843585271704688 0 -0.33079493267916371 0.024263657414093351 0 -0.33079493267916371 0.024263657414093351 0 -0.34046483100669239 0.01737628220880956 0 -0.33994319695020792 0.0081901150208087414 0 -0.33988209188044038 0.036822071806506228 0 -0.33079493267916371 0.024263657414093351 0 -0.34491856651248581 0.024123999524168611 0 -0.33079493267916371 0.024263657414093351 0 -0.34046483100669239 0.01737628220880956 0 -0.34491856651248581 0.024123999524168611 0 -0.3326116109069811 -0.005193855989048729 0 -0.33079493267916371 0.024263657414093351 0 -0.3326116109069811 -0.005193855989048729 0 -0.33079493267916371 0.024263657414093351 0 -0.33994319695020792 0.0081901150208087414 0 -0.34046483100669239 0.01737628220880956 0 -0.33994319695020792 0.0081901150208087414 0 -0.3462026278849123 0.01292735687616753 0 -0.35246316822755502 0.007424380221463728 0 -0.35332273029837558 0.00088249528103173278 0 -0.35978811967700752 0.0064522657015292717 0 -0.34463919580281849 -0.0061373870655722172 0 -0.33994319695020792 0.0081901150208087414 0 -0.34726460473325371 0.0047143686437314822 0 -0.35246316822755502 0.007424380221463728 0 -0.35332273029837558 0.00088249528103173278 0 -0.34726460473325371 0.0047143686437314822 0 -0.35246316822755502 0.007424380221463728 0 -0.3462026278849123 0.01292735687616753 0 -0.35573775854422612 0.01214541460485862 0 -0.35246316822755502 0.007424380221463728 0 -0.34726460473325371 0.0047143686437314822 0 -0.3462026278849123 0.01292735687616753 0 -0.33994319695020792 0.0081901150208087414 0 -0.34726460473325371 0.0047143686437314822 0 -0.3462026278849123 0.01292735687616753 0 -0.3462026278849123 0.01292735687616753 0 -0.35573775854422612 0.01214541460485862 0 -0.35139766506630321 0.017749046711820791 0 -0.35573775854422612 0.01214541460485862 0 -0.35139766506630321 0.017749046711820791 0 -0.36085587607188419 0.015908663982150479 0 -0.35246316822755502 0.007424380221463728 0 -0.35573775854422612 0.01214541460485862 0 -0.35978811967700752 0.0064522657015292717 0 -0.35573775854422612 0.01214541460485862 0 -0.36048435366107051 0.01136043997234731 0 -0.35978811967700752 0.0064522657015292717 0 -0.35573775854422612 0.01214541460485862 0 -0.36085587607188419 0.015908663982150479 0 -0.36048435366107051 0.01136043997234731 0 -0.35656867046685292 0.02317800808744204 0 -0.35139766506630321 0.017749046711820791 0 -0.36085587607188419 0.015908663982150479 0 -0.35656867046685292 0.02317800808744204 0 -0.35139766506630321 0.017749046711820791 0 -0.34491856651248581 0.024123999524168611 0 -0.34046483100669239 0.01737628220880956 0 -0.3462026278849123 0.01292735687616753 0 -0.34491856651248581 0.024123999524168611 0 -0.3462026278849123 0.01292735687616753 0 -0.35139766506630321 0.017749046711820791 0 -0.34491856651248581 0.024123999524168611 0 -0.35656867046685292 0.02317800808744204 0 -0.34491856651248581 0.024123999524168611 0 -0.35061108539517472 0.034396303940146367 0 -0.35656867046685292 0.02317800808744204 0 -0.35061108539517472 0.034396303940146367 0 -0.36178427920393119 0.034389908446534223 0 -0.36864183034783748 0.011274891628045611 0 -0.37472066581688562 0.032093479209295617 0 -0.36594514103599401 0.020237998196823561 0 -0.36864183034783748 0.011274891628045611 0 -0.37472066581688562 0.032093479209295617 0 -0.35656867046685292 0.02317800808744204 0 -0.36594514103599401 0.020237998196823561 0 -0.36178427920393119 0.034389908446534223 0 -0.36594514103599401 0.020237998196823561 0 -0.36178427920393119 0.034389908446534223 0 -0.37472066581688562 0.032093479209295617 0 -0.35656867046685292 0.02317800808744204 0 -0.36594514103599401 0.020237998196823561 0 -0.36085587607188419 0.015908663982150479 0 -0.36594514103599401 0.020237998196823561 0 -0.36085587607188419 0.015908663982150479 0 -0.36516677451691459 0.01458184104466643 0 -0.36268351045863201 -0.0091309583216990682 0 -0.36864183034783748 0.011274891628045611 0 -0.35978811967700752 0.0064522657015292717 0 -0.36268351045863201 -0.0091309583216990682 0 -0.36864183034783748 0.011274891628045611 0 -0.36268351045863201 -0.0091309583216990682 0 -0.37627368421505869 -0.0010685545029741181 0 -0.36864183034783748 0.011274891628045611 0 -0.36522425061194269 0.01090581037164608 0 -0.36864183034783748 0.011274891628045611 0 -0.35978811967700752 0.0064522657015292717 0 -0.36594514103599401 0.020237998196823561 0 -0.36516677451691459 0.01458184104466643 0 -0.36864183034783748 0.011274891628045611 0 -0.36085587607188419 0.015908663982150479 0 -0.36048435366107051 0.01136043997234731 0 -0.36522425061194269 0.01090581037164608 0 -0.36048435366107051 0.01136043997234731 0 -0.36522425061194269 0.01090581037164608 0 -0.35978811967700752 0.0064522657015292717 0 -0.36522425061194269 0.01090581037164608 0 -0.36864183034783748 0.011274891628045611 0 -0.36522425061194269 0.01090581037164608 0 -0.36516677451691459 0.01458184104466643 0 -0.36864183034783748 0.011274891628045611 0 -0.36085587607188419 0.015908663982150479 0 -0.36522425061194269 0.01090581037164608 0 -0.36516677451691459 0.01458184104466643 0 -0.35554162323388289 0.048687639349865863 0 -0.34736247347057009 0.060964970125011023 0 -0.36247840104650259 0.064116868313832731 0 -0.35554162323388289 0.048687639349865863 0 -0.34736247347057009 0.060964970125011023 0 -0.34410762036403097 0.047605227336887442 0 -0.33988209188044038 0.036822071806506228 0 -0.34410762036403097 0.047605227336887442 0 -0.35061108539517472 0.034396303940146367 0 -0.35554162323388289 0.048687639349865863 0 -0.34410762036403097 0.047605227336887442 0 -0.35061108539517472 0.034396303940146367 0 -0.33988209188044038 0.036822071806506228 0 -0.34491856651248581 0.024123999524168611 0 -0.35061108539517472 0.034396303940146367 0 -0.35554162323388289 0.048687639349865863 0 -0.35061108539517472 0.034396303940146367 0 -0.36178427920393119 0.034389908446534223 0 -0.35554162323388289 0.048687639349865863 0 -0.36178427920393119 0.034389908446534223 0 -0.36690587992308782 0.050652557936783422 0 -0.38079950128593132 0.052912066790546428 0 -0.37472066581688562 0.032093479209295617 0 -0.36690587992308782 0.050652557936783422 0 -0.36178427920393119 0.034389908446534223 0 -0.37472066581688562 0.032093479209295617 0 -0.36690587992308782 0.050652557936783422 0 -0.37508824185204731 0.071465365720815188 0 -0.36690587992308782 0.050652557936783422 0 -0.38079950128593132 0.052912066790546428 0 -0.37508824185204731 0.071465365720815188 0 -0.36690587992308782 0.050652557936783422 0 -0.37508824185204731 0.071465365720815188 0 -0.36690587992308782 0.050652557936783422 0 -0.36247840104650259 0.064116868313832731 0 -0.35554162323388289 0.048687639349865863 0 -0.36690587992308782 0.050652557936783422 0 -0.36247840104650259 0.064116868313832731 0 -0.37508824185204731 0.071465365720815188 0 -0.35293968811381582 0.074600340005973972 0 -0.36068926710177318 0.087240413693322513 0 -0.37508824185204731 0.071465365720815188 0 -0.36247840104650259 0.064116868313832731 0 -0.35293968811381582 0.074600340005973972 0 -0.34736247347057009 0.060964970125011023 0 -0.36247840104650259 0.064116868313832731 0 -0.35293968811381582 0.074600340005973972 0 -0.34736247347057009 0.060964970125011023 0 -0.35293968811381582 0.074600340005973972 0 -0.33971664426213272 0.079965110967422301 0 -0.35293968811381582 0.074600340005973972 0 -0.36068926710177318 0.087240413693322513 0 -0.33971664426213272 0.079965110967422301 0 -0.35045503407291778 0.1062090511176096 0 -0.33971664426213272 0.079965110967422301 0 -0.36068926710177318 0.087240413693322513 0 -0.35045503407291778 0.1062090511176096 0 -0.33971664426213272 0.079965110967422301 0 -0.38327060378100669 0.092278173504846933 0 -0.37508824185204731 0.071465365720815188 0 -0.36068926710177318 0.087240413693322513 0 -0.36068926710177318 0.087240413693322513 0 -0.36882563244243582 0.1020321993621809 0 -0.35045503407291778 0.1062090511176096 0 -0.38327060378100669 0.092278173504846933 0 -0.36068926710177318 0.087240413693322513 0 -0.36882563244243582 0.1020321993621809 0 -0.36882563244243582 0.1020321993621809 0 -0.36648355068506788 0.1193039355354634 0 -0.35045503407291778 0.1062090511176096 0 -0.3611934238837029 0.1324529912677968 0 -0.36648355068506788 0.1193039355354634 0 -0.35045503407291778 0.1062090511176096 0 -0.3611934238837029 0.1324529912677968 0 -0.34477288681553248 0.1256226861480205 0 -0.35045503407291778 0.1062090511176096 0 -0.3611934238837029 0.1324529912677968 0 -0.35045503407291778 0.1062090511176096 0 -0.34477288681553248 0.1256226861480205 0 -0.35045503407291778 0.1062090511176096 0 -0.33703318514701491 0.116151022179193 0 -0.35045503407291778 0.1062090511176096 0 -0.33163233184354513 0.10610573984508299 0 -0.33479649005511292 0.094972993816952234 0 -0.33163233184354513 0.10610573984508299 0 -0.33479649005511292 0.094972993816952234 0 -0.32275951837705508 0.09631742949025715 0 -0.35045503407291778 0.1062090511176096 0 -0.33163233184354513 0.10610573984508299 0 -0.33703318514701491 0.116151022179193 0 -0.34477288681553248 0.1256226861480205 0 -0.3294881304138621 0.12784940930772329 0 -0.33703318514701491 0.116151022179193 0 -0.33163233184354513 0.10610573984508299 0 -0.33703318514701491 0.116151022179193 0 -0.32640758876675519 0.1161196544077667 0 -0.3294881304138621 0.12784940930772329 0 -0.33703318514701491 0.116151022179193 0 -0.32640758876675519 0.1161196544077667 0 -0.32640758876675519 0.1161196544077667 0 -0.31445151658903647 0.1243748783024395 0 -0.31748883559990448 0.10793760663304031 0 -0.30582849486463859 0.1126967726448716 0 -0.31445151658903647 0.1243748783024395 0 -0.31748883559990448 0.10793760663304031 0 -0.3294881304138621 0.12784940930772329 0 -0.32640758876675519 0.1161196544077667 0 -0.31445151658903647 0.1243748783024395 0 -0.33163233184354513 0.10610573984508299 0 -0.32640758876675519 0.1161196544077667 0 -0.31748883559990448 0.10793760663304031 0 -0.30552967341059017 0.095916531967890101 0 -0.32275951837705508 0.09631742949025715 0 -0.31748883559990448 0.10793760663304031 0 -0.33163233184354513 0.10610573984508299 0 -0.32275951837705508 0.09631742949025715 0 -0.31748883559990448 0.10793760663304031 0 -0.30552967341059017 0.095916531967890101 0 -0.32275951837705508 0.09631742949025715 0 -0.31846271887825922 0.083342286020994444 0 -0.32275951837705508 0.09631742949025715 0 -0.31846271887825922 0.083342286020994444 0 -0.3287012427267782 0.08557944669761558 0 -0.31846271887825922 0.083342286020994444 0 -0.32777084206133128 0.073299413192451784 0 -0.3287012427267782 0.08557944669761558 0 -0.30589916628940222 0.07606050917594244 0 -0.31846271887825922 0.083342286020994444 0 -0.31510734235460719 0.071010772432459193 0 -0.32897825445134699 0.053721170817235403 0 -0.31510734235460719 0.071010772432459193 0 -0.32777084206133128 0.073299413192451784 0 -0.31846271887825922 0.083342286020994444 0 -0.31510734235460719 0.071010772432459193 0 -0.32777084206133128 0.073299413192451784 0 -0.32897825445134699 0.053721170817235403 0 -0.34736247347057009 0.060964970125011023 0 -0.33971664426213272 0.079965110967422301 0 -0.32897825445134699 0.053721170817235403 0 -0.32777084206133128 0.073299413192451784 0 -0.32897825445134699 0.053721170817235403 0 -0.32777084206133128 0.073299413192451784 0 -0.33971664426213272 0.079965110967422301 0 -0.32897825445134699 0.053721170817235403 0 -0.33971664426213272 0.079965110967422301 0 -0.35045503407291778 0.1062090511176096 0 -0.33479649005511292 0.094972993816952234 0 -0.33971664426213272 0.079965110967422301 0 -0.33479649005511292 0.094972993816952234 0 -0.33971664426213272 0.079965110967422301 0 -0.3287012427267782 0.08557944669761558 0 -0.33479649005511292 0.094972993816952234 0 -0.32275951837705508 0.09631742949025715 0 -0.3287012427267782 0.08557944669761558 0 -0.32777084206133128 0.073299413192451784 0 -0.33971664426213272 0.079965110967422301 0 -0.3287012427267782 0.08557944669761558 0 -0.40067356616371252 0.48351111893332371 0 -0.38253549143817611 0.48438608730432547 0 -0.39695806363988451 0.46214950852748182 0 -0.40067356616371252 0.48351111893332371 0 -0.39695806363988451 0.46214950852748182 0 -0.41904752031168452 0.47101999883481133 0 -0.40067356616371252 0.48351111893332371 0 -0.39277428390472641 0.49999999999999989 0 -0.38253549143817611 0.48438608730432547 0 -0.40067356616371252 0.48351111893332371 0 -0.39277428390472641 0.49999999999999989 0 -0.41205247152409069 0.49999999999999761 0 -0.39277428390472641 0.49999999999999989 0 -0.38253549143817611 0.48438608730432547 0 -0.36402130909824609 0.5 0 -0.39277428390472641 0.49999999999999989 0 -0.38253549143817611 0.48438608730432547 0 -0.38253549143817611 0.48438608730432547 0 -0.37229669897162648 0.4687721746086505 0 -0.38253549143817611 0.48438608730432547 0 -0.39695806363988451 0.46214950852748182 0 -0.37229669897162648 0.4687721746086505 0 -0.37879172645040482 0.44364845171245471 0 -0.39695806363988451 0.46214950852748182 0 -0.37229669897162648 0.4687721746086505 0 -0.37879172645040482 0.44364845171245471 0 -0.37229669897162648 0.4687721746086505 0 -0.37879172645040482 0.44364845171245471 0 -0.39695806363988451 0.46214950852748182 0 -0.4024327882672406 0.43348095578955143 0 -0.39695806363988451 0.46214950852748182 0 -0.42604256909927868 0.44203999766962487 0 -0.41904752031168452 0.47101999883481133 0 -0.39695806363988451 0.46214950852748182 0 -0.42604256909927868 0.44203999766962487 0 -0.4024327882672406 0.43348095578955143 0 -0.42842480172933528 0.44592182297560679 0 -0.44600894537299901 0.4432307514916336 0 -0.42604256909927868 0.44203999766962487 0 -0.42842480172933528 0.44592182297560679 0 -0.41904752031168452 0.47101999883481133 0 -0.42604256909927868 0.44203999766962487 0 -0.42842480172933528 0.44592182297560679 0 -0.43952328162993609 0.42814537399803632 0 -0.42842480172933528 0.44592182297560679 0 -0.43765618428259162 0.45905454182207189 0 -0.44600894537299901 0.4432307514916336 0 -0.41904752031168452 0.47101999883481133 0 -0.44302590200759018 0.4756576523492132 0 -0.43765618428259162 0.45905454182207189 0 -0.42604256909927868 0.44203999766962487 0 -0.41904752031168452 0.47101999883481133 0 -0.42842480172933528 0.44592182297560679 0 -0.41904752031168452 0.47101999883481133 0 -0.43765618428259162 0.45905454182207189 0 -0.41205247152409069 0.49999999999999761 0 -0.43445777005926389 0.48666941279600612 0 -0.46370518639369063 0.5 0 -0.41904752031168452 0.47101999883481133 0 -0.43445777005926389 0.48666941279600612 0 -0.44302590200759018 0.4756576523492132 0 -0.41904752031168452 0.47101999883481133 0 -0.41205247152409069 0.49999999999999761 0 -0.40067356616371252 0.48351111893332371 0 -0.41904752031168452 0.47101999883481133 0 -0.41205247152409069 0.49999999999999761 0 -0.41904752031168452 0.47101999883481133 0 -0.41205247152409069 0.49999999999999761 0 -0.43445777005926389 0.48666941279600612 0 -0.43445777005926389 0.48666941279600612 0 -0.44302590200759018 0.4756576523492132 0 -0.46370518639369063 0.5 0 -0.5 0.5 0 -0.48152573983579389 0.47841675341781892 0 -0.49999999999999861 0.43496797848199992 0 -0.44302590200759018 0.4756576523492132 0 -0.46047530971867789 0.47687889850634618 0 -0.4532421275458377 0.46005482499899009 0 -0.44302590200759018 0.4756576523492132 0 -0.46047530971867789 0.47687889850634618 0 -0.46370518639369063 0.5 0 -0.46047530971867789 0.47687889850634618 0 -0.46370518639369063 0.5 0 -0.48152573983579389 0.47841675341781892 0 -0.46370518639369063 0.5 0 -0.5 0.5 0 -0.48152573983579389 0.47841675341781892 0 -0.46047530971867789 0.47687889850634618 0 -0.48152573983579389 0.47841675341781892 0 -0.47404147688173132 0.45877769711928851 0 -0.48152573983579389 0.47841675341781892 0 -0.47404147688173132 0.45877769711928851 0 -0.49999999999999861 0.43496797848199992 0 -0.47404147688173132 0.45877769711928851 0 -0.47300447268649859 0.43909936498681651 0 -0.49999999999999861 0.43496797848199992 0 -0.47300447268649859 0.43909936498681651 0 -0.44600894537299901 0.4432307514916336 0 -0.47404147688173132 0.45877769711928851 0 -0.47300447268649859 0.43909936498681651 0 -0.4532421275458377 0.46005482499899009 0 -0.47300447268649859 0.43909936498681651 0 -0.4532421275458377 0.46005482499899009 0 -0.44600894537299901 0.4432307514916336 0 -0.46047530971867789 0.47687889850634618 0 -0.4532421275458377 0.46005482499899009 0 -0.46047530971867789 0.47687889850634618 0 -0.47404147688173132 0.45877769711928851 0 -0.4532421275458377 0.46005482499899009 0 -0.44302590200759018 0.4756576523492132 0 -0.4532421275458377 0.46005482499899009 0 -0.43765618428259162 0.45905454182207189 0 -0.4532421275458377 0.46005482499899009 0 -0.43765618428259162 0.45905454182207189 0 -0.44600894537299901 0.4432307514916336 0 -0.42842480172933528 0.44592182297560679 0 -0.44600894537299901 0.4432307514916336 0 -0.43952328162993609 0.42814537399803632 0 -0.4532421275458377 0.46005482499899009 0 -0.44600894537299901 0.4432307514916336 0 -0.44600894537299901 0.4432307514916336 0 -0.43952328162993609 0.42814537399803632 0 -0.45581542413768023 0.42623856022075401 0 -0.43952328162993609 0.42814537399803632 0 -0.44654720290637773 0.41617238323721678 0 -0.45581542413768023 0.42623856022075401 0 -0.44600894537299901 0.4432307514916336 0 -0.43952328162993609 0.42814537399803632 0 -0.44654720290637773 0.41617238323721678 0 -0.44536218619284912 0.40503933037591783 0 -0.433037617886874 0.4130599965044387 0 -0.43952328162993609 0.42814537399803632 0 -0.44654720290637773 0.41617238323721678 0 -0.433037617886874 0.4130599965044387 0 -0.44654720290637773 0.41617238323721678 0 -0.4589975046845487 0.40837865508693749 0 -0.44536218619284912 0.40503933037591783 0 -0.44654720290637773 0.41617238323721678 0 -0.4589975046845487 0.40837865508693749 0 -0.45581542413768023 0.42623856022075401 0 -0.4589975046845487 0.40837865508693749 0 -0.45581542413768023 0.42623856022075401 0 -0.47079660892660619 0.41994866275354642 0 -0.47300447268649859 0.43909936498681651 0 -0.45581542413768023 0.42623856022075401 0 -0.47079660892660619 0.41994866275354642 0 -0.47300447268649859 0.43909936498681651 0 -0.44600894537299901 0.4432307514916336 0 -0.45581542413768023 0.42623856022075401 0 -0.47300447268649859 0.43909936498681651 0 -0.47079660892660619 0.41994866275354642 0 -0.48735858571426499 0.42108071737065228 0 -0.4589975046845487 0.40837865508693749 0 -0.47079660892660619 0.41994866275354642 0 -0.47880705741003848 0.40494601610257169 0 -0.47079660892660619 0.41994866275354642 0 -0.48735858571426499 0.42108071737065228 0 -0.47880705741003848 0.40494601610257169 0 -0.48735858571426499 0.42108071737065228 0 -0.5 0.40672104153666239 0 -0.49999999999999861 0.43496797848199992 0 -0.48735858571426499 0.42108071737065228 0 -0.5 0.40672104153666239 0 -0.47880705741003848 0.40494601610257169 0 -0.47300447268649859 0.43909936498681651 0 -0.48735858571426499 0.42108071737065228 0 -0.49999999999999861 0.43496797848199992 0 -0.47300447268649859 0.43909936498681651 0 -0.49999999999999861 0.43496797848199992 0 -0.48759301942355299 0.38660344682398889 0 -0.5 0.37847410459132502 0 -0.48497654676430202 0.36858712537786309 0 -0.5 0.40672104153666239 0 -0.48759301942355299 0.38660344682398889 0 -0.5 0.37847410459132502 0 -0.5 0.40672104153666239 0 -0.48759301942355299 0.38660344682398889 0 -0.47880705741003848 0.40494601610257169 0 -0.48759301942355299 0.38660344682398889 0 -0.47880705741003848 0.40494601610257169 0 -0.46509879223416778 0.38539952922257892 0 -0.48759301942355299 0.38660344682398889 0 -0.47097298633584589 0.37246782307339332 0 -0.48497654676430202 0.36858712537786309 0 -0.48759301942355299 0.38660344682398889 0 -0.46509879223416778 0.38539952922257892 0 -0.47097298633584589 0.37246782307339332 0 -0.48759301942355299 0.38660344682398889 0 -0.46509879223416778 0.38539952922257892 0 -0.46509879223416778 0.38539952922257892 0 -0.45516113638809502 0.37554365339565737 0 -0.47097298633584589 0.37246782307339332 0 -0.46509879223416778 0.38539952922257892 0 -0.45170657017234939 0.39464155691132619 0 -0.44260456504478252 0.38419561162116889 0 -0.46509879223416778 0.38539952922257892 0 -0.45516113638809502 0.37554365339565737 0 -0.44260456504478252 0.38419561162116889 0 -0.46509879223416778 0.38539952922257892 0 -0.44260456504478252 0.38419561162116889 0 -0.4589975046845487 0.40837865508693749 0 -0.46509879223416778 0.38539952922257892 0 -0.45170657017234939 0.39464155691132619 0 -0.4589975046845487 0.40837865508693749 0 -0.47880705741003848 0.40494601610257169 0 -0.46509879223416778 0.38539952922257892 0 -0.44536218619284912 0.40503933037591783 0 -0.43805625259809527 0.39226814155171741 0 -0.433037617886874 0.4130599965044387 0 -0.4589975046845487 0.40837865508693749 0 -0.44536218619284912 0.40503933037591783 0 -0.45170657017234939 0.39464155691132619 0 -0.44536218619284912 0.40503933037591783 0 -0.45170657017234939 0.39464155691132619 0 -0.43805625259809527 0.39226814155171741 0 -0.45516113638809502 0.37554365339565737 0 -0.44260456504478252 0.38419561162116889 0 -0.44379931899009001 0.37275614437304871 0 -0.45170657017234939 0.39464155691132619 0 -0.43805625259809527 0.39226814155171741 0 -0.44260456504478252 0.38419561162116889 0 -0.44260456504478252 0.38419561162116889 0 -0.4332419136325939 0.37585794920747412 0 -0.44379931899009001 0.37275614437304871 0 -0.44260456504478252 0.38419561162116889 0 -0.42011033785539731 0.38299169401975891 0 -0.44260456504478252 0.38419561162116889 0 -0.4309717540609197 0.38902388575296881 0 -0.42011033785539731 0.38299169401975891 0 -0.44260456504478252 0.38419561162116889 0 -0.4332419136325939 0.37585794920747412 0 -0.42011033785539731 0.38299169401975891 0 -0.43805625259809527 0.39226814155171741 0 -0.44260456504478252 0.38419561162116889 0 -0.4309717540609197 0.38902388575296881 0 -0.42011033785539731 0.38299169401975891 0 -0.42657397787113599 0.39802584526209861 0 -0.4309717540609197 0.38902388575296881 0 -0.42011033785539731 0.38299169401975891 0 -0.42657397787113599 0.39802584526209861 0 -0.4332419136325939 0.37585794920747412 0 -0.42011033785539731 0.38299169401975891 0 -0.42476453611520593 0.37481923681794371 0 -0.41698191574550769 0.37571511750320852 0 -0.42011033785539731 0.38299169401975891 0 -0.40994474469894909 0.3824476194700186 0 -0.42011033785539731 0.38299169401975891 0 -0.40994474469894909 0.3824476194700186 0 -0.41698191574550769 0.37571511750320852 0 -0.42011033785539731 0.38299169401975891 0 -0.42476453611520593 0.37481923681794371 0 -0.41698191574550769 0.37571511750320852 0 -0.42011033785539731 0.38299169401975891 0 -0.42011033785539731 0.38299169401975891 0 -0.40994474469894909 0.3824476194700186 0 -0.41398701511740699 0.39398381300239049 0 -0.40994474469894909 0.3824476194700186 0 -0.41398701511740699 0.39398381300239049 0 -0.40457020093533591 0.39078522019452933 0 -0.40994474469894909 0.3824476194700186 0 -0.40333648762801688 0.37943455076916022 0 -0.41120187551229548 0.37225199562280759 0 -0.41698191574550769 0.37571511750320852 0 -0.40994474469894909 0.3824476194700186 0 -0.41120187551229548 0.37225199562280759 0 -0.41398701511740699 0.39398381300239049 0 -0.4179489725523704 0.40704735461542257 0 -0.40330023522236402 0.40333372069611378 0 -0.41398701511740699 0.39398381300239049 0 -0.40457020093533591 0.39078522019452933 0 -0.40330023522236402 0.40333372069611378 0 -0.42011033785539731 0.38299169401975891 0 -0.41398701511740699 0.39398381300239049 0 -0.42657397787113599 0.39802584526209861 0 -0.41398701511740699 0.39398381300239049 0 -0.42657397787113599 0.39802584526209861 0 -0.4179489725523704 0.40704735461542257 0 -0.42657397787113599 0.39802584526209861 0 -0.433037617886874 0.4130599965044387 0 -0.4179489725523704 0.40704735461542257 0 -0.43805625259809527 0.39226814155171741 0 -0.42657397787113599 0.39802584526209861 0 -0.433037617886874 0.4130599965044387 0 -0.43805625259809527 0.39226814155171741 0 -0.433037617886874 0.4130599965044387 0 -0.43805625259809527 0.39226814155171741 0 -0.4309717540609197 0.38902388575296881 0 -0.42657397787113599 0.39802584526209861 0 -0.42657397787113599 0.39802584526209861 0 -0.433037617886874 0.4130599965044387 0 -0.433037617886874 0.4130599965044387 0 -0.41713772703953911 0.42237770124141139 0 -0.4179489725523704 0.40704735461542257 0 -0.43952328162993609 0.42814537399803632 0 -0.433037617886874 0.4130599965044387 0 -0.42604256909927868 0.44203999766962487 0 -0.43952328162993609 0.42814537399803632 0 -0.433037617886874 0.4130599965044387 0 -0.42604256909927868 0.44203999766962487 0 -0.433037617886874 0.4130599965044387 0 -0.42604256909927868 0.44203999766962487 0 -0.433037617886874 0.4130599965044387 0 -0.41713772703953911 0.42237770124141139 0 -0.42604256909927868 0.44203999766962487 0 -0.41713772703953911 0.42237770124141139 0 -0.4024327882672406 0.43348095578955143 0 -0.41713772703953911 0.42237770124141139 0 -0.40622668739193057 0.41626020162801952 0 -0.4024327882672406 0.43348095578955143 0 -0.41713772703953911 0.42237770124141139 0 -0.4179489725523704 0.40704735461542257 0 -0.40622668739193057 0.41626020162801952 0 -0.4179489725523704 0.40704735461542257 0 -0.40622668739193057 0.41626020162801952 0 -0.40330023522236402 0.40333372069611378 0 -0.40622668739193057 0.41626020162801952 0 -0.38528675392918182 0.41852472881625852 0 -0.40330023522236402 0.40333372069611378 0 -0.40622668739193057 0.41626020162801952 0 -0.4024327882672406 0.43348095578955143 0 -0.38528675392918182 0.41852472881625852 0 -0.37879172645040482 0.44364845171245471 0 -0.38528675392918182 0.41852472881625852 0 -0.36396462051856848 0.426382225859054 0 -0.37879172645040482 0.44364845171245471 0 -0.38528675392918182 0.41852472881625852 0 -0.37879172645040482 0.44364845171245471 0 -0.4024327882672406 0.43348095578955143 0 -0.38528675392918182 0.41852472881625852 0 -0.38528675392918182 0.41852472881625852 0 -0.39178178140795861 0.39340100592006239 0 -0.38528675392918182 0.41852472881625852 0 -0.39178178140795861 0.39340100592006239 0 -0.3705907680975018 0.39216637407158789 0 -0.39178178140795861 0.39340100592006239 0 -0.37735541314810322 0.37355832329676608 0 -0.3705907680975018 0.39216637407158789 0 -0.39178178140795861 0.39340100592006239 0 -0.39827680888673561 0.36827728302386642 0 -0.37735541314810322 0.37355832329676608 0 -0.40333648762801688 0.37943455076916022 0 -0.39178178140795861 0.39340100592006239 0 -0.39827680888673561 0.36827728302386642 0 -0.39178178140795861 0.39340100592006239 0 -0.39827680888673561 0.36827728302386642 0 -0.40333648762801688 0.37943455076916022 0 -0.40457020093533591 0.39078522019452933 0 -0.39178178140795861 0.39340100592006239 0 -0.40994474469894909 0.3824476194700186 0 -0.40333648762801688 0.37943455076916022 0 -0.40457020093533591 0.39078522019452933 0 -0.38528675392918182 0.41852472881625852 0 -0.40330023522236402 0.40333372069611378 0 -0.39178178140795861 0.39340100592006239 0 -0.40457020093533591 0.39078522019452933 0 -0.40330023522236402 0.40333372069611378 0 -0.39178178140795861 0.39340100592006239 0 -0.39827680888673561 0.36827728302386642 0 -0.38248166547526619 0.35205518551514609 0 -0.40477183636551339 0.34315356012767051 0 -0.39827680888673561 0.36827728302386642 0 -0.40477183636551339 0.34315356012767051 0 -0.4056318303917083 0.36846033693423041 0 -0.39827680888673561 0.36827728302386642 0 -0.40477183636551339 0.34315356012767051 0 -0.40333648762801688 0.37943455076916022 0 -0.4056318303917083 0.36846033693423041 0 -0.39827680888673561 0.36827728302386642 0 -0.39827680888673561 0.36827728302386642 0 -0.37735541314810322 0.37355832329676608 0 -0.38248166547526619 0.35205518551514609 0 -0.38248166547526619 0.35205518551514609 0 -0.38563026577647619 0.3313931589374407 0 -0.36831654614497472 0.33922749996314738 0 -0.38563026577647619 0.3313931589374407 0 -0.36648869518743882 0.319632757747211 0 -0.38563026577647619 0.3313931589374407 0 -0.39645007197498561 0.30901776319555341 0 -0.37888913402897179 0.30882046751300102 0 -0.38563026577647619 0.3313931589374407 0 -0.37888913402897179 0.30882046751300102 0 -0.36648869518743882 0.319632757747211 0 -0.38563026577647619 0.3313931589374407 0 -0.41021282969149597 0.32210699657597858 0 -0.39645007197498561 0.30901776319555341 0 -0.38563026577647619 0.3313931589374407 0 -0.40477183636551339 0.34315356012767051 0 -0.41021282969149597 0.32210699657597858 0 -0.38248166547526619 0.35205518551514609 0 -0.38563026577647619 0.3313931589374407 0 -0.40477183636551339 0.34315356012767051 0 -0.38563026577647619 0.3313931589374407 0 -0.40477183636551339 0.34315356012767051 0 -0.40477183636551339 0.34315356012767051 0 -0.41813821838802578 0.33626007791251827 0 -0.41021282969149597 0.32210699657597858 0 -0.40477183636551339 0.34315356012767051 0 -0.41021282969149597 0.32210699657597858 0 -0.40477183636551339 0.34315356012767051 0 -0.41813821838802578 0.33626007791251827 0 -0.41340155824742031 0.34845558020064699 0 -0.41813821838802578 0.33626007791251827 0 -0.41340155824742031 0.34845558020064699 0 -0.41813821838802578 0.33626007791251827 0 -0.41689602070275311 0.3186602554684026 0 -0.41813821838802578 0.33626007791251827 0 -0.41689602070275311 0.3186602554684026 0 -0.42797359809348362 0.31093687714616408 0 -0.41813821838802578 0.33626007791251827 0 -0.41021282969149597 0.32210699657597858 0 -0.41689602070275311 0.3186602554684026 0 -0.41021282969149597 0.32210699657597858 0 -0.41689602070275311 0.3186602554684026 0 -0.41565382301747938 0.30106043302428698 0 -0.41813821838802578 0.33626007791251827 0 -0.43573491087122762 0.32688718291909052 0 -0.42797359809348362 0.31093687714616408 0 -0.41813821838802578 0.33626007791251827 0 -0.42797359809348362 0.31093687714616408 0 -0.43573491087122762 0.32688718291909052 0 -0.43808794526156081 0.31425745264435428 0 -0.42797359809348362 0.31093687714616408 0 -0.41813821838802578 0.33626007791251827 0 -0.43573491087122762 0.32688718291909052 0 -0.42969251446259538 0.33986909514241681 0 -0.41813821838802578 0.33626007791251827 0 -0.42969251446259538 0.33986909514241681 0 -0.42358902273627702 0.34701337957534162 0 -0.43573491087122762 0.32688718291909052 0 -0.42969251446259538 0.33986909514241681 0 -0.43975988195290899 0.34094323140910299 0 -0.42969251446259538 0.33986909514241681 0 -0.43124053836453691 0.34824160389603021 0 -0.43975988195290899 0.34094323140910299 0 -0.43124053836453691 0.34824160389603021 0 -0.4398349538841132 0.35280219620347197 0 -0.43975988195290899 0.34094323140910299 0 -0.43052883938495973 0.35769297271248618 0 -0.43620106627449062 0.36191944848166191 0 -0.4398349538841132 0.35280219620347197 0 -0.43124053836453691 0.34824160389603021 0 -0.43052883938495973 0.35769297271248618 0 -0.4398349538841132 0.35280219620347197 0 -0.43124053836453691 0.34824160389603021 0 -0.43052883938495973 0.35769297271248618 0 -0.42618367420238951 0.35197799545256381 0 -0.43052883938495973 0.35769297271248618 0 -0.42618367420238951 0.35197799545256381 0 -0.42549522536366668 0.35719506563207071 0 -0.43052883938495973 0.35769297271248618 0 -0.42549522536366668 0.35719506563207071 0 -0.42439962717236229 0.36152118667824612 0 -0.42618367420238951 0.35197799545256381 0 -0.42385680342061949 0.35454116325657481 0 -0.42549522536366668 0.35719506563207071 0 -0.42618367420238951 0.35197799545256381 0 -0.42385680342061949 0.35454116325657481 0 -0.42105538769889622 0.35315802113004757 0 -0.42385680342061949 0.35454116325657481 0 -0.42254347040605511 0.35669123220289378 0 -0.42105538769889622 0.35315802113004757 0 -0.42549522536366668 0.35719506563207071 0 -0.42254347040605511 0.35669123220289378 0 -0.42439962717236229 0.36152118667824612 0 -0.42254347040605511 0.35669123220289378 0 -0.41973439341517838 0.35887515552910332 0 -0.42439962717236229 0.36152118667824612 0 -0.42385680342061949 0.35454116325657481 0 -0.42549522536366668 0.35719506563207071 0 -0.42254347040605511 0.35669123220289378 0 -0.42969251446259538 0.33986909514241681 0 -0.43124053836453691 0.34824160389603021 0 -0.42358902273627702 0.34701337957534162 0 -0.43124053836453691 0.34824160389603021 0 -0.42618367420238951 0.35197799545256381 0 -0.42358902273627702 0.34701337957534162 0 -0.42618367420238951 0.35197799545256381 0 -0.42358902273627702 0.34701337957534162 0 -0.42105538769889622 0.35315802113004757 0 -0.4056318303917083 0.36846033693423041 0 -0.40477183636551339 0.34315356012767051 0 -0.41340155824742031 0.34845558020064699 0 -0.41813821838802578 0.33626007791251827 0 -0.42358902273627702 0.34701337957534162 0 -0.41925270629352529 0.35205047060556688 0 -0.41813821838802578 0.33626007791251827 0 -0.41925270629352529 0.35205047060556688 0 -0.41813821838802578 0.33626007791251827 0 -0.41925270629352529 0.35205047060556688 0 -0.41340155824742031 0.34845558020064699 0 -0.4056318303917083 0.36846033693423041 0 -0.41340155824742031 0.34845558020064699 0 -0.4056318303917083 0.36846033693423041 0 -0.41340155824742031 0.34845558020064699 0 -0.41430572976780561 0.36068170798046328 0 -0.41925270629352529 0.35205047060556688 0 -0.41340155824742031 0.34845558020064699 0 -0.42358902273627702 0.34701337957534162 0 -0.42105538769889622 0.35315802113004757 0 -0.41925270629352529 0.35205047060556688 0 -0.42105538769889622 0.35315802113004757 0 -0.41925270629352529 0.35205047060556688 0 -0.41973439341517838 0.35887515552910332 0 -0.41925270629352529 0.35205047060556688 0 -0.41973439341517838 0.35887515552910332 0 -0.41667359693098233 0.3550157285789447 0 -0.41925270629352529 0.35205047060556688 0 -0.41973439341517838 0.35887515552910332 0 -0.41667359693098233 0.3550157285789447 0 -0.41340155824742031 0.34845558020064699 0 -0.41430572976780561 0.36068170798046328 0 -0.42105538769889622 0.35315802113004757 0 -0.41925270629352529 0.35205047060556688 0 -0.42254347040605511 0.35669123220289378 0 -0.42105538769889622 0.35315802113004757 0 -0.41973439341517838 0.35887515552910332 0 -0.41973439341517838 0.35887515552910332 0 -0.41667359693098233 0.3550157285789447 0 -0.41430572976780561 0.36068170798046328 0 -0.41925270629352529 0.35205047060556688 0 -0.41667359693098233 0.3550157285789447 0 -0.41340155824742031 0.34845558020064699 0 -0.40477183636551339 0.34315356012767051 0 -0.41340155824742031 0.34845558020064699 0 -0.40333648762801688 0.37943455076916022 0 -0.4056318303917083 0.36846033693423041 0 -0.41120187551229548 0.37225199562280759 0 -0.4056318303917083 0.36846033693423041 0 -0.41120187551229548 0.37225199562280759 0 -0.41371623408349251 0.36713683205729952 0 -0.4056318303917083 0.36846033693423041 0 -0.41371623408349251 0.36713683205729952 0 -0.41430572976780561 0.36068170798046328 0 -0.41371623408349251 0.36713683205729952 0 -0.41430572976780561 0.36068170798046328 0 -0.41919805439329699 0.36448469177205078 0 -0.41973439341517838 0.35887515552910332 0 -0.41430572976780561 0.36068170798046328 0 -0.41919805439329699 0.36448469177205078 0 -0.41973439341517838 0.35887515552910332 0 -0.41919805439329699 0.36448469177205078 0 -0.42439962717236229 0.36152118667824612 0 -0.41919805439329699 0.36448469177205078 0 -0.41842814973084658 0.37035723971385698 0 -0.42460419219009732 0.36833602867333592 0 -0.41371623408349251 0.36713683205729952 0 -0.41919805439329699 0.36448469177205078 0 -0.41842814973084658 0.37035723971385698 0 -0.41120187551229548 0.37225199562280759 0 -0.41371623408349251 0.36713683205729952 0 -0.41842814973084658 0.37035723971385698 0 -0.41698191574550769 0.37571511750320852 0 -0.41120187551229548 0.37225199562280759 0 -0.41842814973084658 0.37035723971385698 0 -0.41698191574550769 0.37571511750320852 0 -0.41842814973084658 0.37035723971385698 0 -0.42476453611520593 0.37481923681794371 0 -0.4332419136325939 0.37585794920747412 0 -0.42476453611520593 0.37481923681794371 0 -0.43085454109293481 0.37139703037274291 0 -0.41842814973084658 0.37035723971385698 0 -0.42476453611520593 0.37481923681794371 0 -0.42460419219009732 0.36833602867333592 0 -0.42460419219009732 0.36833602867333592 0 -0.43057684868567919 0.3652771468155363 0 -0.43085454109293481 0.37139703037274291 0 -0.42476453611520593 0.37481923681794371 0 -0.42460419219009732 0.36833602867333592 0 -0.43085454109293481 0.37139703037274291 0 -0.41919805439329699 0.36448469177205078 0 -0.42460419219009732 0.36833602867333592 0 -0.42439962717236229 0.36152118667824612 0 -0.42460419219009732 0.36833602867333592 0 -0.42439962717236229 0.36152118667824612 0 -0.43057684868567919 0.3652771468155363 0 -0.43052883938495973 0.35769297271248618 0 -0.42439962717236229 0.36152118667824612 0 -0.43057684868567919 0.3652771468155363 0 -0.43052883938495973 0.35769297271248618 0 -0.43057684868567919 0.3652771468155363 0 -0.43620106627449062 0.36191944848166191 0 -0.43057684868567919 0.3652771468155363 0 -0.43620106627449062 0.36191944848166191 0 -0.43731818269715339 0.36898797804018202 0 -0.43057684868567919 0.3652771468155363 0 -0.43085454109293481 0.37139703037274291 0 -0.43731818269715339 0.36898797804018202 0 -0.4332419136325939 0.37585794920747412 0 -0.43085454109293481 0.37139703037274291 0 -0.43731818269715339 0.36898797804018202 0 -0.43731818269715339 0.36898797804018202 0 -0.44379931899009001 0.37275614437304871 0 -0.44265618552374419 0.36116025670372259 0 -0.4332419136325939 0.37585794920747412 0 -0.43731818269715339 0.36898797804018202 0 -0.44379931899009001 0.37275614437304871 0 -0.43620106627449062 0.36191944848166191 0 -0.43731818269715339 0.36898797804018202 0 -0.44265618552374419 0.36116025670372259 0 -0.44379931899009001 0.37275614437304871 0 -0.44265618552374419 0.36116025670372259 0 -0.45029031788544371 0.36645504575150628 0 -0.44265618552374419 0.36116025670372259 0 -0.45029031788544371 0.36645504575150628 0 -0.45152020091724399 0.35679874803420908 0 -0.45516113638809502 0.37554365339565737 0 -0.44379931899009001 0.37275614437304871 0 -0.45029031788544371 0.36645504575150628 0 -0.4398349538841132 0.35280219620347197 0 -0.45455305507013283 0.34414873326753348 0 -0.43975988195290899 0.34094323140910299 0 -0.44265618552374419 0.36116025670372259 0 -0.4398349538841132 0.35280219620347197 0 -0.45152020091724399 0.35679874803420908 0 -0.43620106627449062 0.36191944848166191 0 -0.44265618552374419 0.36116025670372259 0 -0.4398349538841132 0.35280219620347197 0 -0.4398349538841132 0.35280219620347197 0 -0.45152020091724399 0.35679874803420908 0 -0.45455305507013283 0.34414873326753348 0 -0.45152020091724399 0.35679874803420908 0 -0.45455305507013283 0.34414873326753348 0 -0.47136751487766992 0.3559004803153713 0 -0.45455305507013283 0.34414873326753348 0 -0.47136751487766992 0.3559004803153713 0 -0.46827010060429758 0.34146334075454909 0 -0.45516113638809502 0.37554365339565737 0 -0.45966206836015971 0.36594139168439438 0 -0.47097298633584589 0.37246782307339332 0 -0.45152020091724399 0.35679874803420908 0 -0.45966206836015971 0.36594139168439438 0 -0.47136751487766992 0.3559004803153713 0 -0.45966206836015971 0.36594139168439438 0 -0.47097298633584589 0.37246782307339332 0 -0.47136751487766992 0.3559004803153713 0 -0.45516113638809502 0.37554365339565737 0 -0.45029031788544371 0.36645504575150628 0 -0.45966206836015971 0.36594139168439438 0 -0.45029031788544371 0.36645504575150628 0 -0.45152020091724399 0.35679874803420908 0 -0.45966206836015971 0.36594139168439438 0 -0.47097298633584589 0.37246782307339332 0 -0.47136751487766992 0.3559004803153713 0 -0.48497654676430202 0.36858712537786309 0 -0.47136751487766992 0.3559004803153713 0 -0.48247057578093139 0.33684730615825148 0 -0.46827010060429758 0.34146334075454909 0 -0.47136751487766992 0.3559004803153713 0 -0.5 0.35022716764598749 0 -0.48247057578093139 0.33684730615825148 0 -0.47136751487766992 0.3559004803153713 0 -0.5 0.35022716764598749 0 -0.48497654676430202 0.36858712537786309 0 -0.5 0.37847410459132502 0 -0.5 0.35022716764598749 0 -0.48497654676430202 0.36858712537786309 0 -0.5 0.32198023070065002 0 -0.48247057578093139 0.33684730615825148 0 -0.47936474650191702 0.31456155803709152 0 -0.5 0.35022716764598749 0 -0.5 0.32198023070065002 0 -0.48247057578093139 0.33684730615825148 0 -0.48247057578093139 0.33684730615825148 0 -0.46827010060429758 0.34146334075454909 0 -0.46327443309614369 0.32841806490852388 0 -0.48247057578093139 0.33684730615825148 0 -0.47936474650191702 0.31456155803709152 0 -0.46327443309614369 0.32841806490852388 0 -0.47936474650191702 0.31456155803709152 0 -0.46327608079231353 0.31352750182929501 0 -0.46327443309614369 0.32841806490852388 0 -0.46327443309614369 0.32841806490852388 0 -0.44873552068661737 0.33240310975860088 0 -0.44864605222647702 0.31351333773164852 0 -0.46327608079231353 0.31352750182929501 0 -0.46327443309614369 0.32841806490852388 0 -0.44864605222647702 0.31351333773164852 0 -0.45455305507013283 0.34414873326753348 0 -0.46327443309614369 0.32841806490852388 0 -0.44873552068661737 0.33240310975860088 0 -0.45455305507013283 0.34414873326753348 0 -0.46827010060429758 0.34146334075454909 0 -0.46327443309614369 0.32841806490852388 0 -0.45455305507013283 0.34414873326753348 0 -0.44873552068661737 0.33240310975860088 0 -0.43975988195290899 0.34094323140910299 0 -0.43573491087122762 0.32688718291909052 0 -0.44873552068661737 0.33240310975860088 0 -0.43975988195290899 0.34094323140910299 0 -0.43573491087122762 0.32688718291909052 0 -0.44873552068661737 0.33240310975860088 0 -0.44864605222647702 0.31351333773164852 0 -0.43573491087122762 0.32688718291909052 0 -0.44864605222647702 0.31351333773164852 0 -0.43808794526156081 0.31425745264435428 0 -0.44864605222647702 0.31351333773164852 0 -0.43808794526156081 0.31425745264435428 0 -0.44080567390058989 0.30452695217572601 0 -0.44864605222647702 0.31351333773164852 0 -0.44080567390058989 0.30452695217572601 0 -0.45151179612248588 0.29831341697665331 0 -0.45151179612248588 0.29831341697665331 0 -0.4378089777989419 0.28561367637981011 0 -0.45489093769062222 0.28632024649794913 0 -0.44080567390058989 0.30452695217572601 0 -0.45151179612248588 0.29831341697665331 0 -0.4378089777989419 0.28561367637981011 0 -0.45489093769062222 0.28632024649794913 0 -0.46503821843502058 0.29860857676631353 0 -0.47025313536858621 0.28020931326609821 0 -0.45151179612248588 0.29831341697665331 0 -0.45489093769062222 0.28632024649794913 0 -0.46503821843502058 0.29860857676631353 0 -0.46327608079231353 0.31352750182929501 0 -0.44864605222647702 0.31351333773164852 0 -0.45151179612248588 0.29831341697665331 0 -0.46327608079231353 0.31352750182929501 0 -0.45151179612248588 0.29831341697665331 0 -0.46503821843502058 0.29860857676631353 0 -0.47936474650191702 0.31456155803709152 0 -0.46327608079231353 0.31352750182929501 0 -0.46503821843502058 0.29860857676631353 0 -0.47936474650191702 0.31456155803709152 0 -0.46503821843502058 0.29860857676631353 0 -0.47978171178701229 0.29434232664216209 0 -0.47978171178701229 0.29434232664216209 0 -0.48527930460781921 0.2781593722909021 0 -0.47025313536858621 0.28020931326609821 0 -0.46503821843502058 0.29860857676631353 0 -0.47978171178701229 0.29434232664216209 0 -0.47025313536858621 0.28020931326609821 0 -0.47978171178701229 0.29434232664216209 0 -0.5 0.29373329375531271 0 -0.48527930460781921 0.2781593722909021 0 -0.5 0.32198023070065002 0 -0.47936474650191702 0.31456155803709152 0 -0.5 0.29373329375531271 0 -0.47936474650191702 0.31456155803709152 0 -0.47978171178701229 0.29434232664216209 0 -0.5 0.29373329375531271 0 -0.50000000000000044 0.2372394198646382 0 -0.5 0.26548635680997551 0 -0.47884287989701441 0.25368825908796711 0 -0.5 0.29373329375531271 0 -0.5 0.26548635680997551 0 -0.48527930460781921 0.2781593722909021 0 -0.5 0.26548635680997551 0 -0.48527930460781921 0.2781593722909021 0 -0.47884287989701441 0.25368825908796711 0 -0.48527930460781921 0.2781593722909021 0 -0.47025313536858621 0.28020931326609821 0 -0.47884287989701441 0.25368825908796711 0 -0.47025313536858621 0.28020931326609821 0 -0.47884287989701441 0.25368825908796711 0 -0.45768575979402831 0.27013709831129579 0 -0.47884287989701441 0.25368825908796711 0 -0.45925777500284348 0.25616748669090472 0 -0.45768575979402831 0.27013709831129579 0 -0.45983336765998739 0.24496354054567571 0 -0.47884287989701441 0.25368825908796711 0 -0.45925777500284348 0.25616748669090472 0 -0.47884287989701441 0.25368825908796711 0 -0.45768575979402831 0.27013709831129579 0 -0.45925777500284348 0.25616748669090472 0 -0.45768575979402831 0.27013709831129579 0 -0.44764435750440029 0.26029047561345597 0 -0.45983336765998739 0.24496354054567571 0 -0.45925777500284348 0.25616748669090472 0 -0.45228251015878729 0.25175805989612871 0 -0.45489093769062222 0.28632024649794913 0 -0.47025313536858621 0.28020931326609821 0 -0.45768575979402831 0.27013709831129579 0 -0.4378089777989419 0.28561367637981011 0 -0.45768575979402831 0.27013709831129579 0 -0.44764435750440029 0.26029047561345597 0 -0.4378089777989419 0.28561367637981011 0 -0.45489093769062222 0.28632024649794913 0 -0.45768575979402831 0.27013709831129579 0 -0.4378089777989419 0.28561367637981011 0 -0.44764435750440029 0.26029047561345597 0 -0.43407187523460827 0.26993511494778011 0 -0.4378089777989419 0.28561367637981011 0 -0.44764435750440029 0.26029047561345597 0 -0.44297909837068022 0.24897218353138759 0 -0.45228251015878729 0.25175805989612871 0 -0.44764435750440029 0.26029047561345597 0 -0.45925777500284348 0.25616748669090472 0 -0.45228251015878729 0.25175805989612871 0 -0.44764435750440029 0.26029047561345597 0 -0.44764435750440029 0.26029047561345597 0 -0.43649336971806341 0.25688366259484868 0 -0.43407187523460827 0.26993511494778011 0 -0.44297909837068022 0.24897218353138759 0 -0.44764435750440029 0.26029047561345597 0 -0.43649336971806341 0.25688366259484868 0 -0.43100641634947701 0.24167434083737749 0 -0.43649336971806341 0.25688366259484868 0 -0.42588888523881269 0.26146970489968108 0 -0.43100641634947701 0.24167434083737749 0 -0.42588888523881269 0.26146970489968108 0 -0.41990381710569591 0.25159028712561932 0 -0.43100641634947701 0.24167434083737749 0 -0.42588888523881269 0.26146970489968108 0 -0.43649336971806341 0.25688366259484868 0 -0.42588888523881269 0.26146970489968108 0 -0.43407187523460827 0.26993511494778011 0 -0.42588888523881269 0.26146970489968108 0 -0.41990381710569591 0.25159028712561932 0 -0.4126592317368088 0.25863218230596863 0 -0.41006073509768542 0.24458492045944921 0 -0.41990381710569591 0.25159028712561932 0 -0.4126592317368088 0.25863218230596863 0 -0.4126592317368088 0.25863218230596863 0 -0.40214819026000093 0.26240218607919452 0 -0.40480584153975258 0.27070836109974722 0 -0.4126592317368088 0.25863218230596863 0 -0.41415652737714409 0.27984630766512791 0 -0.40480584153975258 0.27070836109974722 0 -0.4126592317368088 0.25863218230596863 0 -0.41415652737714409 0.27984630766512791 0 -0.42588888523881269 0.26146970489968108 0 -0.4126592317368088 0.25863218230596863 0 -0.41415652737714409 0.27984630766512791 0 -0.42588888523881269 0.26146970489968108 0 -0.41415652737714409 0.27984630766512791 0 -0.42077135412814609 0.28126506896198411 0 -0.41415652737714409 0.27984630766512791 0 -0.40054515752516928 0.28304380033632598 0 -0.40480584153975258 0.27070836109974722 0 -0.42588888523881269 0.26146970489968108 0 -0.42077135412814609 0.28126506896198411 0 -0.42588888523881269 0.26146970489968108 0 -0.43407187523460827 0.26993511494778011 0 -0.42077135412814609 0.28126506896198411 0 -0.4378089777989419 0.28561367637981011 0 -0.43407187523460827 0.26993511494778011 0 -0.42077135412814609 0.28126506896198411 0 -0.4378089777989419 0.28561367637981011 0 -0.42555193825951282 0.29471901387806132 0 -0.42077135412814609 0.28126506896198411 0 -0.4378089777989419 0.28561367637981011 0 -0.42555193825951282 0.29471901387806132 0 -0.42797359809348362 0.31093687714616408 0 -0.44080567390058989 0.30452695217572601 0 -0.4378089777989419 0.28561367637981011 0 -0.42797359809348362 0.31093687714616408 0 -0.42555193825951282 0.29471901387806132 0 -0.42797359809348362 0.31093687714616408 0 -0.41565382301747938 0.30106043302428698 0 -0.4378089777989419 0.28561367637981011 0 -0.42797359809348362 0.31093687714616408 0 -0.43808794526156081 0.31425745264435428 0 -0.44080567390058989 0.30452695217572601 0 -0.42797359809348362 0.31093687714616408 0 -0.41021282969149597 0.32210699657597858 0 -0.41565382301747938 0.30106043302428698 0 -0.39645007197498561 0.30901776319555341 0 -0.41021282969149597 0.32210699657597858 0 -0.41565382301747938 0.30106043302428698 0 -0.41689602070275311 0.3186602554684026 0 -0.42797359809348362 0.31093687714616408 0 -0.41565382301747938 0.30106043302428698 0 -0.41689602070275311 0.3186602554684026 0 -0.41565382301747938 0.30106043302428698 0 -0.41565382301747938 0.30106043302428698 0 -0.42077135412814609 0.28126506896198411 0 -0.41415652737714409 0.27984630766512791 0 -0.41565382301747938 0.30106043302428698 0 -0.42077135412814609 0.28126506896198411 0 -0.41415652737714409 0.27984630766512791 0 -0.41565382301747938 0.30106043302428698 0 -0.40824015049685258 0.2900282837297265 0 -0.42555193825951282 0.29471901387806132 0 -0.41565382301747938 0.30106043302428698 0 -0.42077135412814609 0.28126506896198411 0 -0.41415652737714409 0.27984630766512791 0 -0.41565382301747938 0.30106043302428698 0 -0.41565382301747938 0.30106043302428698 0 -0.40824015049685258 0.2900282837297265 0 -0.40260509406761741 0.29616259389316513 0 -0.41415652737714409 0.27984630766512791 0 -0.40824015049685258 0.2900282837297265 0 -0.40054515752516928 0.28304380033632598 0 -0.40824015049685258 0.2900282837297265 0 -0.40054515752516928 0.28304380033632598 0 -0.40260509406761741 0.29616259389316513 0 -0.40054515752516928 0.28304380033632598 0 -0.40260509406761741 0.29616259389316513 0 -0.38722126892495312 0.29566695789377329 0 -0.41565382301747938 0.30106043302428698 0 -0.40260509406761741 0.29616259389316513 0 -0.39645007197498561 0.30901776319555341 0 -0.40260509406761741 0.29616259389316513 0 -0.39645007197498561 0.30901776319555341 0 -0.38722126892495312 0.29566695789377329 0 -0.39645007197498561 0.30901776319555341 0 -0.37888913402897179 0.30882046751300102 0 -0.38722126892495312 0.29566695789377329 0 -0.37888913402897179 0.30882046751300102 0 -0.38722126892495312 0.29566695789377329 0 -0.36731795597254913 0.2948988268655951 0 -0.38722126892495312 0.29566695789377329 0 -0.38350766283175891 0.27974301010140118 0 -0.36731795597254913 0.2948988268655951 0 -0.40054515752516928 0.28304380033632598 0 -0.38722126892495312 0.29566695789377329 0 -0.38350766283175891 0.27974301010140118 0 -0.38350766283175891 0.27974301010140118 0 -0.38215157852943832 0.26052960854459489 0 -0.37045715575636762 0.27229609101379082 0 -0.38350766283175891 0.27974301010140118 0 -0.38215157852943832 0.26052960854459489 0 -0.39445705337947939 0.26985205957136771 0 -0.38097370010591391 0.24384108033322641 0 -0.38215157852943832 0.26052960854459489 0 -0.39595401218745069 0.25308418163169571 0 -0.38215157852943832 0.26052960854459489 0 -0.39595401218745069 0.25308418163169571 0 -0.39445705337947939 0.26985205957136771 0 -0.39595401218745069 0.25308418163169571 0 -0.40214819026000093 0.26240218607919452 0 -0.39445705337947939 0.26985205957136771 0 -0.41006073509768542 0.24458492045944921 0 -0.4126592317368088 0.25863218230596863 0 -0.39595401218745069 0.25308418163169571 0 -0.4126592317368088 0.25863218230596863 0 -0.39595401218745069 0.25308418163169571 0 -0.40214819026000093 0.26240218607919452 0 -0.40214819026000093 0.26240218607919452 0 -0.40480584153975258 0.27070836109974722 0 -0.39445705337947939 0.26985205957136771 0 -0.40054515752516928 0.28304380033632598 0 -0.38350766283175891 0.27974301010140118 0 -0.39445705337947939 0.26985205957136771 0 -0.40054515752516928 0.28304380033632598 0 -0.40480584153975258 0.27070836109974722 0 -0.39445705337947939 0.26985205957136771 0 -0.35664097757162078 0.26597687880548521 0 -0.34957274239822811 0.28046876386523811 0 -0.34298410193414131 0.25765826796221142 0 -0.35664097757162078 0.26597687880548521 0 -0.34957274239822811 0.28046876386523811 0 -0.37045715575636762 0.27229609101379082 0 -0.35664097757162078 0.26597687880548521 0 -0.36184882001612789 0.25120191596523961 0 -0.34298410193414131 0.25765826796221142 0 -0.33816870206517008 0.2418705494875045 0 -0.36184882001612789 0.25120191596523961 0 -0.34298410193414131 0.25765826796221142 0 -0.38215157852943832 0.26052960854459489 0 -0.36184882001612789 0.25120191596523961 0 -0.37045715575636762 0.27229609101379082 0 -0.35664097757162078 0.26597687880548521 0 -0.36184882001612789 0.25120191596523961 0 -0.37045715575636762 0.27229609101379082 0 -0.38097370010591391 0.24384108033322641 0 -0.38215157852943832 0.26052960854459489 0 -0.36184882001612789 0.25120191596523961 0 -0.38350766283175891 0.27974301010140118 0 -0.37045715575636762 0.27229609101379082 0 -0.36731795597254913 0.2948988268655951 0 -0.34957274239822811 0.28046876386523811 0 -0.37045715575636762 0.27229609101379082 0 -0.36731795597254913 0.2948988268655951 0 -0.37888913402897179 0.30882046751300102 0 -0.36731795597254913 0.2948988268655951 0 -0.36648869518743882 0.319632757747211 0 -0.36731795597254913 0.2948988268655951 0 -0.34734712459840128 0.30787235655698142 0 -0.36648869518743882 0.319632757747211 0 -0.34957274239822811 0.28046876386523811 0 -0.36731795597254913 0.2948988268655951 0 -0.34734712459840128 0.30787235655698142 0 -0.32841148373493029 0.29178107530991132 0 -0.31490643000862889 0.2737982272616748 0 -0.30665365494612579 0.3053325213699854 0 -0.32841148373493029 0.29178107530991132 0 -0.30665365494612579 0.3053325213699854 0 -0.32424347818983662 0.32428338992552769 0 -0.34734712459840128 0.30787235655698142 0 -0.32841148373493029 0.29178107530991132 0 -0.32424347818983662 0.32428338992552769 0 -0.34957274239822811 0.28046876386523811 0 -0.34734712459840128 0.30787235655698142 0 -0.32841148373493029 0.29178107530991132 0 -0.32841148373493029 0.29178107530991132 0 -0.31490643000862889 0.2737982272616748 0 -0.32841148373493029 0.29178107530991132 0 -0.31490643000862889 0.2737982272616748 0 -0.33240494457099151 0.27113728792867298 0 -0.34957274239822811 0.28046876386523811 0 -0.33240494457099151 0.27113728792867298 0 -0.34298410193414131 0.25765826796221142 0 -0.34957274239822811 0.28046876386523811 0 -0.32841148373493029 0.29178107530991132 0 -0.33240494457099151 0.27113728792867298 0 -0.3207186543605689 0.24865522219363589 0 -0.33240494457099151 0.27113728792867298 0 -0.34298410193414131 0.25765826796221142 0 -0.3207186543605689 0.24865522219363589 0 -0.31490643000862889 0.2737982272616748 0 -0.33240494457099151 0.27113728792867298 0 -0.31490643000862889 0.2737982272616748 0 -0.30140137628232772 0.25581537921343828 0 -0.3207186543605689 0.24865522219363589 0 -0.31490643000862889 0.2737982272616748 0 -0.30140137628232772 0.25581537921343828 0 -0.31490643000862889 0.2737982272616748 0 -0.29826768631164657 0.27007613452148871 0 -0.28906383170241512 0.28638165281444322 0 -0.31490643000862889 0.2737982272616748 0 -0.30140137628232772 0.25581537921343828 0 -0.29826768631164657 0.27007613452148871 0 -0.29826768631164657 0.27007613452148871 0 -0.28769910725321468 0.26430927879639832 0 -0.28906383170241512 0.28638165281444322 0 -0.28769910725321468 0.26430927879639832 0 -0.27147400845870401 0.26743078425890138 0 -0.28906383170241512 0.28638165281444322 0 -0.2819927719755364 0.24847261411558719 0 -0.30140137628232772 0.25581537921343828 0 -0.28769910725321468 0.26430927879639832 0 -0.30140137628232772 0.25581537921343828 0 -0.29826768631164657 0.27007613452148871 0 -0.28769910725321468 0.26430927879639832 0 -0.2819927719755364 0.24847261411558719 0 -0.28769910725321468 0.26430927879639832 0 -0.27147400845870401 0.26743078425890138 0 -0.2819927719755364 0.24847261411558719 0 -0.26673284176786372 0.26232276097105561 0 -0.27147400845870401 0.26743078425890138 0 -0.2819927719755364 0.24847261411558719 0 -0.27147400845870401 0.26743078425890138 0 -0.2819927719755364 0.24847261411558719 0 -0.26673284176786372 0.26232276097105561 0 -0.26305761738569661 0.24901977672961981 0 -0.27087126593366828 0.2513959023754001 0 -0.26673284176786372 0.26232276097105561 0 -0.2819927719755364 0.24847261411558719 0 -0.27087126593366828 0.2513959023754001 0 -0.26673284176786372 0.26232276097105561 0 -0.26673284176786372 0.26232276097105561 0 -0.27147400845870401 0.26743078425890138 0 -0.27147400845870401 0.26743078425890138 0 -0.27384995914705029 0.28772299094850651 0 -0.28906383170241512 0.28638165281444322 0 -0.27147400845870401 0.26743078425890138 0 -0.28906383170241512 0.28638165281444322 0 -0.27147400845870401 0.26743078425890138 0 -0.2577691295514532 0.29213135155480158 0 -0.24641767816760121 0.28076111523790659 0 -0.26673284176786372 0.26232276097105561 0 -0.27147400845870401 0.26743078425890138 0 -0.24641767816760121 0.28076111523790659 0 -0.27147400845870401 0.26743078425890138 0 -0.2577691295514532 0.29213135155480158 0 -0.26673284176786372 0.26232276097105561 0 -0.24641767816760121 0.28076111523790659 0 -0.26673284176786372 0.26232276097105561 0 -0.25432553353194348 0.26385770201985209 0 -0.24641767816760121 0.28076111523790659 0 -0.25432553353194348 0.26385770201985209 0 -0.25189002896290491 0.25449239892481551 0 -0.24739154241544459 0.26250245805921452 0 -0.26673284176786372 0.26232276097105561 0 -0.24910725770640421 0.24333336453792839 0 -0.26305761738569661 0.24901977672961981 0 -0.26673284176786372 0.26232276097105561 0 -0.24910725770640421 0.24333336453792839 0 -0.26673284176786372 0.26232276097105561 0 -0.25189002896290491 0.25449239892481551 0 -0.24910725770640421 0.24333336453792839 0 -0.26673284176786372 0.26232276097105561 0 -0.25432553353194348 0.26385770201985209 0 -0.25189002896290491 0.25449239892481551 0 -0.26025347529761189 0.30833635846033691 0 -0.2474845913036233 0.31861885933040518 0 -0.2476054777775257 0.29980943081764161 0 -0.26025347529761189 0.30833635846033691 0 -0.2577691295514532 0.29213135155480158 0 -0.2476054777775257 0.29980943081764161 0 -0.26025347529761189 0.30833635846033691 0 -0.2577691295514532 0.29213135155480158 0 -0.2770928668756294 0.3049481751658798 0 -0.2577691295514532 0.29213135155480158 0 -0.2476054777775257 0.29980943081764161 0 -0.24641767816760121 0.28076111523790659 0 -0.27384995914705029 0.28772299094850651 0 -0.2770928668756294 0.3049481751658798 0 -0.28906383170241512 0.28638165281444322 0 -0.27147400845870401 0.26743078425890138 0 -0.2577691295514532 0.29213135155480158 0 -0.27384995914705029 0.28772299094850651 0 -0.2577691295514532 0.29213135155480158 0 -0.27384995914705029 0.28772299094850651 0 -0.2770928668756294 0.3049481751658798 0 -0.2770928668756294 0.3049481751658798 0 -0.30665365494612579 0.3053325213699854 0 -0.29573619118454608 0.32704356339758789 0 -0.31490643000862889 0.2737982272616748 0 -0.28906383170241512 0.28638165281444322 0 -0.30665365494612579 0.3053325213699854 0 -0.2770928668756294 0.3049481751658798 0 -0.28906383170241512 0.28638165281444322 0 -0.30665365494612579 0.3053325213699854 0 -0.28906383170241512 0.28638165281444322 0 -0.30665365494612579 0.3053325213699854 0 -0.30665365494612579 0.3053325213699854 0 -0.29573619118454608 0.32704356339758789 0 -0.32424347818983662 0.32428338992552769 0 -0.31137527589909297 0.34130405556528448 0 -0.29573619118454608 0.32704356339758789 0 -0.32424347818983662 0.32428338992552769 0 -0.31137527589909297 0.34130405556528448 0 -0.29573619118454608 0.32704356339758789 0 -0.29390108869993609 0.3492127352265384 0 -0.29573619118454608 0.32704356339758789 0 -0.27514800456924271 0.34480206363462912 0 -0.29390108869993609 0.3492127352265384 0 -0.26025347529761189 0.30833635846033691 0 -0.2770928668756294 0.3049481751658798 0 -0.27067316357892951 0.32517853376558797 0 -0.2770928668756294 0.3049481751658798 0 -0.29573619118454608 0.32704356339758789 0 -0.27067316357892951 0.32517853376558797 0 -0.27067316357892951 0.32517853376558797 0 -0.25411148794662869 0.34053150761902601 0 -0.27514800456924271 0.34480206363462912 0 -0.29573619118454608 0.32704356339758789 0 -0.27067316357892951 0.32517853376558797 0 -0.27514800456924271 0.34480206363462912 0 -0.26025347529761189 0.30833635846033691 0 -0.27067316357892951 0.32517853376558797 0 -0.2474845913036233 0.31861885933040518 0 -0.27067316357892951 0.32517853376558797 0 -0.25411148794662869 0.34053150761902601 0 -0.2474845913036233 0.31861885933040518 0 -0.25603590710798729 0.37305638900933402 0 -0.26687867341608801 0.35948450620500177 0 -0.24766031851708539 0.35885006558086252 0 -0.25411148794662869 0.34053150761902601 0 -0.26687867341608801 0.35948450620500177 0 -0.24766031851708539 0.35885006558086252 0 -0.25411148794662869 0.34053150761902601 0 -0.27514800456924271 0.34480206363462912 0 -0.26687867341608801 0.35948450620500177 0 -0.27514800456924271 0.34480206363462912 0 -0.26687867341608801 0.35948450620500177 0 -0.28363872999075079 0.36179349279583811 0 -0.26687867341608801 0.35948450620500177 0 -0.28363872999075079 0.36179349279583811 0 -0.27619646508053303 0.37812041123877238 0 -0.25603590710798729 0.37305638900933402 0 -0.26687867341608801 0.35948450620500177 0 -0.27619646508053303 0.37812041123877238 0 -0.28363872999075079 0.36179349279583811 0 -0.30750285598447252 0.37357749987930849 0 -0.27619646508053303 0.37812041123877238 0 -0.31137527589909297 0.34130405556528448 0 -0.29390108869993609 0.3492127352265384 0 -0.30750285598447252 0.37357749987930849 0 -0.28363872999075079 0.36179349279583811 0 -0.29390108869993609 0.3492127352265384 0 -0.30750285598447252 0.37357749987930849 0 -0.27514800456924271 0.34480206363462912 0 -0.28363872999075079 0.36179349279583811 0 -0.29390108869993609 0.3492127352265384 0 -0.30750285598447252 0.37357749987930849 0 -0.3278264572968515 0.35191620365504728 0 -0.30750285598447252 0.37357749987930849 0 -0.3278264572968515 0.35191620365504728 0 -0.32494574219010353 0.38476642951700452 0 -0.34287435709736841 0.37357678416617901 0 -0.3278264572968515 0.35191620365504728 0 -0.32494574219010353 0.38476642951700452 0 -0.31137527589909297 0.34130405556528448 0 -0.30750285598447252 0.37357749987930849 0 -0.3278264572968515 0.35191620365504728 0 -0.31137527589909297 0.34130405556528448 0 -0.3278264572968515 0.35191620365504728 0 -0.32424347818983662 0.32428338992552769 0 -0.30665365494612579 0.3053325213699854 0 -0.32424347818983662 0.32428338992552769 0 -0.34734712459840128 0.30787235655698142 0 -0.32424347818983662 0.32428338992552769 0 -0.34858101156742421 0.33575809805576051 0 -0.3278264572968515 0.35191620365504728 0 -0.32424347818983662 0.32428338992552769 0 -0.34858101156742421 0.33575809805576051 0 -0.34734712459840128 0.30787235655698142 0 -0.36648869518743882 0.319632757747211 0 -0.34734712459840128 0.30787235655698142 0 -0.34858101156742421 0.33575809805576051 0 -0.36648869518743882 0.319632757747211 0 -0.34858101156742421 0.33575809805576051 0 -0.36648869518743882 0.319632757747211 0 -0.36831654614497472 0.33922749996314738 0 -0.38563026577647619 0.3313931589374407 0 -0.36648869518743882 0.319632757747211 0 -0.36831654614497472 0.33922749996314738 0 -0.34858101156742421 0.33575809805576051 0 -0.36831654614497472 0.33922749996314738 0 -0.36133159075318749 0.35786573637866592 0 -0.34287435709736841 0.37357678416617901 0 -0.3278264572968515 0.35191620365504728 0 -0.36133159075318749 0.35786573637866592 0 -0.38248166547526619 0.35205518551514609 0 -0.36831654614497472 0.33922749996314738 0 -0.36133159075318749 0.35786573637866592 0 -0.3278264572968515 0.35191620365504728 0 -0.34858101156742421 0.33575809805576051 0 -0.36133159075318749 0.35786573637866592 0 -0.37735541314810322 0.37355832329676608 0 -0.36133159075318749 0.35786573637866592 0 -0.35958967878116049 0.37797977590378112 0 -0.37735541314810322 0.37355832329676608 0 -0.38248166547526619 0.35205518551514609 0 -0.36133159075318749 0.35786573637866592 0 -0.34287435709736841 0.37357678416617901 0 -0.36133159075318749 0.35786573637866592 0 -0.35958967878116049 0.37797977590378112 0 -0.344656989413055 0.39834980363564859 0 -0.3705907680975018 0.39216637407158789 0 -0.36075531476205741 0.40892232906522741 0 -0.344656989413055 0.39834980363564859 0 -0.3705907680975018 0.39216637407158789 0 -0.34287435709736841 0.37357678416617901 0 -0.344656989413055 0.39834980363564859 0 -0.35958967878116049 0.37797977590378112 0 -0.344656989413055 0.39834980363564859 0 -0.35958967878116049 0.37797977590378112 0 -0.3705907680975018 0.39216637407158789 0 -0.37735541314810322 0.37355832329676608 0 -0.35958967878116049 0.37797977590378112 0 -0.3705907680975018 0.39216637407158789 0 -0.38528675392918182 0.41852472881625852 0 -0.3705907680975018 0.39216637407158789 0 -0.36075531476205741 0.40892232906522741 0 -0.38528675392918182 0.41852472881625852 0 -0.36075531476205741 0.40892232906522741 0 -0.36396462051856848 0.426382225859054 0 -0.36396462051856848 0.426382225859054 0 -0.34208099476743509 0.42349446288123138 0 -0.35787936464341402 0.44678608589355318 0 -0.344656989413055 0.39834980363564859 0 -0.36075531476205741 0.40892232906522741 0 -0.34208099476743509 0.42349446288123138 0 -0.36075531476205741 0.40892232906522741 0 -0.36396462051856848 0.426382225859054 0 -0.34208099476743509 0.42349446288123138 0 -0.34208099476743509 0.42349446288123138 0 -0.32490495155579618 0.43104093205947408 0 -0.3187232107286081 0.40453323319970919 0 -0.344656989413055 0.39834980363564859 0 -0.34208099476743509 0.42349446288123138 0 -0.3187232107286081 0.40453323319970919 0 -0.34208099476743509 0.42349446288123138 0 -0.32490495155579618 0.43104093205947408 0 -0.33766624559627711 0.44585438502440111 0 -0.32490495155579618 0.43104093205947408 0 -0.30861843000121492 0.4275684324193989 0 -0.32025633733125858 0.44917601012113001 0 -0.32490495155579618 0.43104093205947408 0 -0.3187232107286081 0.40453323319970919 0 -0.30861843000121492 0.4275684324193989 0 -0.3187232107286081 0.40453323319970919 0 -0.32494574219010353 0.38476642951700452 0 -0.30622809912388771 0.39376652429267239 0 -0.344656989413055 0.39834980363564859 0 -0.3187232107286081 0.40453323319970919 0 -0.344656989413055 0.39834980363564859 0 -0.3187232107286081 0.40453323319970919 0 -0.32494574219010353 0.38476642951700452 0 -0.34287435709736841 0.37357678416617901 0 -0.344656989413055 0.39834980363564859 0 -0.32494574219010353 0.38476642951700452 0 -0.30750285598447252 0.37357749987930849 0 -0.32494574219010353 0.38476642951700452 0 -0.30622809912388771 0.39376652429267239 0 -0.30750285598447252 0.37357749987930849 0 -0.28717925467209338 0.39523879610356971 0 -0.27619646508053303 0.37812041123877238 0 -0.30750285598447252 0.37357749987930849 0 -0.28717925467209338 0.39523879610356971 0 -0.30750285598447252 0.37357749987930849 0 -0.30622809912388771 0.39376652429267239 0 -0.28717925467209338 0.39523879610356971 0 -0.3187232107286081 0.40453323319970919 0 -0.30622809912388771 0.39376652429267239 0 -0.29278943204416119 0.41071666276376989 0 -0.30622809912388771 0.39376652429267239 0 -0.28717925467209338 0.39523879610356971 0 -0.29278943204416119 0.41071666276376989 0 -0.27619646508053303 0.37812041123877238 0 -0.27237725663709722 0.39370545346873698 0 -0.25945176674183212 0.38958852722716247 0 -0.28717925467209338 0.39523879610356971 0 -0.27619646508053303 0.37812041123877238 0 -0.27237725663709722 0.39370545346873698 0 -0.28717925467209338 0.39523879610356971 0 -0.2668556533597144 0.41690009232783071 0 -0.28717925467209338 0.39523879610356971 0 -0.27237725663709722 0.39370545346873698 0 -0.26682886638103409 0.40702136218459167 0 -0.27237725663709722 0.39370545346873698 0 -0.26238475457985239 0.39980741464863301 0 -0.26682886638103409 0.40702136218459167 0 -0.27237725663709722 0.39370545346873698 0 -0.26238475457985239 0.39980741464863301 0 -0.25945176674183212 0.38958852722716247 0 -0.26238475457985239 0.39980741464863301 0 -0.25544095751842583 0.3990828612310845 0 -0.25945176674183212 0.38958852722716247 0 -0.26238475457985239 0.39980741464863301 0 -0.25811305719074251 0.4075177426720682 0 -0.26682886638103409 0.40702136218459167 0 -0.26238475457985239 0.39980741464863301 0 -0.25544095751842583 0.3990828612310845 0 -0.25811305719074251 0.4075177426720682 0 -0.25544095751842583 0.3990828612310845 0 -0.24728759806371159 0.39461320975121428 0 -0.24996761101599069 0.40388741185634452 0 -0.25544095751842583 0.3990828612310845 0 -0.25811305719074251 0.4075177426720682 0 -0.24996761101599069 0.40388741185634452 0 -0.25544095751842583 0.3990828612310845 0 -0.25945176674183212 0.38958852722716247 0 -0.24728759806371159 0.39461320975121428 0 -0.25945176674183212 0.38958852722716247 0 -0.24736677536366869 0.38332155873877438 0 -0.24728759806371159 0.39461320975121428 0 -0.25603590710798729 0.37305638900933402 0 -0.25945176674183212 0.38958852722716247 0 -0.24736677536366869 0.38332155873877438 0 -0.25603590710798729 0.37305638900933402 0 -0.27619646508053303 0.37812041123877238 0 -0.25945176674183212 0.38958852722716247 0 -0.25162714099927308 0.43313094198012242 0 -0.26516771327521332 0.41730255040183001 0 -0.2668556533597144 0.41690009232783071 0 -0.25162714099927308 0.43313094198012242 0 -0.2668556533597144 0.41690009232783071 0 -0.25162714099927308 0.43313094198012242 0 -0.2668556533597144 0.41690009232783071 0 -0.26903950997900872 0.43420854679031179 0 -0.25162714099927308 0.43313094198012242 0 -0.25552926770382778 0.42125497322787692 0 -0.26516771327521332 0.41730255040183001 0 -0.25162714099927308 0.43313094198012242 0 -0.25552926770382778 0.42125497322787692 0 -0.24736710289600669 0.4223094275503243 0 -0.25552926770382778 0.42125497322787692 0 -0.25015397653610649 0.41360124968575279 0 -0.24736710289600669 0.4223094275503243 0 -0.25769237476815943 0.41443611510736889 0 -0.25552926770382778 0.42125497322787692 0 -0.25015397653610649 0.41360124968575279 0 -0.25769237476815943 0.41443611510736889 0 -0.25015397653610649 0.41360124968575279 0 -0.25811305719074251 0.4075177426720682 0 -0.25015397653610649 0.41360124968575279 0 -0.25811305719074251 0.4075177426720682 0 -0.24996761101599069 0.40388741185634452 0 -0.25811305719074251 0.4075177426720682 0 -0.26201877747646413 0.411671337890537 0 -0.26682886638103409 0.40702136218459167 0 -0.25769237476815943 0.41443611510736889 0 -0.26201877747646413 0.411671337890537 0 -0.26101613453252848 0.41591838526476088 0 -0.25769237476815943 0.41443611510736889 0 -0.25811305719074251 0.4075177426720682 0 -0.26201877747646413 0.411671337890537 0 -0.26201877747646413 0.411671337890537 0 -0.26465809341301522 0.41389186087957258 0 -0.26682886638103409 0.40702136218459167 0 -0.26201877747646413 0.411671337890537 0 -0.26465809341301522 0.41389186087957258 0 -0.26101613453252848 0.41591838526476088 0 -0.25552926770382778 0.42125497322787692 0 -0.26101613453252848 0.41591838526476088 0 -0.26516771327521332 0.41730255040183001 0 -0.25769237476815943 0.41443611510736889 0 -0.25552926770382778 0.42125497322787692 0 -0.26101613453252848 0.41591838526476088 0 -0.26465809341301522 0.41389186087957258 0 -0.26101613453252848 0.41591838526476088 0 -0.26516771327521332 0.41730255040183001 0 -0.26465809341301522 0.41389186087957258 0 -0.26516771327521332 0.41730255040183001 0 -0.2668556533597144 0.41690009232783071 0 -0.28717925467209338 0.39523879610356971 0 -0.2668556533597144 0.41690009232783071 0 -0.26682886638103409 0.40702136218459167 0 -0.2668556533597144 0.41690009232783071 0 -0.28216729923377049 0.42298468612274021 0 -0.29278943204416119 0.41071666276376989 0 -0.2668556533597144 0.41690009232783071 0 -0.29278943204416119 0.41071666276376989 0 -0.26516771327521332 0.41730255040183001 0 -0.2668556533597144 0.41690009232783071 0 -0.26465809341301522 0.41389186087957258 0 -0.2668556533597144 0.41690009232783071 0 -0.26682886638103409 0.40702136218459167 0 -0.2668556533597144 0.41690009232783071 0 -0.27416026217943412 0.42647048038595647 0 -0.28216729923377049 0.42298468612274021 0 -0.2668556533597144 0.41690009232783071 0 -0.26903950997900872 0.43420854679031179 0 -0.27416026217943412 0.42647048038595647 0 -0.27416026217943412 0.42647048038595647 0 -0.28531052824988551 0.43746733211922018 0 -0.28216729923377049 0.42298468612274021 0 -0.26903950997900872 0.43420854679031179 0 -0.27416026217943412 0.42647048038595647 0 -0.28531052824988551 0.43746733211922018 0 -0.28531052824988551 0.43746733211922018 0 -0.29396979543201113 0.42849206708430132 0 -0.30117665700608132 0.44183583249311181 0 -0.28531052824988551 0.43746733211922018 0 -0.28216729923377049 0.42298468612274021 0 -0.29396979543201113 0.42849206708430132 0 -0.28216729923377049 0.42298468612274021 0 -0.29396979543201113 0.42849206708430132 0 -0.29278943204416119 0.41071666276376989 0 -0.28717925467209338 0.39523879610356971 0 -0.2668556533597144 0.41690009232783071 0 -0.29278943204416119 0.41071666276376989 0 -0.3187232107286081 0.40453323319970919 0 -0.29278943204416119 0.41071666276376989 0 -0.30861843000121492 0.4275684324193989 0 -0.3187232107286081 0.40453323319970919 0 -0.29278943204416119 0.41071666276376989 0 -0.29396979543201113 0.42849206708430132 0 -0.29278943204416119 0.41071666276376989 0 -0.30861843000121492 0.4275684324193989 0 -0.29396979543201113 0.42849206708430132 0 -0.30861843000121492 0.4275684324193989 0 -0.30117665700608132 0.44183583249311181 0 -0.30117665700608132 0.44183583249311181 0 -0.29875236701631458 0.45741585110583449 0 -0.32025633733125858 0.44917601012113001 0 -0.30861843000121492 0.4275684324193989 0 -0.30117665700608132 0.44183583249311181 0 -0.32025633733125858 0.44917601012113001 0 -0.29875236701631458 0.45741585110583449 0 -0.28147893504566751 0.46774744049975719 0 -0.27402677104993262 0.44858413500633382 0 -0.28531052824988551 0.43746733211922018 0 -0.29875236701631458 0.45741585110583449 0 -0.27402677104993262 0.44858413500633382 0 -0.28531052824988551 0.43746733211922018 0 -0.30117665700608132 0.44183583249311181 0 -0.29875236701631458 0.45741585110583449 0 -0.26903950997900872 0.43420854679031179 0 -0.28531052824988551 0.43746733211922018 0 -0.27402677104993262 0.44858413500633382 0 -0.26903950997900872 0.43420854679031179 0 -0.27402677104993262 0.44858413500633382 0 -0.25983221871567602 0.45406546637528622 0 -0.28147893504566751 0.46774744049975719 0 -0.25983221871567602 0.45406546637528622 0 -0.26538539509673231 0.47714445785281961 0 -0.28147893504566751 0.46774744049975719 0 -0.27402677104993262 0.44858413500633382 0 -0.25983221871567602 0.45406546637528622 0 -0.28147893504566751 0.46774744049975719 0 -0.25983221871567602 0.45406546637528622 0 -0.25983221871567602 0.45406546637528622 0 -0.26538539509673231 0.47714445785281961 0 -0.24973180031732389 0.46352068888914938 0 -0.25162714099927308 0.43313094198012242 0 -0.26903950997900872 0.43420854679031179 0 -0.25983221871567602 0.45406546637528622 0 -0.26538539509673231 0.47714445785281961 0 -0.27634494053915287 0.49221742461179752 0 -0.24974264262107879 0.4872741300196356 0 -0.26218357898232331 0.49437500411430541 0 -0.27634494053915287 0.49221742461179752 0 -0.24974264262107879 0.4872741300196356 0 -0.27634494053915287 0.49221742461179752 0 -0.24974264262107879 0.4872741300196356 0 -0.26218357898232331 0.49437500411430541 0 -0.27776238467880549 0.5 0 -0.24900940987232539 0.5 0 -0.26218357898232331 0.49437500411430541 0 -0.24974264262107879 0.4872741300196356 0 -0.24900940987232539 0.5 0 -0.26538539509673231 0.47714445785281961 0 -0.25225366216692757 0.47603039887722431 0 -0.24973180031732389 0.46352068888914938 0 -0.26538539509673231 0.47714445785281961 0 -0.25225366216692757 0.47603039887722431 0 -0.24974264262107879 0.4872741300196356 0 -0.26538539509673231 0.47714445785281961 0 -0.27634494053915287 0.49221742461179752 0 -0.28321994737953848 0.48190464693468987 0 -0.28147893504566751 0.46774744049975719 0 -0.26538539509673231 0.47714445785281961 0 -0.28321994737953848 0.48190464693468987 0 -0.26218357898232331 0.49437500411430541 0 -0.27634494053915287 0.49221742461179752 0 -0.27776238467880549 0.5 0 -0.289764814840481 0.49098449708484698 0 -0.28321994737953848 0.48190464693468987 0 -0.30312565137565878 0.48142941462422839 0 -0.27776238467880549 0.5 0 -0.289764814840481 0.49098449708484698 0 -0.30651535948528569 0.5 0 -0.27634494053915287 0.49221742461179752 0 -0.27776238467880549 0.5 0 -0.289764814840481 0.49098449708484698 0 -0.27634494053915287 0.49221742461179752 0 -0.289764814840481 0.49098449708484698 0 -0.28321994737953848 0.48190464693468987 0 -0.29875236701631458 0.45741585110583449 0 -0.28147893504566751 0.46774744049975719 0 -0.30312565137565878 0.48142941462422839 0 -0.28147893504566751 0.46774744049975719 0 -0.30312565137565878 0.48142941462422839 0 -0.28147893504566751 0.46774744049975719 0 -0.28321994737953848 0.48190464693468987 0 -0.30312565137565878 0.48142941462422839 0 -0.29875236701631458 0.45741585110583449 0 -0.30312565137565878 0.48142941462422839 0 -0.32610505843077592 0.47378340337379482 0 -0.289764814840481 0.49098449708484698 0 -0.30312565137565878 0.48142941462422839 0 -0.30651535948528569 0.5 0 -0.30312565137565878 0.48142941462422839 0 -0.30651535948528569 0.5 0 -0.31867016172473639 0.48818671525875318 0 -0.30651535948528569 0.5 0 -0.31867016172473639 0.48818671525875318 0 -0.33526833429176589 0.5 0 -0.31867016172473639 0.48818671525875318 0 -0.33526833429176589 0.5 0 -0.32610505843077592 0.47378340337379482 0 -0.33526833429176589 0.5 0 -0.32610505843077592 0.47378340337379482 0 -0.35058502927755819 0.48471158174014828 0 -0.32610505843077592 0.47378340337379482 0 -0.34512903209738383 0.46546589871991267 0 -0.35058502927755819 0.48471158174014828 0 -0.30312565137565878 0.48142941462422839 0 -0.31867016172473639 0.48818671525875318 0 -0.32610505843077592 0.47378340337379482 0 -0.29875236701631458 0.45741585110583449 0 -0.32610505843077592 0.47378340337379482 0 -0.32025633733125858 0.44917601012113001 0 -0.32610505843077592 0.47378340337379482 0 -0.32025633733125858 0.44917601012113001 0 -0.33325450001756379 0.45932240607520702 0 -0.32490495155579618 0.43104093205947408 0 -0.32025633733125858 0.44917601012113001 0 -0.33766624559627711 0.44585438502440111 0 -0.32025633733125858 0.44917601012113001 0 -0.33766624559627711 0.44585438502440111 0 -0.33325450001756379 0.45932240607520702 0 -0.33766624559627711 0.44585438502440111 0 -0.33325450001756379 0.45932240607520702 0 -0.34512903209738383 0.46546589871991267 0 -0.32610505843077592 0.47378340337379482 0 -0.33325450001756379 0.45932240607520702 0 -0.34512903209738383 0.46546589871991267 0 -0.34512903209738383 0.46546589871991267 0 -0.35787936464341402 0.44678608589355318 0 -0.35893455593530849 0.46962015128503332 0 -0.33766624559627711 0.44585438502440111 0 -0.34512903209738383 0.46546589871991267 0 -0.35787936464341402 0.44678608589355318 0 -0.34208099476743509 0.42349446288123138 0 -0.33766624559627711 0.44585438502440111 0 -0.35787936464341402 0.44678608589355318 0 -0.37879172645040482 0.44364845171245471 0 -0.36396462051856848 0.426382225859054 0 -0.35787936464341402 0.44678608589355318 0 -0.37879172645040482 0.44364845171245471 0 -0.35787936464341402 0.44678608589355318 0 -0.37229669897162648 0.4687721746086505 0 -0.35787936464341402 0.44678608589355318 0 -0.37229669897162648 0.4687721746086505 0 -0.35893455593530849 0.46962015128503332 0 -0.35787936464341402 0.44678608589355318 0 -0.37229669897162648 0.4687721746086505 0 -0.37229669897162648 0.4687721746086505 0 -0.36878265468656041 0.48236501546290123 0 -0.36878265468656041 0.48236501546290123 0 -0.35058502927755819 0.48471158174014828 0 -0.35893455593530849 0.46962015128503332 0 -0.37229669897162648 0.4687721746086505 0 -0.36878265468656041 0.48236501546290123 0 -0.35893455593530849 0.46962015128503332 0 -0.38253549143817611 0.48438608730432547 0 -0.37229669897162648 0.4687721746086505 0 -0.36878265468656041 0.48236501546290123 0 -0.36878265468656041 0.48236501546290123 0 -0.36402130909824609 0.5 0 -0.35058502927755819 0.48471158174014828 0 -0.38253549143817611 0.48438608730432547 0 -0.36878265468656041 0.48236501546290123 0 -0.36402130909824609 0.5 0 -0.33526833429176589 0.5 0 -0.36402130909824609 0.5 0 -0.35058502927755819 0.48471158174014828 0 -0.34512903209738383 0.46546589871991267 0 -0.35058502927755819 0.48471158174014828 0 -0.35893455593530849 0.46962015128503332 0 -0.14807688072685751 0.47947349251630139 0 -0.1449031746491653 0.47114953353165789 0 -0.13298722322834031 0.47728340512472189 0 -0.14807688072685751 0.47947349251630139 0 -0.1449031746491653 0.47114953353165789 0 -0.15270516116541211 0.46684956727063598 0 -0.14807688072685751 0.47947349251630139 0 -0.13297312164065109 0.499999999999997 0 -0.1627504854528852 0.49999999999999961 0 -0.14807688072685751 0.47947349251630139 0 -0.13297312164065109 0.499999999999997 0 -0.1276316110634213 0.48932083876329607 0 -0.14807688072685751 0.47947349251630139 0 -0.1276316110634213 0.48932083876329607 0 -0.13297312164065109 0.499999999999997 0 -0.1276316110634213 0.48932083876329607 0 -0.1276316110634213 0.48932083876329607 0 -0.13298722322834031 0.47728340512472189 0 -0.1199335769996305 0.47393033344009028 0 -0.14807688072685751 0.47947349251630139 0 -0.1276316110634213 0.48932083876329607 0 -0.13298722322834031 0.47728340512472189 0 -0.1449031746491653 0.47114953353165789 0 -0.13298722322834031 0.47728340512472189 0 -0.13513601027615291 0.46842494278327468 0 -0.13298722322834031 0.47728340512472189 0 -0.13513601027615291 0.46842494278327468 0 -0.1199335769996305 0.47393033344009028 0 -0.1271705947214293 0.45485077653965988 0 -0.13513601027615291 0.46842494278327468 0 -0.15292405211001839 0.46405277265753447 0 -0.1271705947214293 0.45485077653965988 0 -0.15292405211001839 0.46405277265753447 0 -0.1271705947214293 0.45485077653965988 0 -0.13513601027615291 0.46842494278327468 0 -0.1199335769996305 0.47393033344009028 0 -0.1271705947214293 0.45485077653965988 0 -0.1387583029552025 0.43670156837406171 0 -0.1203882308634798 0.43633692869159008 0 -0.1271705947214293 0.45485077653965988 0 -0.15416612135790611 0.44818271193928838 0 -0.1387583029552025 0.43670156837406171 0 -0.15416612135790611 0.44818271193928838 0 -0.15567339304536021 0.42892412934459351 0 -0.1387583029552025 0.43670156837406171 0 -0.15416612135790611 0.44818271193928838 0 -0.15567339304536021 0.42892412934459351 0 -0.1271705947214293 0.45485077653965988 0 -0.15416612135790611 0.44818271193928838 0 -0.1271705947214293 0.45485077653965988 0 -0.15416612135790611 0.44818271193928838 0 -0.15292405211001839 0.46405277265753447 0 -0.15416612135790611 0.44818271193928838 0 -0.15292405211001839 0.46405277265753447 0 -0.1449031746491653 0.47114953353165789 0 -0.13513601027615291 0.46842494278327468 0 -0.15292405211001839 0.46405277265753447 0 -0.1449031746491653 0.47114953353165789 0 -0.15292405211001839 0.46405277265753447 0 -0.15270516116541211 0.46684956727063598 0 -0.15292405211001839 0.46405277265753447 0 -0.15270516116541211 0.46684956727063598 0 -0.15416612135790611 0.44818271193928838 0 -0.15292405211001839 0.46405277265753447 0 -0.17078632046734629 0.45663165130832062 0 -0.15292405211001839 0.46405277265753447 0 -0.16852215039029239 0.46962614626930421 0 -0.15292405211001839 0.46405277265753447 0 -0.17078632046734629 0.45663165130832062 0 -0.16852215039029239 0.46962614626930421 0 -0.15292405211001839 0.46405277265753447 0 -0.15270516116541211 0.46684956727063598 0 -0.16852215039029239 0.46962614626930421 0 -0.15416612135790611 0.44818271193928838 0 -0.17078632046734629 0.45663165130832062 0 -0.17914767152504801 0.44201211217380781 0 -0.15416612135790611 0.44818271193928838 0 -0.17914767152504801 0.44201211217380781 0 -0.15416612135790611 0.44818271193928838 0 -0.17914767152504801 0.44201211217380781 0 -0.16728667621743029 0.43291446567770703 0 -0.17078632046734629 0.45663165130832062 0 -0.17914767152504801 0.44201211217380781 0 -0.18750313500962471 0.45322271881058451 0 -0.17914767152504801 0.44201211217380781 0 -0.18750313500962471 0.45322271881058451 0 -0.19381626646914471 0.43178512195899288 0 -0.17078632046734629 0.45663165130832062 0 -0.1807613848145202 0.46373118957968201 0 -0.18750313500962471 0.45322271881058451 0 -0.1807613848145202 0.46373118957968201 0 -0.16852215039029239 0.46962614626930421 0 -0.17078632046734629 0.45663165130832062 0 -0.1807613848145202 0.46373118957968201 0 -0.16852215039029239 0.46962614626930421 0 -0.1807613848145202 0.46373118957968201 0 -0.18750313500962471 0.45322271881058451 0 -0.1888244645561897 0.46726779201889462 0 -0.185064519553402 0.47553691834633532 0 -0.17683457512210879 0.48056765551261732 0 -0.16852215039029239 0.46962614626930421 0 -0.1807613848145202 0.46373118957968201 0 -0.185064519553402 0.47553691834633532 0 -0.1888244645561897 0.46726779201889462 0 -0.1807613848145202 0.46373118957968201 0 -0.185064519553402 0.47553691834633532 0 -0.16852215039029239 0.46962614626930421 0 -0.185064519553402 0.47553691834633532 0 -0.16852215039029239 0.46962614626930421 0 -0.185064519553402 0.47553691834633532 0 -0.17683457512210879 0.48056765551261732 0 -0.19004123358867511 0.47731515349905218 0 -0.17683457512210879 0.48056765551261732 0 -0.18484172694490761 0.48510232966131261 0 -0.19004123358867511 0.47731515349905218 0 -0.17683457512210879 0.48056765551261732 0 -0.1669425702058801 0.48360312835117208 0 -0.17484995925240801 0.48867667840018542 0 -0.14807688072685751 0.47947349251630139 0 -0.16852215039029239 0.46962614626930421 0 -0.14807688072685751 0.47947349251630139 0 -0.15270516116541211 0.46684956727063598 0 -0.16852215039029239 0.46962614626930421 0 -0.14807688072685751 0.47947349251630139 0 -0.16852215039029239 0.46962614626930421 0 -0.1669425702058801 0.48360312835117208 0 -0.17683457512210879 0.48056765551261732 0 -0.16852215039029239 0.46962614626930421 0 -0.1669425702058801 0.48360312835117208 0 -0.1669425702058801 0.48360312835117208 0 -0.1627504854528852 0.49999999999999961 0 -0.17484995925240801 0.48867667840018542 0 -0.14807688072685751 0.47947349251630139 0 -0.1669425702058801 0.48360312835117208 0 -0.1627504854528852 0.49999999999999961 0 -0.1627504854528852 0.49999999999999961 0 -0.18288043853625829 0.49411027847582478 0 -0.1627504854528852 0.49999999999999961 0 -0.17484995925240801 0.48867667840018542 0 -0.18288043853625829 0.49411027847582478 0 -0.1627504854528852 0.49999999999999961 0 -0.18288043853625829 0.49411027847582478 0 -0.19150346025936529 0.5 0 -0.17683457512210879 0.48056765551261732 0 -0.17484995925240801 0.48867667840018542 0 -0.18484172694490761 0.48510232966131261 0 -0.18484172694490761 0.48510232966131261 0 -0.18288043853625829 0.49411027847582478 0 -0.1913315810410455 0.48600827469168728 0 -0.17484995925240801 0.48867667840018542 0 -0.18484172694490761 0.48510232966131261 0 -0.18288043853625829 0.49411027847582478 0 -0.18288043853625829 0.49411027847582478 0 -0.20301039161963161 0.48822055695165051 0 -0.18288043853625829 0.49411027847582478 0 -0.1913315810410455 0.48600827469168728 0 -0.20301039161963161 0.48822055695165051 0 -0.18288043853625829 0.49411027847582478 0 -0.19150346025936529 0.5 0 -0.20301039161963161 0.48822055695165051 0 -0.185064519553402 0.47553691834633532 0 -0.20414957770848621 0.47880193141797339 0 -0.185064519553402 0.47553691834633532 0 -0.1958945293915231 0.47097100025090177 0 -0.20414957770848621 0.47880193141797339 0 -0.185064519553402 0.47553691834633532 0 -0.19004123358867511 0.47731515349905218 0 -0.20414957770848621 0.47880193141797339 0 -0.19004123358867511 0.47731515349905218 0 -0.2117529692095293 0.48566261023440122 0 -0.20301039161963161 0.48822055695165051 0 -0.19004123358867511 0.47731515349905218 0 -0.2117529692095293 0.48566261023440122 0 -0.19004123358867511 0.47731515349905218 0 -0.20414957770848621 0.47880193141797339 0 -0.2117529692095293 0.48566261023440122 0 -0.185064519553402 0.47553691834633532 0 -0.1958945293915231 0.47097100025090177 0 -0.1888244645561897 0.46726779201889462 0 -0.185064519553402 0.47553691834633532 0 -0.19004123358867511 0.47731515349905218 0 -0.1913315810410455 0.48600827469168728 0 -0.20301039161963161 0.48822055695165051 0 -0.19004123358867511 0.47731515349905218 0 -0.18484172694490761 0.48510232966131261 0 -0.1913315810410455 0.48600827469168728 0 -0.19004123358867511 0.47731515349905218 0 -0.1958945293915231 0.47097100025090177 0 -0.2040031131447777 0.46920934458907798 0 -0.20414957770848621 0.47880193141797339 0 -0.20414957770848621 0.47880193141797339 0 -0.22314034470300451 0.48233083542747479 0 -0.20414957770848621 0.47880193141797339 0 -0.2144100740489786 0.47003149160489721 0 -0.22314034470300451 0.48233083542747479 0 -0.20414957770848621 0.47880193141797339 0 -0.2117529692095293 0.48566261023440122 0 -0.22314034470300451 0.48233083542747479 0 -0.2040031131447777 0.46920934458907798 0 -0.20414957770848621 0.47880193141797339 0 -0.2144100740489786 0.47003149160489721 0 -0.2117529692095293 0.48566261023440122 0 -0.22314034470300451 0.48233083542747479 0 -0.20301039161963161 0.48822055695165051 0 -0.2117529692095293 0.48566261023440122 0 -0.2202564350658455 0.5 0 -0.2117529692095293 0.48566261023440122 0 -0.2202564350658455 0.5 0 -0.22314034470300451 0.48233083542747479 0 -0.19150346025936529 0.5 0 -0.20301039161963161 0.48822055695165051 0 -0.2202564350658455 0.5 0 -0.20301039161963161 0.48822055695165051 0 -0.2117529692095293 0.48566261023440122 0 -0.2202564350658455 0.5 0 -0.22314034470300451 0.48233083542747479 0 -0.2355372080655635 0.4924012413617776 0 -0.22314034470300451 0.48233083542747479 0 -0.24415481063257569 0.47618231874729311 0 -0.22314034470300451 0.48233083542747479 0 -0.22899168016783969 0.47016270923010511 0 -0.24415481063257569 0.47618231874729311 0 -0.2144100740489786 0.47003149160489721 0 -0.22314034470300451 0.48233083542747479 0 -0.22899168016783969 0.47016270923010511 0 -0.22314034470300451 0.48233083542747479 0 -0.24415481063257569 0.47618231874729311 0 -0.24974264262107879 0.4872741300196356 0 -0.22899168016783969 0.47016270923010511 0 -0.24415481063257569 0.47618231874729311 0 -0.23988025581223121 0.46722588797679793 0 -0.24415481063257569 0.47618231874729311 0 -0.24973180031732389 0.46352068888914938 0 -0.23988025581223121 0.46722588797679793 0 -0.25225366216692757 0.47603039887722431 0 -0.24415481063257569 0.47618231874729311 0 -0.24973180031732389 0.46352068888914938 0 -0.25225366216692757 0.47603039887722431 0 -0.24415481063257569 0.47618231874729311 0 -0.24974264262107879 0.4872741300196356 0 -0.22314034470300451 0.48233083542747479 0 -0.24974264262107879 0.4872741300196356 0 -0.22314034470300451 0.48233083542747479 0 -0.24974264262107879 0.4872741300196356 0 -0.2355372080655635 0.4924012413617776 0 -0.2202564350658455 0.5 0 -0.24900940987232539 0.5 0 -0.2355372080655635 0.4924012413617776 0 -0.24974264262107879 0.4872741300196356 0 -0.24900940987232539 0.5 0 -0.2355372080655635 0.4924012413617776 0 -0.25983221871567602 0.45406546637528622 0 -0.2381855023856847 0.44038349225081519 0 -0.25162714099927308 0.43313094198012242 0 -0.25983221871567602 0.45406546637528622 0 -0.2381855023856847 0.44038349225081519 0 -0.25983221871567602 0.45406546637528622 0 -0.2381855023856847 0.44038349225081519 0 -0.24973180031732389 0.46352068888914938 0 -0.2381855023856847 0.44038349225081519 0 -0.24973180031732389 0.46352068888914938 0 -0.23664273213118581 0.45903783504064399 0 -0.22899168016783969 0.47016270923010511 0 -0.23988025581223121 0.46722588797679793 0 -0.23664273213118581 0.45903783504064399 0 -0.24973180031732389 0.46352068888914938 0 -0.23988025581223121 0.46722588797679793 0 -0.23664273213118581 0.45903783504064399 0 -0.22899168016783969 0.47016270923010511 0 -0.23664273213118581 0.45903783504064399 0 -0.22788094279175 0.45344564289647982 0 -0.22899168016783969 0.47016270923010511 0 -0.22788094279175 0.45344564289647982 0 -0.21805477149307831 0.45683502676601417 0 -0.2144100740489786 0.47003149160489721 0 -0.22899168016783969 0.47016270923010511 0 -0.21805477149307831 0.45683502676601417 0 -0.2381855023856847 0.44038349225081519 0 -0.23664273213118581 0.45903783504064399 0 -0.22788094279175 0.45344564289647982 0 -0.22788094279175 0.45344564289647982 0 -0.22414550221029539 0.44374574346049078 0 -0.21805477149307831 0.45683502676601417 0 -0.2381855023856847 0.44038349225081519 0 -0.22788094279175 0.45344564289647982 0 -0.22414550221029539 0.44374574346049078 0 -0.2381855023856847 0.44038349225081519 0 -0.22414550221029539 0.44374574346049078 0 -0.22829381963932999 0.43315874053998449 0 -0.22414550221029539 0.44374574346049078 0 -0.213625154132904 0.44681211164378321 0 -0.2175273822316153 0.43359730136944008 0 -0.213625154132904 0.44681211164378321 0 -0.20530116546611649 0.43594882638892779 0 -0.2175273822316153 0.43359730136944008 0 -0.22414550221029539 0.44374574346049078 0 -0.213625154132904 0.44681211164378321 0 -0.21805477149307831 0.45683502676601417 0 -0.213625154132904 0.44681211164378321 0 -0.20821364344324311 0.45912655978809069 0 -0.20185206700552599 0.44756847830468288 0 -0.213625154132904 0.44681211164378321 0 -0.20185206700552599 0.44756847830468288 0 -0.20530116546611649 0.43594882638892779 0 -0.2144100740489786 0.47003149160489721 0 -0.21805477149307831 0.45683502676601417 0 -0.20821364344324311 0.45912655978809069 0 -0.213625154132904 0.44681211164378321 0 -0.21805477149307831 0.45683502676601417 0 -0.20821364344324311 0.45912655978809069 0 -0.2040031131447777 0.46920934458907798 0 -0.20821364344324311 0.45912655978809069 0 -0.19733377022959861 0.46356268632971059 0 -0.2040031131447777 0.46920934458907798 0 -0.2144100740489786 0.47003149160489721 0 -0.20821364344324311 0.45912655978809069 0 -0.19733377022959861 0.46356268632971059 0 -0.18750313500962471 0.45322271881058451 0 -0.20185206700552599 0.44756847830468288 0 -0.20821364344324311 0.45912655978809069 0 -0.19733377022959861 0.46356268632971059 0 -0.20185206700552599 0.44756847830468288 0 -0.1958945293915231 0.47097100025090177 0 -0.2040031131447777 0.46920934458907798 0 -0.19733377022959861 0.46356268632971059 0 -0.1958945293915231 0.47097100025090177 0 -0.19733377022959861 0.46356268632971059 0 -0.1888244645561897 0.46726779201889462 0 -0.19733377022959861 0.46356268632971059 0 -0.18750313500962471 0.45322271881058451 0 -0.1888244645561897 0.46726779201889462 0 -0.18750313500962471 0.45322271881058451 0 -0.20185206700552599 0.44756847830468288 0 -0.19381626646914471 0.43178512195899288 0 -0.20185206700552599 0.44756847830468288 0 -0.19381626646914471 0.43178512195899288 0 -0.20530116546611649 0.43594882638892779 0 -0.19381626646914471 0.43178512195899288 0 -0.19726033340213539 0.41283384163233872 0 -0.2084851022910918 0.42426364808126121 0 -0.19381626646914471 0.43178512195899288 0 -0.19726033340213539 0.41283384163233872 0 -0.17953344721115591 0.42233992952084481 0 -0.19381626646914471 0.43178512195899288 0 -0.20530116546611649 0.43594882638892779 0 -0.2084851022910918 0.42426364808126121 0 -0.19726033340213539 0.41283384163233872 0 -0.2151098326628002 0.40946325634109132 0 -0.2084851022910918 0.42426364808126121 0 -0.19726033340213539 0.41283384163233872 0 -0.2151098326628002 0.40946325634109132 0 -0.2051206920519669 0.40137257985042268 0 -0.2151098326628002 0.40946325634109132 0 -0.2084851022910918 0.42426364808126121 0 -0.22290482443213569 0.42244465655520791 0 -0.20530116546611649 0.43594882638892779 0 -0.2084851022910918 0.42426364808126121 0 -0.2175273822316153 0.43359730136944008 0 -0.2084851022910918 0.42426364808126121 0 -0.2175273822316153 0.43359730136944008 0 -0.22290482443213569 0.42244465655520791 0 -0.2175273822316153 0.43359730136944008 0 -0.22829381963932999 0.43315874053998449 0 -0.22290482443213569 0.42244465655520791 0 -0.22414550221029539 0.44374574346049078 0 -0.2175273822316153 0.43359730136944008 0 -0.22829381963932999 0.43315874053998449 0 -0.22829381963932999 0.43315874053998449 0 -0.22290482443213569 0.42244465655520791 0 -0.23731366459728331 0.42598014284537578 0 -0.2151098326628002 0.40946325634109132 0 -0.22290482443213569 0.42244465655520791 0 -0.22986549373675241 0.41331747390699192 0 -0.2151098326628002 0.40946325634109132 0 -0.22986549373675241 0.41331747390699192 0 -0.22577084424675131 0.40113668062901991 0 -0.22986549373675241 0.41331747390699192 0 -0.2390989833788395 0.40685193226120769 0 -0.22577084424675131 0.40113668062901991 0 -0.22290482443213569 0.42244465655520791 0 -0.22986549373675241 0.41331747390699192 0 -0.23731366459728331 0.42598014284537578 0 -0.24146376637850719 0.41647703918263768 0 -0.24736710289600669 0.4223094275503243 0 -0.23731366459728331 0.42598014284537578 0 -0.22986549373675241 0.41331747390699192 0 -0.24146376637850719 0.41647703918263768 0 -0.23731366459728331 0.42598014284537578 0 -0.22986549373675241 0.41331747390699192 0 -0.24146376637850719 0.41647703918263768 0 -0.2390989833788395 0.40685193226120769 0 -0.25015397653610649 0.41360124968575279 0 -0.24146376637850719 0.41647703918263768 0 -0.2390989833788395 0.40685193226120769 0 -0.25015397653610649 0.41360124968575279 0 -0.2390989833788395 0.40685193226120769 0 -0.24996761101599069 0.40388741185634452 0 -0.25015397653610649 0.41360124968575279 0 -0.24146376637850719 0.41647703918263768 0 -0.24736710289600669 0.4223094275503243 0 -0.25162714099927308 0.43313094198012242 0 -0.24736710289600669 0.4223094275503243 0 -0.23731366459728331 0.42598014284537578 0 -0.25162714099927308 0.43313094198012242 0 -0.2381855023856847 0.44038349225081519 0 -0.23731366459728331 0.42598014284537578 0 -0.2381855023856847 0.44038349225081519 0 -0.22829381963932999 0.43315874053998449 0 -0.23731366459728331 0.42598014284537578 0 -0.2352837567006657 0.38939990339278657 0 -0.24736677536366869 0.38332155873877438 0 -0.24023151385980299 0.37366827368057831 0 -0.25603590710798729 0.37305638900933402 0 -0.24736677536366869 0.38332155873877438 0 -0.24023151385980299 0.37366827368057831 0 -0.2352837567006657 0.38939990339278657 0 -0.24736677536366869 0.38332155873877438 0 -0.24728759806371159 0.39461320975121428 0 -0.2390989833788395 0.40685193226120769 0 -0.2352837567006657 0.38939990339278657 0 -0.24728759806371159 0.39461320975121428 0 -0.2390989833788395 0.40685193226120769 0 -0.24728759806371159 0.39461320975121428 0 -0.24996761101599069 0.40388741185634452 0 -0.2390989833788395 0.40685193226120769 0 -0.2352837567006657 0.38939990339278657 0 -0.22577084424675131 0.40113668062901991 0 -0.2352837567006657 0.38939990339278657 0 -0.22577084424675131 0.40113668062901991 0 -0.22126551632750011 0.38931942786076817 0 -0.22577084424675131 0.40113668062901991 0 -0.22126551632750011 0.38931942786076817 0 -0.2149115378542826 0.39841288740056191 0 -0.2352837567006657 0.38939990339278657 0 -0.22722229138628661 0.37601898593369398 0 -0.24023151385980299 0.37366827368057831 0 -0.2352837567006657 0.38939990339278657 0 -0.22126551632750011 0.38931942786076817 0 -0.22722229138628661 0.37601898593369398 0 -0.22126551632750011 0.38931942786076817 0 -0.22722229138628661 0.37601898593369398 0 -0.21294061143102069 0.37752938087720322 0 -0.22126551632750011 0.38931942786076817 0 -0.21294061143102069 0.37752938087720322 0 -0.20570032944347491 0.38989169809616059 0 -0.21294061143102069 0.37752938087720322 0 -0.20570032944347491 0.38989169809616059 0 -0.19958728981380711 0.37773036496356061 0 -0.2151098326628002 0.40946325634109132 0 -0.22577084424675131 0.40113668062901991 0 -0.2149115378542826 0.39841288740056191 0 -0.2151098326628002 0.40946325634109132 0 -0.2149115378542826 0.39841288740056191 0 -0.2051206920519669 0.40137257985042268 0 -0.22126551632750011 0.38931942786076817 0 -0.20570032944347491 0.38989169809616059 0 -0.2149115378542826 0.39841288740056191 0 -0.20570032944347491 0.38989169809616059 0 -0.2149115378542826 0.39841288740056191 0 -0.2051206920519669 0.40137257985042268 0 -0.19417661485771179 0.39976102513947448 0 -0.18768350879825721 0.38801929709545568 0 -0.18240018693966481 0.40588328750748459 0 -0.20570032944347491 0.38989169809616059 0 -0.19417661485771179 0.39976102513947448 0 -0.18768350879825721 0.38801929709545568 0 -0.19726033340213539 0.41283384163233872 0 -0.2051206920519669 0.40137257985042268 0 -0.19417661485771179 0.39976102513947448 0 -0.20570032944347491 0.38989169809616059 0 -0.2051206920519669 0.40137257985042268 0 -0.19417661485771179 0.39976102513947448 0 -0.19726033340213539 0.41283384163233872 0 -0.19417661485771179 0.39976102513947448 0 -0.18240018693966481 0.40588328750748459 0 -0.19958728981380711 0.37773036496356061 0 -0.18768350879825721 0.38801929709545568 0 -0.18417900128138401 0.36852583523541682 0 -0.20570032944347491 0.38989169809616059 0 -0.19958728981380711 0.37773036496356061 0 -0.18768350879825721 0.38801929709545568 0 -0.18768350879825721 0.38801929709545568 0 -0.17300353561448839 0.3807401998027613 0 -0.18417900128138401 0.36852583523541682 0 -0.18768350879825721 0.38801929709545568 0 -0.17300353561448839 0.3807401998027613 0 -0.17359673725256289 0.39422873006977988 0 -0.15891303182435049 0.38753089445435102 0 -0.16064539891588761 0.36539624215880318 0 -0.17300353561448839 0.3807401998027613 0 -0.15891303182435049 0.38753089445435102 0 -0.16064539891588761 0.36539624215880318 0 -0.17300353561448839 0.3807401998027613 0 -0.15891303182435049 0.38753089445435102 0 -0.17359673725256289 0.39422873006977988 0 -0.15891303182435049 0.38753089445435102 0 -0.15718066473281209 0.40966554674989852 0 -0.15891303182435049 0.38753089445435102 0 -0.17359673725256289 0.39422873006977988 0 -0.16585643081078649 0.40819486622669332 0 -0.15891303182435049 0.38753089445435102 0 -0.16585643081078649 0.40819486622669332 0 -0.15718066473281209 0.40966554674989852 0 -0.18768350879825721 0.38801929709545568 0 -0.17359673725256289 0.39422873006977988 0 -0.18240018693966481 0.40588328750748459 0 -0.17359673725256289 0.39422873006977988 0 -0.18240018693966481 0.40588328750748459 0 -0.16585643081078649 0.40819486622669332 0 -0.18240018693966481 0.40588328750748459 0 -0.17497057039015201 0.41306706500518992 0 -0.17953344721115591 0.42233992952084481 0 -0.18240018693966481 0.40588328750748459 0 -0.17497057039015201 0.41306706500518992 0 -0.16585643081078649 0.40819486622669332 0 -0.19726033340213539 0.41283384163233872 0 -0.18240018693966481 0.40588328750748459 0 -0.17953344721115591 0.42233992952084481 0 -0.17497057039015201 0.41306706500518992 0 -0.17953344721115591 0.42233992952084481 0 -0.1668396240586982 0.41948657311229642 0 -0.17914767152504801 0.44201211217380781 0 -0.17953344721115591 0.42233992952084481 0 -0.16728667621743029 0.43291446567770703 0 -0.17914767152504801 0.44201211217380781 0 -0.19381626646914471 0.43178512195899288 0 -0.17953344721115591 0.42233992952084481 0 -0.15416612135790611 0.44818271193928838 0 -0.16728667621743029 0.43291446567770703 0 -0.15567339304536021 0.42892412934459351 0 -0.17953344721115591 0.42233992952084481 0 -0.16728667621743029 0.43291446567770703 0 -0.1668396240586982 0.41948657311229642 0 -0.16728667621743029 0.43291446567770703 0 -0.1668396240586982 0.41948657311229642 0 -0.15567339304536021 0.42892412934459351 0 -0.1668396240586982 0.41948657311229642 0 -0.15718066473281209 0.40966554674989852 0 -0.15567339304536021 0.42892412934459351 0 -0.15718066473281209 0.40966554674989852 0 -0.15567339304536021 0.42892412934459351 0 -0.17497057039015201 0.41306706500518992 0 -0.16585643081078649 0.40819486622669332 0 -0.1668396240586982 0.41948657311229642 0 -0.16585643081078649 0.40819486622669332 0 -0.1668396240586982 0.41948657311229642 0 -0.15718066473281209 0.40966554674989852 0 -0.16585643081078649 0.40819486622669332 0 -0.15718066473281209 0.40966554674989852 0 -0.15718066473281209 0.40966554674989852 0 -0.1329627898010563 0.41377086225233162 0 -0.1448966717939866 0.39792441111683519 0 -0.15718066473281209 0.40966554674989852 0 -0.15567339304536021 0.42892412934459351 0 -0.1329627898010563 0.41377086225233162 0 -0.15718066473281209 0.40966554674989852 0 -0.1329627898010563 0.41377086225233162 0 -0.15567339304536021 0.42892412934459351 0 -0.1387583029552025 0.43670156837406171 0 -0.1329627898010563 0.41377086225233162 0 -0.1387583029552025 0.43670156837406171 0 -0.1329627898010563 0.41377086225233162 0 -0.1203882308634798 0.43633692869159008 0 -0.1329627898010563 0.41377086225233162 0 -0.13094926167676699 0.39478334172728408 0 -0.1448966717939866 0.39792441111683519 0 -0.1329627898010563 0.41377086225233162 0 -0.13094926167676699 0.39478334172728408 0 -0.1193851387197131 0.39849800689121151 0 -0.13094926167676699 0.39478334172728408 0 -0.1408357907688387 0.38540513936188131 0 -0.1448966717939866 0.39792441111683519 0 -0.12602955525595369 0.37680376999551191 0 -0.1408357907688387 0.38540513936188131 0 -0.1433904332931358 0.3699832795154242 0 -0.13094926167676699 0.39478334172728408 0 -0.12602955525595369 0.37680376999551191 0 -0.1408357907688387 0.38540513936188131 0 -0.15891303182435049 0.38753089445435102 0 -0.1408357907688387 0.38540513936188131 0 -0.1433904332931358 0.3699832795154242 0 -0.15891303182435049 0.38753089445435102 0 -0.1408357907688387 0.38540513936188131 0 -0.1448966717939866 0.39792441111683519 0 -0.15891303182435049 0.38753089445435102 0 -0.15718066473281209 0.40966554674989852 0 -0.1448966717939866 0.39792441111683519 0 -0.14604381628922719 0.35245234702349482 0 -0.1433904332931358 0.3699832795154242 0 -0.16064539891588761 0.36539624215880318 0 -0.15891303182435049 0.38753089445435102 0 -0.1433904332931358 0.3699832795154242 0 -0.16064539891588761 0.36539624215880318 0 -0.14604381628922719 0.35245234702349482 0 -0.1433904332931358 0.3699832795154242 0 -0.1278801081378303 0.35799638876066958 0 -0.12602955525595369 0.37680376999551191 0 -0.1433904332931358 0.3699832795154242 0 -0.1278801081378303 0.35799638876066958 0 -0.1278801081378303 0.35799638876066958 0 -0.1332764167575646 0.34008422556405582 0 -0.1191358251029557 0.34509040958496617 0 -0.14604381628922719 0.35245234702349482 0 -0.1278801081378303 0.35799638876066958 0 -0.1332764167575646 0.34008422556405582 0 -0.1332764167575646 0.34008422556405582 0 -0.13414491179038621 0.3221688422441279 0 -0.149097402247829 0.33199455609819362 0 -0.1332764167575646 0.34008422556405582 0 -0.13414491179038621 0.3221688422441279 0 -0.1209462960797151 0.33049831654010609 0 -0.13414491179038621 0.3221688422441279 0 -0.14903711053068841 0.3129659749123318 0 -0.1312441600897393 0.30442200943926179 0 -0.13414491179038621 0.3221688422441279 0 -0.1312441600897393 0.30442200943926179 0 -0.12039393490326571 0.31543344305833698 0 -0.13414491179038621 0.3221688422441279 0 -0.12039393490326571 0.31543344305833698 0 -0.1209462960797151 0.33049831654010609 0 -0.14903711053068841 0.3129659749123318 0 -0.149097402247829 0.33199455609819362 0 -0.16970439211168289 0.32103435698189631 0 -0.13414491179038621 0.3221688422441279 0 -0.14903711053068841 0.3129659749123318 0 -0.149097402247829 0.33199455609819362 0 -0.14604381628922719 0.35245234702349482 0 -0.149097402247829 0.33199455609819362 0 -0.16237776600742471 0.3432615898632555 0 -0.14604381628922719 0.35245234702349482 0 -0.1332764167575646 0.34008422556405582 0 -0.149097402247829 0.33199455609819362 0 -0.149097402247829 0.33199455609819362 0 -0.16237776600742471 0.3432615898632555 0 -0.16970439211168289 0.32103435698189631 0 -0.16970439211168289 0.32103435698189631 0 -0.1840332998067031 0.33767801969545108 0 -0.1935325581598441 0.32115059057925233 0 -0.16970439211168289 0.32103435698189631 0 -0.1935325581598441 0.32115059057925233 0 -0.1862025567418 0.29943612281466803 0 -0.16237776600742471 0.3432615898632555 0 -0.16970439211168289 0.32103435698189631 0 -0.1840332998067031 0.33767801969545108 0 -0.16237776600742471 0.3432615898632555 0 -0.1840332998067031 0.33767801969545108 0 -0.17650089764242879 0.35241468022081718 0 -0.17650089764242879 0.35241468022081718 0 -0.18417900128138401 0.36852583523541682 0 -0.19628913354291369 0.35211581094441408 0 -0.1840332998067031 0.33767801969545108 0 -0.17650089764242879 0.35241468022081718 0 -0.19628913354291369 0.35211581094441408 0 -0.16237776600742471 0.3432615898632555 0 -0.17650089764242879 0.35241468022081718 0 -0.16064539891588761 0.36539624215880318 0 -0.16237776600742471 0.3432615898632555 0 -0.16064539891588761 0.36539624215880318 0 -0.14604381628922719 0.35245234702349482 0 -0.16237776600742471 0.3432615898632555 0 -0.16064539891588761 0.36539624215880318 0 -0.17650089764242879 0.35241468022081718 0 -0.16064539891588761 0.36539624215880318 0 -0.18417900128138401 0.36852583523541682 0 -0.17300353561448839 0.3807401998027613 0 -0.16064539891588761 0.36539624215880318 0 -0.18417900128138401 0.36852583523541682 0 -0.18417900128138401 0.36852583523541682 0 -0.19628913354291369 0.35211581094441408 0 -0.20484751868458539 0.36497065947662771 0 -0.19958728981380711 0.37773036496356061 0 -0.18417900128138401 0.36852583523541682 0 -0.20484751868458539 0.36497065947662771 0 -0.19628913354291369 0.35211581094441408 0 -0.21700779554990349 0.347434176127279 0 -0.20082311092677091 0.33644836961762348 0 -0.19628913354291369 0.35211581094441408 0 -0.21700779554990349 0.347434176127279 0 -0.20484751868458539 0.36497065947662771 0 -0.21700779554990349 0.347434176127279 0 -0.20484751868458539 0.36497065947662771 0 -0.21908128048848341 0.36648838871189238 0 -0.21294061143102069 0.37752938087720322 0 -0.19958728981380711 0.37773036496356061 0 -0.20484751868458539 0.36497065947662771 0 -0.21294061143102069 0.37752938087720322 0 -0.20484751868458539 0.36497065947662771 0 -0.21908128048848341 0.36648838871189238 0 -0.22722229138628661 0.37601898593369398 0 -0.21294061143102069 0.37752938087720322 0 -0.21908128048848341 0.36648838871189238 0 -0.22722229138628661 0.37601898593369398 0 -0.2311049069376685 0.35999782571952299 0 -0.24023151385980299 0.37366827368057831 0 -0.22722229138628661 0.37601898593369398 0 -0.2311049069376685 0.35999782571952299 0 -0.21908128048848341 0.36648838871189238 0 -0.21700779554990349 0.347434176127279 0 -0.2311049069376685 0.35999782571952299 0 -0.23782904778635369 0.34729541058485669 0 -0.21700779554990349 0.347434176127279 0 -0.2311049069376685 0.35999782571952299 0 -0.21908128048848341 0.36648838871189238 0 -0.25411148794662869 0.34053150761902601 0 -0.24766031851708539 0.35885006558086252 0 -0.23782904778635369 0.34729541058485669 0 -0.2311049069376685 0.35999782571952299 0 -0.24766031851708539 0.35885006558086252 0 -0.23782904778635369 0.34729541058485669 0 -0.25603590710798729 0.37305638900933402 0 -0.24766031851708539 0.35885006558086252 0 -0.24023151385980299 0.37366827368057831 0 -0.2311049069376685 0.35999782571952299 0 -0.24766031851708539 0.35885006558086252 0 -0.24023151385980299 0.37366827368057831 0 -0.2474845913036233 0.31861885933040518 0 -0.23258854463823039 0.32928636820757923 0 -0.22610251456733871 0.29919946950475762 0 -0.25411148794662869 0.34053150761902601 0 -0.23782904778635369 0.34729541058485669 0 -0.23258854463823039 0.32928636820757923 0 -0.25411148794662869 0.34053150761902601 0 -0.2474845913036233 0.31861885933040518 0 -0.23258854463823039 0.32928636820757923 0 -0.21700779554990349 0.347434176127279 0 -0.23258854463823039 0.32928636820757923 0 -0.2129958306755344 0.32263878607915042 0 -0.21700779554990349 0.347434176127279 0 -0.23782904778635369 0.34729541058485669 0 -0.23258854463823039 0.32928636820757923 0 -0.23258854463823039 0.32928636820757923 0 -0.2129958306755344 0.32263878607915042 0 -0.22610251456733871 0.29919946950475762 0 -0.2129958306755344 0.32263878607915042 0 -0.1935325581598441 0.32115059057925233 0 -0.20488749033937509 0.30089524562449321 0 -0.21700779554990349 0.347434176127279 0 -0.2129958306755344 0.32263878607915042 0 -0.20082311092677091 0.33644836961762348 0 -0.1840332998067031 0.33767801969545108 0 -0.19628913354291369 0.35211581094441408 0 -0.20082311092677091 0.33644836961762348 0 -0.1840332998067031 0.33767801969545108 0 -0.20082311092677091 0.33644836961762348 0 -0.1935325581598441 0.32115059057925233 0 -0.2129958306755344 0.32263878607915042 0 -0.20082311092677091 0.33644836961762348 0 -0.1935325581598441 0.32115059057925233 0 -0.1935325581598441 0.32115059057925233 0 -0.20488749033937509 0.30089524562449321 0 -0.1862025567418 0.29943612281466803 0 -0.20488749033937509 0.30089524562449321 0 -0.19669891299047751 0.28014248750320359 0 -0.1862025567418 0.29943612281466803 0 -0.213792568901256 0.28280401726592741 0 -0.20488749033937509 0.30089524562449321 0 -0.19669891299047751 0.28014248750320359 0 -0.213792568901256 0.28280401726592741 0 -0.20488749033937509 0.30089524562449321 0 -0.22610251456733871 0.29919946950475762 0 -0.2129958306755344 0.32263878607915042 0 -0.20488749033937509 0.30089524562449321 0 -0.22610251456733871 0.29919946950475762 0 -0.22610251456733871 0.29919946950475762 0 -0.24641767816760121 0.28076111523790659 0 -0.22958460858223939 0.27254113672421421 0 -0.213792568901256 0.28280401726592741 0 -0.22610251456733871 0.29919946950475762 0 -0.22958460858223939 0.27254113672421421 0 -0.22610251456733871 0.29919946950475762 0 -0.24641767816760121 0.28076111523790659 0 -0.22610251456733871 0.29919946950475762 0 -0.2476054777775257 0.29980943081764161 0 -0.24641767816760121 0.28076111523790659 0 -0.2474845913036233 0.31861885933040518 0 -0.22610251456733871 0.29919946950475762 0 -0.2476054777775257 0.29980943081764161 0 -0.23831975441867309 0.26251664814473158 0 -0.24739154241544459 0.26250245805921452 0 -0.24042839589598961 0.26958033954151672 0 -0.23831975441867309 0.26251664814473158 0 -0.2421275510198525 0.25237273480976591 0 -0.2301111411242979 0.25415493550153279 0 -0.25189002896290491 0.25449239892481551 0 -0.2421275510198525 0.25237273480976591 0 -0.24739154241544459 0.26250245805921452 0 -0.25189002896290491 0.25449239892481551 0 -0.2421275510198525 0.25237273480976591 0 -0.24647525832179051 0.24874251272968301 0 -0.23831975441867309 0.26251664814473158 0 -0.2421275510198525 0.25237273480976591 0 -0.24739154241544459 0.26250245805921452 0 -0.24641767816760121 0.28076111523790659 0 -0.24042839589598961 0.26958033954151672 0 -0.22958460858223939 0.27254113672421421 0 -0.25432553353194348 0.26385770201985209 0 -0.24739154241544459 0.26250245805921452 0 -0.24641767816760121 0.28076111523790659 0 -0.24739154241544459 0.26250245805921452 0 -0.24641767816760121 0.28076111523790659 0 -0.24042839589598961 0.26958033954151672 0 -0.23831975441867309 0.26251664814473158 0 -0.24042839589598961 0.26958033954151672 0 -0.22958460858223939 0.27254113672421421 0 -0.2301111411242979 0.25415493550153279 0 -0.21119725768121819 0.26093741649149621 0 -0.2211268732449827 0.23855303841785169 0 -0.22958460858223939 0.27254113672421421 0 -0.2301111411242979 0.25415493550153279 0 -0.21119725768121819 0.26093741649149621 0 -0.23831975441867309 0.26251664814473158 0 -0.22958460858223939 0.27254113672421421 0 -0.2301111411242979 0.25415493550153279 0 -0.213792568901256 0.28280401726592741 0 -0.21119725768121819 0.26093741649149621 0 -0.19669891299047751 0.28014248750320359 0 -0.213792568901256 0.28280401726592741 0 -0.22958460858223939 0.27254113672421421 0 -0.21119725768121819 0.26093741649149621 0 -0.21119725768121819 0.26093741649149621 0 -0.19669891299047751 0.28014248750320359 0 -0.1851657792507185 0.25669063751337651 0 -0.21119725768121819 0.26093741649149621 0 -0.1851657792507185 0.25669063751337651 0 -0.20129010394299149 0.24443847017185061 0 -0.16508023407272601 0.2503971719826491 0 -0.16497351800655671 0.27048237190323782 0 -0.1463982144264159 0.25542208648772902 0 -0.1851657792507185 0.25669063751337651 0 -0.16508023407272601 0.2503971719826491 0 -0.16497351800655671 0.27048237190323782 0 -0.19669891299047751 0.28014248750320359 0 -0.1851657792507185 0.25669063751337651 0 -0.1785336448831126 0.28118970112568997 0 -0.1851657792507185 0.25669063751337651 0 -0.16497351800655671 0.27048237190323782 0 -0.1785336448831126 0.28118970112568997 0 -0.1785336448831126 0.28118970112568997 0 -0.1862025567418 0.29943612281466803 0 -0.1670682161741659 0.29661865599902898 0 -0.19669891299047751 0.28014248750320359 0 -0.1785336448831126 0.28118970112568997 0 -0.1862025567418 0.29943612281466803 0 -0.16970439211168289 0.32103435698189631 0 -0.1862025567418 0.29943612281466803 0 -0.1670682161741659 0.29661865599902898 0 -0.14903711053068841 0.3129659749123318 0 -0.16970439211168289 0.32103435698189631 0 -0.1670682161741659 0.29661865599902898 0 -0.16497351800655671 0.27048237190323782 0 -0.1785336448831126 0.28118970112568997 0 -0.1670682161741659 0.29661865599902898 0 -0.16497351800655671 0.27048237190323782 0 -0.1670682161741659 0.29661865599902898 0 -0.14908104489959589 0.29118630183640343 0 -0.14908104489959589 0.29118630183640343 0 -0.13301461501949449 0.28445719444771922 0 -0.1450622376265491 0.27391868512351242 0 -0.14903711053068841 0.3129659749123318 0 -0.1670682161741659 0.29661865599902898 0 -0.14908104489959589 0.29118630183640343 0 -0.14903711053068841 0.3129659749123318 0 -0.14908104489959589 0.29118630183640343 0 -0.1312441600897393 0.30442200943926179 0 -0.14908104489959589 0.29118630183640343 0 -0.1312441600897393 0.30442200943926179 0 -0.13301461501949449 0.28445719444771922 0 -0.1312441600897393 0.30442200943926179 0 -0.13301461501949449 0.28445719444771922 0 -0.1213785856987941 0.29313728666284122 0 -0.13301461501949449 0.28445719444771922 0 -0.13204106992365919 0.26838285043895482 0 -0.11450201459557589 0.27632777785735069 0 -0.13301461501949449 0.28445719444771922 0 -0.13204106992365919 0.26838285043895482 0 -0.1450622376265491 0.27391868512351242 0 -0.13204106992365919 0.26838285043895482 0 -0.1463982144264159 0.25542208648772902 0 -0.1229484984770164 0.25473045748778822 0 -0.16497351800655671 0.27048237190323782 0 -0.14908104489959589 0.29118630183640343 0 -0.1450622376265491 0.27391868512351242 0 -0.16497351800655671 0.27048237190323782 0 -0.1463982144264159 0.25542208648772902 0 -0.1450622376265491 0.27391868512351242 0 -0.13204106992365919 0.26838285043895482 0 -0.1463982144264159 0.25542208648772902 0 -0.1450622376265491 0.27391868512351242 0 -0.097506140953614345 0.27357735958971208 0 -0.11450201459557589 0.27632777785735069 0 -0.1005958202823611 0.28523198992827592 0 -0.097506140953614345 0.27357735958971208 0 -0.099646555744896198 0.25564887823787741 0 -0.11450201459557589 0.27632777785735069 0 -0.099646555744896198 0.25564887823787741 0 -0.1229484984770164 0.25473045748778822 0 -0.11450201459557589 0.27632777785735069 0 -0.13204106992365919 0.26838285043895482 0 -0.1229484984770164 0.25473045748778822 0 -0.11450201459557589 0.27632777785735069 0 -0.13301461501949449 0.28445719444771922 0 -0.11450201459557589 0.27632777785735069 0 -0.1213785856987941 0.29313728666284122 0 -0.11450201459557589 0.27632777785735069 0 -0.1213785856987941 0.29313728666284122 0 -0.1089316332599535 0.29466597401633449 0 -0.1312441600897393 0.30442200943926179 0 -0.11820539787815321 0.30404355150868811 0 -0.12039393490326571 0.31543344305833698 0 -0.1312441600897393 0.30442200943926179 0 -0.1213785856987941 0.29313728666284122 0 -0.11820539787815321 0.30404355150868811 0 -0.1213785856987941 0.29313728666284122 0 -0.11820539787815321 0.30404355150868811 0 -0.1089316332599535 0.29466597401633449 0 -0.11820539787815321 0.30404355150868811 0 -0.1070884601369058 0.30901919227696262 0 -0.1089316332599535 0.29466597401633449 0 -0.11820539787815321 0.30404355150868811 0 -0.1070884601369058 0.30901919227696262 0 -0.12039393490326571 0.31543344305833698 0 -0.1070884601369058 0.30901919227696262 0 -0.097959971888745778 0.29814614799193651 0 -0.1089316332599535 0.29466597401633449 0 -0.1070884601369058 0.30901919227696262 0 -0.097959971888745778 0.29814614799193651 0 -0.094407296445989219 0.31061545818147662 0 -0.11450201459557589 0.27632777785735069 0 -0.1089316332599535 0.29466597401633449 0 -0.1005958202823611 0.28523198992827592 0 -0.097959971888745778 0.29814614799193651 0 -0.1089316332599535 0.29466597401633449 0 -0.1005958202823611 0.28523198992827592 0 -0.097959971888745778 0.29814614799193651 0 -0.1005958202823611 0.28523198992827592 0 -0.091138696253227222 0.28755167415197158 0 -0.097506140953614345 0.27357735958971208 0 -0.1005958202823611 0.28523198992827592 0 -0.091138696253227222 0.28755167415197158 0 -0.085091117115928344 0.30297092681191518 0 -0.075687235297425118 0.29161501572410392 0 -0.076185800972680198 0.27687930596318261 0 -0.091138696253227222 0.28755167415197158 0 -0.085091117115928344 0.30297092681191518 0 -0.076185800972680198 0.27687930596318261 0 -0.085091117115928344 0.30297092681191518 0 -0.076185800972680198 0.27687930596318261 0 -0.097959971888745778 0.29814614799193651 0 -0.091138696253227222 0.28755167415197158 0 -0.085091117115928344 0.30297092681191518 0 -0.094407296445989219 0.31061545818147662 0 -0.085091117115928344 0.30297092681191518 0 -0.082391381917863715 0.31197418606063448 0 -0.097959971888745778 0.29814614799193651 0 -0.094407296445989219 0.31061545818147662 0 -0.085091117115928344 0.30297092681191518 0 -0.085091117115928344 0.30297092681191518 0 -0.075012876351560814 0.30473059711732697 0 -0.075564419789306309 0.2995049384650989 0 -0.085091117115928344 0.30297092681191518 0 -0.075564419789306309 0.2995049384650989 0 -0.075687235297425118 0.29161501572410392 0 -0.085091117115928344 0.30297092681191518 0 -0.082391381917863715 0.31197418606063448 0 -0.075012876351560814 0.30473059711732697 0 -0.082391381917863715 0.31197418606063448 0 -0.075012876351560814 0.30473059711732697 0 -0.066623612710285759 0.30828946155969872 0 -0.075012876351560814 0.30473059711732697 0 -0.075564419789306309 0.2995049384650989 0 -0.066466450392310999 0.29870321420704948 0 -0.075012876351560814 0.30473059711732697 0 -0.066466450392310999 0.29870321420704948 0 -0.066623612710285759 0.30828946155969872 0 -0.075687235297425118 0.29161501572410392 0 -0.065540326975263935 0.28717931263297752 0 -0.076185800972680198 0.27687930596318261 0 -0.075564419789306309 0.2995049384650989 0 -0.066466450392310999 0.29870321420704948 0 -0.075687235297425118 0.29161501572410392 0 -0.066466450392310999 0.29870321420704948 0 -0.075687235297425118 0.29161501572410392 0 -0.065540326975263935 0.28717931263297752 0 -0.076185800972680198 0.27687930596318261 0 -0.06728048482943233 0.25078768511444982 0 -0.062144651919816857 0.27663869588969409 0 -0.065540326975263935 0.28717931263297752 0 -0.076185800972680198 0.27687930596318261 0 -0.062144651919816857 0.27663869588969409 0 -0.097506140953614345 0.27357735958971208 0 -0.076185800972680198 0.27687930596318261 0 -0.082393312891523449 0.26218252235208078 0 -0.097506140953614345 0.27357735958971208 0 -0.091138696253227222 0.28755167415197158 0 -0.076185800972680198 0.27687930596318261 0 -0.097506140953614345 0.27357735958971208 0 -0.082393312891523449 0.26218252235208078 0 -0.097506140953614345 0.27357735958971208 0 -0.099646555744896198 0.25564887823787741 0 -0.082393312891523449 0.26218252235208078 0 -0.099646555744896198 0.25564887823787741 0 -0.082393312891523449 0.26218252235208078 0 -0.079604061573677359 0.25020061160159762 0 -0.062144651919816857 0.27663869588969409 0 -0.063201019833232619 0.2477118319744985 0 -0.06728048482943233 0.25078768511444982 0 -0.062144651919816857 0.27663869588969409 0 -0.063201019833232619 0.2477118319744985 0 -0.076185800972680198 0.27687930596318261 0 -0.06728048482943233 0.25078768511444982 0 -0.082393312891523449 0.26218252235208078 0 -0.06728048482943233 0.25078768511444982 0 -0.082393312891523449 0.26218252235208078 0 -0.079604061573677359 0.25020061160159762 0 -0.06728048482943233 0.25078768511444982 0 -0.076185800972680198 0.27687930596318261 0 -0.082393312891523449 0.26218252235208078 0 -0.06728048482943233 0.25078768511444982 0 -0.052670894119925198 0.2621338954628199 0 -0.046174889000908118 0.25024759087299597 0 -0.063201019833232619 0.2477118319744985 0 -0.052670894119925198 0.2621338954628199 0 -0.062144651919816857 0.27663869588969409 0 -0.063201019833232619 0.2477118319744985 0 -0.050636800000998787 0.27336074496108898 0 -0.042290773846081701 0.2803352869404378 0 -0.052037363173394198 0.28938650457885068 0 -0.062144651919816857 0.27663869588969409 0 -0.050636800000998787 0.27336074496108898 0 -0.052037363173394198 0.28938650457885068 0 -0.052670894119925198 0.2621338954628199 0 -0.062144651919816857 0.27663869588969409 0 -0.050636800000998787 0.27336074496108898 0 -0.052670894119925198 0.2621338954628199 0 -0.050636800000998787 0.27336074496108898 0 -0.038663690321401843 0.2647885192072118 0 -0.050636800000998787 0.27336074496108898 0 -0.042290773846081701 0.2803352869404378 0 -0.038663690321401843 0.2647885192072118 0 -0.042290773846081701 0.2803352869404378 0 -0.038663690321401843 0.2647885192072118 0 -0.030343510299921609 0.2770225127625589 0 -0.046174889000908118 0.25024759087299597 0 -0.038663690321401843 0.2647885192072118 0 -0.02691154068192704 0.2457704794931268 0 -0.052670894119925198 0.2621338954628199 0 -0.046174889000908118 0.25024759087299597 0 -0.038663690321401843 0.2647885192072118 0 -0.020204103131508739 0.26759377154468461 0 -0.0013581205314274699 0.25585075003031849 0 -0.02691154068192704 0.2457704794931268 0 -0.038663690321401843 0.2647885192072118 0 -0.020204103131508739 0.26759377154468461 0 -0.02691154068192704 0.2457704794931268 0 -0.020204103131508739 0.26759377154468461 0 -0.030343510299921609 0.2770225127625589 0 -0.0197649152644182 0.2856210321304512 0 -0.038663690321401843 0.2647885192072118 0 -0.020204103131508739 0.26759377154468461 0 -0.030343510299921609 0.2770225127625589 0 -0.020204103131508739 0.26759377154468461 0 -0.0041828416899563313 0.27650933564444069 0 -0.0013581205314274699 0.25585075003031849 0 -0.020204103131508739 0.26759377154468461 0 -0.0041828416899563313 0.27650933564444069 0 -0.0197649152644182 0.2856210321304512 0 -0.0047650251177795587 0.29780240569285532 0 -0.0019245325289174609 0.31603531092320553 0 -0.013064777442417901 0.31398139259097563 0 -0.0047650251177795587 0.29780240569285532 0 -0.02628724335858041 0.30484070601801461 0 -0.013064777442417901 0.31398139259097563 0 -0.0041828416899563313 0.27650933564444069 0 -0.0047650251177795587 0.29780240569285532 0 -0.0197649152644182 0.2856210321304512 0 -0.0041828416899563313 0.27650933564444069 0 -0.0047650251177795587 0.29780240569285532 0 0.0074937284318593164 0.28700854176367141 0 -0.0197649152644182 0.2856210321304512 0 -0.02628724335858041 0.30484070601801461 0 -0.03458620034715007 0.29039950694007161 0 -0.0047650251177795587 0.29780240569285532 0 -0.0197649152644182 0.2856210321304512 0 -0.02628724335858041 0.30484070601801461 0 -0.030343510299921609 0.2770225127625589 0 -0.0197649152644182 0.2856210321304512 0 -0.03458620034715007 0.29039950694007161 0 -0.02628724335858041 0.30484070601801461 0 -0.041487782834895862 0.3017320504465606 0 -0.04135706227185703 0.31202505730698171 0 -0.02628724335858041 0.30484070601801461 0 -0.041487782834895862 0.3017320504465606 0 -0.03458620034715007 0.29039950694007161 0 -0.041487782834895862 0.3017320504465606 0 -0.04135706227185703 0.31202505730698171 0 -0.053170198792703627 0.30629560755473989 0 -0.042290773846081701 0.2803352869404378 0 -0.03458620034715007 0.29039950694007161 0 -0.052037363173394198 0.28938650457885068 0 -0.041487782834895862 0.3017320504465606 0 -0.03458620034715007 0.29039950694007161 0 -0.052037363173394198 0.28938650457885068 0 -0.042290773846081701 0.2803352869404378 0 -0.030343510299921609 0.2770225127625589 0 -0.03458620034715007 0.29039950694007161 0 -0.066466450392310999 0.29870321420704948 0 -0.065540326975263935 0.28717931263297752 0 -0.052037363173394198 0.28938650457885068 0 -0.065540326975263935 0.28717931263297752 0 -0.062144651919816857 0.27663869588969409 0 -0.052037363173394198 0.28938650457885068 0 -0.066466450392310999 0.29870321420704948 0 -0.052037363173394198 0.28938650457885068 0 -0.053170198792703627 0.30629560755473989 0 -0.041487782834895862 0.3017320504465606 0 -0.052037363173394198 0.28938650457885068 0 -0.053170198792703627 0.30629560755473989 0 -0.066466450392310999 0.29870321420704948 0 -0.066623612710285759 0.30828946155969872 0 -0.053170198792703627 0.30629560755473989 0 -0.066623612710285759 0.30828946155969872 0 -0.053170198792703627 0.30629560755473989 0 -0.056077156096989621 0.3197437028587426 0 -0.056077156096989621 0.3197437028587426 0 -0.059729247639768987 0.33055763215683892 0 -0.066963522222955513 0.3231996821449617 0 -0.04135706227185703 0.31202505730698171 0 -0.053170198792703627 0.30629560755473989 0 -0.056077156096989621 0.3197437028587426 0 -0.059729247639768987 0.33055763215683892 0 -0.055926789985129462 0.34705318753610459 0 -0.065225769655604754 0.3447694682662672 0 -0.059729247639768987 0.33055763215683892 0 -0.055926789985129462 0.34705318753610459 0 -0.056077156096989621 0.3197437028587426 0 -0.059729247639768987 0.33055763215683892 0 -0.044075580276336693 0.33563527922769132 0 -0.059729247639768987 0.33055763215683892 0 -0.044075580276336693 0.33563527922769132 0 -0.055926789985129462 0.34705318753610459 0 -0.044075580276336693 0.33563527922769132 0 -0.02976293027611562 0.3275132196568506 0 -0.02778651839286576 0.34941573968516459 0 -0.056077156096989621 0.3197437028587426 0 -0.044075580276336693 0.33563527922769132 0 -0.02976293027611562 0.3275132196568506 0 -0.056077156096989621 0.3197437028587426 0 -0.02976293027611562 0.3275132196568506 0 -0.04135706227185703 0.31202505730698171 0 -0.056077156096989621 0.3197437028587426 0 -0.02976293027611562 0.3275132196568506 0 -0.02628724335858041 0.30484070601801461 0 -0.04135706227185703 0.31202505730698171 0 -0.02976293027611562 0.3275132196568506 0 -0.02976293027611562 0.3275132196568506 0 -0.0069815985525329702 0.32549611739668738 0 -0.013064777442417901 0.31398139259097563 0 -0.02628724335858041 0.30484070601801461 0 -0.02976293027611562 0.3275132196568506 0 -0.013064777442417901 0.31398139259097563 0 -0.02976293027611562 0.3275132196568506 0 -0.003448704455241456 0.33528273645495882 0 -0.02778651839286576 0.34941573968516459 0 -0.02976293027611562 0.3275132196568506 0 -0.003448704455241456 0.33528273645495882 0 -0.003448704455241456 0.33528273645495882 0 -0.02778651839286576 0.34941573968516459 0 -0.003448704455241456 0.33528273645495882 0 -0.001494834127354011 0.33585963461024471 0 -0.013221042063291839 0.35857098833758122 0 -0.02976293027611562 0.3275132196568506 0 -0.003448704455241456 0.33528273645495882 0 -0.0069815985525329702 0.32549611739668738 0 -0.003448704455241456 0.33528273645495882 0 -0.00023275053750003791 0.33341522743281798 0 -0.0069815985525329702 0.32549611739668738 0 -0.003448704455241456 0.33528273645495882 0 -0.001494834127354011 0.33585963461024471 0 -0.003448704455241456 0.33528273645495882 0 -0.00023275053750003791 0.33341522743281798 0 -0.001494834127354011 0.33585963461024471 0 -0.00023275053750003791 0.33341522743281798 0 -0.003448704455241456 0.33528273645495882 0 -0.001494834127354011 0.33585963461024471 0 -0.00023275053750003791 0.33341522743281798 0 -0.00023275053750003791 0.33341522743281798 0 -0.0069815985525329702 0.32549611739668738 0 -0.0019245325289174609 0.31603531092320553 0 -0.0069815985525329702 0.32549611739668738 0 -0.0019245325289174609 0.31603531092320553 0 -0.013064777442417901 0.31398139259097563 0 -0.0012915132074347089 0.36652510761091239 0 -0.013221042063291839 0.35857098833758122 0 -0.024947249999229031 0.3812823420649179 0 -0.0012915132074347089 0.36652510761091239 0 -0.013221042063291839 0.35857098833758122 0 0.0059313923409791804 0.35407678938915937 0 -0.003448704455241456 0.33528273645495882 0 -0.013221042063291839 0.35857098833758122 0 -0.02778651839286576 0.34941573968516459 0 -0.001494834127354011 0.33585963461024471 0 -0.013221042063291839 0.35857098833758122 0 0.0059313923409791804 0.35407678938915937 0 -0.001494834127354011 0.33585963461024471 0 -0.013221042063291839 0.35857098833758122 0 -0.013221042063291839 0.35857098833758122 0 -0.02778651839286576 0.34941573968516459 0 -0.033860659237465812 0.3667946383354056 0 -0.013221042063291839 0.35857098833758122 0 -0.033860659237465812 0.3667946383354056 0 -0.024947249999229031 0.3812823420649179 0 -0.013221042063291839 0.35857098833758122 0 -0.024947249999229031 0.3812823420649179 0 -0.02778651839286576 0.34941573968516459 0 -0.033860659237465812 0.3667946383354056 0 -0.05212433233049002 0.36354874291537043 0 -0.033860659237465812 0.3667946383354056 0 -0.05212433233049002 0.36354874291537043 0 -0.046597117989434958 0.38752651690706719 0 -0.02778651839286576 0.34941573968516459 0 -0.05212433233049002 0.36354874291537043 0 -0.02778651839286576 0.34941573968516459 0 -0.044978305246205483 0.34891323734108282 0 -0.05212433233049002 0.36354874291537043 0 -0.044075580276336693 0.33563527922769132 0 -0.02778651839286576 0.34941573968516459 0 -0.044978305246205483 0.34891323734108282 0 -0.055926789985129462 0.34705318753610459 0 -0.05212433233049002 0.36354874291537043 0 -0.044978305246205483 0.34891323734108282 0 -0.055926789985129462 0.34705318753610459 0 -0.05212433233049002 0.36354874291537043 0 -0.062025794295453761 0.35815661373732322 0 -0.055926789985129462 0.34705318753610459 0 -0.05212433233049002 0.36354874291537043 0 -0.044075580276336693 0.33563527922769132 0 -0.044978305246205483 0.34891323734108282 0 -0.055926789985129462 0.34705318753610459 0 -0.062025794295453761 0.35815661373732322 0 -0.055926789985129462 0.34705318753610459 0 -0.065225769655604754 0.3447694682662672 0 -0.062025794295453761 0.35815661373732322 0 -0.05212433233049002 0.36354874291537043 0 -0.068610387930261807 0.37312221889156388 0 -0.05212433233049002 0.36354874291537043 0 -0.068610387930261807 0.37312221889156388 0 -0.05845407793649602 0.3780147395893434 0 -0.05212433233049002 0.36354874291537043 0 -0.068610387930261807 0.37312221889156388 0 -0.062025794295453761 0.35815661373732322 0 -0.068610387930261807 0.37312221889156388 0 -0.072421621171135361 0.37894075518739551 0 -0.062025794295453761 0.35815661373732322 0 -0.073764051181587159 0.36578581781650771 0 -0.072421621171135361 0.37894075518739551 0 -0.062025794295453761 0.35815661373732322 0 -0.072421621171135361 0.37894075518739551 0 -0.062025794295453761 0.35815661373732322 0 -0.073764051181587159 0.36578581781650771 0 -0.071664612621772719 0.35642206867668641 0 -0.073764051181587159 0.36578581781650771 0 -0.084257614734243813 0.36010707374992368 0 -0.071664612621772719 0.35642206867668641 0 -0.073764051181587159 0.36578581781650771 0 -0.079248693987463148 0.37333765007022218 0 -0.072421621171135361 0.37894075518739551 0 -0.073764051181587159 0.36578581781650771 0 -0.079248693987463148 0.37333765007022218 0 -0.083100684515001716 0.36782694369441932 0 -0.079248693987463148 0.37333765007022218 0 -0.083100684515001716 0.36782694369441932 0 -0.087095098248418101 0.37484103249908413 0 -0.084257614734243813 0.36010707374992368 0 -0.092970032978188399 0.36766192810357867 0 -0.10083344411740611 0.35909289021782281 0 -0.073764051181587159 0.36578581781650771 0 -0.083100684515001716 0.36782694369441932 0 -0.084257614734243813 0.36010707374992368 0 -0.083100684515001716 0.36782694369441932 0 -0.084257614734243813 0.36010707374992368 0 -0.092970032978188399 0.36766192810357867 0 -0.092970032978188399 0.36766192810357867 0 -0.087095098248418101 0.37484103249908413 0 -0.098335812096802866 0.37605223254572018 0 -0.083100684515001716 0.36782694369441932 0 -0.092970032978188399 0.36766192810357867 0 -0.087095098248418101 0.37484103249908413 0 -0.084257614734243813 0.36010707374992368 0 -0.092213497407263492 0.34888617576895148 0 -0.10083344411740611 0.35909289021782281 0 -0.092213497407263492 0.34888617576895148 0 -0.082321215684666993 0.35096521279102949 0 -0.083402660234667997 0.33955061809103509 0 -0.084257614734243813 0.36010707374992368 0 -0.092213497407263492 0.34888617576895148 0 -0.082321215684666993 0.35096521279102949 0 -0.084257614734243813 0.36010707374992368 0 -0.082321215684666993 0.35096521279102949 0 -0.071664612621772719 0.35642206867668641 0 -0.082321215684666993 0.35096521279102949 0 -0.074147294426801333 0.34787716455871998 0 -0.083402660234667997 0.33955061809103509 0 -0.074147294426801333 0.34787716455871998 0 -0.071664612621772719 0.35642206867668641 0 -0.065225769655604754 0.3447694682662672 0 -0.082321215684666993 0.35096521279102949 0 -0.074147294426801333 0.34787716455871998 0 -0.071664612621772719 0.35642206867668641 0 -0.062025794295453761 0.35815661373732322 0 -0.071664612621772719 0.35642206867668641 0 -0.065225769655604754 0.3447694682662672 0 -0.074147294426801333 0.34787716455871998 0 -0.065225769655604754 0.3447694682662672 0 -0.070679380424207877 0.33624261551679341 0 -0.059729247639768987 0.33055763215683892 0 -0.065225769655604754 0.3447694682662672 0 -0.070679380424207877 0.33624261551679341 0 -0.059729247639768987 0.33055763215683892 0 -0.070679380424207877 0.33624261551679341 0 -0.066963522222955513 0.3231996821449617 0 -0.070679380424207877 0.33624261551679341 0 -0.066963522222955513 0.3231996821449617 0 -0.074819007119805922 0.3259152251718469 0 -0.070679380424207877 0.33624261551679341 0 -0.083402660234667997 0.33955061809103509 0 -0.079626419039122598 0.33168489565450071 0 -0.070679380424207877 0.33624261551679341 0 -0.074819007119805922 0.3259152251718469 0 -0.079626419039122598 0.33168489565450071 0 -0.074147294426801333 0.34787716455871998 0 -0.070679380424207877 0.33624261551679341 0 -0.083402660234667997 0.33955061809103509 0 -0.082391381917863715 0.31197418606063448 0 -0.066623612710285759 0.30828946155969872 0 -0.056077156096989621 0.3197437028587426 0 -0.082391381917863715 0.31197418606063448 0 -0.056077156096989621 0.3197437028587426 0 -0.082391381917863715 0.31197418606063448 0 -0.056077156096989621 0.3197437028587426 0 -0.066963522222955513 0.3231996821449617 0 -0.066963522222955513 0.3231996821449617 0 -0.074819007119805922 0.3259152251718469 0 -0.079600010999884618 0.32034356960950688 0 -0.082391381917863715 0.31197418606063448 0 -0.066963522222955513 0.3231996821449617 0 -0.079600010999884618 0.32034356960950688 0 -0.082391381917863715 0.31197418606063448 0 -0.079600010999884618 0.32034356960950688 0 -0.088390554208926525 0.31707450632996498 0 -0.084622330378217009 0.32449126642693721 0 -0.079600010999884618 0.32034356960950688 0 -0.088390554208926525 0.31707450632996498 0 -0.074819007119805922 0.3259152251718469 0 -0.084622330378217009 0.32449126642693721 0 -0.079600010999884618 0.32034356960950688 0 -0.074819007119805922 0.3259152251718469 0 -0.084622330378217009 0.32449126642693721 0 -0.079626419039122598 0.33168489565450071 0 -0.084622330378217009 0.32449126642693721 0 -0.089572399036651665 0.33097115946744149 0 -0.097028107374737022 0.32244573818796168 0 -0.084622330378217009 0.32449126642693721 0 -0.088390554208926525 0.31707450632996498 0 -0.097028107374737022 0.32244573818796168 0 -0.094407296445989219 0.31061545818147662 0 -0.082391381917863715 0.31197418606063448 0 -0.088390554208926525 0.31707450632996498 0 -0.094407296445989219 0.31061545818147662 0 -0.088390554208926525 0.31707450632996498 0 -0.097028107374737022 0.32244573818796168 0 -0.083402660234667997 0.33955061809103509 0 -0.079626419039122598 0.33168489565450071 0 -0.089572399036651665 0.33097115946744149 0 -0.084622330378217009 0.32449126642693721 0 -0.079626419039122598 0.33168489565450071 0 -0.089572399036651665 0.33097115946744149 0 -0.083402660234667997 0.33955061809103509 0 -0.089572399036651665 0.33097115946744149 0 -0.097144569707708822 0.33626261654485712 0 -0.092213497407263492 0.34888617576895148 0 -0.083402660234667997 0.33955061809103509 0 -0.097144569707708822 0.33626261654485712 0 -0.089572399036651665 0.33097115946744149 0 -0.097144569707708822 0.33626261654485712 0 -0.097028107374737022 0.32244573818796168 0 -0.097144569707708822 0.33626261654485712 0 -0.1088393388736841 0.3249899697028818 0 -0.1104346650397722 0.33628051160906652 0 -0.097144569707708822 0.33626261654485712 0 -0.1104346650397722 0.33628051160906652 0 -0.1052454620262661 0.34695626100005977 0 -0.1070884601369058 0.30901919227696262 0 -0.097028107374737022 0.32244573818796168 0 -0.1088393388736841 0.3249899697028818 0 -0.1070884601369058 0.30901919227696262 0 -0.094407296445989219 0.31061545818147662 0 -0.097028107374737022 0.32244573818796168 0 -0.097144569707708822 0.33626261654485712 0 -0.097028107374737022 0.32244573818796168 0 -0.1088393388736841 0.3249899697028818 0 -0.1070884601369058 0.30901919227696262 0 -0.1088393388736841 0.3249899697028818 0 -0.12039393490326571 0.31543344305833698 0 -0.1088393388736841 0.3249899697028818 0 -0.12039393490326571 0.31543344305833698 0 -0.1209462960797151 0.33049831654010609 0 -0.1104346650397722 0.33628051160906652 0 -0.1191358251029557 0.34509040958496617 0 -0.1052454620262661 0.34695626100005977 0 -0.1104346650397722 0.33628051160906652 0 -0.1209462960797151 0.33049831654010609 0 -0.1191358251029557 0.34509040958496617 0 -0.1088393388736841 0.3249899697028818 0 -0.1104346650397722 0.33628051160906652 0 -0.1209462960797151 0.33049831654010609 0 -0.1332764167575646 0.34008422556405582 0 -0.1209462960797151 0.33049831654010609 0 -0.1191358251029557 0.34509040958496617 0 -0.1191358251029557 0.34509040958496617 0 -0.113931051666154 0.35492302143148119 0 -0.1052454620262661 0.34695626100005977 0 -0.1278801081378303 0.35799638876066958 0 -0.113931051666154 0.35492302143148119 0 -0.1130588292176835 0.36517389599749639 0 -0.1278801081378303 0.35799638876066958 0 -0.1191358251029557 0.34509040958496617 0 -0.113931051666154 0.35492302143148119 0 -0.12602955525595369 0.37680376999551191 0 -0.1278801081378303 0.35799638876066958 0 -0.1130588292176835 0.36517389599749639 0 -0.12602955525595369 0.37680376999551191 0 -0.1130588292176835 0.36517389599749639 0 -0.1110989337988916 0.37665361374022799 0 -0.1130588292176835 0.36517389599749639 0 -0.1039058502774186 0.36876326987364072 0 -0.10083344411740611 0.35909289021782281 0 -0.113931051666154 0.35492302143148119 0 -0.1130588292176835 0.36517389599749639 0 -0.10083344411740611 0.35909289021782281 0 -0.1130588292176835 0.36517389599749639 0 -0.1039058502774186 0.36876326987364072 0 -0.1110989337988916 0.37665361374022799 0 -0.1039058502774186 0.36876326987364072 0 -0.098335812096802866 0.37605223254572018 0 -0.1110989337988916 0.37665361374022799 0 -0.092970032978188399 0.36766192810357867 0 -0.1039058502774186 0.36876326987364072 0 -0.098335812096802866 0.37605223254572018 0 -0.092970032978188399 0.36766192810357867 0 -0.1039058502774186 0.36876326987364072 0 -0.10083344411740611 0.35909289021782281 0 -0.092213497407263492 0.34888617576895148 0 -0.10083344411740611 0.35909289021782281 0 -0.1052454620262661 0.34695626100005977 0 -0.092213497407263492 0.34888617576895148 0 -0.097144569707708822 0.33626261654485712 0 -0.1052454620262661 0.34695626100005977 0 -0.113931051666154 0.35492302143148119 0 -0.10083344411740611 0.35909289021782281 0 -0.1052454620262661 0.34695626100005977 0 -0.1075466510078934 0.39618850661063681 0 -0.096102036039362237 0.39396253580812268 0 -0.10389855535612461 0.38527383682108568 0 -0.1075466510078934 0.39618850661063681 0 -0.099571489656212042 0.40570015249908681 0 -0.1097878940533452 0.40594250632769502 0 -0.1075466510078934 0.39618850661063681 0 -0.099571489656212042 0.40570015249908681 0 -0.096102036039362237 0.39396253580812268 0 -0.096102036039362237 0.39396253580812268 0 -0.10389855535612461 0.38527383682108568 0 -0.091954935519808989 0.38505324910776939 0 -0.098335812096802866 0.37605223254572018 0 -0.10389855535612461 0.38527383682108568 0 -0.091954935519808989 0.38505324910776939 0 -0.098335812096802866 0.37605223254572018 0 -0.10389855535612461 0.38527383682108568 0 -0.1110989337988916 0.37665361374022799 0 -0.1075466510078934 0.39618850661063681 0 -0.10389855535612461 0.38527383682108568 0 -0.1165347922226032 0.38775400131661952 0 -0.13094926167676699 0.39478334172728408 0 -0.12602955525595369 0.37680376999551191 0 -0.1165347922226032 0.38775400131661952 0 -0.10389855535612461 0.38527383682108568 0 -0.1165347922226032 0.38775400131661952 0 -0.1110989337988916 0.37665361374022799 0 -0.12602955525595369 0.37680376999551191 0 -0.1165347922226032 0.38775400131661952 0 -0.1110989337988916 0.37665361374022799 0 -0.1329627898010563 0.41377086225233162 0 -0.1097878940533452 0.40594250632769502 0 -0.1193851387197131 0.39849800689121151 0 -0.13094926167676699 0.39478334172728408 0 -0.1165347922226032 0.38775400131661952 0 -0.1193851387197131 0.39849800689121151 0 -0.1075466510078934 0.39618850661063681 0 -0.1165347922226032 0.38775400131661952 0 -0.1193851387197131 0.39849800689121151 0 -0.1075466510078934 0.39618850661063681 0 -0.1097878940533452 0.40594250632769502 0 -0.1193851387197131 0.39849800689121151 0 -0.1329627898010563 0.41377086225233162 0 -0.1097878940533452 0.40594250632769502 0 -0.1087449148693012 0.41787617775476882 0 -0.1329627898010563 0.41377086225233162 0 -0.1087449148693012 0.41787617775476882 0 -0.1329627898010563 0.41377086225233162 0 -0.1203882308634798 0.43633692869159008 0 -0.1087449148693012 0.41787617775476882 0 -0.1203882308634798 0.43633692869159008 0 -0.1087449148693012 0.41787617775476882 0 -0.10623881761836849 0.44655071087532028 0 -0.1087449148693012 0.41787617775476882 0 -0.10623881761836849 0.44655071087532028 0 -0.093213274922497869 0.42050903808754042 0 -0.10623881761836849 0.44655071087532028 0 -0.1087449148693012 0.41787617775476882 0 -0.093213274922497869 0.42050903808754042 0 -0.10623881761836849 0.44655071087532028 0 -0.099571489656212042 0.40570015249908681 0 -0.1097878940533452 0.40594250632769502 0 -0.1087449148693012 0.41787617775476882 0 -0.1097878940533452 0.40594250632769502 0 -0.1087449148693012 0.41787617775476882 0 -0.1087449148693012 0.41787617775476882 0 -0.093213274922497869 0.42050903808754042 0 -0.099571489656212042 0.40570015249908681 0 -0.1087449148693012 0.41787617775476882 0 -0.093213274922497869 0.42050903808754042 0 -0.093213274922497869 0.42050903808754042 0 -0.076166078848011715 0.42339880932118368 0 -0.082817448046816983 0.39972489663746769 0 -0.099571489656212042 0.40570015249908681 0 -0.093213274922497869 0.42050903808754042 0 -0.082817448046816983 0.39972489663746769 0 -0.093213274922497869 0.42050903808754042 0 -0.082817448046816983 0.39972489663746769 0 -0.093213274922497869 0.42050903808754042 0 -0.081386156052715264 0.43849148852129127 0 -0.10623881761836849 0.44655071087532028 0 -0.093213274922497869 0.42050903808754042 0 -0.076166078848011715 0.42339880932118368 0 -0.093213274922497869 0.42050903808754042 0 -0.076166078848011715 0.42339880932118368 0 -0.081386156052715264 0.43849148852129127 0 -0.067554301161950242 0.42501504601732393 0 -0.056603067688703199 0.42963621602433821 0 -0.081386156052715264 0.43849148852129127 0 -0.056603067688703199 0.42963621602433821 0 -0.065969674918634091 0.44209763497951371 0 -0.081386156052715264 0.43849148852129127 0 -0.056603067688703199 0.42963621602433821 0 -0.081386156052715264 0.43849148852129127 0 -0.076166078848011715 0.42339880932118368 0 -0.067554301161950242 0.42501504601732393 0 -0.081386156052715264 0.43849148852129127 0 -0.076166078848011715 0.42339880932118368 0 -0.066653377497597532 0.41049382162657477 0 -0.082817448046816983 0.39972489663746769 0 -0.067554301161950242 0.42501504601732393 0 -0.066653377497597532 0.41049382162657477 0 -0.059145372353128993 0.41955783118227202 0 -0.076166078848011715 0.42339880932118368 0 -0.067554301161950242 0.42501504601732393 0 -0.066653377497597532 0.41049382162657477 0 -0.066653377497597532 0.41049382162657477 0 -0.068026177717106409 0.39216039148898219 0 -0.082817448046816983 0.39972489663746769 0 -0.066653377497597532 0.41049382162657477 0 -0.068026177717106409 0.39216039148898219 0 -0.057844372008863228 0.39977886658104977 0 -0.099571489656212042 0.40570015249908681 0 -0.096102036039362237 0.39396253580812268 0 -0.082817448046816983 0.39972489663746769 0 -0.096102036039362237 0.39396253580812268 0 -0.082817448046816983 0.39972489663746769 0 -0.091954935519808989 0.38505324910776939 0 -0.082817448046816983 0.39972489663746769 0 -0.082396724809108007 0.38213928198966601 0 -0.072421621171135361 0.37894075518739551 0 -0.082817448046816983 0.39972489663746769 0 -0.091954935519808989 0.38505324910776939 0 -0.082396724809108007 0.38213928198966601 0 -0.087095098248418101 0.37484103249908413 0 -0.098335812096802866 0.37605223254572018 0 -0.091954935519808989 0.38505324910776939 0 -0.087095098248418101 0.37484103249908413 0 -0.091954935519808989 0.38505324910776939 0 -0.082396724809108007 0.38213928198966601 0 -0.079248693987463148 0.37333765007022218 0 -0.087095098248418101 0.37484103249908413 0 -0.082396724809108007 0.38213928198966601 0 -0.068026177717106409 0.39216039148898219 0 -0.082817448046816983 0.39972489663746769 0 -0.072421621171135361 0.37894075518739551 0 -0.082817448046816983 0.39972489663746769 0 -0.072421621171135361 0.37894075518739551 0 -0.079248693987463148 0.37333765007022218 0 -0.082396724809108007 0.38213928198966601 0 -0.072421621171135361 0.37894075518739551 0 -0.068026177717106409 0.39216039148898219 0 -0.072421621171135361 0.37894075518739551 0 -0.065410512901781445 0.38174612566571059 0 -0.068026177717106409 0.39216039148898219 0 -0.065410512901781445 0.38174612566571059 0 -0.059540299753907622 0.38649252317126809 0 -0.068610387930261807 0.37312221889156388 0 -0.065410512901781445 0.38174612566571059 0 -0.05845407793649602 0.3780147395893434 0 -0.068610387930261807 0.37312221889156388 0 -0.072421621171135361 0.37894075518739551 0 -0.065410512901781445 0.38174612566571059 0 -0.05212433233049002 0.36354874291537043 0 -0.046597117989434958 0.38752651690706719 0 -0.05212433233049002 0.36354874291537043 0 -0.05845407793649602 0.3780147395893434 0 -0.046597117989434958 0.38752651690706719 0 -0.065410512901781445 0.38174612566571059 0 -0.05845407793649602 0.3780147395893434 0 -0.059540299753907622 0.38649252317126809 0 -0.05845407793649602 0.3780147395893434 0 -0.059540299753907622 0.38649252317126809 0 -0.046597117989434958 0.38752651690706719 0 -0.057844372008863228 0.39977886658104977 0 -0.050480287906873159 0.40528779408509302 0 -0.046597117989434958 0.38752651690706719 0 -0.057844372008863228 0.39977886658104977 0 -0.050480287906873159 0.40528779408509302 0 -0.056732088759522632 0.41068856970940548 0 -0.068026177717106409 0.39216039148898219 0 -0.059540299753907622 0.38649252317126809 0 -0.057844372008863228 0.39977886658104977 0 -0.059540299753907622 0.38649252317126809 0 -0.057844372008863228 0.39977886658104977 0 -0.046597117989434958 0.38752651690706719 0 -0.036673457935166152 0.40399369579225453 0 -0.046597117989434958 0.38752651690706719 0 -0.024947249999229031 0.3812823420649179 0 -0.046597117989434958 0.38752651690706719 0 -0.040660443569204147 0.41171570119546091 0 -0.036673457935166152 0.40399369579225453 0 -0.046597117989434958 0.38752651690706719 0 -0.040660443569204147 0.41171570119546091 0 -0.050480287906873159 0.40528779408509302 0 -0.046597117989434958 0.38752651690706719 0 -0.040660443569204147 0.41171570119546091 0 -0.033860659237465812 0.3667946383354056 0 -0.046597117989434958 0.38752651690706719 0 -0.024947249999229031 0.3812823420649179 0 -0.024947249999229031 0.3812823420649179 0 -0.018462138895467349 0.40033882515985908 0 -0.0041601498909107099 0.39486415160942412 0 -0.036673457935166152 0.40399369579225453 0 -0.018462138895467349 0.40033882515985908 0 -0.022591029290931361 0.40863831255846628 0 -0.036673457935166152 0.40399369579225453 0 -0.024947249999229031 0.3812823420649179 0 -0.036673457935166152 0.40399369579225453 0 -0.024947249999229031 0.3812823420649179 0 -0.018462138895467349 0.40033882515985908 0 -0.0041601498909107099 0.39486415160942412 0 -0.0096881018905816407 0.41168354254352257 0 0.011034103982847401 0.40727448451550369 0 -0.018462138895467349 0.40033882515985908 0 -0.0041601498909107099 0.39486415160942412 0 -0.0096881018905816407 0.41168354254352257 0 -0.0012915132074347089 0.36652510761091239 0 -0.024947249999229031 0.3812823420649179 0 0.0022634058800765338 0.37998431242390279 0 -0.024947249999229031 0.3812823420649179 0 -0.0041601498909107099 0.39486415160942412 0 0.0022634058800765338 0.37998431242390279 0 -0.01111497266538608 0.42671142370513843 0 -0.02798860266805624 0.43705881919417228 0 -0.00069522750787146328 0.44046125278118642 0 -0.01111497266538608 0.42671142370513843 0 -0.00069522750787146328 0.44046125278118642 0 0.0075383504917777792 0.42465595175508147 0 -0.01111497266538608 0.42671142370513843 0 -0.0096881018905816407 0.41168354254352257 0 -0.025540418442510319 0.41853718673822932 0 -0.01111497266538608 0.42671142370513843 0 -0.0096881018905816407 0.41168354254352257 0 0.0075383504917777792 0.42465595175508147 0 -0.0096881018905816407 0.41168354254352257 0 -0.022591029290931361 0.40863831255846628 0 -0.025540418442510319 0.41853718673822932 0 -0.018462138895467349 0.40033882515985908 0 -0.0096881018905816407 0.41168354254352257 0 -0.022591029290931361 0.40863831255846628 0 -0.036673457935166152 0.40399369579225453 0 -0.022591029290931361 0.40863831255846628 0 -0.025540418442510319 0.41853718673822932 0 -0.01111497266538608 0.42671142370513843 0 -0.025540418442510319 0.41853718673822932 0 -0.02798860266805624 0.43705881919417228 0 -0.025540418442510319 0.41853718673822932 0 -0.02798860266805624 0.43705881919417228 0 -0.041814513434106568 0.43747381572216998 0 -0.025540418442510319 0.41853718673822932 0 -0.04839966587110512 0.4267050495195901 0 -0.025540418442510319 0.41853718673822932 0 -0.041814513434106568 0.43747381572216998 0 -0.04839966587110512 0.4267050495195901 0 -0.025540418442510319 0.41853718673822932 0 -0.040660443569204147 0.41171570119546091 0 -0.04839966587110512 0.4267050495195901 0 -0.036673457935166152 0.40399369579225453 0 -0.025540418442510319 0.41853718673822932 0 -0.040660443569204147 0.41171570119546091 0 -0.036673457935166152 0.40399369579225453 0 -0.040660443569204147 0.41171570119546091 0 -0.040660443569204147 0.41171570119546091 0 -0.04839966587110512 0.4267050495195901 0 -0.040660443569204147 0.41171570119546091 0 -0.050778880225179727 0.41555691758631907 0 -0.04839966587110512 0.4267050495195901 0 -0.050480287906873159 0.40528779408509302 0 -0.040660443569204147 0.41171570119546091 0 -0.050778880225179727 0.41555691758631907 0 -0.050480287906873159 0.40528779408509302 0 -0.050778880225179727 0.41555691758631907 0 -0.056732088759522632 0.41068856970940548 0 -0.050778880225179727 0.41555691758631907 0 -0.059145372353128993 0.41955783118227202 0 -0.04839966587110512 0.4267050495195901 0 -0.050778880225179727 0.41555691758631907 0 -0.059145372353128993 0.41955783118227202 0 -0.056732088759522632 0.41068856970940548 0 -0.066653377497597532 0.41049382162657477 0 -0.059145372353128993 0.41955783118227202 0 -0.056732088759522632 0.41068856970940548 0 -0.066653377497597532 0.41049382162657477 0 -0.057844372008863228 0.39977886658104977 0 -0.056732088759522632 0.41068856970940548 0 -0.04839966587110512 0.4267050495195901 0 -0.056603067688703199 0.42963621602433821 0 -0.054407330763398973 0.43834071240307731 0 -0.04839966587110512 0.4267050495195901 0 -0.054407330763398973 0.43834071240307731 0 -0.041814513434106568 0.43747381572216998 0 -0.04839966587110512 0.4267050495195901 0 -0.054407330763398973 0.43834071240307731 0 -0.04839966587110512 0.4267050495195901 0 -0.056603067688703199 0.42963621602433821 0 -0.067554301161950242 0.42501504601732393 0 -0.059145372353128993 0.41955783118227202 0 -0.056603067688703199 0.42963621602433821 0 -0.059145372353128993 0.41955783118227202 0 -0.056603067688703199 0.42963621602433821 0 -0.059145372353128993 0.41955783118227202 0 -0.04839966587110512 0.4267050495195901 0 -0.056603067688703199 0.42963621602433821 0 -0.056603067688703199 0.42963621602433821 0 -0.054407330763398973 0.43834071240307731 0 -0.056603067688703199 0.42963621602433821 0 -0.054407330763398973 0.43834071240307731 0 -0.065969674918634091 0.44209763497951371 0 -0.061406648736320762 0.45189701186506798 0 -0.054407330763398973 0.43834071240307731 0 -0.047206987013957341 0.46688482685067761 0 -0.054407330763398973 0.43834071240307731 0 -0.047206987013957341 0.46688482685067761 0 -0.061406648736320762 0.45189701186506798 0 -0.054407330763398973 0.43834071240307731 0 -0.065969674918634091 0.44209763497951371 0 -0.061406648736320762 0.45189701186506798 0 -0.054407330763398973 0.43834071240307731 0 -0.061406648736320762 0.45189701186506798 0 -0.047206987013957341 0.46688482685067761 0 -0.068405966709242705 0.46545331132705869 0 -0.047206987013957341 0.46688482685067761 0 -0.031468687847708607 0.46355162875185418 0 -0.038809384738874929 0.4497324259642565 0 -0.054407330763398973 0.43834071240307731 0 -0.047206987013957341 0.46688482685067761 0 -0.038809384738874929 0.4497324259642565 0 -0.041814513434106568 0.43747381572216998 0 -0.054407330763398973 0.43834071240307731 0 -0.038809384738874929 0.4497324259642565 0 -0.02798860266805624 0.43705881919417228 0 -0.041814513434106568 0.43747381572216998 0 -0.038809384738874929 0.4497324259642565 0 -0.02798860266805624 0.43705881919417228 0 -0.023401487672922869 0.4525238415315635 0 -0.00069522750787146328 0.44046125278118642 0 -0.02798860266805624 0.43705881919417228 0 -0.038809384738874929 0.4497324259642565 0 -0.023401487672922869 0.4525238415315635 0 -0.031468687847708607 0.46355162875185418 0 -0.038809384738874929 0.4497324259642565 0 -0.023401487672922869 0.4525238415315635 0 -0.031468687847708607 0.46355162875185418 0 -0.023401487672922869 0.4525238415315635 0 -0.01537937392693136 0.46876132417640543 0 -0.00069522750787146328 0.44046125278118642 0 -0.01537937392693136 0.46876132417640543 0 0.0085473494867990066 0.46459041614164148 0 -0.023401487672922869 0.4525238415315635 0 -0.00069522750787146328 0.44046125278118642 0 -0.01537937392693136 0.46876132417640543 0 -0.02798860266805624 0.43705881919417228 0 -0.00069522750787146328 0.44046125278118642 0 -0.0092351114354999823 0.48349087954534847 0 -0.02175615444842172 0.5 0 0.0061448972125648371 0.5 0 -0.0092351114354999823 0.48349087954534847 0 -0.01537937392693136 0.46876132417640543 0 0.0085473494867990066 0.46459041614164148 0 -0.0092351114354999823 0.48349087954534847 0 -0.01537937392693136 0.46876132417640543 0 -0.02878690700144601 0.47865122638149082 0 -0.031468687847708607 0.46355162875185418 0 -0.01537937392693136 0.46876132417640543 0 -0.02878690700144601 0.47865122638149082 0 -0.0092351114354999823 0.48349087954534847 0 -0.02878690700144601 0.47865122638149082 0 -0.0260971377111733 0.48959507007757658 0 -0.02175615444842172 0.5 0 -0.0260971377111733 0.48959507007757658 0 -0.040006643264515432 0.49542894129827791 0 -0.0092351114354999823 0.48349087954534847 0 -0.02175615444842172 0.5 0 -0.0260971377111733 0.48959507007757658 0 -0.02175615444842172 0.5 0 -0.040006643264515432 0.49542894129827791 0 -0.049657206109408158 0.5 0 -0.02878690700144601 0.47865122638149082 0 -0.0260971377111733 0.48959507007757658 0 -0.040006643264515432 0.49542894129827791 0 -0.040006643264515432 0.49542894129827791 0 -0.049657206109408158 0.5 0 -0.049420050995564221 0.4864143847016496 0 -0.047206987013957341 0.46688482685067761 0 -0.040006643264515432 0.49542894129827791 0 -0.047206987013957341 0.46688482685067761 0 -0.031468687847708607 0.46355162875185418 0 -0.02878690700144601 0.47865122638149082 0 -0.047206987013957341 0.46688482685067761 0 -0.02878690700144601 0.47865122638149082 0 -0.040006643264515432 0.49542894129827791 0 -0.047206987013957341 0.46688482685067761 0 -0.040006643264515432 0.49542894129827791 0 -0.049420050995564221 0.4864143847016496 0 -0.047206987013957341 0.46688482685067761 0 -0.060809367594375982 0.48334377065764311 0 -0.068405966709242705 0.46545331132705869 0 -0.047206987013957341 0.46688482685067761 0 -0.060809367594375982 0.48334377065764311 0 -0.049420050995564221 0.4864143847016496 0 -0.060809367594375982 0.48334377065764311 0 -0.049657206109408158 0.5 0 -0.049420050995564221 0.4864143847016496 0 -0.060809367594375982 0.48334377065764311 0 -0.049657206109408158 0.5 0 -0.077558257770394712 0.5 0 -0.060809367594375982 0.48334377065764311 0 -0.077558257770394712 0.5 0 -0.07685039213099043 0.47962490972583433 0 -0.077558257770394712 0.5 0 -0.090155753678711717 0.48463398886001169 0 -0.07685039213099043 0.47962490972583433 0 -0.077558257770394712 0.5 0 -0.090155753678711717 0.48463398886001169 0 -0.1054593094313812 0.49999999999999978 0 -0.090155753678711717 0.48463398886001169 0 -0.087322614902226994 0.46469347778445808 0 -0.09520462022081147 0.47482971126609591 0 -0.090155753678711717 0.48463398886001169 0 -0.07685039213099043 0.47962490972583433 0 -0.087322614902226994 0.46469347778445808 0 -0.060809367594375982 0.48334377065764311 0 -0.07685039213099043 0.47962490972583433 0 -0.068405966709242705 0.46545331132705869 0 -0.07685039213099043 0.47962490972583433 0 -0.068405966709242705 0.46545331132705869 0 -0.087322614902226994 0.46469347778445808 0 -0.068405966709242705 0.46545331132705869 0 -0.076045171352032606 0.4521227460837936 0 -0.087322614902226994 0.46469347778445808 0 -0.061406648736320762 0.45189701186506798 0 -0.068405966709242705 0.46545331132705869 0 -0.061406648736320762 0.45189701186506798 0 -0.068405966709242705 0.46545331132705869 0 -0.076045171352032606 0.4521227460837936 0 -0.061406648736320762 0.45189701186506798 0 -0.065969674918634091 0.44209763497951371 0 -0.076045171352032606 0.4521227460837936 0 -0.065969674918634091 0.44209763497951371 0 -0.076045171352032606 0.4521227460837936 0 -0.081386156052715264 0.43849148852129127 0 -0.081386156052715264 0.43849148852129127 0 -0.091191749420117971 0.4525945484859511 0 -0.10623881761836849 0.44655071087532028 0 -0.076045171352032606 0.4521227460837936 0 -0.081386156052715264 0.43849148852129127 0 -0.091191749420117971 0.4525945484859511 0 -0.076045171352032606 0.4521227460837936 0 -0.091191749420117971 0.4525945484859511 0 -0.087322614902226994 0.46469347778445808 0 -0.091191749420117971 0.4525945484859511 0 -0.087322614902226994 0.46469347778445808 0 -0.1050355603768891 0.46031826902196632 0 -0.087322614902226994 0.46469347778445808 0 -0.1050355603768891 0.46031826902196632 0 -0.09520462022081147 0.47482971126609591 0 -0.087322614902226994 0.46469347778445808 0 -0.1050355603768891 0.46031826902196632 0 -0.091191749420117971 0.4525945484859511 0 -0.1050355603768891 0.46031826902196632 0 -0.10623881761836849 0.44655071087532028 0 -0.1050355603768891 0.46031826902196632 0 -0.10623881761836849 0.44655071087532028 0 -0.11223554293584009 0.45853982811688432 0 -0.1050355603768891 0.46031826902196632 0 -0.10623881761836849 0.44655071087532028 0 -0.1050355603768891 0.46031826902196632 0 -0.11223554293584009 0.45853982811688432 0 -0.1050355603768891 0.46031826902196632 0 -0.11223554293584009 0.45853982811688432 0 -0.1107799877875963 0.47340423983154212 0 -0.081386156052715264 0.43849148852129127 0 -0.10623881761836849 0.44655071087532028 0 -0.10623881761836849 0.44655071087532028 0 -0.11223554293584009 0.45853982811688432 0 -0.1271705947214293 0.45485077653965988 0 -0.1203882308634798 0.43633692869159008 0 -0.10623881761836849 0.44655071087532028 0 -0.1271705947214293 0.45485077653965988 0 -0.10623881761836849 0.44655071087532028 0 -0.1271705947214293 0.45485077653965988 0 -0.11223554293584009 0.45853982811688432 0 -0.1199335769996305 0.47393033344009028 0 -0.1271705947214293 0.45485077653965988 0 -0.10623881761836849 0.44655071087532028 0 -0.11223554293584009 0.45853982811688432 0 -0.11223554293584009 0.45853982811688432 0 -0.1199335769996305 0.47393033344009028 0 -0.11223554293584009 0.45853982811688432 0 -0.1199335769996305 0.47393033344009028 0 -0.1107799877875963 0.47340423983154212 0 -0.1271705947214293 0.45485077653965988 0 -0.11223554293584009 0.45853982811688432 0 -0.1199335769996305 0.47393033344009028 0 -0.1107799877875963 0.47340423983154212 0 -0.1141791340579227 0.48508734788549629 0 -0.1276316110634213 0.48932083876329607 0 -0.1199335769996305 0.47393033344009028 0 -0.1276316110634213 0.48932083876329607 0 -0.1199335769996305 0.47393033344009028 0 -0.1141791340579227 0.48508734788549629 0 -0.1276316110634213 0.48932083876329607 0 -0.1054593094313812 0.49999999999999978 0 -0.1276316110634213 0.48932083876329607 0 -0.1141791340579227 0.48508734788549629 0 -0.1054593094313812 0.49999999999999978 0 -0.13297312164065109 0.499999999999997 0 -0.1276316110634213 0.48932083876329607 0 -0.1054593094313812 0.49999999999999978 0 -0.1141791340579227 0.48508734788549629 0 -0.10251612456770021 0.48914542069327288 0 -0.1054593094313812 0.49999999999999978 0 -0.090155753678711717 0.48463398886001169 0 -0.10251612456770021 0.48914542069327288 0 -0.1054593094313812 0.49999999999999978 0 -0.1050355603768891 0.46031826902196632 0 -0.10251612456770021 0.48914542069327288 0 -0.09520462022081147 0.47482971126609591 0 -0.1050355603768891 0.46031826902196632 0 -0.10251612456770021 0.48914542069327288 0 -0.090155753678711717 0.48463398886001169 0 -0.10251612456770021 0.48914542069327288 0 -0.09520462022081147 0.47482971126609591 0 -0.1107799877875963 0.47340423983154212 0 -0.1141791340579227 0.48508734788549629 0 -0.10251612456770021 0.48914542069327288 0 -0.1050355603768891 0.46031826902196632 0 -0.1107799877875963 0.47340423983154212 0 -0.10251612456770021 0.48914542069327288 0 -0.16032664250474041 0.088649314778320429 0 -0.1776295210243192 0.091014586046016893 0 -0.16032664250474041 0.088649314778320429 0 -0.1776295210243192 0.091014586046016893 0 -0.16336381957050361 0.1002423243847964 0 -0.16032664250474041 0.088649314778320429 0 -0.17149730225684029 0.077292088459833777 0 -0.1776295210243192 0.091014586046016893 0 -0.16032664250474041 0.088649314778320429 0 -0.15627249243182259 0.076864792695766349 0 -0.17149730225684029 0.077292088459833777 0 -0.15627249243182259 0.076864792695766349 0 -0.1629377817967585 0.066334597483444016 0 -0.17149730225684029 0.077292088459833777 0 -0.1629377817967585 0.066334597483444016 0 -0.17149730225684029 0.077292088459833777 0 -0.17636794898810559 0.061295532447953063 0 -0.17149730225684029 0.077292088459833777 0 -0.18377250220644609 0.070940385137827466 0 -0.17636794898810559 0.061295532447953063 0 -0.18377250220644609 0.070940385137827466 0 -0.17636794898810559 0.061295532447953063 0 -0.19158118680766961 0.060331759271752453 0 -0.17149730225684029 0.077292088459833777 0 -0.18377250220644609 0.070940385137827466 0 -0.18693637196140761 0.082016321396729111 0 -0.18693637196140761 0.082016321396729111 0 -0.1776295210243192 0.091014586046016893 0 -0.19493239954389799 0.093379857313713524 0 -0.1776295210243192 0.091014586046016893 0 -0.19493239954389799 0.093379857313713524 0 -0.17149730225684029 0.077292088459833777 0 -0.18693637196140761 0.082016321396729111 0 -0.1776295210243192 0.091014586046016893 0 -0.1776295210243192 0.091014586046016893 0 -0.18336666747645439 0.1028473276981569 0 -0.19493239954389799 0.093379857313713524 0 -0.1776295210243192 0.091014586046016893 0 -0.18336666747645439 0.1028473276981569 0 -0.1733475182994943 0.10820659723769489 0 -0.18336666747645439 0.1028473276981569 0 -0.1733475182994943 0.10820659723769489 0 -0.18755723103810629 0.1187882701952022 0 -0.1733475182994943 0.10820659723769489 0 -0.1722804927875963 0.1236711358984869 0 -0.18755723103810629 0.1187882701952022 0 -0.1722804927875963 0.1236711358984869 0 -0.15862771313235341 0.1135322229064419 0 -0.16168793893571501 0.13363190607640579 0 -0.1733475182994943 0.10820659723769489 0 -0.1722804927875963 0.1236711358984869 0 -0.15862771313235341 0.1135322229064419 0 -0.1776295210243192 0.091014586046016893 0 -0.1733475182994943 0.10820659723769489 0 -0.16336381957050361 0.1002423243847964 0 -0.15862771313235341 0.1135322229064419 0 -0.16336381957050361 0.1002423243847964 0 -0.14688770289161079 0.099808900955507832 0 -0.16032664250474041 0.088649314778320429 0 -0.16336381957050361 0.1002423243847964 0 -0.14688770289161079 0.099808900955507832 0 -0.1733475182994943 0.10820659723769489 0 -0.15862771313235341 0.1135322229064419 0 -0.16336381957050361 0.1002423243847964 0 -0.14688770289161079 0.099808900955507832 0 -0.1447548866879228 0.118053399692452 0 -0.13235754695007221 0.10970570290738681 0 -0.15862771313235341 0.1135322229064419 0 -0.1447548866879228 0.118053399692452 0 -0.16168793893571501 0.13363190607640579 0 -0.15862771313235341 0.1135322229064419 0 -0.14688770289161079 0.099808900955507832 0 -0.1447548866879228 0.118053399692452 0 -0.1447548866879228 0.118053399692452 0 -0.13236593884934869 0.1227556925435045 0 -0.14228202619971811 0.1321705647724411 0 -0.1447548866879228 0.118053399692452 0 -0.13235754695007221 0.10970570290738681 0 -0.13236593884934869 0.1227556925435045 0 -0.13235754695007221 0.10970570290738681 0 -0.13236593884934869 0.1227556925435045 0 -0.12271063477338461 0.11656434709622369 0 -0.13236593884934869 0.1227556925435045 0 -0.1226897624986597 0.12539343477150269 0 -0.12271063477338461 0.11656434709622369 0 -0.14688770289161079 0.099808900955507832 0 -0.13235754695007221 0.10970570290738681 0 -0.12942077957145351 0.085038069788139284 0 -0.13235754695007221 0.10970570290738681 0 -0.12942077957145351 0.085038069788139284 0 -0.13235754695007221 0.10970570290738681 0 -0.12942077957145351 0.085038069788139284 0 -0.11838686230135841 0.0991027021444911 0 -0.12942077957145351 0.085038069788139284 0 -0.14690304262703141 0.08354868876614692 0 -0.14438675543477519 0.068171704045393508 0 -0.16032664250474041 0.088649314778320429 0 -0.14688770289161079 0.099808900955507832 0 -0.14690304262703141 0.08354868876614692 0 -0.14688770289161079 0.099808900955507832 0 -0.12942077957145351 0.085038069788139284 0 -0.14690304262703141 0.08354868876614692 0 -0.16032664250474041 0.088649314778320429 0 -0.15627249243182259 0.076864792695766349 0 -0.14690304262703141 0.08354868876614692 0 -0.15627249243182259 0.076864792695766349 0 -0.1629377817967585 0.066334597483444016 0 -0.14438675543477519 0.068171704045393508 0 -0.15627249243182259 0.076864792695766349 0 -0.14690304262703141 0.08354868876614692 0 -0.14438675543477519 0.068171704045393508 0 -0.12942077957145351 0.085038069788139284 0 -0.1264840121928352 0.060370436668891858 0 -0.12942077957145351 0.085038069788139284 0 -0.14438675543477519 0.068171704045393508 0 -0.1264840121928352 0.060370436668891858 0 -0.1264840121928352 0.060370436668891858 0 -0.15151936413408479 0.050037263705516068 0 -0.1264840121928352 0.060370436668891858 0 -0.13540550209822269 0.044494089299669581 0 -0.15151936413408479 0.050037263705516068 0 -0.13540550209822269 0.044494089299669581 0 -0.13569820616105571 0.0274559656783314 0 -0.1231805301904309 0.032622552160018997 0 -0.1264840121928352 0.060370436668891858 0 -0.13540550209822269 0.044494089299669581 0 -0.1231805301904309 0.032622552160018997 0 -0.13540550209822269 0.044494089299669581 0 -0.15151936413408479 0.050037263705516068 0 -0.13569820616105571 0.0274559656783314 0 -0.15151936413408479 0.050037263705516068 0 -0.13569820616105571 0.0274559656783314 0 -0.1505008671867567 0.037566841317044401 0 -0.15151936413408479 0.050037263705516068 0 -0.13569820616105571 0.0274559656783314 0 -0.14438675543477519 0.068171704045393508 0 -0.1264840121928352 0.060370436668891858 0 -0.15151936413408479 0.050037263705516068 0 -0.1629377817967585 0.066334597483444016 0 -0.14438675543477519 0.068171704045393508 0 -0.15151936413408479 0.050037263705516068 0 -0.13185606356650309 -0.00067556194706120819 0 -0.13569820616105571 0.0274559656783314 0 -0.14738187898061639 0.0050318030858907794 0 -0.13185606356650309 -0.00067556194706120819 0 -0.13569820616105571 0.0274559656783314 0 -0.1198770481880274 0.0048746676511459506 0 -0.13569820616105571 0.0274559656783314 0 -0.1198770481880274 0.0048746676511459506 0 -0.1231805301904309 0.032622552160018997 0 -0.13569820616105571 0.0274559656783314 0 -0.1198770481880274 0.0048746676511459506 0 -0.13569820616105571 0.0274559656783314 0 -0.15060995855614631 0.02241728574641896 0 -0.14738187898061639 0.0050318030858907794 0 -0.1505008671867567 0.037566841317044401 0 -0.13569820616105571 0.0274559656783314 0 -0.15060995855614631 0.02241728574641896 0 -0.1505008671867567 0.037566841317044401 0 -0.15060995855614631 0.02241728574641896 0 -0.1638471209340927 0.030256811103577721 0 -0.15060995855614631 0.02241728574641896 0 -0.14738187898061639 0.0050318030858907794 0 -0.16692207894944389 0.0163505253017961 0 -0.1649960424305798 -0.0013444332500506589 0 -0.14738187898061639 0.0050318030858907794 0 -0.16692207894944389 0.0163505253017961 0 -0.1649960424305798 -0.0013444332500506589 0 -0.16692207894944389 0.0163505253017961 0 -0.18032818442133461 0.0030944576768450671 0 -0.15060995855614631 0.02241728574641896 0 -0.16692207894944389 0.0163505253017961 0 -0.1638471209340927 0.030256811103577721 0 -0.16692207894944389 0.0163505253017961 0 -0.1638471209340927 0.030256811103577721 0 -0.17133230510764541 0.02782522840723407 0 -0.1638471209340927 0.030256811103577721 0 -0.17133230510764541 0.02782522840723407 0 -0.1725124119151103 0.034341561794899438 0 -0.16692207894944389 0.0163505253017961 0 -0.1800316899237793 0.02487108689794371 0 -0.18560512429292289 0.01495081800690214 0 -0.17133230510764541 0.02782522840723407 0 -0.1800316899237793 0.02487108689794371 0 -0.17843245883904699 0.032281890290157773 0 -0.1800316899237793 0.02487108689794371 0 -0.1860725478741154 0.033891601434492762 0 -0.1914646236177267 0.023856466445805261 0 -0.1800316899237793 0.02487108689794371 0 -0.17843245883904699 0.032281890290157773 0 -0.1860725478741154 0.033891601434492762 0 -0.1800316899237793 0.02487108689794371 0 -0.18560512429292289 0.01495081800690214 0 -0.1914646236177267 0.023856466445805261 0 -0.16692207894944389 0.0163505253017961 0 -0.17133230510764541 0.02782522840723407 0 -0.1800316899237793 0.02487108689794371 0 -0.16692207894944389 0.0163505253017961 0 -0.18032818442133461 0.0030944576768450671 0 -0.18560512429292289 0.01495081800690214 0 -0.18032818442133461 0.0030944576768450671 0 -0.18560512429292289 0.01495081800690214 0 -0.19646002443729199 0.010368874809047199 0 -0.1629377817967585 0.066334597483444016 0 -0.15151936413408479 0.050037263705516068 0 -0.15151936413408479 0.050037263705516068 0 -0.16927064434858219 0.052689924220596332 0 -0.17150493470249731 0.041788354006137278 0 -0.1629377817967585 0.066334597483444016 0 -0.15151936413408479 0.050037263705516068 0 -0.16927064434858219 0.052689924220596332 0 -0.1629377817967585 0.066334597483444016 0 -0.16927064434858219 0.052689924220596332 0 -0.17636794898810559 0.061295532447953063 0 -0.1505008671867567 0.037566841317044401 0 -0.1638471209340927 0.030256811103577721 0 -0.17150493470249731 0.041788354006137278 0 -0.15151936413408479 0.050037263705516068 0 -0.17150493470249731 0.041788354006137278 0 -0.1505008671867567 0.037566841317044401 0 -0.15151936413408479 0.050037263705516068 0 -0.17150493470249731 0.041788354006137278 0 -0.1505008671867567 0.037566841317044401 0 -0.17150493470249731 0.041788354006137278 0 -0.1638471209340927 0.030256811103577721 0 -0.17150493470249731 0.041788354006137278 0 -0.1725124119151103 0.034341561794899438 0 -0.16927064434858219 0.052689924220596332 0 -0.17150493470249731 0.041788354006137278 0 -0.18820165302404959 0.045144152029916437 0 -0.17150493470249731 0.041788354006137278 0 -0.1770842391304949 0.039485533666116228 0 -0.18820165302404959 0.045144152029916437 0 -0.17150493470249731 0.041788354006137278 0 -0.18820165302404959 0.045144152029916437 0 -0.17150493470249731 0.041788354006137278 0 -0.1770842391304949 0.039485533666116228 0 -0.17133230510764541 0.02782522840723407 0 -0.1725124119151103 0.034341561794899438 0 -0.17843245883904699 0.032281890290157773 0 -0.17150493470249731 0.041788354006137278 0 -0.1770842391304949 0.039485533666116228 0 -0.1725124119151103 0.034341561794899438 0 -0.1770842391304949 0.039485533666116228 0 -0.1725124119151103 0.034341561794899438 0 -0.17843245883904699 0.032281890290157773 0 -0.1770842391304949 0.039485533666116228 0 -0.17843245883904699 0.032281890290157773 0 -0.1860725478741154 0.033891601434492762 0 -0.1770842391304949 0.039485533666116228 0 -0.1860725478741154 0.033891601434492762 0 -0.18820165302404959 0.045144152029916437 0 -0.16927064434858219 0.052689924220596332 0 -0.18820165302404959 0.045144152029916437 0 -0.16927064434858219 0.052689924220596332 0 -0.18190622793906039 0.051612780134154899 0 -0.18820165302404959 0.045144152029916437 0 -0.16927064434858219 0.052689924220596332 0 -0.18190622793906039 0.051612780134154899 0 -0.17636794898810559 0.061295532447953063 0 -0.18190622793906039 0.051612780134154899 0 -0.17636794898810559 0.061295532447953063 0 -0.19158118680766961 0.060331759271752453 0 -0.18190622793906039 0.051612780134154899 0 -0.19989491613592991 0.047494328183497789 0 -0.18190622793906039 0.051612780134154899 0 -0.19158118680766961 0.060331759271752453 0 -0.19989491613592991 0.047494328183497789 0 -0.18190622793906039 0.051612780134154899 0 -0.19989491613592991 0.047494328183497789 0 -0.18820165302404959 0.045144152029916437 0 -0.19158118680766961 0.060331759271752453 0 -0.19989491613592991 0.047494328183497789 0 -0.20633729726509351 0.058888717189835252 0 -0.19989491613592991 0.047494328183497789 0 -0.18820165302404959 0.045144152029916437 0 -0.18820165302404959 0.045144152029916437 0 -0.2078703138999502 0.037304356654530788 0 -0.19989491613592991 0.047494328183497789 0 -0.18820165302404959 0.045144152029916437 0 -0.2078703138999502 0.037304356654530788 0 -0.18820165302404959 0.045144152029916437 0 -0.19520452841866601 0.032883603010058889 0 -0.2078703138999502 0.037304356654530788 0 -0.1860725478741154 0.033891601434492762 0 -0.18820165302404959 0.045144152029916437 0 -0.19520452841866601 0.032883603010058889 0 -0.19520452841866601 0.032883603010058889 0 -0.2078703138999502 0.037304356654530788 0 -0.20147853181091219 0.024439912660298681 0 -0.19989491613592991 0.047494328183497789 0 -0.2078703138999502 0.037304356654530788 0 -0.2219988189266342 0.042433711168556758 0 -0.2078703138999502 0.037304356654530788 0 -0.22753897477585111 0.029464561279145832 0 -0.19989491613592991 0.047494328183497789 0 -0.2219988189266342 0.042433711168556758 0 -0.19989491613592991 0.047494328183497789 0 -0.2166817837017537 0.050868244896827883 0 -0.20633729726509351 0.058888717189835252 0 -0.19989491613592991 0.047494328183497789 0 -0.2166817837017537 0.050868244896827883 0 -0.19989491613592991 0.047494328183497789 0 -0.2166817837017537 0.050868244896827883 0 -0.2219988189266342 0.042433711168556758 0 -0.2166817837017537 0.050868244896827883 0 -0.20633729726509351 0.058888717189835252 0 -0.2210810660443078 0.064842746793794315 0 -0.19159911500729959 -0.0090173167708576182 0 -0.18032818442133461 0.0030944576768450671 0 -0.19646002443729199 0.010368874809047199 0 -0.19159911500729959 -0.0090173167708576182 0 -0.19646002443729199 0.010368874809047199 0 -0.20803845558677481 0.00032958680966351309 0 -0.19646002443729199 0.010368874809047199 0 -0.1914646236177267 0.023856466445805261 0 -0.20147853181091219 0.024439912660298681 0 -0.18560512429292289 0.01495081800690214 0 -0.19646002443729199 0.010368874809047199 0 -0.1914646236177267 0.023856466445805261 0 -0.1860725478741154 0.033891601434492762 0 -0.19520452841866601 0.032883603010058889 0 -0.1914646236177267 0.023856466445805261 0 -0.19520452841866601 0.032883603010058889 0 -0.1914646236177267 0.023856466445805261 0 -0.20147853181091219 0.024439912660298681 0 -0.2078703138999502 0.037304356654530788 0 -0.20147853181091219 0.024439912660298681 0 -0.21190530372136321 0.018834938420848778 0 -0.2078703138999502 0.037304356654530788 0 -0.21190530372136321 0.018834938420848778 0 -0.22753897477585111 0.029464561279145832 0 -0.19646002443729199 0.010368874809047199 0 -0.20147853181091219 0.024439912660298681 0 -0.21190530372136321 0.018834938420848778 0 -0.21190530372136321 0.018834938420848778 0 -0.20803845558677481 0.00032958680966351309 0 -0.22774142163249911 0.0091431922092035378 0 -0.19646002443729199 0.010368874809047199 0 -0.21190530372136321 0.018834938420848778 0 -0.20803845558677481 0.00032958680966351309 0 -0.21190530372136321 0.018834938420848778 0 -0.22774142163249911 0.0091431922092035378 0 -0.22753897477585111 0.029464561279145832 0 -0.22774142163249911 0.0091431922092035378 0 -0.22753897477585111 0.029464561279145832 0 -0.24720763565175199 0.021624765903760879 0 -0.22753897477585111 0.029464561279145832 0 -0.24720763565175199 0.021624765903760879 0 -0.24410272171733879 0.03737309415361658 0 -0.22753897477585111 0.029464561279145832 0 -0.24720763565175199 0.021624765903760879 0 -0.24204198335637811 -0.0026304284190125991 0 -0.25689548211398672 0.003199995621086429 0 -0.24720763565175199 0.021624765903760879 0 -0.24204198335637811 -0.0026304284190125991 0 -0.22774142163249911 0.0091431922092035378 0 -0.24720763565175199 0.021624765903760879 0 -0.2166817837017537 0.050868244896827883 0 -0.2334686512675776 0.05424216161015722 0 -0.2219988189266342 0.042433711168556758 0 -0.2166817837017537 0.050868244896827883 0 -0.2334686512675776 0.05424216161015722 0 -0.2210810660443078 0.064842746793794315 0 -0.2166817837017537 0.050868244896827883 0 -0.2334686512675776 0.05424216161015722 0 -0.2334686512675776 0.05424216161015722 0 -0.2325081494656662 0.065724113807827778 0 -0.2210810660443078 0.064842746793794315 0 -0.2078703138999502 0.037304356654530788 0 -0.22753897477585111 0.029464561279145832 0 -0.2219988189266342 0.042433711168556758 0 -0.2219988189266342 0.042433711168556758 0 -0.24410272171733879 0.03737309415361658 0 -0.2334686512675776 0.05424216161015722 0 -0.2219988189266342 0.042433711168556758 0 -0.24410272171733879 0.03737309415361658 0 -0.22753897477585111 0.029464561279145832 0 -0.2219988189266342 0.042433711168556758 0 -0.24410272171733879 0.03737309415361658 0 -0.2334686512675776 0.05424216161015722 0 -0.24410272171733879 0.03737309415361658 0 -0.24933364105965389 0.052640536924998073 0 -0.2334686512675776 0.05424216161015722 0 -0.24933364105965389 0.052640536924998073 0 -0.24469319669088871 0.067914101683764758 0 -0.24469319669088871 0.067914101683764758 0 -0.24212914814080441 0.085811078060409302 0 -0.23078968385989071 0.075897445143594824 0 -0.24469319669088871 0.067914101683764758 0 -0.2325081494656662 0.065724113807827778 0 -0.23078968385989071 0.075897445143594824 0 -0.2334686512675776 0.05424216161015722 0 -0.24469319669088871 0.067914101683764758 0 -0.2325081494656662 0.065724113807827778 0 -0.25981594507570271 0.084526567999776564 0 -0.24469319669088871 0.067914101683764758 0 -0.24212914814080441 0.085811078060409302 0 -0.24212914814080441 0.085811078060409302 0 -0.22817923825549449 0.087566289575200476 0 -0.2375047018019936 0.099199411743158342 0 -0.22817923825549449 0.087566289575200476 0 -0.23078968385989071 0.075897445143594824 0 -0.2142541068018384 0.080633878400404035 0 -0.22817923825549449 0.087566289575200476 0 -0.2142541068018384 0.080633878400404035 0 -0.21621855067294579 0.096289634528435863 0 -0.24212914814080441 0.085811078060409302 0 -0.22817923825549449 0.087566289575200476 0 -0.23078968385989071 0.075897445143594824 0 -0.23078968385989071 0.075897445143594824 0 -0.2210810660443078 0.064842746793794315 0 -0.2142541068018384 0.080633878400404035 0 -0.2325081494656662 0.065724113807827778 0 -0.23078968385989071 0.075897445143594824 0 -0.2210810660443078 0.064842746793794315 0 -0.20633729726509351 0.058888717189835252 0 -0.2210810660443078 0.064842746793794315 0 -0.2012082283113823 0.071758812537246225 0 -0.2210810660443078 0.064842746793794315 0 -0.2142541068018384 0.080633878400404035 0 -0.2012082283113823 0.071758812537246225 0 -0.2142541068018384 0.080633878400404035 0 -0.19493239954389799 0.093379857313713524 0 -0.2012082283113823 0.071758812537246225 0 -0.2142541068018384 0.080633878400404035 0 -0.19493239954389799 0.093379857313713524 0 -0.21621855067294579 0.096289634528435863 0 -0.19493239954389799 0.093379857313713524 0 -0.2012082283113823 0.071758812537246225 0 -0.18693637196140761 0.082016321396729111 0 -0.19493239954389799 0.093379857313713524 0 -0.2012082283113823 0.071758812537246225 0 -0.18377250220644609 0.070940385137827466 0 -0.18693637196140761 0.082016321396729111 0 -0.2012082283113823 0.071758812537246225 0 -0.18377250220644609 0.070940385137827466 0 -0.19158118680766961 0.060331759271752453 0 -0.2012082283113823 0.071758812537246225 0 -0.19158118680766961 0.060331759271752453 0 -0.20633729726509351 0.058888717189835252 0 -0.2012082283113823 0.071758812537246225 0 -0.18755723103810629 0.1187882701952022 0 -0.20221666213834971 0.10522263983782271 0 -0.2053188066678405 0.1153976304553541 0 -0.18755723103810629 0.1187882701952022 0 -0.2053188066678405 0.1153976304553541 0 -0.20178291573934709 0.12557363762638049 0 -0.19493239954389799 0.093379857313713524 0 -0.18755723103810629 0.1187882701952022 0 -0.20221666213834971 0.10522263983782271 0 -0.18336666747645439 0.1028473276981569 0 -0.19493239954389799 0.093379857313713524 0 -0.18755723103810629 0.1187882701952022 0 -0.19493239954389799 0.093379857313713524 0 -0.18755723103810629 0.1187882701952022 0 -0.19493239954389799 0.093379857313713524 0 -0.20221666213834971 0.10522263983782271 0 -0.21621855067294579 0.096289634528435863 0 -0.20221666213834971 0.10522263983782271 0 -0.21621855067294579 0.096289634528435863 0 -0.2124460490141947 0.10845279723227449 0 -0.19493239954389799 0.093379857313713524 0 -0.21621855067294579 0.096289634528435863 0 -0.21621855067294579 0.096289634528435863 0 -0.2124460490141947 0.10845279723227449 0 -0.22574527832726859 0.1059110419362423 0 -0.2124460490141947 0.10845279723227449 0 -0.2053188066678405 0.1153976304553541 0 -0.2164334215382579 0.1196510783122933 0 -0.20221666213834971 0.10522263983782271 0 -0.2124460490141947 0.10845279723227449 0 -0.2053188066678405 0.1153976304553541 0 -0.2053188066678405 0.1153976304553541 0 -0.20178291573934709 0.12557363762638049 0 -0.21385529765979369 0.1284321363424509 0 -0.2053188066678405 0.1153976304553541 0 -0.21385529765979369 0.1284321363424509 0 -0.2164334215382579 0.1196510783122933 0 -0.21385529765979369 0.1284321363424509 0 -0.2176947166159848 0.12663466427485551 0 -0.2053188066678405 0.1153976304553541 0 -0.2164334215382579 0.1196510783122933 0 -0.21385529765979369 0.1284321363424509 0 -0.2124460490141947 0.10845279723227449 0 -0.2164334215382579 0.1196510783122933 0 -0.2366916232753026 0.1232314731104219 0 -0.22574527832726859 0.1059110419362423 0 -0.2375047018019936 0.099199411743158342 0 -0.2366916232753026 0.1232314731104219 0 -0.2124460490141947 0.10845279723227449 0 -0.22574527832726859 0.1059110419362423 0 -0.2366916232753026 0.1232314731104219 0 -0.2164334215382579 0.1196510783122933 0 -0.2366916232753026 0.1232314731104219 0 -0.2176947166159848 0.12663466427485551 0 -0.2124460490141947 0.10845279723227449 0 -0.2366916232753026 0.1232314731104219 0 -0.21621855067294579 0.096289634528435863 0 -0.2375047018019936 0.099199411743158342 0 -0.22817923825549449 0.087566289575200476 0 -0.21621855067294579 0.096289634528435863 0 -0.2375047018019936 0.099199411743158342 0 -0.21621855067294579 0.096289634528435863 0 -0.22574527832726859 0.1059110419362423 0 -0.2375047018019936 0.099199411743158342 0 -0.2544178763525049 0.11356856211053359 0 -0.25330340275947699 0.097640948961847704 0 -0.2375047018019936 0.099199411743158342 0 -0.25330340275947699 0.097640948961847704 0 -0.24212914814080441 0.085811078060409302 0 -0.2375047018019936 0.099199411743158342 0 -0.2544178763525049 0.11356856211053359 0 -0.2375047018019936 0.099199411743158342 0 -0.2366916232753026 0.1232314731104219 0 -0.26093719753641031 0.1380101489885692 0 -0.2366916232753026 0.1232314731104219 0 -0.2366916232753026 0.1232314731104219 0 -0.22733516676089191 0.13360237557008869 0 -0.24107654509340781 0.14443116564150069 0 -0.26093719753641031 0.1380101489885692 0 -0.2366916232753026 0.1232314731104219 0 -0.24107654509340781 0.14443116564150069 0 -0.22733516676089191 0.13360237557008869 0 -0.2249487685541425 0.14537093611593649 0 -0.21385529765979369 0.1284321363424509 0 -0.2366916232753026 0.1232314731104219 0 -0.22733516676089191 0.13360237557008869 0 -0.2176947166159848 0.12663466427485551 0 -0.2249487685541425 0.14537093611593649 0 -0.21385529765979369 0.1284321363424509 0 -0.22733516676089191 0.13360237557008869 0 -0.21385529765979369 0.1284321363424509 0 -0.2176947166159848 0.12663466427485551 0 -0.2249487685541425 0.14537093611593649 0 -0.23604223944849481 0.1623097358894198 0 -0.21390541875519839 0.16072373816820359 0 -0.2249487685541425 0.14537093611593649 0 -0.23604223944849481 0.1623097358894198 0 -0.22733516676089191 0.13360237557008869 0 -0.2249487685541425 0.14537093611593649 0 -0.24107654509340781 0.14443116564150069 0 -0.2249487685541425 0.14537093611593649 0 -0.24107654509340781 0.14443116564150069 0 -0.23604223944849481 0.1623097358894198 0 -0.26050427498520512 0.16406232417456759 0 -0.23604223944849481 0.1623097358894198 0 -0.24486444091635681 0.17578049771397569 0 -0.26050427498520512 0.16406232417456759 0 -0.24107654509340781 0.14443116564150069 0 -0.23604223944849481 0.1623097358894198 0 -0.26050427498520512 0.16406232417456759 0 -0.23604223944849481 0.1623097358894198 0 -0.23604223944849481 0.1623097358894198 0 -0.24486444091635681 0.17578049771397569 0 -0.24486444091635681 0.17578049771397569 0 -0.23753750070102669 0.18567915983292901 0 -0.22548960956100689 0.17884508565070029 0 -0.23604223944849481 0.1623097358894198 0 -0.24486444091635681 0.17578049771397569 0 -0.22548960956100689 0.17884508565070029 0 -0.25040908159511338 0.19002132091412399 0 -0.25368664238421901 0.1892512595385317 0 -0.24486444091635681 0.17578049771397569 0 -0.25040908159511338 0.19002132091412399 0 -0.24486444091635681 0.17578049771397569 0 -0.23753750070102669 0.18567915983292901 0 -0.25368664238421901 0.1892512595385317 0 -0.24486444091635681 0.17578049771397569 0 -0.23604223944849481 0.1623097358894198 0 -0.21390541875519839 0.16072373816820359 0 -0.23604223944849481 0.1623097358894198 0 -0.22548960956100689 0.17884508565070029 0 -0.21390541875519839 0.16072373816820359 0 -0.22548960956100689 0.17884508565070029 0 -0.21390541875519839 0.16072373816820359 0 -0.2091040012156499 0.17603166184079819 0 -0.21390541875519839 0.16072373816820359 0 -0.2091040012156499 0.17603166184079819 0 -0.19385650484948749 0.17200995872584879 0 -0.22548960956100689 0.17884508565070029 0 -0.2091040012156499 0.17603166184079819 0 -0.2031644716969071 0.19254786481844019 0 -0.2091040012156499 0.17603166184079819 0 -0.19385650484948749 0.17200995872584879 0 -0.2031644716969071 0.19254786481844019 0 -0.19385650484948749 0.17200995872584879 0 -0.2031644716969071 0.19254786481844019 0 -0.17694207266218409 0.18702599458396441 0 -0.19385650484948749 0.17200995872584879 0 -0.19585397011672151 0.15389655117828871 0 -0.18574706332191321 0.15967831511863309 0 -0.21390541875519839 0.16072373816820359 0 -0.19385650484948749 0.17200995872584879 0 -0.19585397011672151 0.15389655117828871 0 -0.19585397011672151 0.15389655117828871 0 -0.197018680096053 0.13631440970957021 0 -0.20911642703638181 0.1449475543028898 0 -0.19585397011672151 0.15389655117828871 0 -0.197018680096053 0.13631440970957021 0 -0.18018206253231289 0.1441966830766904 0 -0.197018680096053 0.13631440970957021 0 -0.18018206253231289 0.1441966830766904 0 -0.18755723103810629 0.1187882701952022 0 -0.197018680096053 0.13631440970957021 0 -0.20178291573934709 0.12557363762638049 0 -0.18755723103810629 0.1187882701952022 0 -0.197018680096053 0.13631440970957021 0 -0.18018206253231289 0.1441966830766904 0 -0.197018680096053 0.13631440970957021 0 -0.21385529765979369 0.1284321363424509 0 -0.20911642703638181 0.1449475543028898 0 -0.2249487685541425 0.14537093611593649 0 -0.21385529765979369 0.1284321363424509 0 -0.20911642703638181 0.1449475543028898 0 -0.197018680096053 0.13631440970957021 0 -0.20178291573934709 0.12557363762638049 0 -0.21385529765979369 0.1284321363424509 0 -0.197018680096053 0.13631440970957021 0 -0.21385529765979369 0.1284321363424509 0 -0.21385529765979369 0.1284321363424509 0 -0.2176947166159848 0.12663466427485551 0 -0.2249487685541425 0.14537093611593649 0 -0.21390541875519839 0.16072373816820359 0 -0.20911642703638181 0.1449475543028898 0 -0.21390541875519839 0.16072373816820359 0 -0.19585397011672151 0.15389655117828871 0 -0.20911642703638181 0.1449475543028898 0 -0.2301111411242979 0.25415493550153279 0 -0.2211268732449827 0.23855303841785169 0 -0.23724109263810569 0.2413784172703988 0 -0.2211268732449827 0.23855303841785169 0 -0.23724109263810569 0.2413784172703988 0 -0.23148167364494229 0.2243439681048032 0 -0.2421275510198525 0.25237273480976591 0 -0.2301111411242979 0.25415493550153279 0 -0.23724109263810569 0.2413784172703988 0 -0.24910725770640421 0.24333336453792839 0 -0.24849444054537431 0.23939689821525401 0 -0.23148167364494229 0.2243439681048032 0 -0.24910725770640421 0.24333336453792839 0 -0.23724109263810569 0.2413784172703988 0 -0.23148167364494229 0.2243439681048032 0 -0.2421275510198525 0.25237273480976591 0 -0.2437377899215383 0.24645675733694411 0 -0.23724109263810569 0.2413784172703988 0 -0.25189002896290491 0.25449239892481551 0 -0.24910725770640421 0.24333336453792839 0 -0.24647525832179051 0.24874251272968301 0 -0.2421275510198525 0.25237273480976591 0 -0.2437377899215383 0.24645675733694411 0 -0.24647525832179051 0.24874251272968301 0 -0.2437377899215383 0.24645675733694411 0 -0.24910725770640421 0.24333336453792839 0 -0.23724109263810569 0.2413784172703988 0 -0.2437377899215383 0.24645675733694411 0 -0.24910725770640421 0.24333336453792839 0 -0.24647525832179051 0.24874251272968301 0 -0.24910725770640421 0.24333336453792839 0 -0.23148167364494229 0.2243439681048032 0 -0.24849444054537431 0.23939689821525401 0 -0.24644648607505501 0.2281382003786194 0 -0.23148167364494229 0.2243439681048032 0 -0.25087712384573357 0.23287003298724779 0 -0.24849444054537431 0.23939689821525401 0 -0.24644648607505501 0.2281382003786194 0 -0.2551855299144159 0.22331770328677139 0 -0.24644648607505501 0.2281382003786194 0 -0.24648494098598731 0.22005601514351311 0 -0.24644648607505501 0.2281382003786194 0 -0.24648494098598731 0.22005601514351311 0 -0.23148167364494229 0.2243439681048032 0 -0.24648494098598731 0.22005601514351311 0 -0.23148167364494229 0.2243439681048032 0 -0.24220639204310829 0.21241091466391429 0 -0.2211268732449827 0.23855303841785169 0 -0.23148167364494229 0.2243439681048032 0 -0.2096890598852971 0.22645567209992271 0 -0.23148167364494229 0.2243439681048032 0 -0.24220639204310829 0.21241091466391429 0 -0.22938687073163011 0.19806973505291611 0 -0.23148167364494229 0.2243439681048032 0 -0.22938687073163011 0.19806973505291611 0 -0.21385608958348051 0.205354571671678 0 -0.23148167364494229 0.2243439681048032 0 -0.21385608958348051 0.205354571671678 0 -0.25560926976635312 0.2035916052873919 0 -0.24220639204310829 0.21241091466391429 0 -0.22938687073163011 0.19806973505291611 0 -0.25194739826678658 0.21444461515785401 0 -0.24648494098598731 0.22005601514351311 0 -0.24220639204310829 0.21241091466391429 0 -0.25560926976635312 0.2035916052873919 0 -0.25194739826678658 0.21444461515785401 0 -0.24220639204310829 0.21241091466391429 0 -0.25560926976635312 0.2035916052873919 0 -0.22938687073163011 0.19806973505291611 0 -0.25040908159511338 0.19002132091412399 0 -0.25560926976635312 0.2035916052873919 0 -0.22938687073163011 0.19806973505291611 0 -0.25040908159511338 0.19002132091412399 0 -0.23753750070102669 0.18567915983292901 0 -0.22938687073163011 0.19806973505291611 0 -0.22548960956100689 0.17884508565070029 0 -0.22938687073163011 0.19806973505291611 0 -0.2031644716969071 0.19254786481844019 0 -0.23753750070102669 0.18567915983292901 0 -0.22548960956100689 0.17884508565070029 0 -0.22938687073163011 0.19806973505291611 0 -0.22938687073163011 0.19806973505291611 0 -0.2031644716969071 0.19254786481844019 0 -0.22938687073163011 0.19806973505291611 0 -0.2031644716969071 0.19254786481844019 0 -0.21385608958348051 0.205354571671678 0 -0.2031644716969071 0.19254786481844019 0 -0.18840077067227279 0.21060566949577519 0 -0.18006453853965479 0.20072848008268049 0 -0.2031644716969071 0.19254786481844019 0 -0.17694207266218409 0.18702599458396441 0 -0.2031644716969071 0.19254786481844019 0 -0.18840077067227279 0.21060566949577519 0 -0.2015521814153737 0.21423496883757689 0 -0.18840077067227279 0.21060566949577519 0 -0.2015521814153737 0.21423496883757689 0 -0.18992993224098259 0.22972679055160791 0 -0.2015521814153737 0.21423496883757689 0 -0.21385608958348051 0.205354571671678 0 -0.2096890598852971 0.22645567209992271 0 -0.2031644716969071 0.19254786481844019 0 -0.2015521814153737 0.21423496883757689 0 -0.21385608958348051 0.205354571671678 0 -0.23148167364494229 0.2243439681048032 0 -0.21385608958348051 0.205354571671678 0 -0.2096890598852971 0.22645567209992271 0 -0.2015521814153737 0.21423496883757689 0 -0.2096890598852971 0.22645567209992271 0 -0.18992993224098259 0.22972679055160791 0 -0.2096890598852971 0.22645567209992271 0 -0.18992993224098259 0.22972679055160791 0 -0.20129010394299149 0.24443847017185061 0 -0.1851657792507185 0.25669063751337651 0 -0.18992993224098259 0.22972679055160791 0 -0.20129010394299149 0.24443847017185061 0 -0.2211268732449827 0.23855303841785169 0 -0.2096890598852971 0.22645567209992271 0 -0.20129010394299149 0.24443847017185061 0 -0.21119725768121819 0.26093741649149621 0 -0.2211268732449827 0.23855303841785169 0 -0.20129010394299149 0.24443847017185061 0 -0.16508023407272601 0.2503971719826491 0 -0.17279815632456749 0.23631497207366761 0 -0.1567165694290184 0.23384928764448071 0 -0.1851657792507185 0.25669063751337651 0 -0.16508023407272601 0.2503971719826491 0 -0.17279815632456749 0.23631497207366761 0 -0.1851657792507185 0.25669063751337651 0 -0.18992993224098259 0.22972679055160791 0 -0.17279815632456749 0.23631497207366761 0 -0.18840077067227279 0.21060566949577519 0 -0.18992993224098259 0.22972679055160791 0 -0.17277557151159259 0.2176558552608501 0 -0.18992993224098259 0.22972679055160791 0 -0.17279815632456749 0.23631497207366761 0 -0.17277557151159259 0.2176558552608501 0 -0.17279815632456749 0.23631497207366761 0 -0.1567165694290184 0.23384928764448071 0 -0.17277557151159259 0.2176558552608501 0 -0.1567165694290184 0.23384928764448071 0 -0.17277557151159259 0.2176558552608501 0 -0.15521239238782769 0.21264255673032839 0 -0.17277557151159259 0.2176558552608501 0 -0.16593946754401381 0.20091814484858159 0 -0.15521239238782769 0.21264255673032839 0 -0.16593946754401381 0.20091814484858159 0 -0.15086180338488411 0.197017249721395 0 -0.15521239238782769 0.21264255673032839 0 -0.18840077067227279 0.21060566949577519 0 -0.17277557151159259 0.2176558552608501 0 -0.18006453853965479 0.20072848008268049 0 -0.17277557151159259 0.2176558552608501 0 -0.18006453853965479 0.20072848008268049 0 -0.16593946754401381 0.20091814484858159 0 -0.18006453853965479 0.20072848008268049 0 -0.16593946754401381 0.20091814484858159 0 -0.17694207266218409 0.18702599458396441 0 -0.2031644716969071 0.19254786481844019 0 -0.18006453853965479 0.20072848008268049 0 -0.17694207266218409 0.18702599458396441 0 -0.16593946754401381 0.20091814484858159 0 -0.17694207266218409 0.18702599458396441 0 -0.15071967362746111 0.18150412434948859 0 -0.16593946754401381 0.20091814484858159 0 -0.14797985587835569 0.18429935568846501 0 -0.16593946754401381 0.20091814484858159 0 -0.15071967362746111 0.18150412434948859 0 -0.14797985587835569 0.18429935568846501 0 -0.16593946754401381 0.20091814484858159 0 -0.15086180338488411 0.197017249721395 0 -0.14797985587835569 0.18429935568846501 0 -0.15086180338488411 0.197017249721395 0 -0.14095724251835079 0.19506066561827909 0 -0.14358266883931489 0.20598332813153819 0 -0.15086180338488411 0.197017249721395 0 -0.1444653831257941 0.1908007686240322 0 -0.14797985587835569 0.18429935568846501 0 -0.1444653831257941 0.1908007686240322 0 -0.14095724251835079 0.19506066561827909 0 -0.138062630721586 0.1868258034679898 0 -0.15086180338488411 0.197017249721395 0 -0.1444653831257941 0.1908007686240322 0 -0.14095724251835079 0.19506066561827909 0 -0.1321566566813264 0.19194401940894201 0 -0.138062630721586 0.1868258034679898 0 -0.1307034668706763 0.18407484815258299 0 -0.14095724251835079 0.19506066561827909 0 -0.1321566566813264 0.19194401940894201 0 -0.138062630721586 0.1868258034679898 0 -0.1256413879108996 0.18801686022701089 0 -0.1321566566813264 0.19194401940894201 0 -0.1307034668706763 0.18407484815258299 0 -0.1256413879108996 0.18801686022701089 0 -0.1321566566813264 0.19194401940894201 0 -0.12438280521313259 0.19722518639459599 0 -0.1321566566813264 0.19194401940894201 0 -0.13449915591114101 0.2001302349884008 0 -0.12438280521313259 0.19722518639459599 0 -0.13449915591114101 0.2001302349884008 0 -0.13141640630358059 0.21043797538864861 0 -0.12438280521313259 0.19722518639459599 0 -0.14095724251835079 0.19506066561827909 0 -0.13449915591114101 0.2001302349884008 0 -0.14358266883931489 0.20598332813153819 0 -0.14095724251835079 0.19506066561827909 0 -0.1321566566813264 0.19194401940894201 0 -0.13449915591114101 0.2001302349884008 0 -0.13141640630358059 0.21043797538864861 0 -0.14139827361814231 0.22043147477512451 0 -0.1247431951047857 0.22181007279510051 0 -0.13449915591114101 0.2001302349884008 0 -0.13141640630358059 0.21043797538864861 0 -0.14358266883931489 0.20598332813153819 0 -0.13141640630358059 0.21043797538864861 0 -0.1197300091643143 0.20799343972127399 0 -0.12438280521313259 0.19722518639459599 0 -0.13141640630358059 0.21043797538864861 0 -0.1247431951047857 0.22181007279510051 0 -0.1197300091643143 0.20799343972127399 0 -0.13141640630358059 0.21043797538864861 0 -0.14358266883931489 0.20598332813153819 0 -0.14139827361814231 0.22043147477512451 0 -0.15086180338488411 0.197017249721395 0 -0.14358266883931489 0.20598332813153819 0 -0.15521239238782769 0.21264255673032839 0 -0.14358266883931489 0.20598332813153819 0 -0.15521239238782769 0.21264255673032839 0 -0.14139827361814231 0.22043147477512451 0 -0.1567165694290184 0.23384928764448071 0 -0.15521239238782769 0.21264255673032839 0 -0.14139827361814231 0.22043147477512451 0 -0.1567165694290184 0.23384928764448071 0 -0.14139827361814231 0.22043147477512451 0 -0.1342627396718909 0.23722222839544871 0 -0.14139827361814231 0.22043147477512451 0 -0.1342627396718909 0.23722222839544871 0 -0.1247431951047857 0.22181007279510051 0 -0.1463982144264159 0.25542208648772902 0 -0.1229484984770164 0.25473045748778822 0 -0.1342627396718909 0.23722222839544871 0 -0.16508023407272601 0.2503971719826491 0 -0.1463982144264159 0.25542208648772902 0 -0.1567165694290184 0.23384928764448071 0 -0.1463982144264159 0.25542208648772902 0 -0.1567165694290184 0.23384928764448071 0 -0.1342627396718909 0.23722222839544871 0 -0.16168793893571501 0.13363190607640579 0 -0.18018206253231289 0.1441966830766904 0 -0.15510115337250571 0.15593862480251811 0 -0.18018206253231289 0.1441966830766904 0 -0.15510115337250571 0.15593862480251811 0 -0.18018206253231289 0.1441966830766904 0 -0.1730957157891311 0.16861006749370491 0 -0.15510115337250571 0.15593862480251811 0 -0.1722804927875963 0.1236711358984869 0 -0.16168793893571501 0.13363190607640579 0 -0.18018206253231289 0.1441966830766904 0 -0.18755723103810629 0.1187882701952022 0 -0.18018206253231289 0.1441966830766904 0 -0.1722804927875963 0.1236711358984869 0 -0.18755723103810629 0.1187882701952022 0 -0.18018206253231289 0.1441966830766904 0 -0.19585397011672151 0.15389655117828871 0 -0.18018206253231289 0.1441966830766904 0 -0.18574706332191321 0.15967831511863309 0 -0.18018206253231289 0.1441966830766904 0 -0.1730957157891311 0.16861006749370491 0 -0.19385650484948749 0.17200995872584879 0 -0.18574706332191321 0.15967831511863309 0 -0.1730957157891311 0.16861006749370491 0 -0.18018206253231289 0.1441966830766904 0 -0.18574706332191321 0.15967831511863309 0 -0.1730957157891311 0.16861006749370491 0 -0.19385650484948749 0.17200995872584879 0 -0.1730957157891311 0.16861006749370491 0 -0.17694207266218409 0.18702599458396441 0 -0.1730957157891311 0.16861006749370491 0 -0.17694207266218409 0.18702599458396441 0 -0.16469702239284059 0.17698887626648879 0 -0.17694207266218409 0.18702599458396441 0 -0.15071967362746111 0.18150412434948859 0 -0.17694207266218409 0.18702599458396441 0 -0.16469702239284059 0.17698887626648879 0 -0.15071967362746111 0.18150412434948859 0 -0.1730957157891311 0.16861006749370491 0 -0.16469702239284059 0.17698887626648879 0 -0.15803062749258609 0.17081531863879729 0 -0.16469702239284059 0.17698887626648879 0 -0.15803062749258609 0.17081531863879729 0 -0.15071967362746111 0.18150412434948859 0 -0.1730957157891311 0.16861006749370491 0 -0.15803062749258609 0.17081531863879729 0 -0.15510115337250571 0.15593862480251811 0 -0.14837031091672129 0.1720475980015235 0 -0.130020244212699 0.16768056652834701 0 -0.15510115337250571 0.15593862480251811 0 -0.130020244212699 0.16768056652834701 0 -0.15510115337250571 0.15593862480251811 0 -0.15803062749258609 0.17081531863879729 0 -0.14837031091672129 0.1720475980015235 0 -0.15510115337250571 0.15593862480251811 0 -0.14837031091672129 0.1720475980015235 0 -0.14797985587835569 0.18429935568846501 0 -0.130020244212699 0.16768056652834701 0 -0.15071967362746111 0.18150412434948859 0 -0.14837031091672129 0.1720475980015235 0 -0.14797985587835569 0.18429935568846501 0 -0.15803062749258609 0.17081531863879729 0 -0.15071967362746111 0.18150412434948859 0 -0.14837031091672129 0.1720475980015235 0 -0.1444653831257941 0.1908007686240322 0 -0.14797985587835569 0.18429935568846501 0 -0.138062630721586 0.1868258034679898 0 -0.14797985587835569 0.18429935568846501 0 -0.138062630721586 0.1868258034679898 0 -0.13224720832892789 0.1789980723507133 0 -0.14797985587835569 0.18429935568846501 0 -0.130020244212699 0.16768056652834701 0 -0.14797985587835569 0.18429935568846501 0 -0.13224720832892789 0.1789980723507133 0 -0.130020244212699 0.16768056652834701 0 -0.138062630721586 0.1868258034679898 0 -0.13224720832892789 0.1789980723507133 0 -0.1307034668706763 0.18407484815258299 0 -0.13224720832892789 0.1789980723507133 0 -0.130020244212699 0.16768056652834701 0 -0.1227869846444497 0.1710669075814959 0 -0.13224720832892789 0.1789980723507133 0 -0.1227869846444497 0.1710669075814959 0 -0.1239300676458021 0.18004095268539769 0 -0.1256413879108996 0.18801686022701089 0 -0.1307034668706763 0.18407484815258299 0 -0.1239300676458021 0.18004095268539769 0 -0.13224720832892789 0.1789980723507133 0 -0.1307034668706763 0.18407484815258299 0 -0.1239300676458021 0.18004095268539769 0 -0.130020244212699 0.16768056652834701 0 -0.13242994380218259 0.15373774299016249 0 -0.11549525018138231 0.1542399745015198 0 -0.130020244212699 0.16768056652834701 0 -0.13242994380218259 0.15373774299016249 0 -0.15510115337250571 0.15593862480251811 0 -0.130020244212699 0.16768056652834701 0 -0.1227869846444497 0.1710669075814959 0 -0.13242994380218259 0.15373774299016249 0 -0.13845814135160239 0.14420053671679939 0 -0.1230749298927247 0.14662901240162679 0 -0.13845814135160239 0.14420053671679939 0 -0.1289933577416332 0.1338530598272632 0 -0.1230749298927247 0.14662901240162679 0 -0.16168793893571501 0.13363190607640579 0 -0.15510115337250571 0.15593862480251811 0 -0.1499877289596408 0.14109527061909519 0 -0.13845814135160239 0.14420053671679939 0 -0.15510115337250571 0.15593862480251811 0 -0.1499877289596408 0.14109527061909519 0 -0.13242994380218259 0.15373774299016249 0 -0.13845814135160239 0.14420053671679939 0 -0.15510115337250571 0.15593862480251811 0 -0.1447548866879228 0.118053399692452 0 -0.16168793893571501 0.13363190607640579 0 -0.14228202619971811 0.1321705647724411 0 -0.16168793893571501 0.13363190607640579 0 -0.1499877289596408 0.14109527061909519 0 -0.14228202619971811 0.1321705647724411 0 -0.13845814135160239 0.14420053671679939 0 -0.1499877289596408 0.14109527061909519 0 -0.14228202619971811 0.1321705647724411 0 -0.13236593884934869 0.1227556925435045 0 -0.14228202619971811 0.1321705647724411 0 -0.1289933577416332 0.1338530598272632 0 -0.13845814135160239 0.14420053671679939 0 -0.14228202619971811 0.1321705647724411 0 -0.1289933577416332 0.1338530598272632 0 -0.13236593884934869 0.1227556925435045 0 -0.1289933577416332 0.1338530598272632 0 -0.1226897624986597 0.12539343477150269 0 -0.1226897624986597 0.12539343477150269 0 -0.1152536090092534 0.13206572188154569 0 -0.1136571652217252 0.1239512688879001 0 -0.1289933577416332 0.1338530598272632 0 -0.1226897624986597 0.12539343477150269 0 -0.1152536090092534 0.13206572188154569 0 -0.1152536090092534 0.13206572188154569 0 -0.1009702561500668 0.14079938247469129 0 -0.1230749298927247 0.14662901240162679 0 -0.1289933577416332 0.1338530598272632 0 -0.1152536090092534 0.13206572188154569 0 -0.1230749298927247 0.14662901240162679 0 -0.1152536090092534 0.13206572188154569 0 -0.10338777755055879 0.12891511785121579 0 -0.1136571652217252 0.1239512688879001 0 -0.1152536090092534 0.13206572188154569 0 -0.10338777755055879 0.12891511785121579 0 -0.1009702561500668 0.14079938247469129 0 -0.10338777755055879 0.12891511785121579 0 -0.1009702561500668 0.14079938247469129 0 -0.088350901227011294 0.12912215900755139 0 -0.1009702561500668 0.14079938247469129 0 -0.088350901227011294 0.12912215900755139 0 -0.1009702561500668 0.14079938247469129 0 -0.11549525018138231 0.1542399745015198 0 -0.1025608812977882 0.1572093897729204 0 -0.1009702561500668 0.14079938247469129 0 -0.1025608812977882 0.1572093897729204 0 -0.093380768344670129 0.15193623913744531 0 -0.1009702561500668 0.14079938247469129 0 -0.11549525018138231 0.1542399745015198 0 -0.1009702561500668 0.14079938247469129 0 -0.11549525018138231 0.1542399745015198 0 -0.1230749298927247 0.14662901240162679 0 -0.1009702561500668 0.14079938247469129 0 -0.1230749298927247 0.14662901240162679 0 -0.13242994380218259 0.15373774299016249 0 -0.11549525018138231 0.1542399745015198 0 -0.1230749298927247 0.14662901240162679 0 -0.130020244212699 0.16768056652834701 0 -0.11549525018138231 0.1542399745015198 0 -0.1149673232880363 0.16612553299397451 0 -0.130020244212699 0.16768056652834701 0 -0.11549525018138231 0.1542399745015198 0 -0.130020244212699 0.16768056652834701 0 -0.1227869846444497 0.1710669075814959 0 -0.1149673232880363 0.16612553299397451 0 -0.1227869846444497 0.1710669075814959 0 -0.1149673232880363 0.16612553299397451 0 -0.1143979092761236 0.1761448962677882 0 -0.1149673232880363 0.16612553299397451 0 -0.1143979092761236 0.1761448962677882 0 -0.1045426701157767 0.1704114633117747 0 -0.11549525018138231 0.1542399745015198 0 -0.1149673232880363 0.16612553299397451 0 -0.1025608812977882 0.1572093897729204 0 -0.1256413879108996 0.18801686022701089 0 -0.1239300676458021 0.18004095268539769 0 -0.1171851880269027 0.18697700193394309 0 -0.1239300676458021 0.18004095268539769 0 -0.1143979092761236 0.1761448962677882 0 -0.1171851880269027 0.18697700193394309 0 -0.1227869846444497 0.1710669075814959 0 -0.1239300676458021 0.18004095268539769 0 -0.1143979092761236 0.1761448962677882 0 -0.1143979092761236 0.1761448962677882 0 -0.1171851880269027 0.18697700193394309 0 -0.1033469778200914 0.18518873627911081 0 -0.1033469778200914 0.18518873627911081 0 -0.094953850768773371 0.175944516791499 0 -0.086584677036272428 0.18724973312333379 0 -0.1143979092761236 0.1761448962677882 0 -0.1033469778200914 0.18518873627911081 0 -0.1045426701157767 0.1704114633117747 0 -0.1033469778200914 0.18518873627911081 0 -0.094953850768773371 0.175944516791499 0 -0.1045426701157767 0.1704114633117747 0 -0.1149673232880363 0.16612553299397451 0 -0.1025608812977882 0.1572093897729204 0 -0.1045426701157767 0.1704114633117747 0 -0.094953850768773371 0.175944516791499 0 -0.1045426701157767 0.1704114633117747 0 -0.092579719344545897 0.1630625406642113 0 -0.1025608812977882 0.1572093897729204 0 -0.1045426701157767 0.1704114633117747 0 -0.092579719344545897 0.1630625406642113 0 -0.1025608812977882 0.1572093897729204 0 -0.092579719344545897 0.1630625406642113 0 -0.093380768344670129 0.15193623913744531 0 -0.092579719344545897 0.1630625406642113 0 -0.093380768344670129 0.15193623913744531 0 -0.0842753749488976 0.15388503430764691 0 -0.094953850768773371 0.175944516791499 0 -0.092579719344545897 0.1630625406642113 0 -0.081647858788768526 0.17362272492369191 0 -0.092579719344545897 0.1630625406642113 0 -0.079444554502352382 0.16287948183407289 0 -0.081647858788768526 0.17362272492369191 0 -0.079444554502352382 0.16287948183407289 0 -0.073617748207498418 0.15344055641859769 0 -0.0842753749488976 0.15388503430764691 0 -0.092579719344545897 0.1630625406642113 0 -0.079444554502352382 0.16287948183407289 0 -0.0842753749488976 0.15388503430764691 0 -0.094953850768773371 0.175944516791499 0 -0.086584677036272428 0.18724973312333379 0 -0.081647858788768526 0.17362272492369191 0 -0.086584677036272428 0.18724973312333379 0 -0.081647858788768526 0.17362272492369191 0 -0.072383842375982055 0.18433851894818901 0 -0.072383842375982055 0.18433851894818901 0 -0.066172409846778357 0.17006442652514361 0 -0.058423781123243847 0.18760160827679159 0 -0.081647858788768526 0.17362272492369191 0 -0.072383842375982055 0.18433851894818901 0 -0.066172409846778357 0.17006442652514361 0 -0.066172409846778357 0.17006442652514361 0 -0.073617748207498418 0.15344055641859769 0 -0.06196064398319158 0.149965887783337 0 -0.079444554502352382 0.16287948183407289 0 -0.066172409846778357 0.17006442652514361 0 -0.073617748207498418 0.15344055641859769 0 -0.079444554502352382 0.16287948183407289 0 -0.081647858788768526 0.17362272492369191 0 -0.066172409846778357 0.17006442652514361 0 -0.073617748207498418 0.15344055641859769 0 -0.073677981966104811 0.1444999338094288 0 -0.06196064398319158 0.149965887783337 0 -0.073617748207498418 0.15344055641859769 0 -0.073677981966104811 0.1444999338094288 0 -0.079499992516227538 0.1477365728628873 0 -0.073677981966104811 0.1444999338094288 0 -0.079499992516227538 0.1477365728628873 0 -0.080032976524560956 0.14135874802710191 0 -0.073677981966104811 0.1444999338094288 0 -0.066647537532865619 0.13982830447334749 0 -0.06196064398319158 0.149965887783337 0 -0.078884679737439539 0.13497478905578231 0 -0.075731546303957176 0.11744493554040999 0 -0.066647537532865619 0.13982830447334749 0 -0.078884679737439539 0.13497478905578231 0 -0.049835746967114507 0.12731376090422539 0 -0.078884679737439539 0.13497478905578231 0 -0.049835746967114507 0.12731376090422539 0 -0.075731546303957176 0.11744493554040999 0 -0.078884679737439539 0.13497478905578231 0 -0.049835746967114507 0.12731376090422539 0 -0.073677981966104811 0.1444999338094288 0 -0.066647537532865619 0.13982830447334749 0 -0.078884679737439539 0.13497478905578231 0 -0.073677981966104811 0.1444999338094288 0 -0.078884679737439539 0.13497478905578231 0 -0.080032976524560956 0.14135874802710191 0 -0.078884679737439539 0.13497478905578231 0 -0.080032976524560956 0.14135874802710191 0 -0.1009702561500668 0.14079938247469129 0 -0.078884679737439539 0.13497478905578231 0 -0.078884679737439539 0.13497478905578231 0 -0.088350901227011294 0.12912215900755139 0 -0.075731546303957176 0.11744493554040999 0 -0.1009702561500668 0.14079938247469129 0 -0.078884679737439539 0.13497478905578231 0 -0.088350901227011294 0.12912215900755139 0 -0.1009702561500668 0.14079938247469129 0 -0.078884679737439539 0.13497478905578231 0 -0.086517609982052018 0.14472484846775649 0 -0.078884679737439539 0.13497478905578231 0 -0.086517609982052018 0.14472484846775649 0 -0.080032976524560956 0.14135874802710191 0 -0.1009702561500668 0.14079938247469129 0 -0.086517609982052018 0.14472484846775649 0 -0.093380768344670129 0.15193623913744531 0 -0.086517609982052018 0.14472484846775649 0 -0.093380768344670129 0.15193623913744531 0 -0.0842753749488976 0.15388503430764691 0 -0.086517609982052018 0.14472484846775649 0 -0.0842753749488976 0.15388503430764691 0 -0.079499992516227538 0.1477365728628873 0 -0.073617748207498418 0.15344055641859769 0 -0.0842753749488976 0.15388503430764691 0 -0.079499992516227538 0.1477365728628873 0 -0.086517609982052018 0.14472484846775649 0 -0.079499992516227538 0.1477365728628873 0 -0.080032976524560956 0.14135874802710191 0 -0.099646555744896198 0.25564887823787741 0 -0.1103912165899647 0.23508889061443691 0 -0.089800741290963951 0.23837093591206529 0 -0.1229484984770164 0.25473045748778822 0 -0.1342627396718909 0.23722222839544871 0 -0.1103912165899647 0.23508889061443691 0 -0.099646555744896198 0.25564887823787741 0 -0.1229484984770164 0.25473045748778822 0 -0.1103912165899647 0.23508889061443691 0 -0.1342627396718909 0.23722222839544871 0 -0.1103912165899647 0.23508889061443691 0 -0.1247431951047857 0.22181007279510051 0 -0.1103912165899647 0.23508889061443691 0 -0.1247431951047857 0.22181007279510051 0 -0.10654412843109889 0.2124129981583367 0 -0.1103912165899647 0.23508889061443691 0 -0.10654412843109889 0.2124129981583367 0 -0.092245081658107075 0.22190386767475981 0 -0.1103912165899647 0.23508889061443691 0 -0.092245081658107075 0.22190386767475981 0 -0.089800741290963951 0.23837093591206529 0 -0.10654412843109889 0.2124129981583367 0 -0.087230585174399439 0.20491522111974159 0 -0.092245081658107075 0.22190386767475981 0 -0.10654412843109889 0.2124129981583367 0 -0.099053975846167139 0.19756953091004231 0 -0.087230585174399439 0.20491522111974159 0 -0.1247431951047857 0.22181007279510051 0 -0.10654412843109889 0.2124129981583367 0 -0.1197300091643143 0.20799343972127399 0 -0.10654412843109889 0.2124129981583367 0 -0.1197300091643143 0.20799343972127399 0 -0.1115635107689735 0.1980809658696884 0 -0.1197300091643143 0.20799343972127399 0 -0.1115635107689735 0.1980809658696884 0 -0.12438280521313259 0.19722518639459599 0 -0.1171851880269027 0.18697700193394309 0 -0.1115635107689735 0.1980809658696884 0 -0.12438280521313259 0.19722518639459599 0 -0.1256413879108996 0.18801686022701089 0 -0.1171851880269027 0.18697700193394309 0 -0.12438280521313259 0.19722518639459599 0 -0.1171851880269027 0.18697700193394309 0 -0.1033469778200914 0.18518873627911081 0 -0.1115635107689735 0.1980809658696884 0 -0.1033469778200914 0.18518873627911081 0 -0.086584677036272428 0.18724973312333379 0 -0.099053975846167139 0.19756953091004231 0 -0.1033469778200914 0.18518873627911081 0 -0.1115635107689735 0.1980809658696884 0 -0.099053975846167139 0.19756953091004231 0 -0.10654412843109889 0.2124129981583367 0 -0.1115635107689735 0.1980809658696884 0 -0.099053975846167139 0.19756953091004231 0 -0.086584677036272428 0.18724973312333379 0 -0.076174848938558914 0.19563928181333809 0 -0.087230585174399439 0.20491522111974159 0 -0.086584677036272428 0.18724973312333379 0 -0.099053975846167139 0.19756953091004231 0 -0.087230585174399439 0.20491522111974159 0 -0.086584677036272428 0.18724973312333379 0 -0.072383842375982055 0.18433851894818901 0 -0.076174848938558914 0.19563928181333809 0 -0.072383842375982055 0.18433851894818901 0 -0.065139537173665302 0.19462878525212721 0 -0.076174848938558914 0.19563928181333809 0 -0.076174848938558914 0.19563928181333809 0 -0.064801522217270369 0.20388475802520309 0 -0.087230585174399439 0.20491522111974159 0 -0.072383842375982055 0.18433851894818901 0 -0.065139537173665302 0.19462878525212721 0 -0.058423781123243847 0.18760160827679159 0 -0.065139537173665302 0.19462878525212721 0 -0.064801522217270369 0.20388475802520309 0 -0.065139537173665302 0.19462878525212721 0 -0.076174848938558914 0.19563928181333809 0 -0.064801522217270369 0.20388475802520309 0 -0.064801522217270369 0.20388475802520309 0 -0.087230585174399439 0.20491522111974159 0 -0.064801522217270369 0.20388475802520309 0 -0.075846685561794872 0.21419987014727529 0 -0.087230585174399439 0.20491522111974159 0 -0.064801522217270369 0.20388475802520309 0 -0.06414768474890141 0.22178900069477789 0 -0.064801522217270369 0.20388475802520309 0 -0.075846685561794872 0.21419987014727529 0 -0.06414768474890141 0.22178900069477789 0 -0.075846685561794872 0.21419987014727529 0 -0.087230585174399439 0.20491522111974159 0 -0.092245081658107075 0.22190386767475981 0 -0.075846685561794872 0.21419987014727529 0 -0.092245081658107075 0.22190386767475981 0 -0.078601843222653858 0.22762957432541281 0 -0.092245081658107075 0.22190386767475981 0 -0.078601843222653858 0.22762957432541281 0 -0.089800741290963951 0.23837093591206529 0 -0.06414768474890141 0.22178900069477789 0 -0.070889246774834699 0.234327977948696 0 -0.06349384728053234 0.23969324336435269 0 -0.06414768474890141 0.22178900069477789 0 -0.06349384728053234 0.23969324336435269 0 -0.075846685561794872 0.21419987014727529 0 -0.078601843222653858 0.22762957432541281 0 -0.06414768474890141 0.22178900069477789 0 -0.078601843222653858 0.22762957432541281 0 -0.06414768474890141 0.22178900069477789 0 -0.070889246774834699 0.234327977948696 0 -0.078601843222653858 0.22762957432541281 0 -0.070889246774834699 0.234327977948696 0 -0.077441398369764561 0.23915127223081961 0 -0.070889246774834699 0.234327977948696 0 -0.077441398369764561 0.23915127223081961 0 -0.07076146025232137 0.24337679912811699 0 -0.070889246774834699 0.234327977948696 0 -0.06349384728053234 0.23969324336435269 0 -0.07076146025232137 0.24337679912811699 0 -0.06349384728053234 0.23969324336435269 0 -0.063201019833232619 0.2477118319744985 0 -0.06728048482943233 0.25078768511444982 0 -0.06349384728053234 0.23969324336435269 0 -0.063201019833232619 0.2477118319744985 0 -0.06728048482943233 0.25078768511444982 0 -0.06349384728053234 0.23969324336435269 0 -0.06728048482943233 0.25078768511444982 0 -0.06349384728053234 0.23969324336435269 0 -0.07076146025232137 0.24337679912811699 0 -0.06728048482943233 0.25078768511444982 0 -0.063201019833232619 0.2477118319744985 0 -0.079604061573677359 0.25020061160159762 0 -0.077441398369764561 0.23915127223081961 0 -0.07076146025232137 0.24337679912811699 0 -0.079604061573677359 0.25020061160159762 0 -0.06728048482943233 0.25078768511444982 0 -0.07076146025232137 0.24337679912811699 0 -0.079604061573677359 0.25020061160159762 0 -0.077441398369764561 0.23915127223081961 0 -0.089800741290963951 0.23837093591206529 0 -0.099646555744896198 0.25564887823787741 0 -0.079604061573677359 0.25020061160159762 0 -0.089800741290963951 0.23837093591206529 0 -0.078601843222653858 0.22762957432541281 0 -0.077441398369764561 0.23915127223081961 0 -0.089800741290963951 0.23837093591206529 0 -0.046174889000908118 0.25024759087299597 0 -0.04511730596553451 0.23407699305965701 0 -0.02691154068192704 0.2457704794931268 0 -0.06349384728053234 0.23969324336435269 0 -0.063201019833232619 0.2477118319744985 0 -0.04511730596553451 0.23407699305965701 0 -0.046174889000908118 0.25024759087299597 0 -0.063201019833232619 0.2477118319744985 0 -0.04511730596553451 0.23407699305965701 0 -0.063201019833232619 0.2477118319744985 0 -0.04511730596553451 0.23407699305965701 0 -0.06414768474890141 0.22178900069477789 0 -0.06349384728053234 0.23969324336435269 0 -0.05727519399115745 0.2214732564255274 0 -0.06349384728053234 0.23969324336435269 0 -0.05727519399115745 0.2214732564255274 0 -0.06349384728053234 0.23969324336435269 0 -0.05727519399115745 0.2214732564255274 0 -0.04511730596553451 0.23407699305965701 0 -0.05727519399115745 0.2214732564255274 0 -0.04511730596553451 0.23407699305965701 0 -0.041097026529113137 0.21578282075593769 0 -0.04511730596553451 0.23407699305965701 0 -0.027033592097836651 0.22044215414481511 0 -0.04511730596553451 0.23407699305965701 0 -0.041097026529113137 0.21578282075593769 0 -0.027033592097836651 0.22044215414481511 0 -0.04511730596553451 0.23407699305965701 0 -0.027033592097836651 0.22044215414481511 0 -0.02691154068192704 0.2457704794931268 0 -0.041097026529113137 0.21578282075593769 0 -0.051056540701783067 0.203253269486702 0 -0.033991708178227213 0.20246925634430629 0 -0.041097026529113137 0.21578282075593769 0 -0.033991708178227213 0.20246925634430629 0 -0.02559981613799741 0.20943735793538881 0 -0.05727519399115745 0.2214732564255274 0 -0.041097026529113137 0.21578282075593769 0 -0.051056540701783067 0.203253269486702 0 -0.064801522217270369 0.20388475802520309 0 -0.06414768474890141 0.22178900069477789 0 -0.05727519399115745 0.2214732564255274 0 -0.05727519399115745 0.2214732564255274 0 -0.051056540701783067 0.203253269486702 0 -0.064801522217270369 0.20388475802520309 0 -0.05727519399115745 0.2214732564255274 0 -0.051056540701783067 0.203253269486702 0 -0.064801522217270369 0.20388475802520309 0 -0.051056540701783067 0.203253269486702 0 -0.051056540701783067 0.203253269486702 0 -0.048044952895079013 0.1944296403261862 0 -0.051056540701783067 0.203253269486702 0 -0.057252301697233457 0.19627344374557551 0 -0.048044952895079013 0.1944296403261862 0 -0.058423781123243847 0.18760160827679159 0 -0.048044952895079013 0.1944296403261862 0 -0.041549642750724897 0.18587483486352829 0 -0.064801522217270369 0.20388475802520309 0 -0.051056540701783067 0.203253269486702 0 -0.057252301697233457 0.19627344374557551 0 -0.065139537173665302 0.19462878525212721 0 -0.064801522217270369 0.20388475802520309 0 -0.057252301697233457 0.19627344374557551 0 -0.065139537173665302 0.19462878525212721 0 -0.057252301697233457 0.19627344374557551 0 -0.058423781123243847 0.18760160827679159 0 -0.057252301697233457 0.19627344374557551 0 -0.058423781123243847 0.18760160827679159 0 -0.048044952895079013 0.1944296403261862 0 -0.051056540701783067 0.203253269486702 0 -0.033991708178227213 0.20246925634430629 0 -0.03865681607058595 0.19571374773575129 0 -0.048044952895079013 0.1944296403261862 0 -0.03865681607058595 0.19571374773575129 0 -0.041549642750724897 0.18587483486352829 0 -0.051056540701783067 0.203253269486702 0 -0.033991708178227213 0.20246925634430629 0 -0.03865681607058595 0.19571374773575129 0 -0.016926875654671221 0.2016852432019125 0 -0.041549642750724897 0.18587483486352829 0 -0.051056540701783067 0.203253269486702 0 -0.048044952895079013 0.1944296403261862 0 -0.03865681607058595 0.19571374773575129 0 -0.016926875654671221 0.2016852432019125 0 -0.041549642750724897 0.18587483486352829 0 -0.016926875654671221 0.2016852432019125 0 -0.041549642750724897 0.18587483486352829 0 -0.021855578615008989 0.1840542650912031 0 -0.016926875654671221 0.2016852432019125 0 -0.01007641489388551 0.19068279228920931 0 -0.021855578615008989 0.1840542650912031 0 -0.033991708178227213 0.20246925634430629 0 -0.016926875654671221 0.2016852432019125 0 -0.033991708178227213 0.20246925634430629 0 -0.03865681607058595 0.19571374773575129 0 -0.016926875654671221 0.2016852432019125 0 -0.016926875654671221 0.2016852432019125 0 -0.001198125073508286 0.20096261394949769 0 -0.016926875654671221 0.2016852432019125 0 -0.01007641489388551 0.19068279228920931 0 -0.001198125073508286 0.20096261394949769 0 -0.01007641489388551 0.19068279228920931 0 -0.001198125073508286 0.20096261394949769 0 -0.000617891155602524 0.18583592233474339 0 -0.016926875654671221 0.2016852432019125 0 -0.001198125073508286 0.20096261394949769 0 -0.0089498782301390065 0.20680731522997281 0 -0.016926875654671221 0.2016852432019125 0 -0.0089498782301390065 0.20680731522997281 0 -0.001198125073508286 0.20096261394949769 0 -0.0089498782301390065 0.20680731522997281 0 -0.033991708178227213 0.20246925634430629 0 -0.016926875654671221 0.2016852432019125 0 -0.02559981613799741 0.20943735793538881 0 -0.0089498782301390065 0.20680731522997281 0 -0.027033592097836651 0.22044215414481511 0 -0.0089498782301390065 0.20680731522997281 0 -0.02559981613799741 0.20943735793538881 0 -0.027033592097836651 0.22044215414481511 0 -0.016926875654671221 0.2016852432019125 0 -0.0089498782301390065 0.20680731522997281 0 -0.02559981613799741 0.20943735793538881 0 -0.041097026529113137 0.21578282075593769 0 -0.02559981613799741 0.20943735793538881 0 -0.027033592097836651 0.22044215414481511 0 -0.027033592097836651 0.22044215414481511 0 -0.0070972438617433386 0.2318192067591931 0 -0.02691154068192704 0.2457704794931268 0 -0.0089498782301390065 0.20680731522997281 0 -0.027033592097836651 0.22044215414481511 0 -0.0070972438617433386 0.2318192067591931 0 -0.0089498782301390065 0.20680731522997281 0 -0.0070972438617433386 0.2318192067591931 0 0.01475444484588343 0.2220279858294584 0 -0.0013581205314274699 0.25585075003031849 0 -0.0070972438617433386 0.2318192067591931 0 -0.02691154068192704 0.2457704794931268 0 -0.0013581205314274699 0.25585075003031849 0 -0.0070972438617433386 0.2318192067591931 0 0.0069152235249865081 0.24001655582746689 0 -0.045411150689990701 0.1444862759397488 0 -0.02922104577188174 0.14982380530350811 0 -0.022569701692132019 0.1363237345135567 0 -0.045411150689990701 0.1444862759397488 0 -0.037523067722002347 0.15891363151747201 0 -0.02922104577188174 0.14982380530350811 0 -0.045411150689990701 0.1444862759397488 0 -0.050930010595055593 0.15884923054687261 0 -0.037523067722002347 0.15891363151747201 0 -0.045411150689990701 0.1444862759397488 0 -0.049835746967114507 0.12731376090422539 0 -0.022569701692132019 0.1363237345135567 0 -0.066647537532865619 0.13982830447334749 0 -0.049835746967114507 0.12731376090422539 0 -0.055963769793290603 0.1403985572751647 0 -0.045411150689990701 0.1444862759397488 0 -0.049835746967114507 0.12731376090422539 0 -0.055963769793290603 0.1403985572751647 0 -0.045411150689990701 0.1444862759397488 0 -0.055963769793290603 0.1403985572751647 0 -0.06196064398319158 0.149965887783337 0 -0.066647537532865619 0.13982830447334749 0 -0.055963769793290603 0.1403985572751647 0 -0.06196064398319158 0.149965887783337 0 -0.045411150689990701 0.1444862759397488 0 -0.06196064398319158 0.149965887783337 0 -0.050930010595055593 0.15884923054687261 0 -0.066172409846778357 0.17006442652514361 0 -0.050930010595055593 0.15884923054687261 0 -0.043582780733314931 0.17081593096866141 0 -0.066172409846778357 0.17006442652514361 0 -0.06196064398319158 0.149965887783337 0 -0.050930010595055593 0.15884923054687261 0 -0.066172409846778357 0.17006442652514361 0 -0.041549642750724897 0.18587483486352829 0 -0.066172409846778357 0.17006442652514361 0 -0.058423781123243847 0.18760160827679159 0 -0.041549642750724897 0.18587483486352829 0 -0.066172409846778357 0.17006442652514361 0 -0.041549642750724897 0.18587483486352829 0 -0.043582780733314931 0.17081593096866141 0 -0.041549642750724897 0.18587483486352829 0 -0.032203888239403261 0.17747828208525021 0 -0.021855578615008989 0.1840542650912031 0 -0.041549642750724897 0.18587483486352829 0 -0.032203888239403261 0.17747828208525021 0 -0.043582780733314931 0.17081593096866141 0 -0.032203888239403261 0.17747828208525021 0 -0.043582780733314931 0.17081593096866141 0 -0.029489143498372981 0.1688073304033153 0 -0.050930010595055593 0.15884923054687261 0 -0.043582780733314931 0.17081593096866141 0 -0.037523067722002347 0.15891363151747201 0 -0.043582780733314931 0.17081593096866141 0 -0.037523067722002347 0.15891363151747201 0 -0.029489143498372981 0.1688073304033153 0 -0.037523067722002347 0.15891363151747201 0 -0.029489143498372981 0.1688073304033153 0 -0.022037756028283669 0.16138044514460981 0 -0.037523067722002347 0.15891363151747201 0 -0.022037756028283669 0.16138044514460981 0 -0.02922104577188174 0.14982380530350811 0 -0.029489143498372981 0.1688073304033153 0 -0.020645000911132281 0.16902311338251541 0 -0.022037756028283669 0.16138044514460981 0 -0.029489143498372981 0.1688073304033153 0 -0.020645000911132281 0.16902311338251541 0 -0.02388074124879189 0.17491779681048719 0 -0.020645000911132281 0.16902311338251541 0 -0.015992095753029741 0.1746976632615875 0 -0.013868896111497451 0.16610434547144659 0 -0.020645000911132281 0.16902311338251541 0 -0.022037756028283669 0.16138044514460981 0 -0.013868896111497451 0.16610434547144659 0 -0.022037756028283669 0.16138044514460981 0 -0.01267414555222824 0.15839383874738011 0 -0.01769134053482764 0.14984620207894961 0 -0.022037756028283669 0.16138044514460981 0 -0.01267414555222824 0.15839383874738011 0 -0.013868896111497451 0.16610434547144659 0 -0.032203888239403261 0.17747828208525021 0 -0.029489143498372981 0.1688073304033153 0 -0.02388074124879189 0.17491779681048719 0 -0.032203888239403261 0.17747828208525021 0 -0.02388074124879189 0.17491779681048719 0 -0.021855578615008989 0.1840542650912031 0 -0.020645000911132281 0.16902311338251541 0 -0.02388074124879189 0.17491779681048719 0 -0.015992095753029741 0.1746976632615875 0 -0.02388074124879189 0.17491779681048719 0 -0.015992095753029741 0.1746976632615875 0 -0.021855578615008989 0.1840542650912031 0 -0.015992095753029741 0.1746976632615875 0 -0.021855578615008989 0.1840542650912031 0 -0.0097836039706364446 0.18087591686869081 0 -0.01007641489388551 0.19068279228920931 0 -0.021855578615008989 0.1840542650912031 0 -0.0097836039706364446 0.18087591686869081 0 -0.015992095753029741 0.1746976632615875 0 -0.0097836039706364446 0.18087591686869081 0 -0.0088506118535440215 0.17165723354110679 0 -0.0097836039706364446 0.18087591686869081 0 -0.0033948347462645538 0.17676762032388441 0 -0.0088506118535440215 0.17165723354110679 0 -0.0033948347462645538 0.17676762032388441 0 -0.0088506118535440215 0.17165723354110679 0 -0.0020264807575900269 0.16925100379745331 0 -0.0033948347462645538 0.17676762032388441 0 -0.0020264807575900269 0.16925100379745331 0 0.00430441400605025 0.17621802507742759 0 -0.0097836039706364446 0.18087591686869081 0 -0.0033948347462645538 0.17676762032388441 0 -0.000617891155602524 0.18583592233474339 0 -0.01007641489388551 0.19068279228920931 0 -0.0097836039706364446 0.18087591686869081 0 -0.000617891155602524 0.18583592233474339 0 -0.01267414555222824 0.15839383874738011 0 -0.0068722069722592137 0.16406701442736599 0 -0.0046503903201789492 0.15755019424560959 0 -0.01267414555222824 0.15839383874738011 0 -0.013868896111497451 0.16610434547144659 0 -0.0068722069722592137 0.16406701442736599 0 -0.015992095753029741 0.1746976632615875 0 -0.013868896111497451 0.16610434547144659 0 -0.0088506118535440215 0.17165723354110679 0 -0.013868896111497451 0.16610434547144659 0 -0.0088506118535440215 0.17165723354110679 0 -0.0068722069722592137 0.16406701442736599 0 -0.0088506118535440215 0.17165723354110679 0 -0.0068722069722592137 0.16406701442736599 0 -0.0020264807575900269 0.16925100379745331 0 -0.0068722069722592137 0.16406701442736599 0 -0.0020264807575900269 0.16925100379745331 0 -0.00070180903849404223 0.1620298962772429 0 -0.0068722069722592137 0.16406701442736599 0 -0.00070180903849404223 0.1620298962772429 0 -0.0046503903201789492 0.15755019424560959 0 -0.00070180903849404223 0.1620298962772429 0 -0.0046503903201789492 0.15755019424560959 0 0.0022271874395096 0.1573937168972985 0 -0.0046503903201789492 0.15755019424560959 0 -0.0021862879748443379 0.15127762749284521 0 -0.010008512973272231 0.15180902985001221 0 -0.0046503903201789492 0.15755019424560959 0 -0.0021862879748443379 0.15127762749284521 0 0.0022271874395096 0.1573937168972985 0 -0.0021862879748443379 0.15127762749284521 0 -0.0084447026936406173 0.14386944060710041 0 -0.010008512973272231 0.15180902985001221 0 -0.0084447026936406173 0.14386944060710041 0 -0.0016146699195483841 0.13719475231004019 0 0.0028925413118478238 0.14505368737011831 0 -0.0021862879748443379 0.15127762749284521 0 -0.0084447026936406173 0.14386944060710041 0 0.0028925413118478238 0.14505368737011831 0 -0.01267414555222824 0.15839383874738011 0 -0.010008512973272231 0.15180902985001221 0 -0.01769134053482764 0.14984620207894961 0 -0.01267414555222824 0.15839383874738011 0 -0.0046503903201789492 0.15755019424560959 0 -0.010008512973272231 0.15180902985001221 0 -0.0084447026936406173 0.14386944060710041 0 -0.010008512973272231 0.15180902985001221 0 -0.01769134053482764 0.14984620207894961 0 -0.022037756028283669 0.16138044514460981 0 -0.01769134053482764 0.14984620207894961 0 -0.02922104577188174 0.14982380530350811 0 -0.01769134053482764 0.14984620207894961 0 -0.02922104577188174 0.14982380530350811 0 -0.022569701692132019 0.1363237345135567 0 -0.0084447026936406173 0.14386944060710041 0 -0.01769134053482764 0.14984620207894961 0 -0.022569701692132019 0.1363237345135567 0 -0.049835746967114507 0.12731376090422539 0 -0.022569701692132019 0.1363237345135567 0 -0.020786814196788819 0.11965273275267101 0 -0.022569701692132019 0.1363237345135567 0 -0.01043317137598943 0.13103637382128769 0 -0.020786814196788819 0.11965273275267101 0 -0.0084447026936406173 0.14386944060710041 0 -0.022569701692132019 0.1363237345135567 0 -0.01043317137598943 0.13103637382128769 0 -0.0084447026936406173 0.14386944060710041 0 -0.01043317137598943 0.13103637382128769 0 -0.0016146699195483841 0.13719475231004019 0 -0.01043317137598943 0.13103637382128769 0 -0.001755213224400969 0.1224113826781562 0 0.001514399076776056 0.1296979527704141 0 -0.01043317137598943 0.13103637382128769 0 -0.0016146699195483841 0.13719475231004019 0 0.001514399076776056 0.1296979527704141 0 -0.01043317137598943 0.13103637382128769 0 -0.001755213224400969 0.1224113826781562 0 -0.020786814196788819 0.11965273275267101 0 -0.001755213224400969 0.1224113826781562 0 -0.020786814196788819 0.11965273275267101 0 0.008262118573536599 0.1119917046011166 0 -0.020786814196788819 0.11965273275267101 0 0.008262118573536599 0.1119917046011166 0 -0.0077517695351226072 0.10912583896896309 0 -0.020786814196788819 0.11965273275267101 0 0.008262118573536599 0.1119917046011166 0 -0.0077517695351226072 0.10912583896896309 0 -0.019633965617819989 0.097811996281197452 0 0.0069284747717304274 0.1055091729811206 0 -0.001086642484074318 0.096392062202275391 0 -0.019633965617819989 0.097811996281197452 0 -0.0094622230532577095 0.0873246483624215 0 -0.001086642484074318 0.096392062202275391 0 -0.019633965617819989 0.097811996281197452 0 0.0069284747717304274 0.1055091729811206 0 -0.019633965617819989 0.097811996281197452 0 0.0069284747717304274 0.1055091729811206 0 -0.0077517695351226072 0.10912583896896309 0 -0.019633965617819989 0.097811996281197452 0 -0.020786814196788819 0.11965273275267101 0 -0.019633965617819989 0.097811996281197452 0 -0.020786814196788819 0.11965273275267101 0 -0.032412870754641762 0.1006956468617856 0 -0.020786814196788819 0.11965273275267101 0 -0.038224727471384029 0.1124360973927863 0 -0.032412870754641762 0.1006956468617856 0 -0.0072203321530443674 0.076224749938225922 0 -0.010663945645592711 0.055092594130287928 0 0.0014976518685602461 0.063245080616464985 0 -0.0072203321530443674 0.076224749938225922 0 -0.020793362676127001 0.078795949213662453 0 -0.010663945645592711 0.055092594130287928 0 -0.0072203321530443674 0.076224749938225922 0 0.003320864346216782 0.077053588128725717 0 0.0014976518685602461 0.063245080616464985 0 -0.0072203321530443674 0.076224749938225922 0 -0.0094622230532577095 0.0873246483624215 0 -0.020793362676127001 0.078795949213662453 0 -0.0072203321530443674 0.076224749938225922 0 0.001423187664777124 0.087398484176746255 0 0.003320864346216782 0.077053588128725717 0 -0.0072203321530443674 0.076224749938225922 0 -0.0094622230532577095 0.0873246483624215 0 0.001423187664777124 0.087398484176746255 0 -0.001086642484074318 0.096392062202275391 0 -0.0094622230532577095 0.0873246483624215 0 0.001423187664777124 0.087398484176746255 0 -0.019633965617819989 0.097811996281197452 0 -0.02897909403974994 0.085896517170889211 0 -0.020793362676127001 0.078795949213662453 0 -0.019633965617819989 0.097811996281197452 0 -0.0094622230532577095 0.0873246483624215 0 -0.020793362676127001 0.078795949213662453 0 -0.02897909403974994 0.085896517170889211 0 -0.020793362676127001 0.078795949213662453 0 -0.031357774121539117 0.076384005166914806 0 -0.020793362676127001 0.078795949213662453 0 -0.034350287012973671 0.068590214417097867 0 -0.010663945645592711 0.055092594130287928 0 -0.020793362676127001 0.078795949213662453 0 -0.034350287012973671 0.068590214417097867 0 -0.031357774121539117 0.076384005166914806 0 -0.034350287012973671 0.068590214417097867 0 -0.048866695624608908 0.076862364527954322 0 -0.049925139418616073 0.060383824466003419 0 -0.034350287012973671 0.068590214417097867 0 -0.038278847058928679 0.082788367023369405 0 -0.034350287012973671 0.068590214417097867 0 -0.031357774121539117 0.076384005166914806 0 -0.038278847058928679 0.082788367023369405 0 -0.034350287012973671 0.068590214417097867 0 -0.048866695624608908 0.076862364527954322 0 -0.034350287012973671 0.068590214417097867 0 -0.038278847058928679 0.082788367023369405 0 -0.048866695624608908 0.076862364527954322 0 -0.019633965617819989 0.097811996281197452 0 -0.02897909403974994 0.085896517170889211 0 -0.046196406007370683 0.090114819581275846 0 -0.02897909403974994 0.085896517170889211 0 -0.034790387827465921 0.084297882961074225 0 -0.046196406007370683 0.090114819581275846 0 -0.038278847058928679 0.082788367023369405 0 -0.046196406007370683 0.090114819581275846 0 -0.048866695624608908 0.076862364527954322 0 -0.034790387827465921 0.084297882961074225 0 -0.038278847058928679 0.082788367023369405 0 -0.046196406007370683 0.090114819581275846 0 -0.031357774121539117 0.076384005166914806 0 -0.034790387827465921 0.084297882961074225 0 -0.038278847058928679 0.082788367023369405 0 -0.02897909403974994 0.085896517170889211 0 -0.031357774121539117 0.076384005166914806 0 -0.034790387827465921 0.084297882961074225 0 -0.031357774121539117 0.076384005166914806 0 -0.038278847058928679 0.082788367023369405 0 -0.038278847058928679 0.082788367023369405 0 -0.046196406007370683 0.090114819581275846 0 -0.048732705609614867 0.092461765000885071 0 -0.043926066740609448 0.094445672833398386 0 -0.046196406007370683 0.090114819581275846 0 -0.048732705609614867 0.092461765000885071 0 -0.043926066740609448 0.094445672833398386 0 -0.046196406007370683 0.090114819581275846 0 -0.048866695624608908 0.076862364527954322 0 -0.063383104236242854 0.085134514638813108 0 -0.048866695624608908 0.076862364527954322 0 -0.063383104236242854 0.085134514638813108 0 -0.067973636188675801 0.074314814099168652 0 -0.046196406007370683 0.090114819581275846 0 -0.048732705609614867 0.092461765000885071 0 -0.063383104236242854 0.085134514638813108 0 -0.046196406007370683 0.090114819581275846 0 -0.063383104236242854 0.085134514638813108 0 -0.046196406007370683 0.090114819581275846 0 -0.048732705609614867 0.092461765000885071 0 -0.048732705609614867 0.092461765000885071 0 -0.063383104236242854 0.085134514638813108 0 -0.048866695624608908 0.076862364527954322 0 -0.063383104236242854 0.085134514638813108 0 -0.067973636188675801 0.074314814099168652 0 -0.049925139418616073 0.060383824466003419 0 -0.048866695624608908 0.076862364527954322 0 -0.067973636188675801 0.074314814099168652 0 -0.049925139418616073 0.060383824466003419 0 -0.067973636188675801 0.074314814099168652 0 -0.064660885764819404 0.055897569511132797 0 -0.049925139418616073 0.060383824466003419 0 -0.049835746967114507 0.12731376090422539 0 -0.020786814196788819 0.11965273275267101 0 -0.049835746967114507 0.12731376090422539 0 -0.038224727471384029 0.1124360973927863 0 -0.0506523112061057 0.1039273604549345 0 -0.049835746967114507 0.12731376090422539 0 -0.020786814196788819 0.11965273275267101 0 -0.038224727471384029 0.1124360973927863 0 -0.038224727471384029 0.1124360973927863 0 -0.032412870754641762 0.1006956468617856 0 -0.04130399404318523 0.10287619438572621 0 -0.019633965617819989 0.097811996281197452 0 -0.046196406007370683 0.090114819581275846 0 -0.032412870754641762 0.1006956468617856 0 -0.019633965617819989 0.097811996281197452 0 -0.046196406007370683 0.090114819581275846 0 -0.032412870754641762 0.1006956468617856 0 -0.043926066740609448 0.094445672833398386 0 -0.04130399404318523 0.10287619438572621 0 -0.046196406007370683 0.090114819581275846 0 -0.032412870754641762 0.1006956468617856 0 -0.043926066740609448 0.094445672833398386 0 -0.043926066740609448 0.094445672833398386 0 -0.04130399404318523 0.10287619438572621 0 -0.0506523112061057 0.1039273604549345 0 -0.038224727471384029 0.1124360973927863 0 -0.04130399404318523 0.10287619438572621 0 -0.0506523112061057 0.1039273604549345 0 -0.048732705609614867 0.092461765000885071 0 -0.062232125956785539 0.104953350270648 0 -0.063383104236242854 0.085134514638813108 0 -0.048732705609614867 0.092461765000885071 0 -0.043926066740609448 0.094445672833398386 0 -0.0506523112061057 0.1039273604549345 0 -0.048732705609614867 0.092461765000885071 0 -0.0506523112061057 0.1039273604549345 0 -0.062232125956785539 0.104953350270648 0 -0.048732705609614867 0.092461765000885071 0 -0.062232125956785539 0.104953350270648 0 -0.049835746967114507 0.12731376090422539 0 -0.0506523112061057 0.1039273604549345 0 -0.062232125956785539 0.104953350270648 0 -0.049835746967114507 0.12731376090422539 0 -0.062232125956785539 0.104953350270648 0 -0.075731546303957176 0.11744493554040999 0 -0.062232125956785539 0.104953350270648 0 -0.075731546303957176 0.11744493554040999 0 -0.088350901227011294 0.12912215900755139 0 -0.075731546303957176 0.11744493554040999 0 -0.088350901227011294 0.12912215900755139 0 -0.075731546303957176 0.11744493554040999 0 -0.086121630655385001 0.1060260859549626 0 -0.088350901227011294 0.12912215900755139 0 -0.086121630655385001 0.1060260859549626 0 -0.1042440422767693 0.1168177228390128 0 -0.086121630655385001 0.1060260859549626 0 -0.077532538088439629 0.093197544823510128 0 -0.099811382377393398 0.098889232553449266 0 -0.075731546303957176 0.11744493554040999 0 -0.086121630655385001 0.1060260859549626 0 -0.077532538088439629 0.093197544823510128 0 -0.062232125956785539 0.104953350270648 0 -0.075731546303957176 0.11744493554040999 0 -0.070666329156139698 0.089284847647505439 0 -0.075731546303957176 0.11744493554040999 0 -0.077532538088439629 0.093197544823510128 0 -0.070666329156139698 0.089284847647505439 0 -0.075731546303957176 0.11744493554040999 0 -0.070666329156139698 0.089284847647505439 0 -0.062232125956785539 0.104953350270648 0 -0.063383104236242854 0.085134514638813108 0 -0.070666329156139698 0.089284847647505439 0 -0.0695959678926069 0.0833341714220667 0 -0.070666329156139698 0.089284847647505439 0 -0.063383104236242854 0.085134514638813108 0 -0.070666329156139698 0.089284847647505439 0 -0.063383104236242854 0.085134514638813108 0 -0.0695959678926069 0.0833341714220667 0 -0.067973636188675801 0.074314814099168652 0 -0.0695959678926069 0.0833341714220667 0 -0.067973636188675801 0.074314814099168652 0 -0.063383104236242854 0.085134514638813108 0 -0.0695959678926069 0.0833341714220667 0 -0.063383104236242854 0.085134514638813108 0 -0.0695959678926069 0.0833341714220667 0 -0.070666329156139698 0.089284847647505439 0 -0.0695959678926069 0.0833341714220667 0 -0.073795667077900196 0.082117196391096936 0 -0.070666329156139698 0.089284847647505439 0 -0.0695959678926069 0.0833341714220667 0 -0.073795667077900196 0.082117196391096936 0 -0.067973636188675801 0.074314814099168652 0 -0.073795667077900196 0.082117196391096936 0 -0.076588629841491285 0.080964419814037653 0 -0.067973636188675801 0.074314814099168652 0 -0.0695959678926069 0.0833341714220667 0 -0.073795667077900196 0.082117196391096936 0 -0.073795667077900196 0.082117196391096936 0 -0.076588629841491285 0.080964419814037653 0 -0.07974360933625485 0.088940587885247335 0 -0.073795667077900196 0.082117196391096936 0 -0.076588629841491285 0.080964419814037653 0 -0.073795667077900196 0.082117196391096936 0 -0.070666329156139698 0.089284847647505439 0 -0.07974360933625485 0.088940587885247335 0 -0.077532538088439629 0.093197544823510128 0 -0.070666329156139698 0.089284847647505439 0 -0.07974360933625485 0.088940587885247335 0 -0.077532538088439629 0.093197544823510128 0 -0.070666329156139698 0.089284847647505439 0 -0.067973636188675801 0.074314814099168652 0 -0.075735351577653862 0.06933277714554785 0 -0.064660885764819404 0.055897569511132797 0 -0.075735351577653862 0.06933277714554785 0 -0.089322719001636935 0.065718322762559789 0 -0.064660885764819404 0.055897569511132797 0 -0.067973636188675801 0.074314814099168652 0 -0.064660885764819404 0.055897569511132797 0 -0.076588629841491285 0.080964419814037653 0 -0.067973636188675801 0.074314814099168652 0 -0.075735351577653862 0.06933277714554785 0 -0.076588629841491285 0.080964419814037653 0 -0.067973636188675801 0.074314814099168652 0 -0.076588629841491285 0.080964419814037653 0 -0.089322719001636935 0.065718322762559789 0 -0.1015363210171623 0.070667428241462521 0 -0.076588629841491285 0.080964419814037653 0 -0.1015363210171623 0.070667428241462521 0 -0.095075699851492015 0.075950738413729277 0 -0.076588629841491285 0.080964419814037653 0 -0.1015363210171623 0.070667428241462521 0 -0.076588629841491285 0.080964419814037653 0 -0.075735351577653862 0.06933277714554785 0 -0.089322719001636935 0.065718322762559789 0 -0.076588629841491285 0.080964419814037653 0 -0.099811382377393398 0.098889232553449266 0 -0.077532538088439629 0.093197544823510128 0 -0.07974360933625485 0.088940587885247335 0 -0.099811382377393398 0.098889232553449266 0 -0.076588629841491285 0.080964419814037653 0 -0.07974360933625485 0.088940587885247335 0 -0.099811382377393398 0.098889232553449266 0 -0.076588629841491285 0.080964419814037653 0 -0.090862521769381033 0.084638107896375547 0 -0.095075699851492015 0.075950738413729277 0 -0.076588629841491285 0.080964419814037653 0 -0.090862521769381033 0.084638107896375547 0 -0.099811382377393398 0.098889232553449266 0 -0.076588629841491285 0.080964419814037653 0 -0.095075699851492015 0.075950738413729277 0 -0.090862521769381033 0.084638107896375547 0 -0.097601126459694473 0.085839372161685995 0 -0.099811382377393398 0.098889232553449266 0 -0.090862521769381033 0.084638107896375547 0 -0.097601126459694473 0.085839372161685995 0 -0.095075699851492015 0.075950738413729277 0 -0.097601126459694473 0.085839372161685995 0 -0.1083738090857978 0.085967553254463175 0 -0.095075699851492015 0.075950738413729277 0 -0.097601126459694473 0.085839372161685995 0 -0.1083738090857978 0.085967553254463175 0 -0.099811382377393398 0.098889232553449266 0 -0.095075699851492015 0.075950738413729277 0 -0.1132392697215818 0.070687358816782259 0 -0.1083738090857978 0.085967553254463175 0 -0.095075699851492015 0.075950738413729277 0 -0.1132392697215818 0.070687358816782259 0 -0.1015363210171623 0.070667428241462521 0 -0.095075699851492015 0.075950738413729277 0 -0.1132392697215818 0.070687358816782259 0 -0.1264840121928352 0.060370436668891858 0 -0.1015363210171623 0.070667428241462521 0 -0.1264840121928352 0.060370436668891858 0 -0.1015363210171623 0.070667428241462521 0 -0.1132392697215818 0.070687358816782259 0 -0.12942077957145351 0.085038069788139284 0 -0.1264840121928352 0.060370436668891858 0 -0.1132392697215818 0.070687358816782259 0 -0.12942077957145351 0.085038069788139284 0 -0.1083738090857978 0.085967553254463175 0 -0.1132392697215818 0.070687358816782259 0 -0.12942077957145351 0.085038069788139284 0 -0.1083738090857978 0.085967553254463175 0 -0.11838686230135841 0.0991027021444911 0 -0.11838686230135841 0.0991027021444911 0 -0.12271063477338461 0.11656434709622369 0 -0.099811382377393398 0.098889232553449266 0 -0.13235754695007221 0.10970570290738681 0 -0.11838686230135841 0.0991027021444911 0 -0.12271063477338461 0.11656434709622369 0 -0.12271063477338461 0.11656434709622369 0 -0.099811382377393398 0.098889232553449266 0 -0.12271063477338461 0.11656434709622369 0 -0.1136571652217252 0.1239512688879001 0 -0.1042440422767693 0.1168177228390128 0 -0.1226897624986597 0.12539343477150269 0 -0.12271063477338461 0.11656434709622369 0 -0.1136571652217252 0.1239512688879001 0 -0.10338777755055879 0.12891511785121579 0 -0.088350901227011294 0.12912215900755139 0 -0.1042440422767693 0.1168177228390128 0 -0.12271063477338461 0.11656434709622369 0 -0.1042440422767693 0.1168177228390128 0 -0.099811382377393398 0.098889232553449266 0 -0.10338777755055879 0.12891511785121579 0 -0.1136571652217252 0.1239512688879001 0 -0.1042440422767693 0.1168177228390128 0 -0.1083738090857978 0.085967553254463175 0 -0.11838686230135841 0.0991027021444911 0 -0.099811382377393398 0.098889232553449266 0 -0.086121630655385001 0.1060260859549626 0 -0.1042440422767693 0.1168177228390128 0 -0.099811382377393398 0.098889232553449266 0 -0.094619980710139079 -0.00094113599173017482 0 -0.1028738261545929 0.02051941264950204 0 -0.1198770481880274 0.0048746676511459506 0 -0.1028738261545929 0.02051941264950204 0 -0.1198770481880274 0.0048746676511459506 0 -0.1231805301904309 0.032622552160018997 0 -0.1198770481880274 0.0048746676511459506 0 -0.1231805301904309 0.032622552160018997 0 -0.1028738261545929 0.02051941264950204 0 -0.1231805301904309 0.032622552160018997 0 -0.10286599992985131 0.049840830565401673 0 -0.1264840121928352 0.060370436668891858 0 -0.1231805301904309 0.032622552160018997 0 -0.1264840121928352 0.060370436668891858 0 -0.1231805301904309 0.032622552160018997 0 -0.10286599992985131 0.049840830565401673 0 -0.1264840121928352 0.060370436668891858 0 -0.1015363210171623 0.070667428241462521 0 -0.10286599992985131 0.049840830565401673 0 -0.089322719001636935 0.065718322762559789 0 -0.1015363210171623 0.070667428241462521 0 -0.10286599992985131 0.049840830565401673 0 -0.1028738261545929 0.02051941264950204 0 -0.10286599992985131 0.049840830565401673 0 -0.085459086189042785 0.033174919997949623 0 -0.10286599992985131 0.049840830565401673 0 -0.085459086189042785 0.033174919997949623 0 -0.08041760876843837 0.049068820252425233 0 -0.089322719001636935 0.065718322762559789 0 -0.10286599992985131 0.049840830565401673 0 -0.08041760876843837 0.049068820252425233 0 -0.089322719001636935 0.065718322762559789 0 -0.08041760876843837 0.049068820252425233 0 -0.064660885764819404 0.055897569511132797 0 -0.089322719001636935 0.065718322762559789 0 -0.064660885764819404 0.055897569511132797 0 -0.08041760876843837 0.049068820252425233 0 -0.064660885764819404 0.055897569511132797 0 -0.059395217186574638 0.026623071370000091 0 -0.085459086189042785 0.033174919997949623 0 -0.08041760876843837 0.049068820252425233 0 -0.059395217186574638 0.026623071370000091 0 -0.085459086189042785 0.033174919997949623 0 -0.082683766644382969 0.01595210578510502 0 -0.059395217186574638 0.026623071370000091 0 -0.1028738261545929 0.02051941264950204 0 -0.085459086189042785 0.033174919997949623 0 -0.082683766644382969 0.01595210578510502 0 -0.094619980710139079 -0.00094113599173017482 0 -0.082683766644382969 0.01595210578510502 0 -0.071070722981565443 0.00038426089980352529 0 -0.094619980710139079 -0.00094113599173017482 0 -0.1028738261545929 0.02051941264950204 0 -0.082683766644382969 0.01595210578510502 0 -0.082683766644382969 0.01595210578510502 0 -0.071070722981565443 0.00038426089980352529 0 -0.059395217186574638 0.026623071370000091 0 -0.054129548608327548 -0.002651426771132242 0 -0.059395217186574638 0.026623071370000091 0 -0.044580952533378598 0.018418934127466431 0 -0.054129548608327548 -0.002651426771132242 0 -0.044580952533378598 0.018418934127466431 0 -0.042202478754792043 0.0144225188092575 0 -0.054129548608327548 -0.002651426771132242 0 -0.049372601051152383 -0.010644257407550961 0 -0.042202478754792043 0.0144225188092575 0 -0.054129548608327548 -0.002651426771132242 0 -0.071070722981565443 0.00038426089980352529 0 -0.059395217186574638 0.026623071370000091 0 -0.054129548608327548 -0.002651426771132242 0 -0.044580952533378598 0.018418934127466431 0 -0.054129548608327548 -0.002651426771132242 0 -0.059395217186574638 0.026623071370000091 0 -0.059395217186574638 0.026623071370000091 0 -0.044580952533378598 0.018418934127466431 0 -0.048548209399628818 0.035582981446536738 0 -0.044580952533378598 0.018418934127466431 0 -0.048548209399628818 0.035582981446536738 0 -0.035032356458431203 0.039489295026065879 0 -0.044580952533378598 0.018418934127466431 0 -0.035032356458431203 0.039489295026065879 0 -0.042202478754792043 0.0144225188092575 0 -0.035032356458431203 0.039489295026065879 0 -0.042202478754792043 0.0144225188092575 0 -0.035032356458431203 0.039489295026065879 0 -0.02024450162085218 0.017610697422106771 0 -0.044580952533378598 0.018418934127466431 0 -0.042202478754792043 0.0144225188092575 0 -0.035032356458431203 0.039489295026065879 0 -0.049372601051152383 -0.010644257407550961 0 -0.042202478754792043 0.0144225188092575 0 -0.031594138203677097 -0.0080887341473911793 0 -0.042202478754792043 0.0144225188092575 0 -0.02024450162085218 0.017610697422106771 0 -0.064660885764819404 0.055897569511132797 0 -0.048961794818897043 0.049645929701104673 0 -0.048548209399628818 0.035582981446536738 0 -0.064660885764819404 0.055897569511132797 0 -0.049925139418616073 0.060383824466003419 0 -0.048961794818897043 0.049645929701104673 0 -0.064660885764819404 0.055897569511132797 0 -0.048961794818897043 0.049645929701104673 0 -0.064660885764819404 0.055897569511132797 0 -0.059395217186574638 0.026623071370000091 0 -0.048548209399628818 0.035582981446536738 0 -0.064660885764819404 0.055897569511132797 0 -0.059395217186574638 0.026623071370000091 0 -0.048961794818897043 0.049645929701104673 0 -0.033262703872975093 0.04339428989107541 0 -0.048961794818897043 0.049645929701104673 0 -0.035032356458431203 0.039489295026065879 0 -0.033262703872975093 0.04339428989107541 0 -0.048961794818897043 0.049645929701104673 0 -0.031876642648554977 0.046452834832839768 0 -0.033262703872975093 0.04339428989107541 0 -0.035032356458431203 0.039489295026065879 0 -0.033262703872975093 0.04339428989107541 0 -0.026650088171251019 0.040761036047797662 0 -0.035032356458431203 0.039489295026065879 0 -0.033262703872975093 0.04339428989107541 0 -0.031876642648554977 0.046452834832839768 0 -0.033262703872975093 0.04339428989107541 0 -0.048961794818897043 0.049645929701104673 0 -0.048548209399628818 0.035582981446536738 0 -0.035032356458431203 0.039489295026065879 0 -0.049925139418616073 0.060383824466003419 0 -0.048961794818897043 0.049645929701104673 0 -0.031876642648554977 0.046452834832839768 0 -0.049925139418616073 0.060383824466003419 0 -0.031876642648554977 0.046452834832839768 0 -0.034350287012973671 0.068590214417097867 0 -0.049925139418616073 0.060383824466003419 0 -0.031011160115521699 0.048362647456539322 0 -0.049925139418616073 0.060383824466003419 0 -0.031876642648554977 0.046452834832839768 0 -0.031011160115521699 0.048362647456539322 0 -0.031876642648554977 0.046452834832839768 0 -0.031011160115521699 0.048362647456539322 0 -0.034350287012973671 0.068590214417097867 0 -0.01873463572439631 0.048690640748669543 0 -0.02723329684092481 0.042868802149489203 0 -0.034350287012973671 0.068590214417097867 0 -0.02723329684092481 0.042868802149489203 0 -0.034350287012973671 0.068590214417097867 0 -0.01873463572439631 0.048690640748669543 0 -0.010663945645592711 0.055092594130287928 0 -0.034350287012973671 0.068590214417097867 0 -0.010663945645592711 0.055092594130287928 0 -0.034350287012973671 0.068590214417097867 0 -0.031011160115521699 0.048362647456539322 0 -0.02723329684092481 0.042868802149489203 0 -0.035032356458431203 0.039489295026065879 0 -0.026650088171251019 0.040761036047797662 0 -0.02024450162085218 0.017610697422106771 0 -0.026650088171251019 0.040761036047797662 0 -0.02221380051562552 0.03899443232454991 0 -0.02024450162085218 0.017610697422106771 0 -0.01873463572439631 0.048690640748669543 0 -0.02221380051562552 0.03899443232454991 0 -0.01337148880984537 0.035473276350427241 0 -0.01873463572439631 0.048690640748669543 0 -0.02723329684092481 0.042868802149489203 0 -0.02221380051562552 0.03899443232454991 0 -0.031876642648554977 0.046452834832839768 0 -0.02723329684092481 0.042868802149489203 0 -0.031876642648554977 0.046452834832839768 0 -0.031011160115521699 0.048362647456539322 0 -0.02723329684092481 0.042868802149489203 0 -0.031876642648554977 0.046452834832839768 0 -0.033262703872975093 0.04339428989107541 0 -0.02723329684092481 0.042868802149489203 0 -0.033262703872975093 0.04339428989107541 0 -0.026650088171251019 0.040761036047797662 0 -0.033262703872975093 0.04339428989107541 0 -0.026650088171251019 0.040761036047797662 0 -0.02723329684092481 0.042868802149489203 0 -0.02723329684092481 0.042868802149489203 0 -0.02221380051562552 0.03899443232454991 0 -0.026650088171251019 0.040761036047797662 0 -0.02221380051562552 0.03899443232454991 0 -0.026650088171251019 0.040761036047797662 0 -0.02723329684092481 0.042868802149489203 0 -0.02221380051562552 0.03899443232454991 0 -0.026650088171251019 0.040761036047797662 0 -0.02723329684092481 0.042868802149489203 0 -0.02221380051562552 0.03899443232454991 0 -0.01337148880984537 0.035473276350427241 0 -0.02221380051562552 0.03899443232454991 0 -0.01337148880984537 0.035473276350427241 0 -0.00042354709233450438 0.02217531445499888 0 -0.01337148880984537 0.035473276350427241 0 -0.0063497192591883949 0.04450072918574919 0 0.00018129059320132641 0.034794741961835247 0 -0.01873463572439631 0.048690640748669543 0 -0.01337148880984537 0.035473276350427241 0 -0.0063497192591883949 0.04450072918574919 0 -0.0063497192591883949 0.04450072918574919 0 -0.010663945645592711 0.055092594130287928 0 0.0014976518685602461 0.063245080616464985 0 -0.01873463572439631 0.048690640748669543 0 -0.0063497192591883949 0.04450072918574919 0 -0.010663945645592711 0.055092594130287928 0 -0.031594138203677097 -0.0080887341473911793 0 -0.01381567535620187 -0.0055332108872310336 0 -0.02024450162085218 0.017610697422106771 0 -0.01381567535620187 -0.0055332108872310336 0 -0.02024450162085218 0.017610697422106771 0 -0.026650088171251019 0.040761036047797662 0 -0.02024450162085218 0.017610697422106771 0 -0.02221380051562552 0.03899443232454991 0 -0.02024450162085218 0.017610697422106771 0 -0.00042354709233450438 0.02217531445499888 0 -0.02221380051562552 0.03899443232454991 0 -0.00042354709233450438 0.02217531445499888 0 -0.01337148880984537 0.035473276350427241 0 -0.00042354709233450438 0.02217531445499888 0 0.00018129059320132641 0.034794741961835247 0 -0.01381567535620187 -0.0055332108872310336 0 -0.02024450162085218 0.017610697422106771 0 -0.0039028350278822849 0.007084725468534175 0 -0.02024450162085218 0.017610697422106771 0 -0.00042354709233450438 0.02217531445499888 0 -0.0039028350278822849 0.007084725468534175 0 -0.0039028350278822849 0.007084725468534175 0 0.021366706330957049 0.005356196585448475 0 9.2994626588645875e-05 -0.0066853786883017728 0 -0.00042354709233450438 0.02217531445499888 0 0.021366706330957049 0.005356196585448475 0 -0.00042354709233450438 0.02217531445499888 0 -0.0039028350278822849 0.007084725468534175 0 0.021366706330957049 0.005356196585448475 0 -0.00042354709233450438 0.02217531445499888 0 0.016039594276420509 0.028101574793489389 0 0.021366706330957049 0.005356196585448475 0 -0.00042354709233450438 0.02217531445499888 0 0.016039594276420509 0.028101574793489389 0 0.00018129059320132641 0.034794741961835247 0 0.016039594276420509 0.028101574793489389 0 0.021366706330957049 0.005356196585448475 0 0.034733364282466157 0.028612764739399599 0 0.0081196885353858623 0.044905004502365897 0 0.016144803280046489 0.057127302190561037 0 0.0014976518685602461 0.063245080616464985 0 -0.0063497192591883949 0.04450072918574919 0 0.0081196885353858623 0.044905004502365897 0 0.0014976518685602461 0.063245080616464985 0 0.0081196885353858623 0.044905004502365897 0 0.021311856648053591 0.040664732033235847 0 0.016144803280046489 0.057127302190561037 0 0.016039594276420509 0.028101574793489389 0 0.0081196885353858623 0.044905004502365897 0 0.00018129059320132641 0.034794741961835247 0 0.016039594276420509 0.028101574793489389 0 0.0081196885353858623 0.044905004502365897 0 0.021311856648053591 0.040664732033235847 0 -0.0063497192591883949 0.04450072918574919 0 0.0081196885353858623 0.044905004502365897 0 0.00018129059320132641 0.034794741961835247 0 0.016039594276420509 0.028101574793489389 0 0.021311856648053591 0.040664732033235847 0 0.034733364282466157 0.028612764739399599 0 0.021311856648053591 0.040664732033235847 0 0.030809601489022429 0.050711338530267283 0 0.034733364282466157 0.028612764739399599 0 0.016144803280046489 0.057127302190561037 0 0.030809601489022429 0.050711338530267283 0 0.02512388460789057 0.067052219003521429 0 0.021311856648053591 0.040664732033235847 0 0.016144803280046489 0.057127302190561037 0 0.030809601489022429 0.050711338530267283 0 0.045047014048505529 0.045895153794865307 0 0.055445728409579217 0.059992510409491953 0 0.038673450834204003 0.063696848872527162 0 0.030809601489022429 0.050711338530267283 0 0.045047014048505529 0.045895153794865307 0 0.038673450834204003 0.063696848872527162 0 0.030809601489022429 0.050711338530267283 0 0.038673450834204003 0.063696848872527162 0 0.02512388460789057 0.067052219003521429 0 0.045047014048505529 0.045895153794865307 0 0.034733364282466157 0.028612764739399599 0 0.053402821358222087 0.030462001735883131 0 0.030809601489022429 0.050711338530267283 0 0.045047014048505529 0.045895153794865307 0 0.034733364282466157 0.028612764739399599 0 0.058763666666414152 0.04398082979781797 0 0.053402821358222087 0.030462001735883131 0 0.066511893370755429 0.033668811729911353 0 0.045047014048505529 0.045895153794865307 0 0.058763666666414152 0.04398082979781797 0 0.053402821358222087 0.030462001735883131 0 0.058763666666414152 0.04398082979781797 0 0.055445728409579217 0.059992510409491953 0 0.065215272810060496 0.052088813937529982 0 0.045047014048505529 0.045895153794865307 0 0.058763666666414152 0.04398082979781797 0 0.055445728409579217 0.059992510409491953 0 0.021366706330957049 0.005356196585448475 0 0.048574898960063582 0.01105422245065607 0 0.049491405824600751 -0.014400546848704451 0 0.021366706330957049 0.005356196585448475 0 0.034733364282466157 0.028612764739399599 0 0.048574898960063582 0.01105422245065607 0 0.034733364282466157 0.028612764739399599 0 0.053402821358222087 0.030462001735883131 0 0.048574898960063582 0.01105422245065607 0 0.053402821358222087 0.030462001735883131 0 0.048574898960063582 0.01105422245065607 0 0.066786090821127714 0.019560227902648528 0 0.053402821358222087 0.030462001735883131 0 0.066786090821127714 0.019560227902648528 0 0.066511893370755429 0.033668811729911353 0 0.048574898960063582 0.01105422245065607 0 0.066786090821127714 0.019560227902648528 0 0.067215553891882635 -0.0011799380945436829 0 0.082697905306915911 0.011834101465504791 0 0.066786090821127714 0.019560227902648528 0 0.067215553891882635 -0.0011799380945436829 0 0.082697905306915911 0.011834101465504791 0 0.099114727496955629 0.0053277131660113639 0 0.098722657354415419 0.024371838360165141 0 0.082697905306915911 0.011834101465504791 0 0.099114727496955629 0.0053277131660113639 0 0.085378979920521222 -0.0085271912777543524 0 0.082697905306915911 0.011834101465504791 0 0.085378979920521222 -0.0085271912777543524 0 0.067215553891882635 -0.0011799380945436829 0 0.082697905306915911 0.011834101465504791 0 0.081955401085374191 0.032018666829827007 0 0.098722657354415419 0.024371838360165141 0 0.066786090821127714 0.019560227902648528 0 0.066511893370755429 0.033668811729911353 0 0.081955401085374191 0.032018666829827007 0 0.082697905306915911 0.011834101465504791 0 0.066786090821127714 0.019560227902648528 0 0.081955401085374191 0.032018666829827007 0 0.058763666666414152 0.04398082979781797 0 0.073198035671513895 0.044407703699575328 0 0.065215272810060496 0.052088813937529982 0 0.058763666666414152 0.04398082979781797 0 0.066511893370755429 0.033668811729911353 0 0.073198035671513895 0.044407703699575328 0 0.066511893370755429 0.033668811729911353 0 0.073198035671513895 0.044407703699575328 0 0.081955401085374191 0.032018666829827007 0 0.073198035671513895 0.044407703699575328 0 0.072576478286476342 0.060127604112893279 0 0.084667962942488295 0.049454711049969131 0 0.055445728409579217 0.059992510409491953 0 0.065215272810060496 0.052088813937529982 0 0.072576478286476342 0.060127604112893279 0 0.073198035671513895 0.044407703699575328 0 0.065215272810060496 0.052088813937529982 0 0.072576478286476342 0.060127604112893279 0 0.072576478286476342 0.060127604112893279 0 0.084667962942488295 0.049454711049969131 0 0.085770474645546602 0.063257271676346677 0 0.084667962942488295 0.049454711049969131 0 0.094989021964994119 0.041501068202334228 0 0.095652872658334692 0.05503459675143383 0 0.084667962942488295 0.049454711049969131 0 0.095652872658334692 0.05503459675143383 0 0.085770474645546602 0.063257271676346677 0 0.095652872658334692 0.05503459675143383 0 0.095471060816329806 0.067445671330821591 0 0.085770474645546602 0.063257271676346677 0 0.084667962942488295 0.049454711049969131 0 0.081955401085374191 0.032018666829827007 0 0.094989021964994119 0.041501068202334228 0 0.081955401085374191 0.032018666829827007 0 0.094989021964994119 0.041501068202334228 0 0.098722657354415419 0.024371838360165141 0 0.073198035671513895 0.044407703699575328 0 0.084667962942488295 0.049454711049969131 0 0.081955401085374191 0.032018666829827007 0 0.094989021964994119 0.041501068202334228 0 0.10544775409771399 0.035703452929705351 0 0.098722657354415419 0.024371838360165141 0 0.10544775409771399 0.035703452929705351 0 0.1048791391000212 0.049541524024016827 0 0.11738283554026439 0.045919391363933762 0 0.094989021964994119 0.041501068202334228 0 0.10544775409771399 0.035703452929705351 0 0.1048791391000212 0.049541524024016827 0 0.095652872658334692 0.05503459675143383 0 0.1028828321515117 0.059598660263893752 0 0.095471060816329806 0.067445671330821591 0 0.095652872658334692 0.05503459675143383 0 0.1048791391000212 0.049541524024016827 0 0.1028828321515117 0.059598660263893752 0 0.094989021964994119 0.041501068202334228 0 0.095652872658334692 0.05503459675143383 0 0.1048791391000212 0.049541524024016827 0 0.1028828321515117 0.059598660263893752 0 0.112411561042616 0.058336933182221308 0 0.1077163251641817 0.065935962323567576 0 0.1048791391000212 0.049541524024016827 0 0.1028828321515117 0.059598660263893752 0 0.112411561042616 0.058336933182221308 0 0.1048791391000212 0.049541524024016827 0 0.112411561042616 0.058336933182221308 0 0.11738283554026439 0.045919391363933762 0 0.1226758536221563 0.058754324150062147 0 0.11738283554026439 0.045919391363933762 0 0.12798138470421019 0.049477110941330407 0 0.112411561042616 0.058336933182221308 0 0.1226758536221563 0.058754324150062147 0 0.11738283554026439 0.045919391363933762 0 0.112411561042616 0.058336933182221308 0 0.1226758536221563 0.058754324150062147 0 0.11893238067756071 0.070271736967853812 0 0.10544775409771399 0.035703452929705351 0 0.11738283554026439 0.045919391363933762 0 0.11675507342349629 0.028669086286336621 0 0.11738283554026439 0.045919391363933762 0 0.11675507342349629 0.028669086286336621 0 0.12991484820470231 0.037015230580822421 0 0.11675507342349629 0.028669086286336621 0 0.128050751869075 0.025433798835772761 0 0.12991484820470231 0.037015230580822421 0 0.11675507342349629 0.028669086286336621 0 0.12429721647633871 0.014090971846011839 0 0.1102002914007484 0.015148014965385429 0 0.11675507342349629 0.028669086286336621 0 0.12429721647633871 0.014090971846011839 0 0.128050751869075 0.025433798835772761 0 0.12429721647633871 0.014090971846011839 0 0.1165810207984305 0.0016467845144158069 0 0.1102002914007484 0.015148014965385429 0 0.1165810207984305 0.0016467845144158069 0 0.1102002914007484 0.015148014965385429 0 0.099114727496955629 0.0053277131660113639 0 0.1102002914007484 0.015148014965385429 0 0.099114727496955629 0.0053277131660113639 0 0.098722657354415419 0.024371838360165141 0 0.11675507342349629 0.028669086286336621 0 0.1102002914007484 0.015148014965385429 0 0.098722657354415419 0.024371838360165141 0 0.10544775409771399 0.035703452929705351 0 0.11675507342349629 0.028669086286336621 0 0.098722657354415419 0.024371838360165141 0 0.1028041184507465 0.097706186734434541 0 0.097212278542278208 0.10886251392042889 0 0.095408916884512487 0.089008620146451764 0 0.1069169903053673 0.106877659557417 0 0.1028041184507465 0.097706186734434541 0 0.097212278542278208 0.10886251392042889 0 0.1069169903053673 0.106877659557417 0 0.1028041184507465 0.097706186734434541 0 0.1124122623181667 0.095229204775704193 0 0.097212278542278208 0.10886251392042889 0 0.10474825365104801 0.118871671338058 0 0.092874127428698744 0.1243916658413016 0 0.10474825365104801 0.118871671338058 0 0.092874127428698744 0.1243916658413016 0 0.10123277553907251 0.13030272508469959 0 0.1069169903053673 0.106877659557417 0 0.097212278542278208 0.10886251392042889 0 0.10474825365104801 0.118871671338058 0 0.10474825365104801 0.118871671338058 0 0.1187894170332454 0.1108218881468376 0 0.1155281386006284 0.12780565999363219 0 0.1069169903053673 0.106877659557417 0 0.10474825365104801 0.118871671338058 0 0.1187894170332454 0.1108218881468376 0 0.1069169903053673 0.106877659557417 0 0.1187894170332454 0.1108218881468376 0 0.1124122623181667 0.095229204775704193 0 0.1187894170332454 0.1108218881468376 0 0.1124122623181667 0.095229204775704193 0 0.12718862152087951 0.096688253917490447 0 0.1077294159982722 0.074641224974457007 0 0.12718862152087951 0.096688253917490447 0 0.1124122623181667 0.095229204775704193 0 0.1077294159982722 0.074641224974457007 0 0.12718862152087951 0.096688253917490447 0 0.1077294159982722 0.074641224974457007 0 0.12559456041354719 0.080261485087041423 0 0.12718862152087951 0.096688253917490447 0 0.11893238067756071 0.070271736967853812 0 0.1077294159982722 0.074641224974457007 0 0.12559456041354719 0.080261485087041423 0 0.1226758536221563 0.058754324150062147 0 0.11893238067756071 0.070271736967853812 0 0.1309572929872222 0.07025365409794955 0 0.11893238067756071 0.070271736967853812 0 0.1077163251641817 0.065935962323567576 0 0.1077294159982722 0.074641224974457007 0 0.112411561042616 0.058336933182221308 0 0.11893238067756071 0.070271736967853812 0 0.1077163251641817 0.065935962323567576 0 0.1077163251641817 0.065935962323567576 0 0.095408916884512487 0.089008620146451764 0 0.1077163251641817 0.065935962323567576 0 0.095471060816329806 0.067445671330821591 0 0.095408916884512487 0.089008620146451764 0 0.1077163251641817 0.065935962323567576 0 0.1077294159982722 0.074641224974457007 0 0.095408916884512487 0.089008620146451764 0 0.1028828321515117 0.059598660263893752 0 0.1077163251641817 0.065935962323567576 0 0.095471060816329806 0.067445671330821591 0 0.1124122623181667 0.095229204775704193 0 0.1077294159982722 0.074641224974457007 0 0.10393605835734469 0.086759770889506357 0 0.1028041184507465 0.097706186734434541 0 0.1124122623181667 0.095229204775704193 0 0.10393605835734469 0.086759770889506357 0 0.1077294159982722 0.074641224974457007 0 0.10393605835734469 0.086759770889506357 0 0.095408916884512487 0.089008620146451764 0 0.10393605835734469 0.086759770889506357 0 0.095408916884512487 0.089008620146451764 0 0.1028041184507465 0.097706186734434541 0 0.10393605835734469 0.086759770889506357 0 0.095408916884512487 0.089008620146451764 0 0.095408916884512487 0.089008620146451764 0 0.086822874376219161 0.074535722772263363 0 0.078027174684895007 0.081900969601629639 0 0.095408916884512487 0.089008620146451764 0 0.066359984114187448 0.096669648298007824 0 0.095408916884512487 0.089008620146451764 0 0.078027174684895007 0.081900969601629639 0 0.066359984114187448 0.096669648298007824 0 0.095471060816329806 0.067445671330821591 0 0.095408916884512487 0.089008620146451764 0 0.086822874376219161 0.074535722772263363 0 0.095471060816329806 0.067445671330821591 0 0.086822874376219161 0.074535722772263363 0 0.085770474645546602 0.063257271676346677 0 0.086822874376219161 0.074535722772263363 0 0.07738402469507652 0.071265199768388895 0 0.078027174684895007 0.081900969601629639 0 0.072576478286476342 0.060127604112893279 0 0.085770474645546602 0.063257271676346677 0 0.07738402469507652 0.071265199768388895 0 0.086822874376219161 0.074535722772263363 0 0.085770474645546602 0.063257271676346677 0 0.07738402469507652 0.071265199768388895 0 0.072576478286476342 0.060127604112893279 0 0.07738402469507652 0.071265199768388895 0 0.063723121482245432 0.076504430678811547 0 0.055445728409579217 0.059992510409491953 0 0.072576478286476342 0.060127604112893279 0 0.063723121482245432 0.076504430678811547 0 0.07738402469507652 0.071265199768388895 0 0.063723121482245432 0.076504430678811547 0 0.078027174684895007 0.081900969601629639 0 0.063723121482245432 0.076504430678811547 0 0.078027174684895007 0.081900969601629639 0 0.066359984114187448 0.096669648298007824 0 0.066359984114187448 0.096669648298007824 0 0.073084462795095326 0.1066895693673014 0 0.056210169208783377 0.1091758533090196 0 0.095408916884512487 0.089008620146451764 0 0.073084462795095326 0.1066895693673014 0 0.081226855773400886 0.1155956834667107 0 0.095408916884512487 0.089008620146451764 0 0.066359984114187448 0.096669648298007824 0 0.073084462795095326 0.1066895693673014 0 0.097212278542278208 0.10886251392042889 0 0.095408916884512487 0.089008620146451764 0 0.081226855773400886 0.1155956834667107 0 0.095408916884512487 0.089008620146451764 0 0.081226855773400886 0.1155956834667107 0 0.097212278542278208 0.10886251392042889 0 0.092874127428698744 0.1243916658413016 0 0.081226855773400886 0.1155956834667107 0 0.092874127428698744 0.1243916658413016 0 0.081226855773400886 0.1155956834667107 0 0.079959461045495464 0.13328720631413671 0 0.073084462795095326 0.1066895693673014 0 0.067192531123333551 0.1203097440484758 0 0.056210169208783377 0.1091758533090196 0 0.073084462795095326 0.1066895693673014 0 0.081226855773400886 0.1155956834667107 0 0.067192531123333551 0.1203097440484758 0 0.05073549382100611 0.11930700509781469 0 0.056210169208783377 0.1091758533090196 0 0.058396373177095957 0.12790486731237569 0 0.056210169208783377 0.1091758533090196 0 0.058396373177095957 0.12790486731237569 0 0.05073549382100611 0.11930700509781469 0 0.056210169208783377 0.1091758533090196 0 0.037311051343862027 0.1043306764495622 0 0.067192531123333551 0.1203097440484758 0 0.056210169208783377 0.1091758533090196 0 0.058396373177095957 0.12790486731237569 0 0.066359984114187448 0.096669648298007824 0 0.037311051343862027 0.1043306764495622 0 0.049366773087713617 0.08903265965926227 0 0.066359984114187448 0.096669648298007824 0 0.056210169208783377 0.1091758533090196 0 0.037311051343862027 0.1043306764495622 0 0.066359984114187448 0.096669648298007824 0 0.037311051343862027 0.1043306764495622 0 0.037311051343862027 0.1043306764495622 0 0.034443225565791893 0.0868313155384874 0 0.022038282640759119 0.093506308820960699 0 0.05073549382100611 0.11930700509781469 0 0.037311051343862027 0.1043306764495622 0 0.039332800690571532 0.1224886173184479 0 0.037311051343862027 0.1043306764495622 0 0.039332800690571532 0.1224886173184479 0 0.030061161568504802 0.119151615690954 0 0.039332800690571532 0.1224886173184479 0 0.030061161568504802 0.119151615690954 0 0.029835632689531561 0.12997724586586051 0 0.055445728409579217 0.059992510409491953 0 0.063723121482245432 0.076504430678811547 0 0.0453898909262902 0.076536681577971943 0 0.063723121482245432 0.076504430678811547 0 0.049366773087713617 0.08903265965926227 0 0.0453898909262902 0.076536681577971943 0 0.063723121482245432 0.076504430678811547 0 0.066359984114187448 0.096669648298007824 0 0.049366773087713617 0.08903265965926227 0 0.037311051343862027 0.1043306764495622 0 0.049366773087713617 0.08903265965926227 0 0.034443225565791893 0.0868313155384874 0 0.034443225565791893 0.0868313155384874 0 0.0453898909262902 0.076536681577971943 0 0.031887179727496877 0.076275168294997045 0 0.049366773087713617 0.08903265965926227 0 0.034443225565791893 0.0868313155384874 0 0.0453898909262902 0.076536681577971943 0 0.055445728409579217 0.059992510409491953 0 0.0453898909262902 0.076536681577971943 0 0.038673450834204003 0.063696848872527162 0 0.0453898909262902 0.076536681577971943 0 0.031887179727496877 0.076275168294997045 0 0.038673450834204003 0.063696848872527162 0 0.031887179727496877 0.076275168294997045 0 0.038673450834204003 0.063696848872527162 0 0.02512388460789057 0.067052219003521429 0 0.016144803280046489 0.057127302190561037 0 0.02512388460789057 0.067052219003521429 0 0.01256209664794416 0.073196257704605805 0 0.031887179727496877 0.076275168294997045 0 0.02512388460789057 0.067052219003521429 0 0.021835726924281391 0.080818229983982512 0 0.02512388460789057 0.067052219003521429 0 0.021835726924281391 0.080818229983982512 0 0.01256209664794416 0.073196257704605805 0 0.034443225565791893 0.0868313155384874 0 0.031887179727496877 0.076275168294997045 0 0.021835726924281391 0.080818229983982512 0 0.034443225565791893 0.0868313155384874 0 0.021835726924281391 0.080818229983982512 0 0.022038282640759119 0.093506308820960699 0 0.021835726924281391 0.080818229983982512 0 0.022038282640759119 0.093506308820960699 0 0.011696307588360849 0.085236260302801264 0 0.022038282640759119 0.093506308820960699 0 0.011696307588360849 0.085236260302801264 0 0.010268138603182261 0.095508763697089244 0 -0.001086642484074318 0.096392062202275391 0 0.001423187664777124 0.087398484176746255 0 0.010268138603182261 0.095508763697089244 0 0.001423187664777124 0.087398484176746255 0 0.011696307588360849 0.085236260302801264 0 0.010268138603182261 0.095508763697089244 0 0.001423187664777124 0.087398484176746255 0 0.011696307588360849 0.085236260302801264 0 0.003320864346216782 0.077053588128725717 0 0.011696307588360849 0.085236260302801264 0 0.01256209664794416 0.073196257704605805 0 0.003320864346216782 0.077053588128725717 0 0.021835726924281391 0.080818229983982512 0 0.011696307588360849 0.085236260302801264 0 0.01256209664794416 0.073196257704605805 0 0.016144803280046489 0.057127302190561037 0 0.01256209664794416 0.073196257704605805 0 0.0014976518685602461 0.063245080616464985 0 0.01256209664794416 0.073196257704605805 0 0.003320864346216782 0.077053588128725717 0 0.0014976518685602461 0.063245080616464985 0 0.037311051343862027 0.1043306764495622 0 0.02098735340028603 0.11592606268359509 0 0.008262118573536599 0.1119917046011166 0 0.037311051343862027 0.1043306764495622 0 0.02098735340028603 0.11592606268359509 0 0.030061161568504802 0.119151615690954 0 0.02098735340028603 0.11592606268359509 0 0.016425594631983589 0.1210434610602385 0 0.012545837220630881 0.1177942918168763 0 0.016425594631983589 0.1210434610602385 0 0.0215685167306125 0.123639356121649 0 0.01458147812049912 0.12673231293093951 0 0.02098735340028603 0.11592606268359509 0 0.016425594631983589 0.1210434610602385 0 0.0215685167306125 0.123639356121649 0 0.0215685167306125 0.123639356121649 0 0.030061161568504802 0.119151615690954 0 0.029835632689531561 0.12997724586586051 0 0.02098735340028603 0.11592606268359509 0 0.0215685167306125 0.123639356121649 0 0.030061161568504802 0.119151615690954 0 0.037311051343862027 0.1043306764495622 0 0.022038282640759119 0.093506308820960699 0 0.016961613186614089 0.1021693253099699 0 0.037311051343862027 0.1043306764495622 0 0.008262118573536599 0.1119917046011166 0 0.037311051343862027 0.1043306764495622 0 0.016961613186614089 0.1021693253099699 0 0.008262118573536599 0.1119917046011166 0 0.022038282640759119 0.093506308820960699 0 0.016961613186614089 0.1021693253099699 0 0.010268138603182261 0.095508763697089244 0 0.016961613186614089 0.1021693253099699 0 0.0069284747717304274 0.1055091729811206 0 0.008262118573536599 0.1119917046011166 0 -0.0077517695351226072 0.10912583896896309 0 0.0069284747717304274 0.1055091729811206 0 0.008262118573536599 0.1119917046011166 0 0.016961613186614089 0.1021693253099699 0 0.010268138603182261 0.095508763697089244 0 0.0069284747717304274 0.1055091729811206 0 -0.001086642484074318 0.096392062202275391 0 0.010268138603182261 0.095508763697089244 0 0.0069284747717304274 0.1055091729811206 0 0.02098735340028603 0.11592606268359509 0 0.008262118573536599 0.1119917046011166 0 0.012545837220630881 0.1177942918168763 0 0.008262118573536599 0.1119917046011166 0 0.012545837220630881 0.1177942918168763 0 0.0068102294021785319 0.1197541060424699 0 0.016425594631983589 0.1210434610602385 0 0.01057016768120727 0.122246924866092 0 0.01458147812049912 0.12673231293093951 0 0.016425594631983589 0.1210434610602385 0 0.012545837220630881 0.1177942918168763 0 0.01057016768120727 0.122246924866092 0 0.012545837220630881 0.1177942918168763 0 0.01057016768120727 0.122246924866092 0 0.0068102294021785319 0.1197541060424699 0 -0.001755213224400969 0.1224113826781562 0 0.0044282367599188808 0.1243262262501085 0 0.0068102294021785319 0.1197541060424699 0 0.01057016768120727 0.122246924866092 0 0.0044282367599188808 0.1243262262501085 0 0.0068102294021785319 0.1197541060424699 0 -0.001755213224400969 0.1224113826781562 0 0.008262118573536599 0.1119917046011166 0 0.0068102294021785319 0.1197541060424699 0 -0.001755213224400969 0.1224113826781562 0 0.0044282367599188808 0.1243262262501085 0 0.001514399076776056 0.1296979527704141 0 0.001514399076776056 0.1296979527704141 0 0.0063975840832642501 0.1363163069812805 0 0.0084305202943370863 0.12866179094666791 0 0.0044282367599188808 0.1243262262501085 0 0.001514399076776056 0.1296979527704141 0 0.0084305202943370863 0.12866179094666791 0 0.01057016768120727 0.122246924866092 0 0.0044282367599188808 0.1243262262501085 0 0.0084305202943370863 0.12866179094666791 0 -0.0016146699195483841 0.13719475231004019 0 0.0063975840832642501 0.1363163069812805 0 0.0028925413118478238 0.14505368737011831 0 -0.0016146699195483841 0.13719475231004019 0 0.001514399076776056 0.1296979527704141 0 0.0063975840832642501 0.1363163069812805 0 0.0063975840832642501 0.1363163069812805 0 0.01178499944291753 0.13845797774173349 0 0.0091108703709209607 0.14242124840360851 0 0.0063975840832642501 0.1363163069812805 0 0.012893593199771569 0.1334508291512102 0 0.01178499944291753 0.13845797774173349 0 0.012893593199771569 0.1334508291512102 0 0.01178499944291753 0.13845797774173349 0 0.01696370848406115 0.13792266620085289 0 0.01178499944291753 0.13845797774173349 0 0.01696370848406115 0.13792266620085289 0 0.013910499929924609 0.14286561265918471 0 0.01057016768120727 0.122246924866092 0 0.0084305202943370863 0.12866179094666791 0 0.01458147812049912 0.12673231293093951 0 0.0063975840832642501 0.1363163069812805 0 0.012893593199771569 0.1334508291512102 0 0.0084305202943370863 0.12866179094666791 0 0.012893593199771569 0.1334508291512102 0 0.0084305202943370863 0.12866179094666791 0 0.01458147812049912 0.12673231293093951 0 0.0215685167306125 0.123639356121649 0 0.01458147812049912 0.12673231293093951 0 0.0197264990869374 0.13158070123803431 0 0.012893593199771569 0.1334508291512102 0 0.01458147812049912 0.12673231293093951 0 0.0197264990869374 0.13158070123803431 0 0.012893593199771569 0.1334508291512102 0 0.0197264990869374 0.13158070123803431 0 0.01696370848406115 0.13792266620085289 0 0.01696370848406115 0.13792266620085289 0 0.024349684164093249 0.13796451549024899 0 0.01988098294194952 0.14330082689660381 0 0.0197264990869374 0.13158070123803431 0 0.01696370848406115 0.13792266620085289 0 0.024349684164093249 0.13796451549024899 0 0.024349684164093249 0.13796451549024899 0 0.029835632689531561 0.12997724586586051 0 0.032045911654956662 0.14097461153562851 0 0.0197264990869374 0.13158070123803431 0 0.024349684164093249 0.13796451549024899 0 0.029835632689531561 0.12997724586586051 0 0.0215685167306125 0.123639356121649 0 0.0197264990869374 0.13158070123803431 0 0.029835632689531561 0.12997724586586051 0 0.024525883287768811 0.15290619689188839 0 0.025444166683902859 0.14583601070425739 0 0.02070844189543632 0.14899666090025809 0 0.024525883287768811 0.15290619689188839 0 0.030647300405420418 0.15128523735033439 0 0.025444166683902859 0.14583601070425739 0 0.024525883287768811 0.15290619689188839 0 0.030647300405420418 0.15128523735033439 0 0.028823908269128871 0.15775620414509939 0 0.030647300405420418 0.15128523735033439 0 0.025444166683902859 0.14583601070425739 0 0.032045911654956662 0.14097461153562851 0 0.024349684164093249 0.13796451549024899 0 0.025444166683902859 0.14583601070425739 0 0.032045911654956662 0.14097461153562851 0 0.024349684164093249 0.13796451549024899 0 0.025444166683902859 0.14583601070425739 0 0.01988098294194952 0.14330082689660381 0 0.025444166683902859 0.14583601070425739 0 0.01988098294194952 0.14330082689660381 0 0.02070844189543632 0.14899666090025809 0 0.01696370848406115 0.13792266620085289 0 0.01988098294194952 0.14330082689660381 0 0.013910499929924609 0.14286561265918471 0 0.01988098294194952 0.14330082689660381 0 0.013910499929924609 0.14286561265918471 0 0.01509207722535484 0.14837261257371101 0 0.01988098294194952 0.14330082689660381 0 0.02070844189543632 0.14899666090025809 0 0.01509207722535484 0.14837261257371101 0 0.02070844189543632 0.14899666090025809 0 0.017818233614807041 0.15481680635576969 0 0.01509207722535484 0.14837261257371101 0 0.024525883287768811 0.15290619689188839 0 0.02070844189543632 0.14899666090025809 0 0.017818233614807041 0.15481680635576969 0 0.024525883287768811 0.15290619689188839 0 0.017818233614807041 0.15481680635576969 0 0.022496939048816129 0.15973502551021371 0 0.017818233614807041 0.15481680635576969 0 0.01150190315253885 0.15364585520869151 0 0.01233471246840317 0.15965105041380309 0 0.017818233614807041 0.15481680635576969 0 0.01150190315253885 0.15364585520869151 0 0.01509207722535484 0.14837261257371101 0 0.01150190315253885 0.15364585520869151 0 0.01509207722535484 0.14837261257371101 0 0.0097574338954461524 0.14768186420107829 0 0.01150190315253885 0.15364585520869151 0 0.0097574338954461524 0.14768186420107829 0 0.0057672513893855847 0.15217900095767961 0 0.01150190315253885 0.15364585520869151 0 0.0057672513893855847 0.15217900095767961 0 0.0076550187786762246 0.15696685112919501 0 0.013910499929924609 0.14286561265918471 0 0.01509207722535484 0.14837261257371101 0 0.0097574338954461524 0.14768186420107829 0 0.013910499929924609 0.14286561265918471 0 0.0097574338954461524 0.14768186420107829 0 0.0091108703709209607 0.14242124840360851 0 0.01178499944291753 0.13845797774173349 0 0.013910499929924609 0.14286561265918471 0 0.0091108703709209607 0.14242124840360851 0 0.0063975840832642501 0.1363163069812805 0 0.0091108703709209607 0.14242124840360851 0 0.0028925413118478238 0.14505368737011831 0 0.0097574338954461524 0.14768186420107829 0 0.0091108703709209607 0.14242124840360851 0 0.0028925413118478238 0.14505368737011831 0 0.0097574338954461524 0.14768186420107829 0 0.0028925413118478238 0.14505368737011831 0 0.0057672513893855847 0.15217900095767961 0 -0.0021862879748443379 0.15127762749284521 0 0.0028925413118478238 0.14505368737011831 0 0.0057672513893855847 0.15217900095767961 0 -0.0021862879748443379 0.15127762749284521 0 0.0057672513893855847 0.15217900095767961 0 0.0022271874395096 0.1573937168972985 0 0.0057672513893855847 0.15217900095767961 0 0.0022271874395096 0.1573937168972985 0 0.0076550187786762246 0.15696685112919501 0 0.0022271874395096 0.1573937168972985 0 0.0076550187786762246 0.15696685112919501 0 0.0064440394435439164 0.16196463216850221 0 -0.00070180903849404223 0.1620298962772429 0 0.0022271874395096 0.1573937168972985 0 0.0064440394435439164 0.16196463216850221 0 -0.00070180903849404223 0.1620298962772429 0 0.0064440394435439164 0.16196463216850221 0 0.0043844093426093182 0.16833476653285251 0 -0.0020264807575900269 0.16925100379745331 0 -0.00070180903849404223 0.1620298962772429 0 0.0043844093426093182 0.16833476653285251 0 -0.0020264807575900269 0.16925100379745331 0 0.0043844093426093182 0.16833476653285251 0 0.00430441400605025 0.17621802507742759 0 0.0043844093426093182 0.16833476653285251 0 0.0091704614084429422 0.16741772424374379 0 0.009203747405755176 0.17245803599704071 0 0.0064440394435439164 0.16196463216850221 0 0.0043844093426093182 0.16833476653285251 0 0.0091704614084429422 0.16741772424374379 0 0.0064440394435439164 0.16196463216850221 0 0.0091704614084429422 0.16741772424374379 0 0.010849997275016079 0.16356888954975951 0 0.0091704614084429422 0.16741772424374379 0 0.014573669128994691 0.17176303619860189 0 0.009203747405755176 0.17245803599704071 0 0.0091704614084429422 0.16741772424374379 0 0.014573669128994691 0.17176303619860189 0 0.015450775779674301 0.16524215137298881 0 0.0091704614084429422 0.16741772424374379 0 0.015450775779674301 0.16524215137298881 0 0.010849997275016079 0.16356888954975951 0 0.015450775779674301 0.16524215137298881 0 0.01233471246840317 0.15965105041380309 0 0.010849997275016079 0.16356888954975951 0 0.015450775779674301 0.16524215137298881 0 0.01233471246840317 0.15965105041380309 0 0.017560882471538999 0.16082222783124031 0 0.0076550187786762246 0.15696685112919501 0 0.0064440394435439164 0.16196463216850221 0 0.01233471246840317 0.15965105041380309 0 0.01150190315253885 0.15364585520869151 0 0.0076550187786762246 0.15696685112919501 0 0.01233471246840317 0.15965105041380309 0 0.0064440394435439164 0.16196463216850221 0 0.01233471246840317 0.15965105041380309 0 0.010849997275016079 0.16356888954975951 0 -0.000617891155602524 0.18583592233474339 0 0.0091726476251810483 0.1836087937180978 0 0.01089648941808311 0.1918434627874944 0 -0.000617891155602524 0.18583592233474339 0 0.00430441400605025 0.17621802507742759 0 0.0091726476251810483 0.1836087937180978 0 0.0043844093426093182 0.16833476653285251 0 0.00430441400605025 0.17621802507742759 0 0.009203747405755176 0.17245803599704071 0 -0.0033948347462645538 0.17676762032388441 0 -0.000617891155602524 0.18583592233474339 0 0.00430441400605025 0.17621802507742759 0 0.00430441400605025 0.17621802507742759 0 0.01358578314267868 0.17855662793257751 0 0.0091726476251810483 0.1836087937180978 0 0.00430441400605025 0.17621802507742759 0 0.009203747405755176 0.17245803599704071 0 0.01358578314267868 0.17855662793257751 0 0.014573669128994691 0.17176303619860189 0 0.01358578314267868 0.17855662793257751 0 0.018263305814720441 0.1758300031687339 0 0.014573669128994691 0.17176303619860189 0 0.009203747405755176 0.17245803599704071 0 0.01358578314267868 0.17855662793257751 0 0.01358578314267868 0.17855662793257751 0 0.0091726476251810483 0.1836087937180978 0 0.017694442714695731 0.18558993045824609 0 0.0091726476251810483 0.1836087937180978 0 0.017694442714695731 0.18558993045824609 0 0.01089648941808311 0.1918434627874944 0 0.017694442714695731 0.18558993045824609 0 0.020534238412145689 0.1815549633123949 0 0.027531931036925281 0.1850939977091576 0 0.017694442714695731 0.18558993045824609 0 0.027531931036925281 0.1850939977091576 0 0.023725842278767929 0.18794485024173849 0 0.020534238412145689 0.1815549633123949 0 0.02204740825594358 0.17713644781285751 0 0.027531931036925281 0.1850939977091576 0 0.01358578314267868 0.17855662793257751 0 0.017694442714695731 0.18558993045824609 0 0.020534238412145689 0.1815549633123949 0 0.020534238412145689 0.1815549633123949 0 0.02204740825594358 0.17713644781285751 0 0.018263305814720441 0.1758300031687339 0 0.01358578314267868 0.17855662793257751 0 0.020534238412145689 0.1815549633123949 0 0.018263305814720441 0.1758300031687339 0 0.018263305814720441 0.1758300031687339 0 0.017984059116542019 0.1719707361268509 0 0.020854676832018009 0.17399820762912091 0 0.014573669128994691 0.17176303619860189 0 0.018263305814720441 0.1758300031687339 0 0.017984059116542019 0.1719707361268509 0 0.02204740825594358 0.17713644781285751 0 0.018263305814720441 0.1758300031687339 0 0.020854676832018009 0.17399820762912091 0 0.02204740825594358 0.17713644781285751 0 0.020854676832018009 0.17399820762912091 0 0.033656648754376101 0.17183626113086159 0 0.027531931036925281 0.1850939977091576 0 0.02788291684150275 0.1893477059397303 0 0.023725842278767929 0.18794485024173849 0 0.020854676832018009 0.17399820762912091 0 0.02522399586113324 0.1649505013400516 0 0.040718626988713591 0.16031604447242639 0 0.020854676832018009 0.17399820762912091 0 0.040718626988713591 0.16031604447242639 0 0.019945094483104869 0.16389048748776369 0 0.022496939048816129 0.15973502551021371 0 0.017560882471538999 0.16082222783124031 0 0.019945094483104869 0.16389048748776369 0 0.022496939048816129 0.15973502551021371 0 0.02522399586113324 0.1649505013400516 0 0.017818233614807041 0.15481680635576969 0 0.01233471246840317 0.15965105041380309 0 0.017560882471538999 0.16082222783124031 0 0.017818233614807041 0.15481680635576969 0 0.022496939048816129 0.15973502551021371 0 0.017560882471538999 0.16082222783124031 0 0.015450775779674301 0.16524215137298881 0 0.019945094483104869 0.16389048748776369 0 0.017560882471538999 0.16082222783124031 0 0.015450775779674301 0.16524215137298881 0 0.019945094483104869 0.16389048748776369 0 0.018992879254361661 0.16870253138432381 0 0.020854676832018009 0.17399820762912091 0 0.018992879254361661 0.16870253138432381 0 0.02522399586113324 0.1649505013400516 0 0.014573669128994691 0.17176303619860189 0 0.017984059116542019 0.1719707361268509 0 0.018992879254361661 0.16870253138432381 0 0.014573669128994691 0.17176303619860189 0 0.015450775779674301 0.16524215137298881 0 0.018992879254361661 0.16870253138432381 0 0.017984059116542019 0.1719707361268509 0 0.020854676832018009 0.17399820762912091 0 0.018992879254361661 0.16870253138432381 0 0.019945094483104869 0.16389048748776369 0 0.018992879254361661 0.16870253138432381 0 0.02522399586113324 0.1649505013400516 0 0.022496939048816129 0.15973502551021371 0 0.02522399586113324 0.1649505013400516 0 0.028823908269128871 0.15775620414509939 0 0.024525883287768811 0.15290619689188839 0 0.022496939048816129 0.15973502551021371 0 0.028823908269128871 0.15775620414509939 0 0.020854676832018009 0.17399820762912091 0 0.033656648754376101 0.17183626113086159 0 0.040718626988713591 0.16031604447242639 0 0.030647300405420418 0.15128523735033439 0 0.028823908269128871 0.15775620414509939 0 0.040718626988713591 0.16031604447242639 0 0.02522399586113324 0.1649505013400516 0 0.028823908269128871 0.15775620414509939 0 0.040718626988713591 0.16031604447242639 0 0.033656648754376101 0.17183626113086159 0 0.040718626988713591 0.16031604447242639 0 0.043032669373384722 0.17236592938519571 0 0.040718626988713591 0.16031604447242639 0 0.043032669373384722 0.17236592938519571 0 0.052745631132924242 0.16898934162558399 0 0.02204740825594358 0.17713644781285751 0 0.033656648754376101 0.17183626113086159 0 0.044174740321551477 0.18505716244004139 0 0.027531931036925281 0.1850939977091576 0 0.044174740321551477 0.18505716244004139 0 0.03460923092936697 0.19011098295722481 0 0.043032669373384722 0.17236592938519571 0 0.044174740321551477 0.18505716244004139 0 0.052745631132924242 0.16898934162558399 0 0.02204740825594358 0.17713644781285751 0 0.027531931036925281 0.1850939977091576 0 0.044174740321551477 0.18505716244004139 0 0.02204740825594358 0.17713644781285751 0 0.044174740321551477 0.18505716244004139 0 0.033656648754376101 0.17183626113086159 0 0.043032669373384722 0.17236592938519571 0 0.044174740321551477 0.18505716244004139 0 0.044174740321551477 0.18505716244004139 0 0.052745631132924242 0.16898934162558399 0 0.044174740321551477 0.18505716244004139 0 0.055740668117340172 0.18017484572209741 0 0.06597871692555754 0.19286212852931861 0 0.055740668117340172 0.18017484572209741 0 0.06597871692555754 0.19286212852931861 0 0.063647619434929442 0.17289182467022299 0 0.044174740321551477 0.18505716244004139 0 0.055740668117340172 0.18017484572209741 0 0.052745631132924242 0.16898934162558399 0 0.055740668117340172 0.18017484572209741 0 0.052745631132924242 0.16898934162558399 0 0.063647619434929442 0.17289182467022299 0 0.040718626988713591 0.16031604447242639 0 0.052745631132924242 0.16898934162558399 0 0.061316521944299013 0.1529215208111277 0 0.052745631132924242 0.16898934162558399 0 0.061316521944299013 0.1529215208111277 0 0.061316521944299013 0.1529215208111277 0 0.063647619434929442 0.17289182467022299 0 0.052745631132924242 0.16898934162558399 0 0.061316521944299013 0.1529215208111277 0 0.063647619434929442 0.17289182467022299 0 0.040718626988713591 0.16031604447242639 0 0.050968117035017059 0.14689904002260681 0 0.060582577145409093 0.1466338813157318 0 0.040718626988713591 0.16031604447242639 0 0.060582577145409093 0.1466338813157318 0 0.040718626988713591 0.16031604447242639 0 0.061316521944299013 0.1529215208111277 0 0.060582577145409093 0.1466338813157318 0 0.061316521944299013 0.1529215208111277 0 0.060582577145409093 0.1466338813157318 0 0.050968117035017059 0.14689904002260681 0 0.052943974506085373 0.13803341878026859 0 0.045617567762428028 0.1452434590806167 0 0.050968117035017059 0.14689904002260681 0 0.060582577145409093 0.1466338813157318 0 0.052943974506085373 0.13803341878026859 0 0.060582577145409093 0.1466338813157318 0 0.058396373177095957 0.12790486731237569 0 0.060582577145409093 0.1466338813157318 0 0.058396373177095957 0.12790486731237569 0 0.052943974506085373 0.13803341878026859 0 0.058396373177095957 0.12790486731237569 0 0.052943974506085373 0.13803341878026859 0 0.042528862792271811 0.1341257696379593 0 0.060582577145409093 0.1466338813157318 0 0.058396373177095957 0.12790486731237569 0 0.06704479466229149 0.14218274678697079 0 0.05073549382100611 0.11930700509781469 0 0.058396373177095957 0.12790486731237569 0 0.042528862792271811 0.1341257696379593 0 0.052943974506085373 0.13803341878026859 0 0.042528862792271811 0.1341257696379593 0 0.045617567762428028 0.1452434590806167 0 0.05073549382100611 0.11930700509781469 0 0.039332800690571532 0.1224886173184479 0 0.042528862792271811 0.1341257696379593 0 0.039332800690571532 0.1224886173184479 0 0.029835632689531561 0.12997724586586051 0 0.042528862792271811 0.1341257696379593 0 0.029835632689531561 0.12997724586586051 0 0.042528862792271811 0.1341257696379593 0 0.032045911654956662 0.14097461153562851 0 0.030647300405420418 0.15128523735033439 0 0.032045911654956662 0.14097461153562851 0 0.038422181404157298 0.1484871747139575 0 0.042528862792271811 0.1341257696379593 0 0.032045911654956662 0.14097461153562851 0 0.038422181404157298 0.1484871747139575 0 0.030647300405420418 0.15128523735033439 0 0.040718626988713591 0.16031604447242639 0 0.038422181404157298 0.1484871747139575 0 0.040718626988713591 0.16031604447242639 0 0.050968117035017059 0.14689904002260681 0 0.045617567762428028 0.1452434590806167 0 0.040718626988713591 0.16031604447242639 0 0.038422181404157298 0.1484871747139575 0 0.045617567762428028 0.1452434590806167 0 0.042528862792271811 0.1341257696379593 0 0.038422181404157298 0.1484871747139575 0 0.045617567762428028 0.1452434590806167 0 0.022062085370766191 0.24948980786434841 0 0.01475444484588343 0.2220279858294584 0 0.038458767921905411 0.2372486564289448 0 0.022062085370766191 0.24948980786434841 0 0.0069152235249865081 0.24001655582746689 0 0.01475444484588343 0.2220279858294584 0 -0.0013581205314274699 0.25585075003031849 0 0.022062085370766191 0.24948980786434841 0 0.0069152235249865081 0.24001655582746689 0 -0.0070972438617433386 0.2318192067591931 0 0.0069152235249865081 0.24001655582746689 0 0.01475444484588343 0.2220279858294584 0 0.01475444484588343 0.2220279858294584 0 0.038458767921905411 0.2372486564289448 0 0.01475444484588343 0.2220279858294584 0 0.031101013158240629 0.21426358341649121 0 0.038458767921905411 0.2372486564289448 0 0.031101013158240629 0.21426358341649121 0 0.010474193330965579 0.2086963352052455 0 0.021388213061046431 0.19992492512884161 0 0.01475444484588343 0.2220279858294584 0 0.031101013158240629 0.21426358341649121 0 0.010474193330965579 0.2086963352052455 0 -0.0089498782301390065 0.20680731522997281 0 0.01475444484588343 0.2220279858294584 0 -0.001198125073508286 0.20096261394949769 0 -0.0089498782301390065 0.20680731522997281 0 0.010474193330965579 0.2086963352052455 0 -0.0089498782301390065 0.20680731522997281 0 0.01475444484588343 0.2220279858294584 0 0.010474193330965579 0.2086963352052455 0 -0.001198125073508286 0.20096261394949769 0 0.010474193330965579 0.2086963352052455 0 0.021388213061046431 0.19992492512884161 0 -0.001198125073508286 0.20096261394949769 0 0.021388213061046431 0.19992492512884161 0 -0.001198125073508286 0.20096261394949769 0 0.01089648941808311 0.1918434627874944 0 0.021388213061046431 0.19992492512884161 0 -0.001198125073508286 0.20096261394949769 0 0.01089648941808311 0.1918434627874944 0 -0.001198125073508286 0.20096261394949769 0 -0.000617891155602524 0.18583592233474339 0 0.01089648941808311 0.1918434627874944 0 0.01089648941808311 0.1918434627874944 0 0.021794078521947979 0.1917477668598199 0 0.021388213061046431 0.19992492512884161 0 0.017694442714695731 0.18558993045824609 0 0.01089648941808311 0.1918434627874944 0 0.021794078521947979 0.1917477668598199 0 0.021388213061046431 0.19992492512884161 0 0.02862525467261692 0.19404817166579311 0 0.037184734066848107 0.1981613041756318 0 0.017694442714695731 0.18558993045824609 0 0.021794078521947979 0.1917477668598199 0 0.023725842278767929 0.18794485024173849 0 0.021794078521947979 0.1917477668598199 0 0.021388213061046431 0.19992492512884161 0 0.02862525467261692 0.19404817166579311 0 0.02862525467261692 0.19404817166579311 0 0.02788291684150275 0.1893477059397303 0 0.03460923092936697 0.19011098295722481 0 0.027531931036925281 0.1850939977091576 0 0.02788291684150275 0.1893477059397303 0 0.03460923092936697 0.19011098295722481 0 0.021794078521947979 0.1917477668598199 0 0.02788291684150275 0.1893477059397303 0 0.023725842278767929 0.18794485024173849 0 0.021794078521947979 0.1917477668598199 0 0.02862525467261692 0.19404817166579311 0 0.02788291684150275 0.1893477059397303 0 0.021388213061046431 0.19992492512884161 0 0.043974551195601112 0.19888723630818581 0 0.021388213061046431 0.19992492512884161 0 0.037184734066848107 0.1981613041756318 0 0.043974551195601112 0.19888723630818581 0 0.044174740321551477 0.18505716244004139 0 0.03460923092936697 0.19011098295722481 0 0.037184734066848107 0.1981613041756318 0 0.02862525467261692 0.19404817166579311 0 0.03460923092936697 0.19011098295722481 0 0.037184734066848107 0.1981613041756318 0 0.044174740321551477 0.18505716244004139 0 0.037184734066848107 0.1981613041756318 0 0.043974551195601112 0.19888723630818581 0 0.044174740321551477 0.18505716244004139 0 0.037184734066848107 0.1981613041756318 0 0.044174740321551477 0.18505716244004139 0 0.06597871692555754 0.19286212852931861 0 0.043974551195601112 0.19888723630818581 0 0.066560889330155831 0.1978495474875327 0 0.043974551195601112 0.19888723630818581 0 0.066560889330155831 0.1978495474875327 0 0.06597871692555754 0.19286212852931861 0 0.044174740321551477 0.18505716244004139 0 0.043974551195601112 0.19888723630818581 0 0.06597871692555754 0.19286212852931861 0 0.043974551195601112 0.19888723630818581 0 0.051979137696263458 0.2156263135077553 0 0.066560889330155831 0.1978495474875327 0 0.031101013158240629 0.21426358341649121 0 0.021388213061046431 0.19992492512884161 0 0.043974551195601112 0.19888723630818581 0 0.031101013158240629 0.21426358341649121 0 0.043974551195601112 0.19888723630818581 0 0.051979137696263458 0.2156263135077553 0 0.031101013158240629 0.21426358341649121 0 0.051979137696263458 0.2156263135077553 0 0.038458767921905411 0.2372486564289448 0 0.051979137696263458 0.2156263135077553 0 0.058786390356923152 0.23496943861551711 0 0.069385872849641442 0.22205092881451721 0 0.051979137696263458 0.2156263135077553 0 0.058786390356923152 0.23496943861551711 0 0.038458767921905411 0.2372486564289448 0 0.038458767921905411 0.2372486564289448 0 0.062163090997927238 0.25246932702843122 0 0.058786390356923152 0.23496943861551711 0 0.038458767921905411 0.2372486564289448 0 0.062163090997927238 0.25246932702843122 0 0.038458767921905411 0.2372486564289448 0 0.040294956150503269 0.25223707839592702 0 0.062163090997927238 0.25246932702843122 0 0.022062085370766191 0.24948980786434841 0 0.038458767921905411 0.2372486564289448 0 0.040294956150503269 0.25223707839592702 0 0.092298605903505693 0.2416158844505919 0 0.082658622746558649 0.2397877941422116 0 0.1030595415881696 0.22716480263499461 0 0.091543946649292843 0.24997310198023659 0 0.092298605903505693 0.2416158844505919 0 0.082826472274950214 0.24647050934762871 0 0.091543946649292843 0.24997310198023659 0 0.082826472274950214 0.24647050934762871 0 0.085868016482932338 0.25269131097926117 0 0.092298605903505693 0.2416158844505919 0 0.082658622746558649 0.2397877941422116 0 0.082826472274950214 0.24647050934762871 0 0.082658622746558649 0.2397877941422116 0 0.082826472274950214 0.24647050934762871 0 0.077828192347162622 0.247122705985938 0 0.082658622746558649 0.2397877941422116 0 0.082826472274950214 0.24647050934762871 0 0.082826472274950214 0.24647050934762871 0 0.077828192347162622 0.247122705985938 0 0.080280856494467548 0.25090285684720348 0 0.082658622746558649 0.2397877941422116 0 0.077828192347162622 0.247122705985938 0 0.072210856369126331 0.24625231014150181 0 0.082658622746558649 0.2397877941422116 0 0.072210856369126331 0.24625231014150181 0 0.058786390356923152 0.23496943861551711 0 0.072210856369126331 0.24625231014150181 0 0.069385872849641442 0.22205092881451721 0 0.058786390356923152 0.23496943861551711 0 0.072210856369126331 0.24625231014150181 0 0.062163090997927238 0.25246932702843122 0 0.077828192347162622 0.247122705985938 0 0.072506791539930587 0.248787560300406 0 0.07607094232800328 0.25203594905764171 0 0.082658622746558649 0.2397877941422116 0 0.072210856369126331 0.24625231014150181 0 0.069385872849641442 0.22205092881451721 0 0.077828192347162622 0.247122705985938 0 0.072506791539930587 0.248787560300406 0 0.072210856369126331 0.24625231014150181 0 0.072506791539930587 0.248787560300406 0 0.072210856369126331 0.24625231014150181 0 0.072506791539930587 0.248787560300406 0 0.072210856369126331 0.24625231014150181 0 0.062163090997927238 0.25246932702843122 0 0.072210856369126331 0.24625231014150181 0 0.062163090997927238 0.25246932702843122 0 0.082658622746558649 0.2397877941422116 0 0.069385872849641442 0.22205092881451721 0 0.082139624894835103 0.21912455565418451 0 0.072210856369126331 0.24625231014150181 0 0.069385872849641442 0.22205092881451721 0 0.082658622746558649 0.2397877941422116 0 0.1030595415881696 0.22716480263499461 0 0.082658622746558649 0.2397877941422116 0 0.082139624894835103 0.21912455565418451 0 0.1030595415881696 0.22716480263499461 0 0.082658622746558649 0.2397877941422116 0 0.082139624894835103 0.21912455565418451 0 0.082139624894835103 0.21912455565418451 0 0.095585571169227557 0.20346021793194061 0 0.09714791115721369 0.21544213445291999 0 0.082139624894835103 0.21912455565418451 0 0.076696120787780805 0.20506728339069549 0 0.08158792074259083 0.1971591574645242 0 0.082139624894835103 0.21912455565418451 0 0.08158792074259083 0.1971591574645242 0 0.082139624894835103 0.21912455565418451 0 0.08158792074259083 0.1971591574645242 0 0.095585571169227557 0.20346021793194061 0 0.069385872849641442 0.22205092881451721 0 0.066560889330155831 0.1978495474875327 0 0.051979137696263458 0.2156263135077553 0 0.069385872849641442 0.22205092881451721 0 0.066560889330155831 0.1978495474875327 0 0.069385872849641442 0.22205092881451721 0 0.082139624894835103 0.21912455565418451 0 0.074290296389340357 0.21300337527978819 0 0.082139624894835103 0.21912455565418451 0 0.074290296389340357 0.21300337527978819 0 0.076696120787780805 0.20506728339069549 0 0.069385872849641442 0.22205092881451721 0 0.074290296389340357 0.21300337527978819 0 0.068919423373805702 0.2038155699000451 0 0.069385872849641442 0.22205092881451721 0 0.068919423373805702 0.2038155699000451 0 0.066560889330155831 0.1978495474875327 0 0.074290296389340357 0.21300337527978819 0 0.068919423373805702 0.2038155699000451 0 0.076696120787780805 0.20506728339069549 0 0.068919423373805702 0.2038155699000451 0 0.076696120787780805 0.20506728339069549 0 0.075810993686745876 0.19638169691334109 0 0.076696120787780805 0.20506728339069549 0 0.075810993686745876 0.19638169691334109 0 0.078392972137658321 0.19730594365138451 0 0.075810993686745876 0.19638169691334109 0 0.066560889330155831 0.1978495474875327 0 0.068919423373805702 0.2038155699000451 0 0.075810993686745876 0.19638169691334109 0 0.066560889330155831 0.1978495474875327 0 0.075810993686745876 0.19638169691334109 0 0.078392972137658321 0.19730594365138451 0 0.068919423373805702 0.2038155699000451 0 0.075810993686745876 0.19638169691334109 0 0.075810993686745876 0.19638169691334109 0 0.066560889330155831 0.1978495474875327 0 0.06597871692555754 0.19286212852931861 0 0.066560889330155831 0.1978495474875327 0 0.06597871692555754 0.19286212852931861 0 0.075810993686745876 0.19638169691334109 0 0.06597871692555754 0.19286212852931861 0 0.073834092740423615 0.19040044311737489 0 0.075810993686745876 0.19638169691334109 0 0.06597871692555754 0.19286212852931861 0 0.073834092740423615 0.19040044311737489 0 0.081416520305051893 0.19033506733374281 0 0.072130140044340055 0.18202287969309691 0 0.06597871692555754 0.19286212852931861 0 0.073834092740423615 0.19040044311737489 0 0.072130140044340055 0.18202287969309691 0 0.075810993686745876 0.19638169691334109 0 0.073834092740423615 0.19040044311737489 0 0.081416520305051893 0.19033506733374281 0 0.075810993686745876 0.19638169691334109 0 0.081416520305051893 0.19033506733374281 0 0.081416520305051893 0.19033506733374281 0 0.08158792074259083 0.1971591574645242 0 0.081416520305051893 0.19033506733374281 0 0.078392972137658321 0.19730594365138451 0 0.08158792074259083 0.1971591574645242 0 0.075810993686745876 0.19638169691334109 0 0.081416520305051893 0.19033506733374281 0 0.078392972137658321 0.19730594365138451 0 0.078392972137658321 0.19730594365138451 0 0.08158792074259083 0.1971591574645242 0 0.076696120787780805 0.20506728339069549 0 0.078392972137658321 0.19730594365138451 0 0.08158792074259083 0.1971591574645242 0 0.08158792074259083 0.1971591574645242 0 0.095585571169227557 0.20346021793194061 0 0.081416520305051893 0.19033506733374281 0 0.08158792074259083 0.1971591574645242 0 0.09623004371530515 0.18715311733008061 0 0.08158792074259083 0.1971591574645242 0 0.1077727975799239 0.19595614023337909 0 0.08158792074259083 0.1971591574645242 0 0.1077727975799239 0.19595614023337909 0 0.09623004371530515 0.18715311733008061 0 0.08158792074259083 0.1971591574645242 0 0.1077727975799239 0.19595614023337909 0 0.095585571169227557 0.20346021793194061 0 0.1077727975799239 0.19595614023337909 0 0.1082322389923193 0.20974968668547961 0 0.095585571169227557 0.20346021793194061 0 0.1077727975799239 0.19595614023337909 0 0.09623004371530515 0.18715311733008061 0 0.1105475807722241 0.18160118002685391 0 0.1077727975799239 0.19595614023337909 0 0.1105475807722241 0.18160118002685391 0 0.120986044528871 0.18601621363441179 0 0.1077727975799239 0.19595614023337909 0 0.1339576744172567 0.1947531230022336 0 0.1077727975799239 0.19595614023337909 0 0.120986044528871 0.18601621363441179 0 0.1339576744172567 0.1947531230022336 0 0.1077727975799239 0.19595614023337909 0 0.12150083337996349 0.2045424151535698 0 0.1339576744172567 0.1947531230022336 0 0.1077727975799239 0.19595614023337909 0 0.12150083337996349 0.2045424151535698 0 0.1082322389923193 0.20974968668547961 0 0.1234604604297793 0.2145418111277754 0 0.1082322389923193 0.20974968668547961 0 0.1030595415881696 0.22716480263499461 0 0.12150083337996349 0.2045424151535698 0 0.1234604604297793 0.2145418111277754 0 0.1082322389923193 0.20974968668547961 0 0.1082322389923193 0.20974968668547961 0 0.09714791115721369 0.21544213445291999 0 0.1030595415881696 0.22716480263499461 0 0.1082322389923193 0.20974968668547961 0 0.095585571169227557 0.20346021793194061 0 0.09714791115721369 0.21544213445291999 0 0.082139624894835103 0.21912455565418451 0 0.09714791115721369 0.21544213445291999 0 0.1030595415881696 0.22716480263499461 0 0.1234604604297793 0.2145418111277754 0 0.1030595415881696 0.22716480263499461 0 0.1199404235558679 0.23389585646776331 0 0.1234604604297793 0.2145418111277754 0 0.1030595415881696 0.22716480263499461 0 0.1199404235558679 0.23389585646776331 0 0.12695957089482901 0.24747230001415241 0 0.11700612055034661 0.25280059366604207 0 0.1199404235558679 0.23389585646776331 0 0.1057998516311974 0.26008039821654533 0 0.1199404235558679 0.23389585646776331 0 0.11700612055034661 0.25280059366604207 0 0.1057998516311974 0.26008039821654533 0 0.1030595415881696 0.22716480263499461 0 0.1199404235558679 0.23389585646776331 0 0.10140444625855841 0.24468321414788791 0 0.1199404235558679 0.23389585646776331 0 0.10140444625855841 0.24468321414788791 0 0.1057998516311974 0.26008039821654533 0 0.092298605903505693 0.2416158844505919 0 0.1030595415881696 0.22716480263499461 0 0.10140444625855841 0.24468321414788791 0 0.091543946649292843 0.24997310198023659 0 0.092298605903505693 0.2416158844505919 0 0.10140444625855841 0.24468321414788791 0 0.091543946649292843 0.24997310198023659 0 0.10140444625855841 0.24468321414788791 0 0.097171933684521816 0.25511804805167337 0 0.08963547268293702 0.15148332961178179 0 0.080123132603335923 0.13884048320524789 0 0.080769826454193519 0.16458777526949531 0 0.080123132603335923 0.13884048320524789 0 0.080769826454193519 0.16458777526949531 0 0.08963547268293702 0.15148332961178179 0 0.089860524370539124 0.1427399324318048 0 0.080123132603335923 0.13884048320524789 0 0.089860524370539124 0.1427399324318048 0 0.091167059396607353 0.13573593550393959 0 0.080123132603335923 0.13884048320524789 0 0.092874127428698744 0.1243916658413016 0 0.091167059396607353 0.13573593550393959 0 0.079959461045495464 0.13328720631413671 0 0.092874127428698744 0.1243916658413016 0 0.079959461045495464 0.13328720631413671 0 0.091167059396607353 0.13573593550393959 0 0.080123132603335923 0.13884048320524789 0 0.079959461045495464 0.13328720631413671 0 0.081226855773400886 0.1155956834667107 0 0.06704479466229149 0.14218274678697079 0 0.079959461045495464 0.13328720631413671 0 0.06704479466229149 0.14218274678697079 0 0.080123132603335923 0.13884048320524789 0 0.079959461045495464 0.13328720631413671 0 0.06704479466229149 0.14218274678697079 0 0.081226855773400886 0.1155956834667107 0 0.079959461045495464 0.13328720631413671 0 0.06704479466229149 0.14218274678697079 0 0.081226855773400886 0.1155956834667107 0 0.067192531123333551 0.1203097440484758 0 0.06704479466229149 0.14218274678697079 0 0.067192531123333551 0.1203097440484758 0 0.058396373177095957 0.12790486731237569 0 0.06704479466229149 0.14218274678697079 0 0.061316521944299013 0.1529215208111277 0 0.060582577145409093 0.1466338813157318 0 0.06704479466229149 0.14218274678697079 0 0.061316521944299013 0.1529215208111277 0 0.06704479466229149 0.14218274678697079 0 0.060582577145409093 0.1466338813157318 0 0.06704479466229149 0.14218274678697079 0 0.080123132603335923 0.13884048320524789 0 0.07169167292959 0.1539293704675723 0 0.080769826454193519 0.16458777526949531 0 0.080123132603335923 0.13884048320524789 0 0.06704479466229149 0.14218274678697079 0 0.07169167292959 0.1539293704675723 0 0.061316521944299013 0.1529215208111277 0 0.06704479466229149 0.14218274678697079 0 0.07169167292959 0.1539293704675723 0 0.07169167292959 0.1539293704675723 0 0.063647619434929442 0.17289182467022299 0 0.080769826454193519 0.16458777526949531 0 0.061316521944299013 0.1529215208111277 0 0.07169167292959 0.1539293704675723 0 0.063647619434929442 0.17289182467022299 0 0.081416520305051893 0.19033506733374281 0 0.072130140044340055 0.18202287969309691 0 0.080769826454193519 0.16458777526949531 0 0.063647619434929442 0.17289182467022299 0 0.072130140044340055 0.18202287969309691 0 0.080769826454193519 0.16458777526949531 0 0.06597871692555754 0.19286212852931861 0 0.063647619434929442 0.17289182467022299 0 0.072130140044340055 0.18202287969309691 0 0.06597871692555754 0.19286212852931861 0 0.063647619434929442 0.17289182467022299 0 0.081416520305051893 0.19033506733374281 0 0.1017471809217471 0.16840457226550931 0 0.09623004371530515 0.18715311733008061 0 0.081416520305051893 0.19033506733374281 0 0.080769826454193519 0.16458777526949531 0 0.081416520305051893 0.19033506733374281 0 0.080769826454193519 0.16458777526949531 0 0.1017471809217471 0.16840457226550931 0 0.081416520305051893 0.19033506733374281 0 0.1017471809217471 0.16840457226550931 0 0.08963547268293702 0.15148332961178179 0 0.080769826454193519 0.16458777526949531 0 0.1017471809217471 0.16840457226550931 0 0.1017471809217471 0.16840457226550931 0 0.09623004371530515 0.18715311733008061 0 0.1105475807722241 0.18160118002685391 0 0.1017471809217471 0.16840457226550931 0 0.1105475807722241 0.18160118002685391 0 0.1260018371152733 0.17047585667088891 0 0.1105475807722241 0.18160118002685391 0 0.120986044528871 0.18601621363441179 0 0.1260018371152733 0.17047585667088891 0 0.1017471809217471 0.16840457226550931 0 0.1220778415384416 0.1464740771972749 0 0.1260018371152733 0.17047585667088891 0 0.1017471809217471 0.16840457226550931 0 0.1220778415384416 0.1464740771972749 0 0.08963547268293702 0.15148332961178179 0 0.1017471809217471 0.16840457226550931 0 0.1025518898584848 0.14398509630836701 0 0.1017471809217471 0.16840457226550931 0 0.1220778415384416 0.1464740771972749 0 0.1025518898584848 0.14398509630836701 0 0.089860524370539124 0.1427399324318048 0 0.091167059396607353 0.13573593550393959 0 0.1025518898584848 0.14398509630836701 0 0.08963547268293702 0.15148332961178179 0 0.089860524370539124 0.1427399324318048 0 0.1025518898584848 0.14398509630836701 0 0.1025518898584848 0.14398509630836701 0 0.10123277553907251 0.13030272508469959 0 0.1155281386006284 0.12780565999363219 0 0.092874127428698744 0.1243916658413016 0 0.091167059396607353 0.13573593550393959 0 0.10123277553907251 0.13030272508469959 0 0.091167059396607353 0.13573593550393959 0 0.1025518898584848 0.14398509630836701 0 0.10123277553907251 0.13030272508469959 0 0.10474825365104801 0.118871671338058 0 0.10123277553907251 0.13030272508469959 0 0.1155281386006284 0.12780565999363219 0 0.1220778415384416 0.1464740771972749 0 0.1025518898584848 0.14398509630836701 0 0.1155281386006284 0.12780565999363219 0 0.14521027461101521 0.151337732623779 0 0.1661070325660941 0.14078231180355719 0 0.14664782704348681 0.1187352828605238 0 0.1220778415384416 0.1464740771972749 0 0.14521027461101521 0.151337732623779 0 0.14664782704348681 0.1187352828605238 0 0.1220778415384416 0.1464740771972749 0 0.1155281386006284 0.12780565999363219 0 0.14664782704348681 0.1187352828605238 0 0.1220778415384416 0.1464740771972749 0 0.14521027461101521 0.151337732623779 0 0.1260018371152733 0.17047585667088891 0 0.14521027461101521 0.151337732623779 0 0.1260018371152733 0.17047585667088891 0 0.15061865453786899 0.1729179153565196 0 0.1260018371152733 0.17047585667088891 0 0.13534403773305559 0.1823193438380469 0 0.15061865453786899 0.1729179153565196 0 0.120986044528871 0.18601621363441179 0 0.1260018371152733 0.17047585667088891 0 0.13534403773305559 0.1823193438380469 0 0.14515597806600811 0.1874336105261806 0 0.15061865453786899 0.1729179153565196 0 0.16204504681008089 0.18870236575137159 0 0.13534403773305559 0.1823193438380469 0 0.14515597806600811 0.1874336105261806 0 0.15061865453786899 0.1729179153565196 0 0.14521027461101521 0.151337732623779 0 0.15061865453786899 0.1729179153565196 0 0.16395392184436899 0.16048462241307171 0 0.15061865453786899 0.1729179153565196 0 0.16395392184436899 0.16048462241307171 0 0.1722674094181656 0.17455581153491201 0 0.15061865453786899 0.1729179153565196 0 0.1722674094181656 0.17455581153491201 0 0.17259225927221081 0.19094818343649231 0 0.15061865453786899 0.1729179153565196 0 0.16204504681008089 0.18870236575137159 0 0.17259225927221081 0.19094818343649231 0 0.15061865453786899 0.1729179153565196 0 0.17259225927221081 0.19094818343649231 0 0.1722674094181656 0.17455581153491201 0 0.18060778878421629 0.1846173187868661 0 0.17259225927221081 0.19094818343649231 0 0.1722674094181656 0.17455581153491201 0 0.18562052641514501 0.17696147215046901 0 0.18060778878421629 0.1846173187868661 0 0.18562052641514501 0.17696147215046901 0 0.18060778878421629 0.1846173187868661 0 0.18906167100345331 0.18662938262274939 0 0.16395392184436899 0.16048462241307171 0 0.1722674094181656 0.17455581153491201 0 0.1855662380887014 0.16282934074659061 0 0.1722674094181656 0.17455581153491201 0 0.18562052641514501 0.17696147215046901 0 0.1855662380887014 0.16282934074659061 0 0.1855662380887014 0.16282934074659061 0 0.1661070325660941 0.14078231180355719 0 0.16395392184436899 0.16048462241307171 0 0.1855662380887014 0.16282934074659061 0 0.1661070325660941 0.14078231180355719 0 0.1661070325660941 0.14078231180355719 0 0.14664782704348681 0.1187352828605238 0 0.1798032166279758 0.1186054906750668 0 0.1855662380887014 0.16282934074659061 0 0.1661070325660941 0.14078231180355719 0 0.18956359960750219 0.143555508526789 0 0.1661070325660941 0.14078231180355719 0 0.18956359960750219 0.143555508526789 0 0.1798032166279758 0.1186054906750668 0 0.1661070325660941 0.14078231180355719 0 0.14664782704348681 0.1187352828605238 0 0.14521027461101521 0.151337732623779 0 0.16395392184436899 0.16048462241307171 0 0.1661070325660941 0.14078231180355719 0 0.14866603178531401 0.24164403189080999 0 0.13509442225443219 0.2393925532886215 0 0.13953008625823379 0.22557290513474559 0 0.14866603178531401 0.24164403189080999 0 0.13509442225443219 0.2393925532886215 0 0.13457760263714399 0.25216438853103162 0 0.12695957089482901 0.24747230001415241 0 0.13509442225443219 0.2393925532886215 0 0.13457760263714399 0.25216438853103162 0 0.1199404235558679 0.23389585646776331 0 0.12695957089482901 0.24747230001415241 0 0.13509442225443219 0.2393925532886215 0 0.1199404235558679 0.23389585646776331 0 0.13953008625823379 0.22557290513474559 0 0.13408099548053831 0.2077113147189813 0 0.1199404235558679 0.23389585646776331 0 0.13509442225443219 0.2393925532886215 0 0.13953008625823379 0.22557290513474559 0 0.1199404235558679 0.23389585646776331 0 0.13408099548053831 0.2077113147189813 0 0.14866603178531401 0.24164403189080999 0 0.13953008625823379 0.22557290513474559 0 0.15535553929769749 0.21517319882109079 0 0.14866603178531401 0.24164403189080999 0 0.15535553929769749 0.21517319882109079 0 0.16233630100095151 0.2310180010542876 0 0.14866603178531401 0.24164403189080999 0 0.15535553929769749 0.21517319882109079 0 0.13953008625823379 0.22557290513474559 0 0.15535553929769749 0.21517319882109079 0 0.14337373196278419 0.2145413418462308 0 0.14337373196278419 0.2145413418462308 0 0.13408099548053831 0.2077113147189813 0 0.1456570266952637 0.20136728779579699 0 0.15535553929769749 0.21517319882109079 0 0.14337373196278419 0.2145413418462308 0 0.1456570266952637 0.20136728779579699 0 0.1234604604297793 0.2145418111277754 0 0.1199404235558679 0.23389585646776331 0 0.13408099548053831 0.2077113147189813 0 0.13953008625823379 0.22557290513474559 0 0.14337373196278419 0.2145413418462308 0 0.13408099548053831 0.2077113147189813 0 0.12150083337996349 0.2045424151535698 0 0.1234604604297793 0.2145418111277754 0 0.13408099548053831 0.2077113147189813 0 0.13408099548053831 0.2077113147189813 0 0.1339576744172567 0.1947531230022336 0 0.1456570266952637 0.20136728779579699 0 0.12150083337996349 0.2045424151535698 0 0.13408099548053831 0.2077113147189813 0 0.1339576744172567 0.1947531230022336 0 0.120986044528871 0.18601621363441179 0 0.13534403773305559 0.1823193438380469 0 0.1339576744172567 0.1947531230022336 0 0.13534403773305559 0.1823193438380469 0 0.14515597806600811 0.1874336105261806 0 0.1339576744172567 0.1947531230022336 0 0.14515597806600811 0.1874336105261806 0 0.1339576744172567 0.1947531230022336 0 0.1456570266952637 0.20136728779579699 0 0.15535553929769749 0.21517319882109079 0 0.1456570266952637 0.20136728779579699 0 0.16204504681008089 0.18870236575137159 0 0.14515597806600811 0.1874336105261806 0 0.1456570266952637 0.20136728779579699 0 0.16204504681008089 0.18870236575137159 0 0.15535553929769749 0.21517319882109079 0 0.16204504681008089 0.18870236575137159 0 0.16204504681008089 0.18870236575137159 0 0.17259225927221081 0.19094818343649231 0 0.168194367447317 0.20909388772724299 0 0.17259225927221081 0.19094818343649231 0 0.19456586400655301 0.20897845151646449 0 0.17259225927221081 0.19094818343649231 0 0.17831402759608081 0.20782362223470591 0 0.19456586400655301 0.20897845151646449 0 0.17259225927221081 0.19094818343649231 0 0.18591600872025621 0.193152370432459 0 0.19456586400655301 0.20897845151646449 0 0.17259225927221081 0.19094818343649231 0 0.17831402759608081 0.20782362223470591 0 0.168194367447317 0.20909388772724299 0 0.18060778878421629 0.1846173187868661 0 0.17259225927221081 0.19094818343649231 0 0.18591600872025621 0.193152370432459 0 0.18060778878421629 0.1846173187868661 0 0.18591600872025621 0.193152370432459 0 0.18906167100345331 0.18662938262274939 0 0.17831402759608081 0.20782362223470591 0 0.17852303070688069 0.2208979550655101 0 0.19456586400655301 0.20897845151646449 0 0.17831402759608081 0.20782362223470591 0 0.168194367447317 0.20909388772724299 0 0.17852303070688069 0.2208979550655101 0 0.15535553929769749 0.21517319882109079 0 0.16204504681008089 0.18870236575137159 0 0.168194367447317 0.20909388772724299 0 0.15535553929769749 0.21517319882109079 0 0.168194367447317 0.20909388772724299 0 0.16233630100095151 0.2310180010542876 0 0.168194367447317 0.20909388772724299 0 0.16233630100095151 0.2310180010542876 0 0.17852303070688069 0.2208979550655101 0 0.17852303070688069 0.2208979550655101 0 0.17622132364886739 0.23348535781537499 0 0.1893346898766165 0.23735265190416821 0 0.16233630100095151 0.2310180010542876 0 0.17852303070688069 0.2208979550655101 0 0.17622132364886739 0.23348535781537499 0 0.17852303070688069 0.2208979550655101 0 0.1893346898766165 0.23735265190416821 0 0.19456586400655301 0.20897845151646449 0 0.17352967210218409 0.2442277412166384 0 0.1893346898766165 0.23735265190416821 0 0.18701858308565131 0.2417861968994808 0 0.17352967210218409 0.2442277412166384 0 0.1893346898766165 0.23735265190416821 0 0.17622132364886739 0.23348535781537499 0 0.17352967210218409 0.2442277412166384 0 0.1893346898766165 0.23735265190416821 0 0.18701858308565131 0.2417861968994808 0 0.1804468726277432 0.24761129681614499 0 0.17352967210218409 0.2442277412166384 0 0.187719809250948 0.24611186070449331 0 0.18685789544736289 0.25078693256644929 0 0.1804468726277432 0.24761129681614499 0 0.187719809250948 0.24611186070449331 0 0.18685789544736289 0.25078693256644929 0 0.18701858308565131 0.2417861968994808 0 0.1804468726277432 0.24761129681614499 0 0.187719809250948 0.24611186070449331 0 0.18701858308565131 0.2417861968994808 0 0.187719809250948 0.24611186070449331 0 0.1804468726277432 0.24761129681614499 0 0.17352967210218409 0.2442277412166384 0 0.16955028484120149 0.25400044680028072 0 0.17352967210218409 0.2442277412166384 0 0.15772465432775251 0.25110283052911042 0 0.17352967210218409 0.2442277412166384 0 0.15772465432775251 0.25110283052911042 0 0.16955028484120149 0.25400044680028072 0 0.17352967210218409 0.2442277412166384 0 0.1632227123549452 0.2413752297272686 0 0.15772465432775251 0.25110283052911042 0 0.16233630100095151 0.2310180010542876 0 0.17622132364886739 0.23348535781537499 0 0.1632227123549452 0.2413752297272686 0 0.17622132364886739 0.23348535781537499 0 0.17352967210218409 0.2442277412166384 0 0.1632227123549452 0.2413752297272686 0 0.14866603178531401 0.24164403189080999 0 0.16233630100095151 0.2310180010542876 0 0.1632227123549452 0.2413752297272686 0 0.14866603178531401 0.24164403189080999 0 0.1632227123549452 0.2413752297272686 0 0.15772465432775251 0.25110283052911042 0 0.20491155840100941 0.23057680616692949 0 0.20429698142111721 0.2501470961135025 0 0.21549033157304329 0.24085076469811209 0 0.20491155840100941 0.23057680616692949 0 0.20429698142111721 0.2501470961135025 0 0.21549033157304329 0.24085076469811209 0 0.20429698142111721 0.2501470961135025 0 0.21904009887537171 0.25628199394506529 0 0.1962229660311596 0.24341386898229489 0 0.19721509596201389 0.25467587743472492 0 0.20429698142111721 0.2501470961135025 0 0.1962229660311596 0.24341386898229489 0 0.20491155840100941 0.23057680616692949 0 0.20429698142111721 0.2501470961135025 0 0.1962229660311596 0.24341386898229489 0 0.187719809250948 0.24611186070449331 0 0.19721509596201389 0.25467587743472492 0 0.1962229660311596 0.24341386898229489 0 0.187719809250948 0.24611186070449331 0 0.1893346898766165 0.23735265190416821 0 0.18701858308565131 0.2417861968994808 0 0.187719809250948 0.24611186070449331 0 0.1893346898766165 0.23735265190416821 0 0.187719809250948 0.24611186070449331 0 0.1893346898766165 0.23735265190416821 0 0.1962229660311596 0.24341386898229489 0 0.1893346898766165 0.23735265190416821 0 0.20491155840100941 0.23057680616692949 0 0.1893346898766165 0.23735265190416821 0 0.20491155840100941 0.23057680616692949 0 0.20531289487692081 0.21779684294559851 0 0.1893346898766165 0.23735265190416821 0 0.19456586400655301 0.20897845151646449 0 0.1893346898766165 0.23735265190416821 0 0.20531289487692081 0.21779684294559851 0 0.19456586400655301 0.20897845151646449 0 0.1893346898766165 0.23735265190416821 0 0.20491155840100941 0.23057680616692949 0 0.20491155840100941 0.23057680616692949 0 0.2153527361767896 0.2260349555495865 0 0.20531289487692081 0.21779684294559851 0 0.20491155840100941 0.23057680616692949 0 0.20531289487692081 0.21779684294559851 0 0.2153527361767896 0.2260349555495865 0 0.20531289487692081 0.21779684294559851 0 0.20491155840100941 0.23057680616692949 0 0.2153527361767896 0.2260349555495865 0 0.21549033157304329 0.24085076469811209 0 0.20491155840100941 0.23057680616692949 0 0.2153527361767896 0.2260349555495865 0 0.2153527361767896 0.2260349555495865 0 0.20531289487692081 0.21779684294559851 0 0.2194833912603307 0.2128155721655712 0 0.2149046177477649 0.20404989924004049 0 0.20531289487692081 0.21779684294559851 0 0.20608369677067839 0.1932518029493952 0 0.20531289487692081 0.21779684294559851 0 0.20608369677067839 0.1932518029493952 0 0.2149046177477649 0.20404989924004049 0 0.20531289487692081 0.21779684294559851 0 0.2194833912603307 0.2128155721655712 0 0.20531289487692081 0.21779684294559851 0 0.19456586400655301 0.20897845151646449 0 0.20608369677067839 0.1932518029493952 0 0.20531289487692081 0.21779684294559851 0 0.19456586400655301 0.20897845151646449 0 0.19456586400655301 0.20897845151646449 0 0.1918090975125184 0.19379555526253181 0 0.19792206873969201 0.19077419693138359 0 0.19456586400655301 0.20897845151646449 0 0.19792206873969201 0.19077419693138359 0 0.18591600872025621 0.193152370432459 0 0.19456586400655301 0.20897845151646449 0 0.1918090975125184 0.19379555526253181 0 0.19456586400655301 0.20897845151646449 0 0.19792206873969201 0.19077419693138359 0 0.20608369677067839 0.1932518029493952 0 0.1918090975125184 0.19379555526253181 0 0.19792206873969201 0.19077419693138359 0 0.18906167100345331 0.18662938262274939 0 0.18591600872025621 0.193152370432459 0 0.1918090975125184 0.19379555526253181 0 0.18906167100345331 0.18662938262274939 0 0.2149046177477649 0.20404989924004049 0 0.20608369677067839 0.1932518029493952 0 0.21931858683045949 0.1926679520444263 0 0.20608369677067839 0.1932518029493952 0 0.21931858683045949 0.1926679520444263 0 0.21478638293833879 0.1817485154615508 0 0.21931858683045949 0.1926679520444263 0 0.23507586157148941 0.19761143868751971 0 0.22628492123743479 0.18130945986695651 0 0.21931858683045949 0.1926679520444263 0 0.23507586157148941 0.19761143868751971 0 0.2243245190004349 0.2037173260952117 0 0.2149046177477649 0.20404989924004049 0 0.21931858683045949 0.1926679520444263 0 0.2243245190004349 0.2037173260952117 0 0.2475941291823989 0.18769603697772511 0 0.23507586157148941 0.19761143868751971 0 0.22628492123743479 0.18130945986695651 0 0.2475941291823989 0.18769603697772511 0 0.23507586157148941 0.19761143868751971 0 0.25326763791429752 0.20481875588833531 0 0.23507586157148941 0.19761143868751971 0 0.23966537526391099 0.21545910125246351 0 0.25326763791429752 0.20481875588833531 0 0.23507586157148941 0.19761143868751971 0 0.23966537526391099 0.21545910125246351 0 0.2243245190004349 0.2037173260952117 0 0.23966537526391099 0.21545910125246351 0 0.2243245190004349 0.2037173260952117 0 0.2194833912603307 0.2128155721655712 0 0.2153527361767896 0.2260349555495865 0 0.23966537526391099 0.21545910125246351 0 0.2194833912603307 0.2128155721655712 0 0.2149046177477649 0.20404989924004049 0 0.2243245190004349 0.2037173260952117 0 0.2194833912603307 0.2128155721655712 0 0.2153527361767896 0.2260349555495865 0 0.23966537526391099 0.21545910125246351 0 0.2153527361767896 0.2260349555495865 0 0.23966537526391099 0.21545910125246351 0 0.23385028299092811 0.24121297171547751 0 0.2153527361767896 0.2260349555495865 0 0.23385028299092811 0.24121297171547751 0 0.23966537526391099 0.21545910125246351 0 0.23385028299092811 0.24121297171547751 0 0.25384997619844579 0.23452952838135141 0 0.23385028299092811 0.24121297171547751 0 0.25191630733126869 0.24920661226757701 0 0.25384997619844579 0.23452952838135141 0 0.21549033157304329 0.24085076469811209 0 0.23385028299092811 0.24121297171547751 0 0.21904009887537171 0.25628199394506529 0 0.21549033157304329 0.24085076469811209 0 0.2153527361767896 0.2260349555495865 0 0.23385028299092811 0.24121297171547751 0 0.21298583189558429 0.15153276404608659 0 0.20450911964989471 0.13160516091811969 0 0.22432154431681389 0.13454889904547099 0 0.20450911964989471 0.13160516091811969 0 0.22432154431681389 0.13454889904547099 0 0.2063052671444463 0.111586019176762 0 0.20450911964989471 0.13160516091811969 0 0.18956359960750219 0.143555508526789 0 0.1798032166279758 0.1186054906750668 0 0.21298583189558429 0.15153276404608659 0 0.18956359960750219 0.143555508526789 0 0.20030693048026371 0.1623316716944872 0 0.21298583189558429 0.15153276404608659 0 0.20450911964989471 0.13160516091811969 0 0.18956359960750219 0.143555508526789 0 0.1855662380887014 0.16282934074659061 0 0.18956359960750219 0.143555508526789 0 0.20030693048026371 0.1623316716944872 0 0.1855662380887014 0.16282934074659061 0 0.1932951939519815 0.17094962444640241 0 0.20030693048026371 0.1623316716944872 0 0.18562052641514501 0.17696147215046901 0 0.1855662380887014 0.16282934074659061 0 0.1932951939519815 0.17094962444640241 0 0.20030693048026371 0.1623316716944872 0 0.20127827347283081 0.17256994234630249 0 0.20685449866443631 0.1687067629531919 0 0.1932951939519815 0.17094962444640241 0 0.20030693048026371 0.1623316716944872 0 0.20127827347283081 0.17256994234630249 0 0.19792206873969201 0.19077419693138359 0 0.19370400130296681 0.18005569529416271 0 0.20127827347283081 0.17256994234630249 0 0.19792206873969201 0.19077419693138359 0 0.20608369677067839 0.1932518029493952 0 0.20127827347283081 0.17256994234630249 0 0.19792206873969201 0.19077419693138359 0 0.20127827347283081 0.17256994234630249 0 0.19792206873969201 0.19077419693138359 0 0.19370400130296681 0.18005569529416271 0 0.18906167100345331 0.18662938262274939 0 0.18562052641514501 0.17696147215046901 0 0.19370400130296681 0.18005569529416271 0 0.18906167100345331 0.18662938262274939 0 0.18562052641514501 0.17696147215046901 0 0.1932951939519815 0.17094962444640241 0 0.19370400130296681 0.18005569529416271 0 0.1932951939519815 0.17094962444640241 0 0.19370400130296681 0.18005569529416271 0 0.20127827347283081 0.17256994234630249 0 0.20608369677067839 0.1932518029493952 0 0.20685449866443631 0.1687067629531919 0 0.20608369677067839 0.1932518029493952 0 0.21478638293833879 0.1817485154615508 0 0.20685449866443631 0.1687067629531919 0 0.20608369677067839 0.1932518029493952 0 0.20127827347283081 0.17256994234630249 0 0.20685449866443631 0.1687067629531919 0 0.21660550896694419 0.17250843538665739 0 0.21478638293833879 0.1817485154615508 0 0.20685449866443631 0.1687067629531919 0 0.21298583189558429 0.15153276404608659 0 0.20030693048026371 0.1623316716944872 0 0.21203438001877581 0.16414618218578381 0 0.20030693048026371 0.1623316716944872 0 0.20685449866443631 0.1687067629531919 0 0.21203438001877581 0.16414618218578381 0 0.21660550896694419 0.17250843538665739 0 0.21203438001877581 0.16414618218578381 0 0.22341913008665051 0.1656512768484959 0 0.21660550896694419 0.17250843538665739 0 0.20685449866443631 0.1687067629531919 0 0.21203438001877581 0.16414618218578381 0 0.21298583189558429 0.15153276404608659 0 0.21203438001877581 0.16414618218578381 0 0.22341913008665051 0.1656512768484959 0 0.21298583189558429 0.15153276404608659 0 0.22341913008665051 0.1656512768484959 0 0.23112177849973581 0.15343721315908401 0 0.22341913008665051 0.1656512768484959 0 0.2398937274470776 0.1701272920004806 0 0.23112177849973581 0.15343721315908401 0 0.21660550896694419 0.17250843538665739 0 0.22341913008665051 0.1656512768484959 0 0.22628492123743479 0.18130945986695651 0 0.22341913008665051 0.1656512768484959 0 0.22628492123743479 0.18130945986695651 0 0.2398937274470776 0.1701272920004806 0 0.21931858683045949 0.1926679520444263 0 0.21478638293833879 0.1817485154615508 0 0.22628492123743479 0.18130945986695651 0 0.21660550896694419 0.17250843538665739 0 0.21478638293833879 0.1817485154615508 0 0.22628492123743479 0.18130945986695651 0 0.2475941291823989 0.18769603697772511 0 0.22628492123743479 0.18130945986695651 0 0.2398937274470776 0.1701272920004806 0 0.2398937274470776 0.1701272920004806 0 0.23112177849973581 0.15343721315908401 0 0.25299790414357343 0.16100449818938201 0 0.22432154431681389 0.13454889904547099 0 0.2388396102423237 0.1172756265968197 0 0.25663613896196991 0.14035755598763441 0 0.23112177849973581 0.15343721315908401 0 0.25663613896196991 0.14035755598763441 0 0.25299790414357343 0.16100449818938201 0 0.23112177849973581 0.15343721315908401 0 0.22432154431681389 0.13454889904547099 0 0.25663613896196991 0.14035755598763441 0 0.21298583189558429 0.15153276404608659 0 0.23112177849973581 0.15343721315908401 0 0.22432154431681389 0.13454889904547099 0 0.2388396102423237 0.1172756265968197 0 0.25663613896196991 0.14035755598763441 0 0.2388396102423237 0.1172756265968197 0 0.22104308152267779 0.094193697206005289 0 0.2063052671444463 0.111586019176762 0 0.22432154431681389 0.13454889904547099 0 0.2388396102423237 0.1172756265968197 0 0.2063052671444463 0.111586019176762 0 0.2388396102423237 0.1172756265968197 0 0.22104308152267779 0.094193697206005289 0 0.25384944954462069 0.095449856149134135 0 0.2388396102423237 0.1172756265968197 0 0.25384944954462069 0.095449856149134135 0 0.25620984555605009 0.1131725934863051 0 0.2388396102423237 0.1172756265968197 0 0.22104308152267779 0.094193697206005289 0 0.22104308152267779 0.094193697206005289 0 0.2063052671444463 0.111586019176762 0 0.18730886553821691 0.08781597585429643 0 0.2063052671444463 0.111586019176762 0 0.1798032166279758 0.1186054906750668 0 0.18730886553821691 0.08781597585429643 0 0.20450911964989471 0.13160516091811969 0 0.2063052671444463 0.111586019176762 0 0.1798032166279758 0.1186054906750668 0 0.22104308152267779 0.094193697206005289 0 0.20324655280303169 0.071111767815190782 0 0.18730886553821691 0.08781597585429643 0 0.22104308152267779 0.094193697206005289 0 0.20324655280303169 0.071111767815190782 0 0.22195925580639439 0.062532309102022066 0 0.20324655280303169 0.071111767815190782 0 0.17361370821216091 0.061721877539844178 0 0.18730886553821691 0.08781597585429643 0 0.22104308152267779 0.094193697206005289 0 0.20324655280303169 0.071111767815190782 0 0.22104308152267779 0.094193697206005289 0 0.22195925580639439 0.062532309102022066 0 0.23940360910079561 0.072187684139423405 0 0.22104308152267779 0.094193697206005289 0 0.23940360910079561 0.072187684139423405 0 0.25384944954462069 0.095449856149134135 0 0.23940360910079561 0.072187684139423405 0 0.24773452015769859 0.046187867395794058 0 0.25865679783116052 0.070915849861062308 0 0.24773452015769859 0.046187867395794058 0 0.23445404022264399 0.027078552110983731 0 0.21646291908757839 0.042202639179017128 0 0.22195925580639439 0.062532309102022066 0 0.23940360910079561 0.072187684139423405 0 0.24773452015769859 0.046187867395794058 0 0.22195925580639439 0.062532309102022066 0 0.24773452015769859 0.046187867395794058 0 0.21646291908757839 0.042202639179017128 0 0.24773452015769859 0.046187867395794058 0 0.23445404022264399 0.027078552110983731 0 0.25458476701871002 0.02766973368984053 0 0.23445404022264399 0.027078552110983731 0 0.21638436253333779 0.010068207731140181 0 0.21646291908757839 0.042202639179017128 0 0.24502883806765671 0.008523642691556723 0 0.23445404022264399 0.027078552110983731 0 0.25458476701871002 0.02766973368984053 0 0.24502883806765671 0.008523642691556723 0 0.21638436253333779 0.010068207731140181 0 0.2272738753587025 -0.0034298001956333431 0 0.24502883806765671 0.008523642691556723 0 0.23445404022264399 0.027078552110983731 0 0.21638436253333779 0.010068207731140181 0 0.21638436253333779 0.010068207731140181 0 0.21646291908757839 0.042202639179017128 0 0.1998390893961966 0.031665640179217323 0 0.21638436253333779 0.010068207731140181 0 0.2083029964389638 -0.0070788741920749356 0 0.1894849343298263 -0.0017537201251617909 0 0.21638436253333779 0.010068207731140181 0 0.1998390893961966 0.031665640179217323 0 0.18740766400150541 0.016557319534513788 0 0.21638436253333779 0.010068207731140181 0 0.1894849343298263 -0.0017537201251617909 0 0.18740766400150541 0.016557319534513788 0 0.1894849343298263 -0.0017537201251617909 0 0.21638436253333779 0.010068207731140181 0 0.18740766400150541 0.016557319534513788 0 0.1894849343298263 -0.0017537201251617909 0 0.1998390893961966 0.031665640179217323 0 0.18545002408338579 0.048029838424376373 0 0.18740766400150541 0.016557319534513788 0 0.20324655280303169 0.071111767815190782 0 0.22195925580639439 0.062532309102022066 0 0.21646291908757839 0.042202639179017128 0 0.21646291908757839 0.042202639179017128 0 0.1998390893961966 0.031665640179217323 0 0.18545002408338579 0.048029838424376373 0 0.20324655280303169 0.071111767815190782 0 0.18545002408338579 0.048029838424376373 0 0.20324655280303169 0.071111767815190782 0 0.21646291908757839 0.042202639179017128 0 0.18545002408338579 0.048029838424376373 0 0.20324655280303169 0.071111767815190782 0 0.17361370821216091 0.061721877539844178 0 0.18545002408338579 0.048029838424376373 0 0.17361370821216091 0.061721877539844178 0 0.18545002408338579 0.048029838424376373 0 0.17579545676519651 0.043754955661173968 0 0.18545002408338579 0.048029838424376373 0 0.17579545676519651 0.043754955661173968 0 0.16765349536373969 0.02494790903356188 0 0.18545002408338579 0.048029838424376373 0 0.16765349536373969 0.02494790903356188 0 0.17579545676519651 0.043754955661173968 0 0.16765349536373969 0.02494790903356188 0 0.17579545676519651 0.043754955661173968 0 0.16507570311446121 0.038742451836005547 0 0.16765349536373969 0.02494790903356188 0 0.17579545676519651 0.043754955661173968 0 0.16507570311446121 0.038742451836005547 0 0.16384462943634701 0.050235536958613193 0 0.16507570311446121 0.038742451836005547 0 0.15932171988120411 0.033304873215324091 0 0.15876321412581859 0.041468984311354623 0 0.15932171988120411 0.033304873215324091 0 0.15876321412581859 0.041468984311354623 0 0.15215111719157179 0.036457697171418703 0 0.16507570311446121 0.038742451836005547 0 0.15932171988120411 0.033304873215324091 0 0.16765349536373969 0.02494790903356188 0 0.16507570311446121 0.038742451836005547 0 0.15876321412581859 0.041468984311354623 0 0.16384462943634701 0.050235536958613193 0 0.15876321412581859 0.041468984311354623 0 0.16384462943634701 0.050235536958613193 0 0.1505099141279464 0.048420127582463918 0 0.17361370821216091 0.061721877539844178 0 0.17579545676519651 0.043754955661173968 0 0.16384462943634701 0.050235536958613193 0 0.17361370821216091 0.061721877539844178 0 0.16384462943634701 0.050235536958613193 0 0.15699192909955809 0.065095521589841998 0 0.16384462943634701 0.050235536958613193 0 0.1505099141279464 0.048420127582463918 0 0.15699192909955809 0.065095521589841998 0 0.18545002408338579 0.048029838424376373 0 0.18740766400150541 0.016557319534513788 0 0.16765349536373969 0.02494790903356188 0 0.17427265032816189 0.0062943587249405077 0 0.18740766400150541 0.016557319534513788 0 0.1894849343298263 -0.0017537201251617909 0 0.17427265032816189 0.0062943587249405077 0 0.18740766400150541 0.016557319534513788 0 0.16765349536373969 0.02494790903356188 0 0.15932171988120411 0.033304873215324091 0 0.16765349536373969 0.02494790903356188 0 0.15241084410149669 0.02619879540547047 0 0.16765349536373969 0.02494790903356188 0 0.15876811500151389 0.013423654761153011 0 0.16765349536373969 0.02494790903356188 0 0.15876811500151389 0.013423654761153011 0 0.15241084410149669 0.02619879540547047 0 0.16765349536373969 0.02494790903356188 0 0.1579507192313461 0.0025355498805747921 0 0.16765349536373969 0.02494790903356188 0 0.15876811500151389 0.013423654761153011 0 0.1579507192313461 0.0025355498805747921 0 0.17427265032816189 0.0062943587249405077 0 0.16765349536373969 0.02494790903356188 0 0.1579507192313461 0.0025355498805747921 0 0.1487119162446438 0.0039635729940632582 0 0.14334646056476941 0.01109596170614012 0 0.135234418882348 0.001091121526172267 0 0.15876811500151389 0.013423654761153011 0 0.1579507192313461 0.0025355498805747921 0 0.1487119162446438 0.0039635729940632582 0 0.1579507192313461 0.0025355498805747921 0 0.1487119162446438 0.0039635729940632582 0 0.1454750608441174 -0.0051677832411170417 0 0.15876811500151389 0.013423654761153011 0 0.1487119162446438 0.0039635729940632582 0 0.14990273866863299 0.01696258456456963 0 0.1487119162446438 0.0039635729940632582 0 0.14334646056476941 0.01109596170614012 0 0.14990273866863299 0.01696258456456963 0 0.14990273866863299 0.01696258456456963 0 0.15241084410149669 0.02619879540547047 0 0.13903574260425039 0.02412691712435196 0 0.14334646056476941 0.01109596170614012 0 0.14990273866863299 0.01696258456456963 0 0.13903574260425039 0.02412691712435196 0 0.15876811500151389 0.013423654761153011 0 0.14990273866863299 0.01696258456456963 0 0.15241084410149669 0.02619879540547047 0 0.15241084410149669 0.02619879540547047 0 0.13903574260425039 0.02412691712435196 0 0.14242421330164659 0.035715593243810989 0 0.13903574260425039 0.02412691712435196 0 0.128050751869075 0.025433798835772761 0 0.12991484820470231 0.037015230580822421 0 0.12429721647633871 0.014090971846011839 0 0.128050751869075 0.025433798835772761 0 0.1346572895483614 0.01426336048528485 0 0.14334646056476941 0.01109596170614012 0 0.13903574260425039 0.02412691712435196 0 0.1346572895483614 0.01426336048528485 0 0.13903574260425039 0.02412691712435196 0 0.128050751869075 0.025433798835772761 0 0.1346572895483614 0.01426336048528485 0 0.12429721647633871 0.014090971846011839 0 0.1165810207984305 0.0016467845144158069 0 0.135234418882348 0.001091121526172267 0 0.14334646056476941 0.01109596170614012 0 0.1346572895483614 0.01426336048528485 0 0.135234418882348 0.001091121526172267 0 0.12429721647633871 0.014090971846011839 0 0.1346572895483614 0.01426336048528485 0 0.135234418882348 0.001091121526172267 0 0.1505099141279464 0.048420127582463918 0 0.14225132100752391 0.062865418281989383 0 0.15699192909955809 0.065095521589841998 0 0.1505099141279464 0.048420127582463918 0 0.13848013452328559 0.048512085470883898 0 0.14225132100752391 0.062865418281989383 0 0.15876321412581859 0.041468984311354623 0 0.1505099141279464 0.048420127582463918 0 0.15215111719157179 0.036457697171418703 0 0.15932171988120411 0.033304873215324091 0 0.15241084410149669 0.02619879540547047 0 0.15215111719157179 0.036457697171418703 0 0.15241084410149669 0.02619879540547047 0 0.15215111719157179 0.036457697171418703 0 0.14242421330164659 0.035715593243810989 0 0.1505099141279464 0.048420127582463918 0 0.15215111719157179 0.036457697171418703 0 0.14242421330164659 0.035715593243810989 0 0.1505099141279464 0.048420127582463918 0 0.14242421330164659 0.035715593243810989 0 0.13848013452328559 0.048512085470883898 0 0.14242421330164659 0.035715593243810989 0 0.12991484820470231 0.037015230580822421 0 0.13848013452328559 0.048512085470883898 0 0.13903574260425039 0.02412691712435196 0 0.14242421330164659 0.035715593243810989 0 0.12991484820470231 0.037015230580822421 0 0.11738283554026439 0.045919391363933762 0 0.12991484820470231 0.037015230580822421 0 0.12798138470421019 0.049477110941330407 0 0.12991484820470231 0.037015230580822421 0 0.12798138470421019 0.049477110941330407 0 0.13848013452328559 0.048512085470883898 0 0.12798138470421019 0.049477110941330407 0 0.13848013452328559 0.048512085470883898 0 0.13246919736887969 0.05797251858844308 0 0.13848013452328559 0.048512085470883898 0 0.13246919736887969 0.05797251858844308 0 0.14225132100752391 0.062865418281989383 0 0.1226758536221563 0.058754324150062147 0 0.12798138470421019 0.049477110941330407 0 0.13246919736887969 0.05797251858844308 0 0.1226758536221563 0.058754324150062147 0 0.13246919736887969 0.05797251858844308 0 0.1309572929872222 0.07025365409794955 0 0.1309572929872222 0.07025365409794955 0 0.14225132100752391 0.062865418281989383 0 0.14442657521464849 0.084205263511473963 0 0.11893238067756071 0.070271736967853812 0 0.1309572929872222 0.07025365409794955 0 0.12559456041354719 0.080261485087041423 0 0.13246919736887969 0.05797251858844308 0 0.1309572929872222 0.07025365409794955 0 0.14225132100752391 0.062865418281989383 0 0.14225132100752391 0.062865418281989383 0 0.14442657521464849 0.084205263511473963 0 0.15699192909955809 0.065095521589841998 0 0.14442657521464849 0.084205263511473963 0 0.15699192909955809 0.065095521589841998 0 0.16485721109999579 0.079112457857428944 0 0.1309572929872222 0.07025365409794955 0 0.14442657521464849 0.084205263511473963 0 0.12559456041354719 0.080261485087041423 0 0.14442657521464849 0.084205263511473963 0 0.12559456041354719 0.080261485087041423 0 0.12718862152087951 0.096688253917490447 0 0.14442657521464849 0.084205263511473963 0 0.12718862152087951 0.096688253917490447 0 0.14664782704348681 0.1187352828605238 0 0.12718862152087951 0.096688253917490447 0 0.14664782704348681 0.1187352828605238 0 0.1187894170332454 0.1108218881468376 0 0.12718862152087951 0.096688253917490447 0 0.14664782704348681 0.1187352828605238 0 0.14442657521464849 0.084205263511473963 0 0.14664782704348681 0.1187352828605238 0 0.1646087391048647 0.097694894151757986 0 0.1187894170332454 0.1108218881468376 0 0.1155281386006284 0.12780565999363219 0 0.14664782704348681 0.1187352828605238 0 0.14664782704348681 0.1187352828605238 0 0.1646087391048647 0.097694894151757986 0 0.1798032166279758 0.1186054906750668 0 0.1646087391048647 0.097694894151757986 0 0.1798032166279758 0.1186054906750668 0 0.18730886553821691 0.08781597585429643 0 0.1646087391048647 0.097694894151757986 0 0.18730886553821691 0.08781597585429643 0 0.16485721109999579 0.079112457857428944 0 0.17361370821216091 0.061721877539844178 0 0.18730886553821691 0.08781597585429643 0 0.16485721109999579 0.079112457857428944 0 0.17361370821216091 0.061721877539844178 0 0.15699192909955809 0.065095521589841998 0 0.16485721109999579 0.079112457857428944 0 0.14442657521464849 0.084205263511473963 0 0.1646087391048647 0.097694894151757986 0 0.16485721109999579 0.079112457857428944 0 0.10009711227391881 0.48489311495627652 0 0.12011464659773601 0.48433235658234292 0 0.093396366307362089 0.4764985348735149 0 0.12011464659773601 0.48433235658234292 0 0.093396366307362089 0.4764985348735149 0 0.12011464659773601 0.48433235658234292 0 0.1088743842907562 0.46558615548029098 0 0.093396366307362089 0.4764985348735149 0 0.10009711227391881 0.48489311495627652 0 0.093627485550408146 0.4805988143833777 0 0.093396366307362089 0.4764985348735149 0 0.10009711227391881 0.48489311495627652 0 0.1046197908249327 0.49204337521533659 0 0.12011464659773601 0.48433235658234292 0 0.094101002442320308 0.48868348185838978 0 0.10009711227391881 0.48489311495627652 0 0.1046197908249327 0.49204337521533659 0 0.1046197908249327 0.49204337521533659 0 0.1177491038565109 0.5 0 0.089848052195524386 0.5 0 0.094101002442320308 0.48868348185838978 0 0.10009711227391881 0.48489311495627652 0 0.093627485550408146 0.4805988143833777 0 0.094101002442320308 0.48868348185838978 0 0.1046197908249327 0.49204337521533659 0 0.089848052195524386 0.5 0 0.1046197908249327 0.49204337521533659 0 0.1177491038565109 0.5 0 0.12011464659773601 0.48433235658234292 0 0.12011464659773601 0.48433235658234292 0 0.1088743842907562 0.46558615548029098 0 0.12755468689653379 0.46028893177219221 0 0.1109314836818476 0.44843709676897331 0 0.1088743842907562 0.46558615548029098 0 0.12755468689653379 0.46028893177219221 0 0.1109314836818476 0.44843709676897331 0 0.1138513721720477 0.42894489089561411 0 0.1317389345630566 0.44034454998539962 0 0.1109314836818476 0.44843709676897331 0 0.1317389345630566 0.44034454998539962 0 0.12755468689653379 0.46028893177219221 0 0.1109314836818476 0.44843709676897331 0 0.091353109633241947 0.44024917993534918 0 0.1138513721720477 0.42894489089561411 0 0.1109314836818476 0.44843709676897331 0 0.092374737970301088 0.45837385740443209 0 0.091353109633241947 0.44024917993534918 0 0.1109314836818476 0.44843709676897331 0 0.1088743842907562 0.46558615548029098 0 0.092374737970301088 0.45837385740443209 0 0.1088743842907562 0.46558615548029098 0 0.092374737970301088 0.45837385740443209 0 0.093396366307362089 0.4764985348735149 0 0.092374737970301088 0.45837385740443209 0 0.093396366307362089 0.4764985348735149 0 0.092374737970301088 0.45837385740443209 0 0.074153309142655985 0.44889124799887259 0 0.076936337620146983 0.47167244095367838 0 0.092374737970301088 0.45837385740443209 0 0.091353109633241947 0.44024917993534918 0 0.074153309142655985 0.44889124799887259 0 0.091353109633241947 0.44024917993534918 0 0.074153309142655985 0.44889124799887259 0 0.091353109633241947 0.44024917993534918 0 0.074153309142655985 0.44889124799887259 0 0.075454731922514201 0.43004448293053621 0 0.092374737970301088 0.45837385740443209 0 0.091353109633241947 0.44024917993534918 0 0.074153309142655985 0.44889124799887259 0 0.053891522812498309 0.4472661199552147 0 0.075454731922514201 0.43004448293053621 0 0.074153309142655985 0.44889124799887259 0 0.060476308932931683 0.46684634703384248 0 0.053891522812498309 0.4472661199552147 0 0.074153309142655985 0.44889124799887259 0 0.076936337620146983 0.47167244095367838 0 0.060476308932931683 0.46684634703384248 0 0.065142718158770277 0.48141353841007611 0 0.076936337620146983 0.47167244095367838 0 0.060476308932931683 0.46684634703384248 0 0.065142718158770277 0.48141353841007611 0 0.076936337620146983 0.47167244095367838 0 0.082312571366817563 0.48588210473695859 0 0.076936337620146983 0.47167244095367838 0 0.060476308932931683 0.46684634703384248 0 0.076936337620146983 0.47167244095367838 0 0.093396366307362089 0.4764985348735149 0 0.082312571366817563 0.48588210473695859 0 0.076936337620146983 0.47167244095367838 0 0.093396366307362089 0.4764985348735149 0 0.092374737970301088 0.45837385740443209 0 0.076936337620146983 0.47167244095367838 0 0.093396366307362089 0.4764985348735149 0 0.093627485550408146 0.4805988143833777 0 0.093396366307362089 0.4764985348735149 0 0.082312571366817563 0.48588210473695859 0 0.093627485550408146 0.4805988143833777 0 0.093396366307362089 0.4764985348735149 0 0.094101002442320308 0.48868348185838978 0 0.093627485550408146 0.4805988143833777 0 0.082312571366817563 0.48588210473695859 0 0.094101002442320308 0.48868348185838978 0 0.089848052195524386 0.5 0 0.082312571366817563 0.48588210473695859 0 0.065142718158770277 0.48141353841007611 0 0.082312571366817563 0.48588210473695859 0 0.061947000534537833 0.5 0 0.089848052195524386 0.5 0 0.082312571366817563 0.48588210473695859 0 0.061947000534537833 0.5 0 0.065142718158770277 0.48141353841007611 0 0.061947000534537833 0.5 0 0.049204833067628767 0.48261733032857379 0 0.061947000534537833 0.5 0 0.049204833067628767 0.48261733032857379 0 0.034045948873551328 0.5 0 0.049204833067628767 0.48261733032857379 0 0.044749958694282721 0.46164825313029401 0 0.060476308932931683 0.46684634703384248 0 0.065142718158770277 0.48141353841007611 0 0.049204833067628767 0.48261733032857379 0 0.060476308932931683 0.46684634703384248 0 0.049204833067628767 0.48261733032857379 0 0.030622103575757051 0.47222180234901612 0 0.044749958694282721 0.46164825313029401 0 0.049204833067628767 0.48261733032857379 0 0.034045948873551328 0.5 0 0.030622103575757051 0.47222180234901612 0 0.034045948873551328 0.5 0 0.030622103575757051 0.47222180234901612 0 0.01499989984589173 0.4829621854572419 0 0.034045948873551328 0.5 0 0.01499989984589173 0.4829621854572419 0 0.0061448972125648371 0.5 0 0.030622103575757051 0.47222180234901612 0 0.01499989984589173 0.4829621854572419 0 0.0085473494867990066 0.46459041614164148 0 -0.0092351114354999823 0.48349087954534847 0 0.01499989984589173 0.4829621854572419 0 0.0085473494867990066 0.46459041614164148 0 -0.0092351114354999823 0.48349087954534847 0 0.01499989984589173 0.4829621854572419 0 0.0061448972125648371 0.5 0 -0.00069522750787146328 0.44046125278118642 0 0.0085473494867990066 0.46459041614164148 0 0.02659814765231331 0.44386368636820051 0 -0.00069522750787146328 0.44046125278118642 0 0.02659814765231331 0.44386368636820051 0 0.030622103575757051 0.47222180234901612 0 0.0085473494867990066 0.46459041614164148 0 0.02659814765231331 0.44386368636820051 0 0.02659814765231331 0.44386368636820051 0 0.053891522812498309 0.4472661199552147 0 0.049694494685412621 0.42626372438863069 0 0.02659814765231331 0.44386368636820051 0 0.053891522812498309 0.4472661199552147 0 0.02659814765231331 0.44386368636820051 0 0.044749958694282721 0.46164825313029401 0 0.053891522812498309 0.4472661199552147 0 0.030622103575757051 0.47222180234901612 0 0.02659814765231331 0.44386368636820051 0 0.044749958694282721 0.46164825313029401 0 0.044749958694282721 0.46164825313029401 0 0.060476308932931683 0.46684634703384248 0 0.053891522812498309 0.4472661199552147 0 0.053891522812498309 0.4472661199552147 0 0.049694494685412621 0.42626372438863069 0 0.075454731922514201 0.43004448293053621 0 0.049694494685412621 0.42626372438863069 0 0.048261258017039933 0.40484316686163041 0 0.064865154328764829 0.41362356959926488 0 0.049694494685412621 0.42626372438863069 0 0.029096153379345159 0.41794132061693801 0 0.048261258017039933 0.40484316686163041 0 0.02659814765231331 0.44386368636820051 0 0.049694494685412621 0.42626372438863069 0 0.029096153379345159 0.41794132061693801 0 0.02659814765231331 0.44386368636820051 0 0.029096153379345159 0.41794132061693801 0 0.0075383504917777792 0.42465595175508147 0 0.029096153379345159 0.41794132061693801 0 0.011034103982847401 0.40727448451550369 0 0.0075383504917777792 0.42465595175508147 0 0.029096153379345159 0.41794132061693801 0 0.011034103982847401 0.40727448451550369 0 0.029075113301561959 0.39577425007435751 0 -0.0096881018905816407 0.41168354254352257 0 0.011034103982847401 0.40727448451550369 0 0.0075383504917777792 0.42465595175508147 0 -0.00069522750787146328 0.44046125278118642 0 0.02659814765231331 0.44386368636820051 0 0.0075383504917777792 0.42465595175508147 0 -0.0041601498909107099 0.39486415160942412 0 0.01483908157688984 0.38862140294883879 0 0.0022634058800765338 0.37998431242390279 0 0.01483908157688984 0.38862140294883879 0 0.0022634058800765338 0.37998431242390279 0 0.025818984671691279 0.37097480582370601 0 -0.0041601498909107099 0.39486415160942412 0 0.011034103982847401 0.40727448451550369 0 0.01483908157688984 0.38862140294883879 0 0.011034103982847401 0.40727448451550369 0 0.01483908157688984 0.38862140294883879 0 0.029075113301561959 0.39577425007435751 0 0.01483908157688984 0.38862140294883879 0 0.029075113301561959 0.39577425007435751 0 0.025818984671691279 0.37097480582370601 0 0.029075113301561959 0.39577425007435751 0 0.045401098181558172 0.38499031967952818 0 0.025818984671691279 0.37097480582370601 0 0.029096153379345159 0.41794132061693801 0 0.029075113301561959 0.39577425007435751 0 0.048261258017039933 0.40484316686163041 0 0.029075113301561959 0.39577425007435751 0 0.045401098181558172 0.38499031967952818 0 0.048261258017039933 0.40484316686163041 0 0.045401098181558172 0.38499031967952818 0 0.055703029030803132 0.39231097529774461 0 0.048261258017039933 0.40484316686163041 0 0.055703029030803132 0.39231097529774461 0 0.048261258017039933 0.40484316686163041 0 0.064745056577875409 0.39895793694374471 0 0.048261258017039933 0.40484316686163041 0 0.064745056577875409 0.39895793694374471 0 0.064865154328764829 0.41362356959926488 0 0.055703029030803132 0.39231097529774461 0 0.06512784579127287 0.38212022900172399 0 0.064745056577875409 0.39895793694374471 0 0.045401098181558172 0.38499031967952818 0 0.055703029030803132 0.39231097529774461 0 0.06512784579127287 0.38212022900172399 0 0.045401098181558172 0.38499031967952818 0 0.06512784579127287 0.38212022900172399 0 0.050464958159624818 0.3618654206938538 0 0.076031204872737942 0.38502256531649931 0 0.082440637568075459 0.38766137222336561 0 0.074769193725475219 0.39315708161454072 0 0.06512784579127287 0.38212022900172399 0 0.076031204872737942 0.38502256531649931 0 0.074769193725475219 0.39315708161454072 0 0.06512784579127287 0.38212022900172399 0 0.080033909023446495 0.37734509170710351 0 0.075242093832077264 0.36812177147949349 0 0.06512784579127287 0.38212022900172399 0 0.076031204872737942 0.38502256531649931 0 0.080033909023446495 0.37734509170710351 0 0.080033909023446495 0.37734509170710351 0 0.087962013374406206 0.38008784363674408 0 0.086351257356787101 0.37221421831188489 0 0.080033909023446495 0.37734509170710351 0 0.082440637568075459 0.38766137222336561 0 0.087962013374406206 0.38008784363674408 0 0.076031204872737942 0.38502256531649931 0 0.080033909023446495 0.37734509170710351 0 0.082440637568075459 0.38766137222336561 0 0.082440637568075459 0.38766137222336561 0 0.087962013374406206 0.38008784363674408 0 0.088812673538289449 0.39517937990967189 0 0.087962013374406206 0.38008784363674408 0 0.088812673538289449 0.39517937990967189 0 0.096532904564945857 0.38251664013854092 0 0.087962013374406206 0.38008784363674408 0 0.088812673538289449 0.39517937990967189 0 0.087962013374406206 0.38008784363674408 0 0.09643961299419683 0.37351052037200722 0 0.086351257356787101 0.37221421831188489 0 0.087962013374406206 0.38008784363674408 0 0.096532904564945857 0.38251664013854092 0 0.09643961299419683 0.37351052037200722 0 0.082440637568075459 0.38766137222336561 0 0.088812673538289449 0.39517937990967189 0 0.082827070755661258 0.39564070302940169 0 0.088812673538289449 0.39517937990967189 0 0.082827070755661258 0.39564070302940169 0 0.082440637568075459 0.38766137222336561 0 0.082827070755661258 0.39564070302940169 0 0.074769193725475219 0.39315708161454072 0 0.088812673538289449 0.39517937990967189 0 0.082827070755661258 0.39564070302940169 0 0.080195822601730166 0.40873494384734488 0 0.082827070755661258 0.39564070302940169 0 0.074769193725475219 0.39315708161454072 0 0.080195822601730166 0.40873494384734488 0 0.074769193725475219 0.39315708161454072 0 0.064745056577875409 0.39895793694374471 0 0.080195822601730166 0.40873494384734488 0 0.06512784579127287 0.38212022900172399 0 0.074769193725475219 0.39315708161454072 0 0.064745056577875409 0.39895793694374471 0 0.064865154328764829 0.41362356959926488 0 0.075454731922514201 0.43004448293053621 0 0.080195822601730166 0.40873494384734488 0 0.064745056577875409 0.39895793694374471 0 0.064865154328764829 0.41362356959926488 0 0.080195822601730166 0.40873494384734488 0 0.049694494685412621 0.42626372438863069 0 0.064865154328764829 0.41362356959926488 0 0.075454731922514201 0.43004448293053621 0 0.091353109633241947 0.44024917993534918 0 0.090082891585765629 0.41771427992251048 0 0.091353109633241947 0.44024917993534918 0 0.075454731922514201 0.43004448293053621 0 0.090082891585765629 0.41771427992251048 0 0.088812673538289449 0.39517937990967189 0 0.090082891585765629 0.41771427992251048 0 0.080195822601730166 0.40873494384734488 0 0.075454731922514201 0.43004448293053621 0 0.090082891585765629 0.41771427992251048 0 0.080195822601730166 0.40873494384734488 0 0.088812673538289449 0.39517937990967189 0 0.090082891585765629 0.41771427992251048 0 0.090082891585765629 0.41771427992251048 0 0.1060779427916969 0.41078131195843842 0 0.1138513721720477 0.42894489089561411 0 0.088812673538289449 0.39517937990967189 0 0.090082891585765629 0.41771427992251048 0 0.1060779427916969 0.41078131195843842 0 0.091353109633241947 0.44024917993534918 0 0.1138513721720477 0.42894489089561411 0 0.091353109633241947 0.44024917993534918 0 0.090082891585765629 0.41771427992251048 0 0.1138513721720477 0.42894489089561411 0 0.1138513721720477 0.42894489089561411 0 0.1227317005809329 0.40562766670787193 0 0.1363496347108536 0.41764060185587931 0 0.1060779427916969 0.41078131195843842 0 0.1138513721720477 0.42894489089561411 0 0.1227317005809329 0.40562766670787193 0 0.1060779427916969 0.41078131195843842 0 0.1227317005809329 0.40562766670787193 0 0.1091137664510133 0.39361473155986332 0 0.1227317005809329 0.40562766670787193 0 0.1091137664510133 0.39361473155986332 0 0.1222799321900277 0.39262055348189367 0 0.1091137664510133 0.39361473155986332 0 0.1227317005809329 0.40562766670787193 0 0.1222799321900277 0.39262055348189367 0 0.1091137664510133 0.39361473155986332 0 0.1222799321900277 0.39262055348189367 0 0.1110184186627599 0.36813360195802219 0 0.1222799321900277 0.39262055348189367 0 0.107076611827209 0.3820751205349594 0 0.1110184186627599 0.36813360195802219 0 0.1222799321900277 0.39262055348189367 0 0.1110184186627599 0.36813360195802219 0 0.12874840841938939 0.37491499108935422 0 0.1222799321900277 0.39262055348189367 0 0.107076611827209 0.3820751205349594 0 0.1091137664510133 0.39361473155986332 0 0.107076611827209 0.3820751205349594 0 0.096532904564945857 0.38251664013854092 0 0.1091137664510133 0.39361473155986332 0 0.088812673538289449 0.39517937990967189 0 0.096532904564945857 0.38251664013854092 0 0.1091137664510133 0.39361473155986332 0 0.096532904564945857 0.38251664013854092 0 0.1091137664510133 0.39361473155986332 0 0.107076611827209 0.3820751205349594 0 0.096532904564945857 0.38251664013854092 0 0.09643961299419683 0.37351052037200722 0 0.088812673538289449 0.39517937990967189 0 0.1091137664510133 0.39361473155986332 0 0.088812673538289449 0.39517937990967189 0 0.1060779427916969 0.41078131195843842 0 0.1091137664510133 0.39361473155986332 0 0.1110184186627599 0.36813360195802219 0 0.099756905135492152 0.34364665043415082 0 0.1110184186627599 0.36813360195802219 0 0.099756905135492152 0.34364665043415082 0 0.092078657559808735 0.36200586436407639 0 0.09643961299419683 0.37351052037200722 0 0.1110184186627599 0.36813360195802219 0 0.092078657559808735 0.36200586436407639 0 0.107076611827209 0.3820751205349594 0 0.09643961299419683 0.37351052037200722 0 0.1110184186627599 0.36813360195802219 0 0.1110184186627599 0.36813360195802219 0 0.1228937766592843 0.35378028107363041 0 0.12874840841938939 0.37491499108935422 0 0.1110184186627599 0.36813360195802219 0 0.1228937766592843 0.35378028107363041 0 0.099756905135492152 0.34364665043415082 0 0.1228937766592843 0.35378028107363041 0 0.1227400750860225 0.33515185323383878 0 0.099756905135492152 0.34364665043415082 0 0.1227400750860225 0.33515185323383878 0 0.11060005590789219 0.32189636365797358 0 0.099756905135492152 0.34364665043415082 0 0.1227400750860225 0.33515185323383878 0 0.099756905135492152 0.34364665043415082 0 0.1227400750860225 0.33515185323383878 0 0.12478463900003051 0.31834353230628493 0 0.11060005590789219 0.32189636365797358 0 0.12478463900003051 0.31834353230628493 0 0.11060005590789219 0.32189636365797358 0 0.12210241479145061 0.307299179814506 0 0.11060005590789219 0.32189636365797358 0 0.1021840014142613 0.31460156646078768 0 0.1120178259175218 0.30589296060095411 0 0.11060005590789219 0.32189636365797358 0 0.1021840014142613 0.31460156646078768 0 0.091599334821681755 0.32590889002182488 0 0.1021840014142613 0.31460156646078768 0 0.091599334821681755 0.32590889002182488 0 0.094418444669094409 0.30863820847995133 0 0.099756905135492152 0.34364665043415082 0 0.091599334821681755 0.32590889002182488 0 0.11060005590789219 0.32189636365797358 0 0.099756905135492152 0.34364665043415082 0 0.091599334821681755 0.32590889002182488 0 0.099756905135492152 0.34364665043415082 0 0.078717354165385181 0.33648413126336862 0 0.091599334821681755 0.32590889002182488 0 0.091599334821681755 0.32590889002182488 0 0.071868234402458889 0.32191541960626308 0 0.083441764507871455 0.30817112960949877 0 0.091599334821681755 0.32590889002182488 0 0.083441764507871455 0.30817112960949877 0 0.091599334821681755 0.32590889002182488 0 0.083441764507871455 0.30817112960949877 0 0.094418444669094409 0.30863820847995133 0 0.078717354165385181 0.33648413126336862 0 0.091599334821681755 0.32590889002182488 0 0.071868234402458889 0.32191541960626308 0 0.071868234402458889 0.32191541960626308 0 0.053067125874532807 0.32186771128630598 0 0.075732841623420116 0.3040119888776005 0 0.053067125874532807 0.32186771128630598 0 0.075732841623420116 0.3040119888776005 0 0.078717354165385181 0.33648413126336862 0 0.071868234402458889 0.32191541960626308 0 0.060197324006420687 0.34036404380128371 0 0.078717354165385181 0.33648413126336862 0 0.075110931647558235 0.3527560355640017 0 0.060197324006420687 0.34036404380128371 0 0.075110931647558235 0.3527560355640017 0 0.050464958159624818 0.3618654206938538 0 0.099756905135492152 0.34364665043415082 0 0.078717354165385181 0.33648413126336862 0 0.075110931647558235 0.3527560355640017 0 0.099756905135492152 0.34364665043415082 0 0.075110931647558235 0.3527560355640017 0 0.092078657559808735 0.36200586436407639 0 0.099756905135492152 0.34364665043415082 0 0.075110931647558235 0.3527560355640017 0 0.075110931647558235 0.3527560355640017 0 0.092078657559808735 0.36200586436407639 0 0.075242093832077264 0.36812177147949349 0 0.086351257356787101 0.37221421831188489 0 0.092078657559808735 0.36200586436407639 0 0.075242093832077264 0.36812177147949349 0 0.09643961299419683 0.37351052037200722 0 0.086351257356787101 0.37221421831188489 0 0.092078657559808735 0.36200586436407639 0 0.080033909023446495 0.37734509170710351 0 0.086351257356787101 0.37221421831188489 0 0.075242093832077264 0.36812177147949349 0 0.075110931647558235 0.3527560355640017 0 0.075242093832077264 0.36812177147949349 0 0.050464958159624818 0.3618654206938538 0 0.06512784579127287 0.38212022900172399 0 0.075242093832077264 0.36812177147949349 0 0.050464958159624818 0.3618654206938538 0 0.075110931647558235 0.3527560355640017 0 0.050464958159624818 0.3618654206938538 0 0.060197324006420687 0.34036404380128371 0 0.050464958159624818 0.3618654206938538 0 0.040680680837862818 0.34575401892799468 0 0.060197324006420687 0.34036404380128371 0 0.045401098181558172 0.38499031967952818 0 0.050464958159624818 0.3618654206938538 0 0.025818984671691279 0.37097480582370601 0 0.050464958159624818 0.3618654206938538 0 0.025818984671691279 0.37097480582370601 0 0.050464958159624818 0.3618654206938538 0 0.040680680837862818 0.34575401892799468 0 0.025818984671691279 0.37097480582370601 0 0.040680680837862818 0.34575401892799468 0 0.025818984671691279 0.37097480582370601 0 0.022061582341240501 0.34281488287412448 0 0.025818984671691279 0.37097480582370601 0 0.0059313923409791804 0.35407678938915937 0 0.022061582341240501 0.34281488287412448 0 -0.001494834127354011 0.33585963461024471 0 0.0059313923409791804 0.35407678938915937 0 0.022061582341240501 0.34281488287412448 0 -0.0012915132074347089 0.36652510761091239 0 0.025818984671691279 0.37097480582370601 0 0.0059313923409791804 0.35407678938915937 0 -0.0012915132074347089 0.36652510761091239 0 0.0022634058800765338 0.37998431242390279 0 0.025818984671691279 0.37097480582370601 0 -0.00023275053750003791 0.33341522743281798 0 0.011462415831891559 0.31076399510208819 0 -0.00023275053750003791 0.33341522743281798 0 0.015605828027808921 0.32421774229306788 0 0.011462415831891559 0.31076399510208819 0 -0.00023275053750003791 0.33341522743281798 0 -0.0019245325289174609 0.31603531092320553 0 0.011462415831891559 0.31076399510208819 0 -0.00023275053750003791 0.33341522743281798 0 0.015605828027808921 0.32421774229306788 0 0.022061582341240501 0.34281488287412448 0 -0.001494834127354011 0.33585963461024471 0 0.022061582341240501 0.34281488287412448 0 -0.00023275053750003791 0.33341522743281798 0 0.015605828027808921 0.32421774229306788 0 -0.001494834127354011 0.33585963461024471 0 -0.00023275053750003791 0.33341522743281798 0 0.022061582341240501 0.34281488287412448 0 0.015605828027808921 0.32421774229306788 0 0.022061582341240501 0.34281488287412448 0 0.032498930345451621 0.32877260825484939 0 0.015605828027808921 0.32421774229306788 0 0.031617266128864778 0.3100200228130458 0 0.011462415831891559 0.31076399510208819 0 0.015605828027808921 0.32421774229306788 0 0.032498930345451621 0.32877260825484939 0 0.031617266128864778 0.3100200228130458 0 0.032498930345451621 0.32877260825484939 0 0.053067125874532807 0.32186771128630598 0 0.031617266128864778 0.3100200228130458 0 0.040680680837862818 0.34575401892799468 0 0.032498930345451621 0.32877260825484939 0 0.053067125874532807 0.32186771128630598 0 0.040680680837862818 0.34575401892799468 0 0.022061582341240501 0.34281488287412448 0 0.032498930345451621 0.32877260825484939 0 0.040680680837862818 0.34575401892799468 0 0.060197324006420687 0.34036404380128371 0 0.053067125874532807 0.32186771128630598 0 0.071868234402458889 0.32191541960626308 0 0.060197324006420687 0.34036404380128371 0 0.053067125874532807 0.32186771128630598 0 0.053067125874532807 0.32186771128630598 0 0.052017148134365331 0.29987511517419502 0 0.075732841623420116 0.3040119888776005 0 0.052017148134365331 0.29987511517419502 0 0.05677961595488739 0.28913226718906643 0 0.045928031938694089 0.284090574923205 0 0.05677961595488739 0.28913226718906643 0 0.057794091393966018 0.27869543868171248 0 0.067499702154951061 0.28329206196994589 0 0.052017148134365331 0.29987511517419502 0 0.05677961595488739 0.28913226718906643 0 0.065608098098544898 0.2944172868448815 0 0.05677961595488739 0.28913226718906643 0 0.045928031938694089 0.284090574923205 0 0.057794091393966018 0.27869543868171248 0 0.052017148134365331 0.29987511517419502 0 0.038180007100802327 0.29552461892045129 0 0.045928031938694089 0.284090574923205 0 0.038180007100802327 0.29552461892045129 0 0.045928031938694089 0.284090574923205 0 0.02315758220128512 0.28811276277135928 0 0.052017148134365331 0.29987511517419502 0 0.038180007100802327 0.29552461892045129 0 0.031617266128864778 0.3100200228130458 0 0.053067125874532807 0.32186771128630598 0 0.052017148134365331 0.29987511517419502 0 0.031617266128864778 0.3100200228130458 0 0.031617266128864778 0.3100200228130458 0 0.02315758220128512 0.28811276277135928 0 0.011462415831891559 0.31076399510208819 0 0.038180007100802327 0.29552461892045129 0 0.031617266128864778 0.3100200228130458 0 0.02315758220128512 0.28811276277135928 0 0.02315758220128512 0.28811276277135928 0 0.011462415831891559 0.31076399510208819 0 0.02315758220128512 0.28811276277135928 0 0.0074937284318593164 0.28700854176367141 0 0.011462415831891559 0.31076399510208819 0 0.02315758220128512 0.28811276277135928 0 0.0074937284318593164 0.28700854176367141 0 0.013670863725534251 0.27040545475246153 0 -0.0047650251177795587 0.29780240569285532 0 -0.0019245325289174609 0.31603531092320553 0 0.011462415831891559 0.31076399510208819 0 -0.0047650251177795587 0.29780240569285532 0 0.0074937284318593164 0.28700854176367141 0 0.011462415831891559 0.31076399510208819 0 -0.0013581205314274699 0.25585075003031849 0 0.022062085370766191 0.24948980786434841 0 0.013670863725534251 0.27040545475246153 0 -0.0041828416899563313 0.27650933564444069 0 0.0074937284318593164 0.28700854176367141 0 0.013670863725534251 0.27040545475246153 0 -0.0041828416899563313 0.27650933564444069 0 -0.0013581205314274699 0.25585075003031849 0 0.013670863725534251 0.27040545475246153 0 0.02315758220128512 0.28811276277135928 0 0.013670863725534251 0.27040545475246153 0 0.034852748570678667 0.26546153044063048 0 0.02315758220128512 0.28811276277135928 0 0.034852748570678667 0.26546153044063048 0 0.022062085370766191 0.24948980786434841 0 0.013670863725534251 0.27040545475246153 0 0.034852748570678667 0.26546153044063048 0 0.034852748570678667 0.26546153044063048 0 0.049961034940882519 0.27146551024526477 0 0.050942294489417762 0.2594121525026577 0 0.040294956150503269 0.25223707839592702 0 0.034852748570678667 0.26546153044063048 0 0.050942294489417762 0.2594121525026577 0 0.022062085370766191 0.24948980786434841 0 0.040294956150503269 0.25223707839592702 0 0.034852748570678667 0.26546153044063048 0 0.045928031938694089 0.284090574923205 0 0.02315758220128512 0.28811276277135928 0 0.034852748570678667 0.26546153044063048 0 0.045928031938694089 0.284090574923205 0 0.034852748570678667 0.26546153044063048 0 0.049961034940882519 0.27146551024526477 0 0.045928031938694089 0.284090574923205 0 0.049961034940882519 0.27146551024526477 0 0.057794091393966018 0.27869543868171248 0 0.049961034940882519 0.27146551024526477 0 0.060490933005045183 0.26899625079312822 0 0.050942294489417762 0.2594121525026577 0 0.049961034940882519 0.27146551024526477 0 0.060490933005045183 0.26899625079312822 0 0.057794091393966018 0.27869543868171248 0 0.060490933005045183 0.26899625079312822 0 0.057794091393966018 0.27869543868171248 0 0.066797433850478038 0.27473564276939472 0 0.040294956150503269 0.25223707839592702 0 0.050942294489417762 0.2594121525026577 0 0.062163090997927238 0.25246932702843122 0 0.060490933005045183 0.26899625079312822 0 0.050942294489417762 0.2594121525026577 0 0.062906770803120501 0.2607612059882824 0 0.050942294489417762 0.2594121525026577 0 0.062163090997927238 0.25246932702843122 0 0.062906770803120501 0.2607612059882824 0 0.050942294489417762 0.2594121525026577 0 0.062163090997927238 0.25246932702843122 0 0.072506791539930587 0.248787560300406 0 0.062163090997927238 0.25246932702843122 0 0.070756084691097676 0.25798693350248031 0 0.062163090997927238 0.25246932702843122 0 0.062906770803120501 0.2607612059882824 0 0.070756084691097676 0.25798693350248031 0 0.062163090997927238 0.25246932702843122 0 0.070756084691097676 0.25798693350248031 0 0.062906770803120501 0.2607612059882824 0 0.070756084691097676 0.25798693350248031 0 0.071473083047460861 0.26785647109051353 0 0.070756084691097676 0.25798693350248031 0 0.076915197165763907 0.26254735605948859 0 0.078810659039289327 0.25619380886554771 0 0.070756084691097676 0.25798693350248031 0 0.076915197165763907 0.26254735605948859 0 0.071473083047460861 0.26785647109051353 0 0.070756084691097676 0.25798693350248031 0 0.07607094232800328 0.25203594905764171 0 0.078810659039289327 0.25619380886554771 0 0.072506791539930587 0.248787560300406 0 0.070756084691097676 0.25798693350248031 0 0.07607094232800328 0.25203594905764171 0 0.077828192347162622 0.247122705985938 0 0.07607094232800328 0.25203594905764171 0 0.080280856494467548 0.25090285684720348 0 0.085868016482932338 0.25269131097926117 0 0.078810659039289327 0.25619380886554771 0 0.083739207483843864 0.2610654241912041 0 0.080280856494467548 0.25090285684720348 0 0.085868016482932338 0.25269131097926117 0 0.078810659039289327 0.25619380886554771 0 0.07607094232800328 0.25203594905764171 0 0.080280856494467548 0.25090285684720348 0 0.078810659039289327 0.25619380886554771 0 0.082826472274950214 0.24647050934762871 0 0.080280856494467548 0.25090285684720348 0 0.085868016482932338 0.25269131097926117 0 0.076915197165763907 0.26254735605948859 0 0.083739207483843864 0.2610654241912041 0 0.081276855994644265 0.26950265332025941 0 0.076915197165763907 0.26254735605948859 0 0.078810659039289327 0.25619380886554771 0 0.083739207483843864 0.2610654241912041 0 0.091441525093737167 0.25833245974657548 0 0.088862943340454539 0.26705921151237327 0 0.095669898789823349 0.26252106616712179 0 0.083739207483843864 0.2610654241912041 0 0.091441525093737167 0.25833245974657548 0 0.088862943340454539 0.26705921151237327 0 0.091543946649292843 0.24997310198023659 0 0.091441525093737167 0.25833245974657548 0 0.097171933684521816 0.25511804805167337 0 0.085868016482932338 0.25269131097926117 0 0.083739207483843864 0.2610654241912041 0 0.091441525093737167 0.25833245974657548 0 0.091543946649292843 0.24997310198023659 0 0.085868016482932338 0.25269131097926117 0 0.091441525093737167 0.25833245974657548 0 0.087552203047801022 0.28091046705621248 0 0.093415706265350576 0.27244679584878762 0 0.091659279706526875 0.28626493996532743 0 0.087552203047801022 0.28091046705621248 0 0.093415706265350576 0.27244679584878762 0 0.084891474035981657 0.27451051253011682 0 0.093415706265350576 0.27244679584878762 0 0.088862943340454539 0.26705921151237327 0 0.084891474035981657 0.27451051253011682 0 0.093415706265350576 0.27244679584878762 0 0.088862943340454539 0.26705921151237327 0 0.095669898789823349 0.26252106616712179 0 0.083739207483843864 0.2610654241912041 0 0.088862943340454539 0.26705921151237327 0 0.081276855994644265 0.26950265332025941 0 0.081276855994644265 0.26950265332025941 0 0.084891474035981657 0.27451051253011682 0 0.076051686635716126 0.27612186722421411 0 0.088862943340454539 0.26705921151237327 0 0.081276855994644265 0.26950265332025941 0 0.084891474035981657 0.27451051253011682 0 0.084891474035981657 0.27451051253011682 0 0.082189448931923495 0.28102208021885378 0 0.076051686635716126 0.27612186722421411 0 0.087552203047801022 0.28091046705621248 0 0.084891474035981657 0.27451051253011682 0 0.082189448931923495 0.28102208021885378 0 0.082189448931923495 0.28102208021885378 0 0.076051686635716126 0.27612186722421411 0 0.076037788070510259 0.28463723778530797 0 0.076051686635716126 0.27612186722421411 0 0.071473083047460861 0.26785647109051353 0 0.066797433850478038 0.27473564276939472 0 0.081276855994644265 0.26950265332025941 0 0.076051686635716126 0.27612186722421411 0 0.071473083047460861 0.26785647109051353 0 0.076915197165763907 0.26254735605948859 0 0.081276855994644265 0.26950265332025941 0 0.071473083047460861 0.26785647109051353 0 0.060490933005045183 0.26899625079312822 0 0.071473083047460861 0.26785647109051353 0 0.066797433850478038 0.27473564276939472 0 0.060490933005045183 0.26899625079312822 0 0.062906770803120501 0.2607612059882824 0 0.071473083047460861 0.26785647109051353 0 0.057794091393966018 0.27869543868171248 0 0.066797433850478038 0.27473564276939472 0 0.067499702154951061 0.28329206196994589 0 0.076051686635716126 0.27612186722421411 0 0.066797433850478038 0.27473564276939472 0 0.067499702154951061 0.28329206196994589 0 0.05677961595488739 0.28913226718906643 0 0.067499702154951061 0.28329206196994589 0 0.065608098098544898 0.2944172868448815 0 0.067499702154951061 0.28329206196994589 0 0.065608098098544898 0.2944172868448815 0 0.071696653048085757 0.28968910693399808 0 0.065608098098544898 0.2944172868448815 0 0.071696653048085757 0.28968910693399808 0 0.072502271759253556 0.29498051188015251 0 0.071696653048085757 0.28968910693399808 0 0.072502271759253556 0.29498051188015251 0 0.076981797803440943 0.29185554468502839 0 0.067499702154951061 0.28329206196994589 0 0.071696653048085757 0.28968910693399808 0 0.076037788070510259 0.28463723778530797 0 0.076051686635716126 0.27612186722421411 0 0.067499702154951061 0.28329206196994589 0 0.076037788070510259 0.28463723778530797 0 0.071696653048085757 0.28968910693399808 0 0.076981797803440943 0.29185554468502839 0 0.076037788070510259 0.28463723778530797 0 0.071868234402458889 0.32191541960626308 0 0.075732841623420116 0.3040119888776005 0 0.083441764507871455 0.30817112960949877 0 0.052017148134365331 0.29987511517419502 0 0.065608098098544898 0.2944172868448815 0 0.075732841623420116 0.3040119888776005 0 0.065608098098544898 0.2944172868448815 0 0.072502271759253556 0.29498051188015251 0 0.075732841623420116 0.3040119888776005 0 0.072502271759253556 0.29498051188015251 0 0.076981797803440943 0.29185554468502839 0 0.075732841623420116 0.3040119888776005 0 0.075732841623420116 0.3040119888776005 0 0.092765153569987879 0.29841717721940159 0 0.086589551092593475 0.30480962604661299 0 0.075732841623420116 0.3040119888776005 0 0.083441764507871455 0.30817112960949877 0 0.086589551092593475 0.30480962604661299 0 0.092765153569987879 0.29841717721940159 0 0.086589551092593475 0.30480962604661299 0 0.094418444669094409 0.30863820847995133 0 0.083441764507871455 0.30817112960949877 0 0.086589551092593475 0.30480962604661299 0 0.094418444669094409 0.30863820847995133 0 0.076981797803440943 0.29185554468502839 0 0.075732841623420116 0.3040119888776005 0 0.082702891776207182 0.28795189135542282 0 0.075732841623420116 0.3040119888776005 0 0.082702891776207182 0.28795189135542282 0 0.091659279706526875 0.28626493996532743 0 0.075732841623420116 0.3040119888776005 0 0.092765153569987879 0.29841717721940159 0 0.098398557372307224 0.28615626646889508 0 0.075732841623420116 0.3040119888776005 0 0.091659279706526875 0.28626493996532743 0 0.098398557372307224 0.28615626646889508 0 0.075732841623420116 0.3040119888776005 0 0.098398557372307224 0.28615626646889508 0 0.087552203047801022 0.28091046705621248 0 0.082189448931923495 0.28102208021885378 0 0.082702891776207182 0.28795189135542282 0 0.082189448931923495 0.28102208021885378 0 0.076037788070510259 0.28463723778530797 0 0.082702891776207182 0.28795189135542282 0 0.076981797803440943 0.29185554468502839 0 0.076037788070510259 0.28463723778530797 0 0.082702891776207182 0.28795189135542282 0 0.087552203047801022 0.28091046705621248 0 0.082702891776207182 0.28795189135542282 0 0.091659279706526875 0.28626493996532743 0 0.091659279706526875 0.28626493996532743 0 0.098398557372307224 0.28615626646889508 0 0.10580128949717101 0.27349900119884291 0 0.092765153569987879 0.29841717721940159 0 0.098398557372307224 0.28615626646889508 0 0.1000889004062999 0.29453344680216559 0 0.098398557372307224 0.28615626646889508 0 0.1000889004062999 0.29453344680216559 0 0.1047653488464914 0.29132866091398502 0 0.1000889004062999 0.29453344680216559 0 0.1047653488464914 0.29132866091398502 0 0.10641790435142599 0.29763755045375789 0 0.1047653488464914 0.29132866091398502 0 0.10641790435142599 0.29763755045375789 0 0.1112756588917496 0.29141822042140431 0 0.1047653488464914 0.29132866091398502 0 0.107645723210674 0.2868978204237021 0 0.1112756588917496 0.29141822042140431 0 0.098398557372307224 0.28615626646889508 0 0.107645723210674 0.2868978204237021 0 0.1118487505142923 0.28147954616528331 0 0.098398557372307224 0.28615626646889508 0 0.1047653488464914 0.29132866091398502 0 0.107645723210674 0.2868978204237021 0 0.094418444669094409 0.30863820847995133 0 0.099129224883827069 0.30105518776322321 0 0.1034931103707623 0.30580457559702462 0 0.1021840014142613 0.31460156646078768 0 0.094418444669094409 0.30863820847995133 0 0.1034931103707623 0.30580457559702462 0 0.092765153569987879 0.29841717721940159 0 0.094418444669094409 0.30863820847995133 0 0.099129224883827069 0.30105518776322321 0 0.092765153569987879 0.29841717721940159 0 0.1000889004062999 0.29453344680216559 0 0.099129224883827069 0.30105518776322321 0 0.099129224883827069 0.30105518776322321 0 0.10641790435142599 0.29763755045375789 0 0.1034931103707623 0.30580457559702462 0 0.10641790435142599 0.29763755045375789 0 0.1034931103707623 0.30580457559702462 0 0.1120178259175218 0.30589296060095411 0 0.1000889004062999 0.29453344680216559 0 0.099129224883827069 0.30105518776322321 0 0.10641790435142599 0.29763755045375789 0 0.1021840014142613 0.31460156646078768 0 0.1034931103707623 0.30580457559702462 0 0.1120178259175218 0.30589296060095411 0 0.11060005590789219 0.32189636365797358 0 0.1120178259175218 0.30589296060095411 0 0.12210241479145061 0.307299179814506 0 0.10641790435142599 0.29763755045375789 0 0.1120178259175218 0.30589296060095411 0 0.1135346352530001 0.29704207707564939 0 0.1120178259175218 0.30589296060095411 0 0.1135346352530001 0.29704207707564939 0 0.1190757725299877 0.29819696626480441 0 0.1120178259175218 0.30589296060095411 0 0.1190757725299877 0.29819696626480441 0 0.12210241479145061 0.307299179814506 0 0.1190757725299877 0.29819696626480441 0 0.1239384301897994 0.29929535014450731 0 0.12210241479145061 0.307299179814506 0 0.1239384301897994 0.29929535014450731 0 0.12210241479145061 0.307299179814506 0 0.12877559045209441 0.30108494726757462 0 0.1190757725299877 0.29819696626480441 0 0.1239384301897994 0.29929535014450731 0 0.1230793790240486 0.29508203714845938 0 0.1136433697079313 0.28648149958740959 0 0.1161910945020425 0.28955660483759521 0 0.1188661744979385 0.28721596554243117 0 0.1136433697079313 0.28648149958740959 0 0.1188661744979385 0.28721596554243117 0 0.1172648473879533 0.28332745886508498 0 0.1136433697079313 0.28648149958740959 0 0.1118487505142923 0.28147954616528331 0 0.1172648473879533 0.28332745886508498 0 0.107645723210674 0.2868978204237021 0 0.1136433697079313 0.28648149958740959 0 0.1118487505142923 0.28147954616528331 0 0.107645723210674 0.2868978204237021 0 0.1136433697079313 0.28648149958740959 0 0.1112756588917496 0.29141822042140431 0 0.10641790435142599 0.29763755045375789 0 0.1135346352530001 0.29704207707564939 0 0.1112756588917496 0.29141822042140431 0 0.1135346352530001 0.29704207707564939 0 0.1112756588917496 0.29141822042140431 0 0.1167421942733711 0.29334766709660282 0 0.1135346352530001 0.29704207707564939 0 0.1190757725299877 0.29819696626480441 0 0.1167421942733711 0.29334766709660282 0 0.1112756588917496 0.29141822042140431 0 0.1167421942733711 0.29334766709660282 0 0.1161910945020425 0.28955660483759521 0 0.1136433697079313 0.28648149958740959 0 0.1112756588917496 0.29141822042140431 0 0.1161910945020425 0.28955660483759521 0 0.1161910945020425 0.28955660483759521 0 0.11977419260147069 0.29045724641516668 0 0.1188661744979385 0.28721596554243117 0 0.1167421942733711 0.29334766709660282 0 0.11977419260147069 0.29045724641516668 0 0.1206018118619764 0.29341488756499712 0 0.1167421942733711 0.29334766709660282 0 0.1161910945020425 0.28955660483759521 0 0.11977419260147069 0.29045724641516668 0 0.11977419260147069 0.29045724641516668 0 0.1206018118619764 0.29341488756499712 0 0.1227601697665119 0.29146170911707758 0 0.1190757725299877 0.29819696626480441 0 0.1206018118619764 0.29341488756499712 0 0.1230793790240486 0.29508203714845938 0 0.1190757725299877 0.29819696626480441 0 0.1167421942733711 0.29334766709660282 0 0.1206018118619764 0.29341488756499712 0 0.1239384301897994 0.29929535014450731 0 0.1230793790240486 0.29508203714845938 0 0.12631020149541949 0.29557666323730319 0 0.1206018118619764 0.29341488756499712 0 0.1230793790240486 0.29508203714845938 0 0.1227601697665119 0.29146170911707758 0 0.1230793790240486 0.29508203714845938 0 0.1227601697665119 0.29146170911707758 0 0.12578988830059651 0.29254664656206708 0 0.11977419260147069 0.29045724641516668 0 0.1227601697665119 0.29146170911707758 0 0.1220576342069698 0.28839340045616502 0 0.1227601697665119 0.29146170911707758 0 0.12490931994801389 0.28963907956572149 0 0.12578988830059651 0.29254664656206708 0 0.1227601697665119 0.29146170911707758 0 0.12490931994801389 0.28963907956572149 0 0.1220576342069698 0.28839340045616502 0 0.12490931994801389 0.28963907956572149 0 0.1238527032280814 0.28681284791342487 0 0.1220576342069698 0.28839340045616502 0 0.1238527032280814 0.28681284791342487 0 0.1244496799462624 0.28301920687950871 0 0.1264188560381343 0.2878265607545617 0 0.1238527032280814 0.28681284791342487 0 0.1220576342069698 0.28839340045616502 0 0.1213492015771956 0.28513548125517468 0 0.1188661744979385 0.28721596554243117 0 0.1172648473879533 0.28332745886508498 0 0.1213492015771956 0.28513548125517468 0 0.11977419260147069 0.29045724641516668 0 0.1220576342069698 0.28839340045616502 0 0.1188661744979385 0.28721596554243117 0 0.1220576342069698 0.28839340045616502 0 0.1188661744979385 0.28721596554243117 0 0.1213492015771956 0.28513548125517468 0 0.1172648473879533 0.28332745886508498 0 0.12055002055528601 0.28140114906639768 0 0.1213492015771956 0.28513548125517468 0 0.12055002055528601 0.28140114906639768 0 0.1213492015771956 0.28513548125517468 0 0.1244496799462624 0.28301920687950871 0 0.1238527032280814 0.28681284791342487 0 0.1213492015771956 0.28513548125517468 0 0.1244496799462624 0.28301920687950871 0 0.12199157939662671 0.27698983008809058 0 0.11769479446839209 0.27853376824412951 0 0.1210642731211944 0.26830054406018983 0 0.1244496799462624 0.28301920687950871 0 0.12199157939662671 0.27698983008809058 0 0.12596979802228361 0.27358016688650377 0 0.12055002055528601 0.28140114906639768 0 0.1244496799462624 0.28301920687950871 0 0.12199157939662671 0.27698983008809058 0 0.098398557372307224 0.28615626646889508 0 0.1210642731211944 0.26830054406018983 0 0.098398557372307224 0.28615626646889508 0 0.1118487505142923 0.28147954616528331 0 0.1210642731211944 0.26830054406018983 0 0.1172648473879533 0.28332745886508498 0 0.12055002055528601 0.28140114906639768 0 0.11769479446839209 0.27853376824412951 0 0.12055002055528601 0.28140114906639768 0 0.12199157939662671 0.27698983008809058 0 0.11769479446839209 0.27853376824412951 0 0.1118487505142923 0.28147954616528331 0 0.11769479446839209 0.27853376824412951 0 0.1210642731211944 0.26830054406018983 0 0.1118487505142923 0.28147954616528331 0 0.1172648473879533 0.28332745886508498 0 0.11769479446839209 0.27853376824412951 0 0.1210642731211944 0.26830054406018983 0 0.1123226271155921 0.26453376942764828 0 0.10580128949717101 0.27349900119884291 0 0.12199157939662671 0.27698983008809058 0 0.1210642731211944 0.26830054406018983 0 0.12596979802228361 0.27358016688650377 0 0.11700612055034661 0.25280059366604207 0 0.1281792854763541 0.25910810811730373 0 0.12596979802228361 0.27358016688650377 0 0.1210642731211944 0.26830054406018983 0 0.11700612055034661 0.25280059366604207 0 0.12596979802228361 0.27358016688650377 0 0.11700612055034661 0.25280059366604207 0 0.12596979802228361 0.27358016688650377 0 0.12695957089482901 0.24747230001415241 0 0.11700612055034661 0.25280059366604207 0 0.1281792854763541 0.25910810811730373 0 0.1210642731211944 0.26830054406018983 0 0.11700612055034661 0.25280059366604207 0 0.1123226271155921 0.26453376942764828 0 0.11700612055034661 0.25280059366604207 0 0.1123226271155921 0.26453376942764828 0 0.1057998516311974 0.26008039821654533 0 0.10140444625855841 0.24468321414788791 0 0.1057998516311974 0.26008039821654533 0 0.097171933684521816 0.25511804805167337 0 0.1057998516311974 0.26008039821654533 0 0.097171933684521816 0.25511804805167337 0 0.095669898789823349 0.26252106616712179 0 0.093415706265350576 0.27244679584878762 0 0.1057998516311974 0.26008039821654533 0 0.095669898789823349 0.26252106616712179 0 0.091441525093737167 0.25833245974657548 0 0.097171933684521816 0.25511804805167337 0 0.095669898789823349 0.26252106616712179 0 0.091659279706526875 0.28626493996532743 0 0.1057998516311974 0.26008039821654533 0 0.098398557372307224 0.28615626646889508 0 0.1210642731211944 0.26830054406018983 0 0.10580128949717101 0.27349900119884291 0 0.091659279706526875 0.28626493996532743 0 0.1057998516311974 0.26008039821654533 0 0.10580128949717101 0.27349900119884291 0 0.093415706265350576 0.27244679584878762 0 0.091659279706526875 0.28626493996532743 0 0.1057998516311974 0.26008039821654533 0 0.1123226271155921 0.26453376942764828 0 0.1057998516311974 0.26008039821654533 0 0.10580128949717101 0.27349900119884291 0 0.14197652427293059 0.26811486496052911 0 0.15263622647705771 0.27396686122891101 0 0.14873454311733669 0.28390337731332549 0 0.15263622647705771 0.27396686122891101 0 0.14873454311733669 0.28390337731332549 0 0.15798420398973509 0.28234951176469703 0 0.14197652427293059 0.26811486496052911 0 0.15263622647705771 0.27396686122891101 0 0.154228756659956 0.26237374011589493 0 0.15263622647705771 0.27396686122891101 0 0.154228756659956 0.26237374011589493 0 0.16025710434533 0.27309281199010838 0 0.14866603178531401 0.24164403189080999 0 0.14197652427293059 0.26811486496052911 0 0.14866603178531401 0.24164403189080999 0 0.154228756659956 0.26237374011589493 0 0.15772465432775251 0.25110283052911042 0 0.14866603178531401 0.24164403189080999 0 0.14197652427293059 0.26811486496052911 0 0.13457760263714399 0.25216438853103162 0 0.14866603178531401 0.24164403189080999 0 0.14197652427293059 0.26811486496052911 0 0.154228756659956 0.26237374011589493 0 0.14197652427293059 0.26811486496052911 0 0.13457760263714399 0.25216438853103162 0 0.1281792854763541 0.25910810811730373 0 0.12695957089482901 0.24747230001415241 0 0.13457760263714399 0.25216438853103162 0 0.1281792854763541 0.25910810811730373 0 0.14197652427293059 0.26811486496052911 0 0.1281792854763541 0.25910810811730373 0 0.12596979802228361 0.27358016688650377 0 0.14197652427293059 0.26811486496052911 0 0.12596979802228361 0.27358016688650377 0 0.13528701676054711 0.29458569803024831 0 0.12596979802228361 0.27358016688650377 0 0.13528701676054711 0.29458569803024831 0 0.14197652427293059 0.26811486496052911 0 0.13528701676054711 0.29458569803024831 0 0.1244496799462624 0.28301920687950871 0 0.12596979802228361 0.27358016688650377 0 0.1289196302032366 0.28770345449760082 0 0.12596979802228361 0.27358016688650377 0 0.1289196302032366 0.28770345449760082 0 0.13528701676054711 0.29458569803024831 0 0.1289196302032366 0.28770345449760082 0 0.1264188560381343 0.2878265607545617 0 0.12781988685681139 0.29060998845553632 0 0.1244496799462624 0.28301920687950871 0 0.1289196302032366 0.28770345449760082 0 0.1264188560381343 0.2878265607545617 0 0.12490931994801389 0.28963907956572149 0 0.1238527032280814 0.28681284791342487 0 0.1264188560381343 0.2878265607545617 0 0.12490931994801389 0.28963907956572149 0 0.1264188560381343 0.2878265607545617 0 0.12781988685681139 0.29060998845553632 0 0.12490931994801389 0.28963907956572149 0 0.12578988830059651 0.29254664656206708 0 0.12781988685681139 0.29060998845553632 0 0.12781988685681139 0.29060998845553632 0 0.12858465551822981 0.29348888490683689 0 0.12945820845118949 0.29195888502938427 0 0.12578988830059651 0.29254664656206708 0 0.12781988685681139 0.29060998845553632 0 0.12858465551822981 0.29348888490683689 0 0.12781988685681139 0.29060998845553632 0 0.1292904797995186 0.29051467219905219 0 0.12945820845118949 0.29195888502938427 0 0.1289196302032366 0.28770345449760082 0 0.12781988685681139 0.29060998845553632 0 0.1292904797995186 0.29051467219905219 0 0.12578988830059651 0.29254664656206708 0 0.12631020149541949 0.29557666323730319 0 0.12858465551822981 0.29348888490683689 0 0.1230793790240486 0.29508203714845938 0 0.12578988830059651 0.29254664656206708 0 0.12631020149541949 0.29557666323730319 0 0.12631020149541949 0.29557666323730319 0 0.12858465551822981 0.29348888490683689 0 0.13015586812292779 0.29603553887317069 0 0.13015586812292779 0.29603553887317069 0 0.13134127196310669 0.29382019808104243 0 0.13528701676054711 0.29458569803024831 0 0.13134127196310669 0.29382019808104243 0 0.13096419368683679 0.29178636081368747 0 0.13528701676054711 0.29458569803024831 0 0.12858465551822981 0.29348888490683689 0 0.13134127196310669 0.29382019808104243 0 0.12945820845118949 0.29195888502938427 0 0.12858465551822981 0.29348888490683689 0 0.13015586812292779 0.29603553887317069 0 0.13134127196310669 0.29382019808104243 0 0.1289196302032366 0.28770345449760082 0 0.1292904797995186 0.29051467219905219 0 0.13096419368683679 0.29178636081368747 0 0.1289196302032366 0.28770345449760082 0 0.13096419368683679 0.29178636081368747 0 0.13528701676054711 0.29458569803024831 0 0.13134127196310669 0.29382019808104243 0 0.12945820845118949 0.29195888502938427 0 0.13096419368683679 0.29178636081368747 0 0.1292904797995186 0.29051467219905219 0 0.12945820845118949 0.29195888502938427 0 0.13096419368683679 0.29178636081368747 0 0.13528701676054711 0.29458569803024831 0 0.14389715296615771 0.31513931332742717 0 0.13528701676054711 0.29458569803024831 0 0.13163900220183661 0.3096327917829832 0 0.14389715296615771 0.31513931332742717 0 0.12210241479145061 0.307299179814506 0 0.13163900220183661 0.3096327917829832 0 0.12877559045209441 0.30108494726757462 0 0.12478463900003051 0.31834353230628493 0 0.12210241479145061 0.307299179814506 0 0.13163900220183661 0.3096327917829832 0 0.13528701676054711 0.29458569803024831 0 0.13163900220183661 0.3096327917829832 0 0.12877559045209441 0.30108494726757462 0 0.1239384301897994 0.29929535014450731 0 0.12631020149541949 0.29557666323730319 0 0.12877559045209441 0.30108494726757462 0 0.12631020149541949 0.29557666323730319 0 0.13015586812292779 0.29603553887317069 0 0.12877559045209441 0.30108494726757462 0 0.13015586812292779 0.29603553887317069 0 0.13528701676054711 0.29458569803024831 0 0.12877559045209441 0.30108494726757462 0 0.13528701676054711 0.29458569803024831 0 0.15071564245579089 0.30020272468279102 0 0.14389715296615771 0.31513931332742717 0 0.15071564245579089 0.30020272468279102 0 0.15957801344302991 0.31676338393705339 0 0.14389715296615771 0.31513931332742717 0 0.14197652427293059 0.26811486496052911 0 0.13528701676054711 0.29458569803024831 0 0.14873454311733669 0.28390337731332549 0 0.13528701676054711 0.29458569803024831 0 0.15071564245579089 0.30020272468279102 0 0.14873454311733669 0.28390337731332549 0 0.15071564245579089 0.30020272468279102 0 0.14873454311733669 0.28390337731332549 0 0.1575608153581039 0.29132478081480878 0 0.14873454311733669 0.28390337731332549 0 0.15798420398973509 0.28234951176469703 0 0.1575608153581039 0.29132478081480878 0 0.15798420398973509 0.28234951176469703 0 0.1575608153581039 0.29132478081480878 0 0.1667189265736907 0.28873307038160151 0 0.1575608153581039 0.29132478081480878 0 0.1667189265736907 0.28873307038160151 0 0.16365076065396611 0.30143521993162947 0 0.1667189265736907 0.28873307038160151 0 0.16365076065396611 0.30143521993162947 0 0.17803107115646641 0.29905917037317842 0 0.15798420398973509 0.28234951176469703 0 0.1667189265736907 0.28873307038160151 0 0.169425292587597 0.27771472974453631 0 0.15071564245579089 0.30020272468279102 0 0.16365076065396611 0.30143521993162947 0 0.15957801344302991 0.31676338393705339 0 0.15071564245579089 0.30020272468279102 0 0.1575608153581039 0.29132478081480878 0 0.16365076065396611 0.30143521993162947 0 0.16365076065396611 0.30143521993162947 0 0.17371971529449001 0.31447732007997831 0 0.15957801344302991 0.31676338393705339 0 0.16365076065396611 0.30143521993162947 0 0.17803107115646641 0.29905917037317842 0 0.17371971529449001 0.31447732007997831 0 0.17803107115646641 0.29905917037317842 0 0.1857380800218856 0.3101946128211775 0 0.19553670369938941 0.29433204850784539 0 0.17803107115646641 0.29905917037317842 0 0.1857380800218856 0.3101946128211775 0 0.17371971529449001 0.31447732007997831 0 0.17803107115646641 0.29905917037317842 0 0.18035808436305209 0.28367595670557288 0 0.19553670369938941 0.29433204850784539 0 0.1667189265736907 0.28873307038160151 0 0.18035808436305209 0.28367595670557288 0 0.169425292587597 0.27771472974453631 0 0.1667189265736907 0.28873307038160151 0 0.17803107115646641 0.29905917037317842 0 0.18035808436305209 0.28367595670557288 0 0.18035808436305209 0.28367595670557288 0 0.17795044436139351 0.27152030873633798 0 0.1916282564751686 0.27022195460616932 0 0.17795044436139351 0.27152030873633798 0 0.1795230853522479 0.25998084109328518 0 0.1916282564751686 0.27022195460616932 0 0.17795044436139351 0.27152030873633798 0 0.16881750302890189 0.26600806153212631 0 0.1795230853522479 0.25998084109328518 0 0.17795044436139351 0.27152030873633798 0 0.169425292587597 0.27771472974453631 0 0.16881750302890189 0.26600806153212631 0 0.18035808436305209 0.28367595670557288 0 0.17795044436139351 0.27152030873633798 0 0.169425292587597 0.27771472974453631 0 0.169425292587597 0.27771472974453631 0 0.16881750302890189 0.26600806153212631 0 0.16025710434533 0.27309281199010838 0 0.154228756659956 0.26237374011589493 0 0.16881750302890189 0.26600806153212631 0 0.16025710434533 0.27309281199010838 0 0.15263622647705771 0.27396686122891101 0 0.15798420398973509 0.28234951176469703 0 0.16025710434533 0.27309281199010838 0 0.15798420398973509 0.28234951176469703 0 0.169425292587597 0.27771472974453631 0 0.16025710434533 0.27309281199010838 0 0.154228756659956 0.26237374011589493 0 0.15772465432775251 0.25110283052911042 0 0.16955028484120149 0.25400044680028072 0 0.154228756659956 0.26237374011589493 0 0.16881750302890189 0.26600806153212631 0 0.16955028484120149 0.25400044680028072 0 0.1804468726277432 0.24761129681614499 0 0.16955028484120149 0.25400044680028072 0 0.1795230853522479 0.25998084109328518 0 0.1795230853522479 0.25998084109328518 0 0.18685789544736289 0.25078693256644929 0 0.1916282564751686 0.27022195460616932 0 0.16881750302890189 0.26600806153212631 0 0.16955028484120149 0.25400044680028072 0 0.1795230853522479 0.25998084109328518 0 0.1804468726277432 0.24761129681614499 0 0.1795230853522479 0.25998084109328518 0 0.18685789544736289 0.25078693256644929 0 0.187719809250948 0.24611186070449331 0 0.18685789544736289 0.25078693256644929 0 0.1916282564751686 0.27022195460616932 0 0.187719809250948 0.24611186070449331 0 0.19721509596201389 0.25467587743472492 0 0.1916282564751686 0.27022195460616932 0 0.187719809250948 0.24611186070449331 0 0.1916282564751686 0.27022195460616932 0 0.19721509596201389 0.25467587743472492 0 0.1916282564751686 0.27022195460616932 0 0.20620746663167591 0.26348460676716451 0 0.19721509596201389 0.25467587743472492 0 0.20429698142111721 0.2501470961135025 0 0.20620746663167591 0.26348460676716451 0 0.1916282564751686 0.27022195460616932 0 0.20532734483730111 0.27942103697690518 0 0.20620746663167591 0.26348460676716451 0 0.20532734483730111 0.27942103697690518 0 0.20620746663167591 0.26348460676716451 0 0.2221003269749908 0.27195462893896338 0 0.20620746663167591 0.26348460676716451 0 0.21904009887537171 0.25628199394506529 0 0.2221003269749908 0.27195462893896338 0 0.20429698142111721 0.2501470961135025 0 0.20620746663167591 0.26348460676716451 0 0.21904009887537171 0.25628199394506529 0 0.23385028299092811 0.24121297171547751 0 0.21904009887537171 0.25628199394506529 0 0.23607108661280371 0.26109162133878772 0 0.21904009887537171 0.25628199394506529 0 0.2221003269749908 0.27195462893896338 0 0.23607108661280371 0.26109162133878772 0 0.2221003269749908 0.27195462893896338 0 0.23607108661280371 0.26109162133878772 0 0.2389629137609684 0.2846130902196588 0 0.2389629137609684 0.2846130902196588 0 0.25356354251313462 0.26595069759367879 0 0.23607108661280371 0.26109162133878772 0 0.2389629137609684 0.2846130902196588 0 0.25356354251313462 0.26595069759367879 0 0.23607108661280371 0.26109162133878772 0 0.25356354251313462 0.26595069759367879 0 0.25191630733126869 0.24920661226757701 0 0.23385028299092811 0.24121297171547751 0 0.23607108661280371 0.26109162133878772 0 0.25191630733126869 0.24920661226757701 0 0.2341078156037622 0.30485535591847668 0 0.25251902142887422 0.29489883967006508 0 0.25499603709520552 0.31033398653960542 0 0.2389629137609684 0.2846130902196588 0 0.2341078156037622 0.30485535591847668 0 0.25251902142887422 0.29489883967006508 0 0.2221003269749908 0.27195462893896338 0 0.2389629137609684 0.2846130902196588 0 0.22418865365612811 0.28809700268826588 0 0.2389629137609684 0.2846130902196588 0 0.22436228500880229 0.30327548284563888 0 0.2389629137609684 0.2846130902196588 0 0.22418865365612811 0.28809700268826588 0 0.22436228500880229 0.30327548284563888 0 0.2221003269749908 0.27195462893896338 0 0.22418865365612811 0.28809700268826588 0 0.21077273894930049 0.29519838567424261 0 0.22418865365612811 0.28809700268826588 0 0.22436228500880229 0.30327548284563888 0 0.21077273894930049 0.29519838567424261 0 0.2389629137609684 0.2846130902196588 0 0.22436228500880229 0.30327548284563888 0 0.2341078156037622 0.30485535591847668 0 0.22436228500880229 0.30327548284563888 0 0.2341078156037622 0.30485535591847668 0 0.22734196343228341 0.31574302587251879 0 0.22436228500880229 0.30327548284563888 0 0.21596974794844201 0.3152936262123005 0 0.22734196343228341 0.31574302587251879 0 0.22436228500880229 0.30327548284563888 0 0.21077273894930049 0.29519838567424261 0 0.21596974794844201 0.3152936262123005 0 0.21077273894930049 0.29519838567424261 0 0.1994451509236102 0.31844214240952162 0 0.21077273894930049 0.29519838567424261 0 0.1994451509236102 0.31844214240952162 0 0.21596974794844201 0.3152936262123005 0 0.2221003269749908 0.27195462893896338 0 0.21077273894930049 0.29519838567424261 0 0.20532734483730111 0.27942103697690518 0 0.21077273894930049 0.29519838567424261 0 0.19553670369938941 0.29433204850784539 0 0.20532734483730111 0.27942103697690518 0 0.2221003269749908 0.27195462893896338 0 0.21077273894930049 0.29519838567424261 0 0.1916282564751686 0.27022195460616932 0 0.19553670369938941 0.29433204850784539 0 0.18035808436305209 0.28367595670557288 0 0.1916282564751686 0.27022195460616932 0 0.19553670369938941 0.29433204850784539 0 0.1916282564751686 0.27022195460616932 0 0.20532734483730111 0.27942103697690518 0 0.19553670369938941 0.29433204850784539 0 0.21077273894930049 0.29519838567424261 0 0.19553670369938941 0.29433204850784539 0 0.1994451509236102 0.31844214240952162 0 0.1857380800218856 0.3101946128211775 0 0.19553670369938941 0.29433204850784539 0 0.1994451509236102 0.31844214240952162 0 0.19553670369938941 0.29433204850784539 0 0.1994451509236102 0.31844214240952162 0 0.1994451509236102 0.31844214240952162 0 0.19168635826626171 0.33436287404964388 0 0.18464265667118551 0.32217675768258541 0 0.1994451509236102 0.31844214240952162 0 0.19168635826626171 0.33436287404964388 0 0.1857380800218856 0.3101946128211775 0 0.1994451509236102 0.31844214240952162 0 0.18464265667118551 0.32217675768258541 0 0.19168635826626171 0.33436287404964388 0 0.18392756560891321 0.35028360568976619 0 0.1994451509236102 0.31844214240952162 0 0.19168635826626171 0.33436287404964388 0 0.20342038121273751 0.34296420195217148 0 0.19168635826626171 0.33436287404964388 0 0.20342038121273751 0.34296420195217148 0 0.19506063651208211 0.3529699952382333 0 0.1994451509236102 0.31844214240952162 0 0.20342038121273751 0.34296420195217148 0 0.1994451509236102 0.31844214240952162 0 0.20342038121273751 0.34296420195217148 0 0.21312643064864489 0.33022871731107578 0 0.20342038121273751 0.34296420195217148 0 0.21312643064864489 0.33022871731107578 0 0.22093337687049139 0.34497413856024212 0 0.1994451509236102 0.31844214240952162 0 0.21312643064864489 0.33022871731107578 0 0.21596974794844201 0.3152936262123005 0 0.21312643064864489 0.33022871731107578 0 0.21596974794844201 0.3152936262123005 0 0.22586349628794331 0.32946947742114302 0 0.21596974794844201 0.3152936262123005 0 0.22734196343228341 0.31574302587251879 0 0.22586349628794331 0.32946947742114302 0 0.22734196343228341 0.31574302587251879 0 0.22586349628794331 0.32946947742114302 0 0.24674238681088931 0.3286398127048844 0 0.21312643064864489 0.33022871731107578 0 0.22586349628794331 0.32946947742114302 0 0.22093337687049139 0.34497413856024212 0 0.22586349628794331 0.32946947742114302 0 0.2387375449762775 0.34721292339502191 0 0.22093337687049139 0.34497413856024212 0 0.24674238681088931 0.3286398127048844 0 0.2387375449762775 0.34721292339502191 0 0.25937695801801641 0.35242426949129207 0 0.22586349628794331 0.32946947742114302 0 0.24674238681088931 0.3286398127048844 0 0.2387375449762775 0.34721292339502191 0 0.2341078156037622 0.30485535591847668 0 0.22734196343228341 0.31574302587251879 0 0.24674238681088931 0.3286398127048844 0 0.2341078156037622 0.30485535591847668 0 0.24674238681088931 0.3286398127048844 0 0.25499603709520552 0.31033398653960542 0 0.2341078156037622 0.30485535591847668 0 0.24674238681088931 0.3286398127048844 0 0.2387375449762775 0.34721292339502191 0 0.2269594812077923 0.36498825988947398 0 0.25004482850601251 0.37417003650910702 0 0.2387375449762775 0.34721292339502191 0 0.25937695801801641 0.35242426949129207 0 0.25004482850601251 0.37417003650910702 0 0.2387375449762775 0.34721292339502191 0 0.22093337687049139 0.34497413856024212 0 0.2269594812077923 0.36498825988947398 0 0.22093337687049139 0.34497413856024212 0 0.2269594812077923 0.36498825988947398 0 0.20994774256310131 0.3559473632457717 0 0.2269594812077923 0.36498825988947398 0 0.21018188498289969 0.37041141079402012 0 0.21924101697293169 0.38008071570349722 0 0.2269594812077923 0.36498825988947398 0 0.21018188498289969 0.37041141079402012 0 0.20994774256310131 0.3559473632457717 0 0.21018188498289969 0.37041141079402012 0 0.20994774256310131 0.3559473632457717 0 0.20000180513099849 0.36405584316698397 0 0.20342038121273751 0.34296420195217148 0 0.22093337687049139 0.34497413856024212 0 0.20994774256310131 0.3559473632457717 0 0.19168635826626171 0.33436287404964388 0 0.19506063651208211 0.3529699952382333 0 0.18392756560891321 0.35028360568976619 0 0.20342038121273751 0.34296420195217148 0 0.20994774256310131 0.3559473632457717 0 0.19506063651208211 0.3529699952382333 0 0.20994774256310131 0.3559473632457717 0 0.19506063651208211 0.3529699952382333 0 0.20000180513099849 0.36405584316698397 0 0.20000180513099849 0.36405584316698397 0 0.18137996629048009 0.370206083325063 0 0.19707990164758929 0.37617564161942518 0 0.19506063651208211 0.3529699952382333 0 0.20000180513099849 0.36405584316698397 0 0.18137996629048009 0.370206083325063 0 0.21018188498289969 0.37041141079402012 0 0.20000180513099849 0.36405584316698397 0 0.19707990164758929 0.37617564161942518 0 0.18137996629048009 0.370206083325063 0 0.16732396918070891 0.37428345064546698 0 0.1753414352497735 0.37999325161561159 0 0.18137996629048009 0.370206083325063 0 0.16732396918070891 0.37428345064546698 0 0.1621634682197591 0.35762463483837248 0 0.16732396918070891 0.37428345064546698 0 0.1621634682197591 0.35762463483837248 0 0.15243674997175491 0.37430880753351858 0 0.18137996629048009 0.370206083325063 0 0.17090403088766901 0.34760521338760741 0 0.1621634682197591 0.35762463483837248 0 0.17090403088766901 0.34760521338760741 0 0.1621634682197591 0.35762463483837248 0 0.1528608304380947 0.33591888654788887 0 0.19506063651208211 0.3529699952382333 0 0.18137996629048009 0.370206083325063 0 0.18392756560891321 0.35028360568976619 0 0.18137996629048009 0.370206083325063 0 0.17090403088766901 0.34760521338760741 0 0.18392756560891321 0.35028360568976619 0 0.17090403088766901 0.34760521338760741 0 0.18392756560891321 0.35028360568976619 0 0.17262397884968009 0.33340683905260537 0 0.19168635826626171 0.33436287404964388 0 0.17262397884968009 0.33340683905260537 0 0.18464265667118551 0.32217675768258541 0 0.19168635826626171 0.33436287404964388 0 0.18392756560891321 0.35028360568976619 0 0.17262397884968009 0.33340683905260537 0 0.17262397884968009 0.33340683905260537 0 0.18464265667118551 0.32217675768258541 0 0.17371971529449001 0.31447732007997831 0 0.1857380800218856 0.3101946128211775 0 0.18464265667118551 0.32217675768258541 0 0.17371971529449001 0.31447732007997831 0 0.17262397884968009 0.33340683905260537 0 0.17371971529449001 0.31447732007997831 0 0.15957801344302991 0.31676338393705339 0 0.17090403088766901 0.34760521338760741 0 0.17262397884968009 0.33340683905260537 0 0.1528608304380947 0.33591888654788887 0 0.17262397884968009 0.33340683905260537 0 0.15957801344302991 0.31676338393705339 0 0.1528608304380947 0.33591888654788887 0 0.1528608304380947 0.33591888654788887 0 0.14389715296615771 0.31513931332742717 0 0.13775758730280899 0.34464872921492601 0 0.1528608304380947 0.33591888654788887 0 0.14389715296615771 0.31513931332742717 0 0.15957801344302991 0.31676338393705339 0 0.1528608304380947 0.33591888654788887 0 0.14389715296615771 0.31513931332742717 0 0.12478463900003051 0.31834353230628493 0 0.13163900220183661 0.3096327917829832 0 0.14389715296615771 0.31513931332742717 0 0.1227400750860225 0.33515185323383878 0 0.12478463900003051 0.31834353230628493 0 0.14389715296615771 0.31513931332742717 0 0.1227400750860225 0.33515185323383878 0 0.14389715296615771 0.31513931332742717 0 0.13775758730280899 0.34464872921492601 0 0.1228937766592843 0.35378028107363041 0 0.1227400750860225 0.33515185323383878 0 0.13775758730280899 0.34464872921492601 0 0.1228937766592843 0.35378028107363041 0 0.13775758730280899 0.34464872921492601 0 0.13961414348765769 0.36199437147248692 0 0.1228937766592843 0.35378028107363041 0 0.12874840841938939 0.37491499108935422 0 0.13961414348765769 0.36199437147248692 0 0.12874840841938939 0.37491499108935422 0 0.13961414348765769 0.36199437147248692 0 0.15243674997175491 0.37430880753351858 0 0.1621634682197591 0.35762463483837248 0 0.13961414348765769 0.36199437147248692 0 0.15243674997175491 0.37430880753351858 0 0.1621634682197591 0.35762463483837248 0 0.1528608304380947 0.33591888654788887 0 0.13775758730280899 0.34464872921492601 0 0.1621634682197591 0.35762463483837248 0 0.13775758730280899 0.34464872921492601 0 0.13961414348765769 0.36199437147248692 0 0.1437882913174531 0.39094229228056609 0 0.1372841585407342 0.40260431258846258 0 0.16220676888953181 0.40464864223273678 0 0.12874840841938939 0.37491499108935422 0 0.15243674997175491 0.37430880753351858 0 0.1437882913174531 0.39094229228056609 0 0.1437882913174531 0.39094229228056609 0 0.16529822617177711 0.38928447591476889 0 0.15243674997175491 0.37430880753351858 0 0.1437882913174531 0.39094229228056609 0 0.16529822617177711 0.38928447591476889 0 0.1222799321900277 0.39262055348189367 0 0.12874840841938939 0.37491499108935422 0 0.1437882913174531 0.39094229228056609 0 0.1222799321900277 0.39262055348189367 0 0.1437882913174531 0.39094229228056609 0 0.1222799321900277 0.39262055348189367 0 0.1437882913174531 0.39094229228056609 0 0.1372841585407342 0.40260431258846258 0 0.1227317005809329 0.40562766670787193 0 0.1222799321900277 0.39262055348189367 0 0.1372841585407342 0.40260431258846258 0 0.1227317005809329 0.40562766670787193 0 0.1372841585407342 0.40260431258846258 0 0.1363496347108536 0.41764060185587931 0 0.1227317005809329 0.40562766670787193 0 0.1363496347108536 0.41764060185587931 0 0.1138513721720477 0.42894489089561411 0 0.1363496347108536 0.41764060185587931 0 0.1138513721720477 0.42894489089561411 0 0.1363496347108536 0.41764060185587931 0 0.1317389345630566 0.44034454998539962 0 0.1363496347108536 0.41764060185587931 0 0.1537884457638469 0.43302408838470302 0 0.1317389345630566 0.44034454998539962 0 0.1363496347108536 0.41764060185587931 0 0.1537884457638469 0.43302408838470302 0 0.1363496347108536 0.41764060185587931 0 0.16220676888953181 0.40464864223273678 0 0.1363496347108536 0.41764060185587931 0 0.1537884457638469 0.43302408838470302 0 0.16220676888953181 0.40464864223273678 0 0.1372841585407342 0.40260431258846258 0 0.1363496347108536 0.41764060185587931 0 0.16220676888953181 0.40464864223273678 0 0.1537884457638469 0.43302408838470302 0 0.1693091209623078 0.42250197043899468 0 0.16220676888953181 0.40464864223273678 0 0.1693091209623078 0.42250197043899468 0 0.17612150775587521 0.4106352486917193 0 0.16220676888953181 0.40464864223273678 0 0.1537884457638469 0.43302408838470302 0 0.1693091209623078 0.42250197043899468 0 0.17103554889517389 0.43424175840152229 0 0.17103554889517389 0.43424175840152229 0 0.17983075582414079 0.42495162356552768 0 0.18443025573733721 0.4365214456651102 0 0.1693091209623078 0.42250197043899468 0 0.17103554889517389 0.43424175840152229 0 0.17983075582414079 0.42495162356552768 0 0.17983075582414079 0.42495162356552768 0 0.18734664337836329 0.41737809399924608 0 0.1914514770967467 0.42722245564662598 0 0.17983075582414079 0.42495162356552768 0 0.18443025573733721 0.4365214456651102 0 0.1914514770967467 0.42722245564662598 0 0.17612150775587521 0.4106352486917193 0 0.18734664337836329 0.41737809399924608 0 0.18806390306820961 0.3916566826095933 0 0.1693091209623078 0.42250197043899468 0 0.17983075582414079 0.42495162356552768 0 0.17612150775587521 0.4106352486917193 0 0.17983075582414079 0.42495162356552768 0 0.17612150775587521 0.4106352486917193 0 0.18734664337836329 0.41737809399924608 0 0.17612150775587521 0.4106352486917193 0 0.16220676888953181 0.40464864223273678 0 0.18806390306820961 0.3916566826095933 0 0.16220676888953181 0.40464864223273678 0 0.18806390306820961 0.3916566826095933 0 0.1437882913174531 0.39094229228056609 0 0.16220676888953181 0.40464864223273678 0 0.16529822617177711 0.38928447591476889 0 0.16220676888953181 0.40464864223273678 0 0.16529822617177711 0.38928447591476889 0 0.18806390306820961 0.3916566826095933 0 0.16732396918070891 0.37428345064546698 0 0.15243674997175491 0.37430880753351858 0 0.16529822617177711 0.38928447591476889 0 0.16732396918070891 0.37428345064546698 0 0.16529822617177711 0.38928447591476889 0 0.1753414352497735 0.37999325161561159 0 0.18137996629048009 0.370206083325063 0 0.18680816102610101 0.38762665954897041 0 0.16529822617177711 0.38928447591476889 0 0.18680816102610101 0.38762665954897041 0 0.18806390306820961 0.3916566826095933 0 0.16529822617177711 0.38928447591476889 0 0.18680816102610101 0.38762665954897041 0 0.18137996629048009 0.370206083325063 0 0.1753414352497735 0.37999325161561159 0 0.18680816102610101 0.38762665954897041 0 0.16529822617177711 0.38928447591476889 0 0.1753414352497735 0.37999325161561159 0 0.18680816102610101 0.38762665954897041 0 0.18680816102610101 0.38762665954897041 0 0.18806390306820961 0.3916566826095933 0 0.18806390306820961 0.3916566826095933 0 0.20680003534663419 0.38224268211081408 0 0.18137996629048009 0.370206083325063 0 0.18680816102610101 0.38762665954897041 0 0.19707990164758929 0.37617564161942518 0 0.19335983668554779 0.3871217079902996 0 0.18806390306820961 0.3916566826095933 0 0.20680003534663419 0.38224268211081408 0 0.18680816102610101 0.38762665954897041 0 0.19335983668554779 0.3871217079902996 0 0.19707990164758929 0.37617564161942518 0 0.18680816102610101 0.38762665954897041 0 0.19335983668554779 0.3871217079902996 0 0.18806390306820961 0.3916566826095933 0 0.18680816102610101 0.38762665954897041 0 0.19335983668554779 0.3871217079902996 0 0.19335983668554779 0.3871217079902996 0 0.19707990164758929 0.37617564161942518 0 0.20680003534663419 0.38224268211081408 0 0.18806390306820961 0.3916566826095933 0 0.20523195801271341 0.39931720960292111 0 0.1955974854435317 0.4158340292967373 0 0.18806390306820961 0.3916566826095933 0 0.20523195801271341 0.39931720960292111 0 0.20680003534663419 0.38224268211081408 0 0.18806390306820961 0.3916566826095933 0 0.1955974854435317 0.4158340292967373 0 0.20523195801271341 0.39931720960292111 0 0.21820906190716 0.39315049247634692 0 0.20680003534663419 0.38224268211081408 0 0.20523195801271341 0.39931720960292111 0 0.21820906190716 0.39315049247634692 0 0.2235449368783321 0.41060393605962281 0 0.21018188498289969 0.37041141079402012 0 0.19707990164758929 0.37617564161942518 0 0.20680003534663419 0.38224268211081408 0 0.21820906190716 0.39315049247634692 0 0.20680003534663419 0.38224268211081408 0 0.21924101697293169 0.38008071570349722 0 0.21018188498289969 0.37041141079402012 0 0.20680003534663419 0.38224268211081408 0 0.21924101697293169 0.38008071570349722 0 0.2269594812077923 0.36498825988947398 0 0.2339996019264011 0.38852855870250919 0 0.21924101697293169 0.38008071570349722 0 0.21820906190716 0.39315049247634692 0 0.2339996019264011 0.38852855870250919 0 0.21924101697293169 0.38008071570349722 0 0.21820906190716 0.39315049247634692 0 0.2339996019264011 0.38852855870250919 0 0.2235449368783321 0.41060393605962281 0 0.2339996019264011 0.38852855870250919 0 0.24895753347362559 0.38935250427750873 0 0.25149238831313242 0.40537384282250771 0 0.2339996019264011 0.38852855870250919 0 0.2235449368783321 0.41060393605962281 0 0.25149238831313242 0.40537384282250771 0 0.2339996019264011 0.38852855870250919 0 0.24895753347362559 0.38935250427750873 0 0.25004482850601251 0.37417003650910702 0 0.2269594812077923 0.36498825988947398 0 0.2339996019264011 0.38852855870250919 0 0.25004482850601251 0.37417003650910702 0 0.24724286848401511 0.43730588620179572 0 0.23207751412560629 0.42825955018272338 0 0.22717568757193801 0.44504098101581357 0 0.24724286848401511 0.43730588620179572 0 0.24414969820032961 0.41968706205485867 0 0.23207751412560629 0.42825955018272338 0 0.24724286848401511 0.43730588620179572 0 0.25240732138420802 0.43531519637741978 0 0.2235449368783321 0.41060393605962281 0 0.25149238831313242 0.40537384282250771 0 0.24414969820032961 0.41968706205485867 0 0.2235449368783321 0.41060393605962281 0 0.25149238831313242 0.40537384282250771 0 0.24414969820032961 0.41968706205485867 0 0.2235449368783321 0.41060393605962281 0 0.23207751412560629 0.42825955018272338 0 0.23207751412560629 0.42825955018272338 0 0.21738178200857899 0.43217476483214162 0 0.22717568757193801 0.44504098101581357 0 0.2235449368783321 0.41060393605962281 0 0.23207751412560629 0.42825955018272338 0 0.21738178200857899 0.43217476483214162 0 0.21738178200857899 0.43217476483214162 0 0.1955974854435317 0.4158340292967373 0 0.2013529960516974 0.43430505256328322 0 0.2235449368783321 0.41060393605962281 0 0.21738178200857899 0.43217476483214162 0 0.1955974854435317 0.4158340292967373 0 0.20523195801271341 0.39931720960292111 0 0.2235449368783321 0.41060393605962281 0 0.1955974854435317 0.4158340292967373 0 0.2235449368783321 0.41060393605962281 0 0.1955974854435317 0.4158340292967373 0 0.18734664337836329 0.41737809399924608 0 0.18806390306820961 0.3916566826095933 0 0.1955974854435317 0.4158340292967373 0 0.18734664337836329 0.41737809399924608 0 0.1955974854435317 0.4158340292967373 0 0.1914514770967467 0.42722245564662598 0 0.18734664337836329 0.41737809399924608 0 0.1955974854435317 0.4158340292967373 0 0.18443025573733721 0.4365214456651102 0 0.2013529960516974 0.43430505256328322 0 0.1914514770967467 0.42722245564662598 0 0.1955974854435317 0.4158340292967373 0 0.2013529960516974 0.43430505256328322 0 0.1955974854435317 0.4158340292967373 0 0.2013529960516974 0.43430505256328322 0 0.1914514770967467 0.42722245564662598 0 0.2013529960516974 0.43430505256328322 0 0.19067783845617001 0.44754177702281611 0 0.2071085066598605 0.45277607582982998 0 0.18443025573733721 0.4365214456651102 0 0.2013529960516974 0.43430505256328322 0 0.19067783845617001 0.44754177702281611 0 0.19067783845617001 0.44754177702281611 0 0.2071085066598605 0.45277607582982998 0 0.1835494383271204 0.46185715344019501 0 0.2071085066598605 0.45277607582982998 0 0.19716845636802571 0.46997523873954761 0 0.1835494383271204 0.46185715344019501 0 0.2071085066598605 0.45277607582982998 0 0.1835494383271204 0.46185715344019501 0 0.2071085066598605 0.45277607582982998 0 0.2129482677330139 0.47151748210928229 0 0.2071085066598605 0.45277607582982998 0 0.23009556810851589 0.45441168415554051 0 0.2129482677330139 0.47151748210928229 0 0.2071085066598605 0.45277607582982998 0 0.2129482677330139 0.47151748210928229 0 0.19716845636802571 0.46997523873954761 0 0.2071085066598605 0.45277607582982998 0 0.22717568757193801 0.44504098101581357 0 0.21738178200857899 0.43217476483214162 0 0.2013529960516974 0.43430505256328322 0 0.2071085066598605 0.45277607582982998 0 0.21738178200857899 0.43217476483214162 0 0.2071085066598605 0.45277607582982998 0 0.22717568757193801 0.44504098101581357 0 0.2013529960516974 0.43430505256328322 0 0.2071085066598605 0.45277607582982998 0 0.2071085066598605 0.45277607582982998 0 0.22717568757193801 0.44504098101581357 0 0.23009556810851589 0.45441168415554051 0 0.23009556810851589 0.45441168415554051 0 0.2129482677330139 0.47151748210928229 0 0.23009556810851589 0.45441168415554051 0 0.24021490469564979 0.47961038549362472 0 0.2129482677330139 0.47151748210928229 0 0.23009556810851589 0.45441168415554051 0 0.24765392865386529 0.46593673185467921 0 0.24021490469564979 0.47961038549362472 0 0.23009556810851589 0.45441168415554051 0 0.24765392865386529 0.46593673185467921 0 0.2483864631655168 0.45165419251179562 0 0.24724286848401511 0.43730588620179572 0 0.22717568757193801 0.44504098101581357 0 0.23009556810851589 0.45441168415554051 0 0.24724286848401511 0.43730588620179572 0 0.23009556810851589 0.45441168415554051 0 0.2483864631655168 0.45165419251179562 0 0.24724286848401511 0.43730588620179572 0 0.23009556810851589 0.45441168415554051 0 0.24724286848401511 0.43730588620179572 0 0.22717568757193801 0.44504098101581357 0 0.24021490469564979 0.47961038549362472 0 0.22182332741441829 0.50000000000000167 0 0.25148388954744788 0.5 0 0.24021490469564979 0.47961038549362472 0 0.25148388954744788 0.5 0 0.25828005954776762 0.48727387485427581 0 0.24765392865386529 0.46593673185467921 0 0.24021490469564979 0.47961038549362472 0 0.25911904573229272 0.47479080697793091 0 0.24021490469564979 0.47961038549362472 0 0.22182332741441829 0.50000000000000167 0 0.2129482677330139 0.47151748210928229 0 0.22182332741441829 0.50000000000000167 0 0.2129482677330139 0.47151748210928229 0 0.19867245636649919 0.48575874105464428 0 0.22182332741441829 0.50000000000000167 0 0.2129482677330139 0.47151748210928229 0 0.22182332741441829 0.50000000000000167 0 0.20310998620719981 0.5 0 0.19867245636649919 0.48575874105464428 0 0.2129482677330139 0.47151748210928229 0 0.19867245636649919 0.48575874105464428 0 0.19716845636802571 0.46997523873954761 0 0.19867245636649919 0.48575874105464428 0 0.1803369337241785 0.47779034284413852 0 0.2129482677330139 0.47151748210928229 0 0.19716845636802571 0.46997523873954761 0 0.19867245636649919 0.48575874105464428 0 0.19867245636649919 0.48575874105464428 0 0.18439664499998129 0.50000000000000311 0 0.18012483949379141 0.49009330276992918 0 0.20310998620719981 0.5 0 0.19867245636649919 0.48575874105464428 0 0.18439664499998129 0.50000000000000311 0 0.19867245636649919 0.48575874105464428 0 0.18439664499998129 0.50000000000000311 0 0.18012483949379141 0.49009330276992918 0 0.17355120717848371 0.49999999999999989 0 0.16366695519981431 0.48691742995086351 0 0.19867245636649919 0.48575874105464428 0 0.18012483949379141 0.49009330276992918 0 0.1803369337241785 0.47779034284413852 0 0.18012483949379141 0.49009330276992918 0 0.16366695519981431 0.48691742995086351 0 0.1803369337241785 0.47779034284413852 0 0.18439664499998129 0.50000000000000311 0 0.18012483949379141 0.49009330276992918 0 0.17355120717848371 0.49999999999999989 0 0.17355120717848371 0.49999999999999989 0 0.14683292688810981 0.49216617829117132 0 0.17355120717848371 0.49999999999999989 0 0.16366695519981431 0.48691742995086351 0 0.14683292688810981 0.49216617829117132 0 0.16366695519981431 0.48691742995086351 0 0.15999036999437899 0.47093823105055649 0 0.1803369337241785 0.47779034284413852 0 0.16366695519981431 0.48691742995086351 0 0.15999036999437899 0.47093823105055649 0 0.14683292688810981 0.49216617829117132 0 0.19716845636802571 0.46997523873954761 0 0.1803369337241785 0.47779034284413852 0 0.1835494383271204 0.46185715344019501 0 0.15999036999437899 0.47093823105055649 0 0.1803369337241785 0.47779034284413852 0 0.1835494383271204 0.46185715344019501 0 0.18443025573733721 0.4365214456651102 0 0.19067783845617001 0.44754177702281611 0 0.17122725681684139 0.44840757491352518 0 0.19067783845617001 0.44754177702281611 0 0.1835494383271204 0.46185715344019501 0 0.17122725681684139 0.44840757491352518 0 0.17103554889517389 0.43424175840152229 0 0.18443025573733721 0.4365214456651102 0 0.17122725681684139 0.44840757491352518 0 0.1537884457638469 0.43302408838470302 0 0.17122725681684139 0.44840757491352518 0 0.1537884457638469 0.43302408838470302 0 0.17103554889517389 0.43424175840152229 0 0.17122725681684139 0.44840757491352518 0 0.1537884457638469 0.43302408838470302 0 0.17122725681684139 0.44840757491352518 0 0.14795798415321029 0.45373169023503668 0 0.15999036999437899 0.47093823105055649 0 0.1835494383271204 0.46185715344019501 0 0.15999036999437899 0.47093823105055649 0 0.1835494383271204 0.46185715344019501 0 0.17122725681684139 0.44840757491352518 0 0.15999036999437899 0.47093823105055649 0 0.17122725681684139 0.44840757491352518 0 0.14795798415321029 0.45373169023503668 0 0.15999036999437899 0.47093823105055649 0 0.14795798415321029 0.45373169023503668 0 0.1399756814652966 0.47322436359136899 0 0.1537884457638469 0.43302408838470302 0 0.14795798415321029 0.45373169023503668 0 0.1317389345630566 0.44034454998539962 0 0.14795798415321029 0.45373169023503668 0 0.1317389345630566 0.44034454998539962 0 0.12755468689653379 0.46028893177219221 0 0.14795798415321029 0.45373169023503668 0 0.12755468689653379 0.46028893177219221 0 0.1399756814652966 0.47322436359136899 0 0.12011464659773601 0.48433235658234292 0 0.1399756814652966 0.47322436359136899 0 0.14683292688810981 0.49216617829117132 0 0.12011464659773601 0.48433235658234292 0 0.12755468689653379 0.46028893177219221 0 0.1399756814652966 0.47322436359136899 0 0.12011464659773601 0.48433235658234292 0 0.1456501555174973 0.5 0 0.14683292688810981 0.49216617829117132 0 0.12011464659773601 0.48433235658234292 0 0.14683292688810981 0.49216617829117132 0 0.1177491038565109 0.5 0 0.12011464659773601 0.48433235658234292 0 0.1456501555174973 0.5 0 0.17355120717848371 0.49999999999999989 0 0.1456501555174973 0.5 0 0.14683292688810981 0.49216617829117132 0 0.15999036999437899 0.47093823105055649 0 0.1399756814652966 0.47322436359136899 0 0.14683292688810981 0.49216617829117132 0 0.35247684016610892 0.48135519728094223 0 0.36629076891963169 0.4716758837031908 0 0.34808385012194532 0.46833474746431619 0 0.35247684016610892 0.48135519728094223 0 0.34808385012194532 0.46833474746431619 0 0.3409620632552825 0.47917774720394313 0 0.35247684016610892 0.48135519728094223 0 0.3462214490644917 0.48972220560128799 0 0.3409620632552825 0.47917774720394313 0 0.3462214490644917 0.48972220560128799 0 0.37012613807956618 0.5 0 0.34046557594653659 0.5 0 0.35247684016610892 0.48135519728094223 0 0.3462214490644917 0.48972220560128799 0 0.37012613807956618 0.5 0 0.35247684016610892 0.48135519728094223 0 0.37012613807956618 0.5 0 0.36629076891963169 0.4716758837031908 0 0.37012613807956618 0.5 0 0.36629076891963169 0.4716758837031908 0 0.38608907541949888 0.47640493513650201 0 0.36629076891963169 0.4716758837031908 0 0.36042274455222723 0.45828301314078967 0 0.37601462365556942 0.45725266909953982 0 0.36042274455222723 0.45828301314078967 0 0.37023049558979693 0.44243966271604079 0 0.37601462365556942 0.45725266909953982 0 0.36042274455222723 0.45828301314078967 0 0.37023049558979693 0.44243966271604079 0 0.3447891183557612 0.45387917257366528 0 0.37023049558979693 0.44243966271604079 0 0.3447891183557612 0.45387917257366528 0 0.37023049558979693 0.44243966271604079 0 0.3447891183557612 0.45387917257366528 0 0.34683892198368271 0.43497585396448762 0 0.36042274455222723 0.45828301314078967 0 0.3447891183557612 0.45387917257366528 0 0.34808385012194532 0.46833474746431619 0 0.36629076891963169 0.4716758837031908 0 0.36042274455222723 0.45828301314078967 0 0.34808385012194532 0.46833474746431619 0 0.3447891183557612 0.45387917257366528 0 0.34808385012194532 0.46833474746431619 0 0.33183011984920308 0.46912474326968551 0 0.3447891183557612 0.45387917257366528 0 0.31934774112172409 0.46531868243128682 0 0.3447891183557612 0.45387917257366528 0 0.31934774112172409 0.46531868243128682 0 0.33183011984920308 0.46912474326968551 0 0.3447891183557612 0.45387917257366528 0 0.32242768817354062 0.44789604896168522 0 0.31934774112172409 0.46531868243128682 0 0.3447891183557612 0.45387917257366528 0 0.33430974355392468 0.44085677769708592 0 0.34683892198368271 0.43497585396448762 0 0.3447891183557612 0.45387917257366528 0 0.33430974355392468 0.44085677769708592 0 0.32242768817354062 0.44789604896168522 0 0.32242768817354062 0.44789604896168522 0 0.31934774112172409 0.46531868243128682 0 0.30626697613209891 0.4406942702111516 0 0.32242768817354062 0.44789604896168522 0 0.3164422171315201 0.4402182607629207 0 0.30626697613209891 0.4406942702111516 0 0.31934774112172409 0.46531868243128682 0 0.30626697613209891 0.4406942702111516 0 0.33430974355392468 0.44085677769708592 0 0.32242768817354062 0.44789604896168522 0 0.32436539409019788 0.43574810172012018 0 0.32242768817354062 0.44789604896168522 0 0.3164422171315201 0.4402182607629207 0 0.32436539409019788 0.43574810172012018 0 0.31934774112172409 0.46531868243128682 0 0.31753801155939421 0.46613241271709538 0 0.30626697613209891 0.4406942702111516 0 0.31934774112172409 0.46531868243128682 0 0.33183011984920308 0.46912474326968551 0 0.31934774112172409 0.46531868243128682 0 0.31753801155939421 0.46613241271709538 0 0.31704135239685971 0.47479280848595617 0 0.31934774112172409 0.46531868243128682 0 0.31753801155939421 0.46613241271709538 0 0.31934774112172409 0.46531868243128682 0 0.33220994824648092 0.4895316616073454 0 0.31934774112172409 0.46531868243128682 0 0.33183011984920308 0.46912474326968551 0 0.33220994824648092 0.4895316616073454 0 0.31934774112172409 0.46531868243128682 0 0.31704135239685971 0.47479280848595617 0 0.33220994824648092 0.4895316616073454 0 0.31704135239685971 0.47479280848595617 0 0.33220994824648092 0.4895316616073454 0 0.31601690553499961 0.48723098345619159 0 0.31704135239685971 0.47479280848595617 0 0.31601690553499961 0.48723098345619159 0 0.30657958094704779 0.48509405485225621 0 0.34808385012194532 0.46833474746431619 0 0.33183011984920308 0.46912474326968551 0 0.3409620632552825 0.47917774720394313 0 0.33183011984920308 0.46912474326968551 0 0.3409620632552825 0.47917774720394313 0 0.33220994824648092 0.4895316616073454 0 0.3462214490644917 0.48972220560128799 0 0.34046557594653659 0.5 0 0.33220994824648092 0.4895316616073454 0 0.3462214490644917 0.48972220560128799 0 0.3409620632552825 0.47917774720394313 0 0.33220994824648092 0.4895316616073454 0 0.34046557594653659 0.5 0 0.33220994824648092 0.4895316616073454 0 0.310805013813507 0.5 0 0.33220994824648092 0.4895316616073454 0 0.31601690553499961 0.48723098345619159 0 0.310805013813507 0.5 0 0.31601690553499961 0.48723098345619159 0 0.310805013813507 0.5 0 0.30657958094704779 0.48509405485225621 0 0.310805013813507 0.5 0 0.30657958094704779 0.48509405485225621 0 0.2955866676897117 0.489780963721411 0 0.31753801155939421 0.46613241271709538 0 0.29858451182795492 0.4746547008393045 0 0.31704135239685971 0.47479280848595617 0 0.30657958094704779 0.48509405485225621 0 0.29858451182795492 0.4746547008393045 0 0.31753801155939421 0.46613241271709538 0 0.31704135239685971 0.47479280848595617 0 0.29858451182795492 0.4746547008393045 0 0.30657958094704779 0.48509405485225621 0 0.29858451182795492 0.4746547008393045 0 0.2955866676897117 0.489780963721411 0 0.29858451182795492 0.4746547008393045 0 0.28685719333010651 0.48788382429016008 0 0.27963101209651592 0.48317698896151418 0 0.29858451182795492 0.4746547008393045 0 0.28176766377044671 0.47825995933455823 0 0.27963101209651592 0.48317698896151418 0 0.29858451182795492 0.4746547008393045 0 0.27963101209651592 0.48317698896151418 0 0.29858451182795492 0.4746547008393045 0 0.28176766377044671 0.47825995933455823 0 0.29302416088025218 0.46099996179653391 0 0.28176766377044671 0.47825995933455823 0 0.29302416088025218 0.46099996179653391 0 0.29858451182795492 0.4746547008393045 0 0.2955866676897117 0.489780963721411 0 0.28685719333010651 0.48788382429016008 0 0.310805013813507 0.5 0 0.2955866676897117 0.489780963721411 0 0.28114445168047741 0.5 0 0.28685719333010651 0.48788382429016008 0 0.27933932335587208 0.49180646792857102 0 0.27963101209651592 0.48317698896151418 0 0.28685719333010651 0.48788382429016008 0 0.28114445168047741 0.5 0 0.27933932335587208 0.49180646792857102 0 0.2955866676897117 0.489780963721411 0 0.28685719333010651 0.48788382429016008 0 0.28114445168047741 0.5 0 0.28176766377044671 0.47825995933455823 0 0.27051116666064112 0.49551995687258249 0 0.26842771741161398 0.48157839008493719 0 0.28176766377044671 0.47825995933455823 0 0.27051116666064112 0.49551995687258249 0 0.28176766377044671 0.47825995933455823 0 0.27051116666064112 0.49551995687258249 0 0.27963101209651592 0.48317698896151418 0 0.28114445168047741 0.5 0 0.27051116666064112 0.49551995687258249 0 0.27933932335587208 0.49180646792857102 0 0.28114445168047741 0.5 0 0.27051116666064112 0.49551995687258249 0 0.25148388954744788 0.5 0 0.27051116666064112 0.49551995687258249 0 0.26842771741161398 0.48157839008493719 0 0.25828005954776762 0.48727387485427581 0 0.27051116666064112 0.49551995687258249 0 0.27933932335587208 0.49180646792857102 0 0.27963101209651592 0.48317698896151418 0 0.28176766377044671 0.47825995933455823 0 0.27258176991281541 0.47152939632597629 0 0.26842771741161398 0.48157839008493719 0 0.28176766377044671 0.47825995933455823 0 0.27258176991281541 0.47152939632597629 0 0.27951972664659969 0.4667790986528082 0 0.27258176991281541 0.47152939632597629 0 0.26842771741161398 0.48157839008493719 0 0.25911904573229272 0.47479080697793091 0 0.26842771741161398 0.48157839008493719 0 0.25911904573229272 0.47479080697793091 0 0.25828005954776762 0.48727387485427581 0 0.24021490469564979 0.47961038549362472 0 0.25911904573229272 0.47479080697793091 0 0.25828005954776762 0.48727387485427581 0 0.27051116666064112 0.49551995687258249 0 0.25148388954744788 0.5 0 0.25828005954776762 0.48727387485427581 0 0.2483864631655168 0.45165419251179562 0 0.25837369721546982 0.4426692750196789 0 0.2707053120228845 0.45632707715416471 0 0.25837369721546982 0.4426692750196789 0 0.27051154351642132 0.43814050273699728 0 0.26098867471977433 0.43727279513590289 0 0.24724286848401511 0.43730588620179572 0 0.2483864631655168 0.45165419251179562 0 0.25837369721546982 0.4426692750196789 0 0.24724286848401511 0.43730588620179572 0 0.25837369721546982 0.4426692750196789 0 0.25240732138420802 0.43531519637741978 0 0.25837369721546982 0.4426692750196789 0 0.25240732138420802 0.43531519637741978 0 0.26098867471977433 0.43727279513590289 0 0.2483864631655168 0.45165419251179562 0 0.2707053120228845 0.45632707715416471 0 0.24765392865386529 0.46593673185467921 0 0.25911904573229272 0.47479080697793091 0 0.2707053120228845 0.45632707715416471 0 0.24765392865386529 0.46593673185467921 0 0.2483864631655168 0.45165419251179562 0 0.2707053120228845 0.45632707715416471 0 0.2707053120228845 0.45632707715416471 0 0.27951972664659969 0.4667790986528082 0 0.29302416088025218 0.46099996179653391 0 0.27258176991281541 0.47152939632597629 0 0.25911904573229272 0.47479080697793091 0 0.2707053120228845 0.45632707715416471 0 0.27258176991281541 0.47152939632597629 0 0.2707053120228845 0.45632707715416471 0 0.27951972664659969 0.4667790986528082 0 0.2707053120228845 0.45632707715416471 0 0.27051154351642132 0.43814050273699728 0 0.28379226692031312 0.44255647938766612 0 0.25837369721546982 0.4426692750196789 0 0.2707053120228845 0.45632707715416471 0 0.27051154351642132 0.43814050273699728 0 0.28379226692031312 0.44255647938766612 0 0.29636142725062231 0.44344824904590602 0 0.29302416088025218 0.46099996179653391 0 0.28379226692031312 0.44255647938766612 0 0.29636142725062231 0.44344824904590602 0 0.29390832305854531 0.43417925322187051 0 0.28176766377044671 0.47825995933455823 0 0.27951972664659969 0.4667790986528082 0 0.29302416088025218 0.46099996179653391 0 0.2707053120228845 0.45632707715416471 0 0.29302416088025218 0.46099996179653391 0 0.2707053120228845 0.45632707715416471 0 0.28379226692031312 0.44255647938766612 0 0.29302416088025218 0.46099996179653391 0 0.31753801155939421 0.46613241271709538 0 0.29858451182795492 0.4746547008393045 0 0.29302416088025218 0.46099996179653391 0 0.31753801155939421 0.46613241271709538 0 0.29302416088025218 0.46099996179653391 0 0.30626697613209891 0.4406942702111516 0 0.31753801155939421 0.46613241271709538 0 0.29302416088025218 0.46099996179653391 0 0.29302416088025218 0.46099996179653391 0 0.30626697613209891 0.4406942702111516 0 0.29636142725062231 0.44344824904590602 0 0.29302416088025218 0.46099996179653391 0 0.30626697613209891 0.4406942702111516 0 0.29636142725062231 0.44344824904590602 0 0.30515469468720058 0.43860041126439592 0 0.29390832305854531 0.43417925322187051 0 0.29636142725062231 0.44344824904590602 0 0.30515469468720058 0.43860041126439592 0 0.30626697613209891 0.4406942702111516 0 0.3164422171315201 0.4402182607629207 0 0.30626697613209891 0.4406942702111516 0 0.30932145399283378 0.43601072791181339 0 0.30515469468720058 0.43860041126439592 0 0.30626697613209891 0.4406942702111516 0 0.30932145399283378 0.43601072791181339 0 0.30626697613209891 0.4406942702111516 0 0.30932145399283378 0.43601072791181339 0 0.30515469468720058 0.43860041126439592 0 0.30626697613209891 0.4406942702111516 0 0.30515469468720058 0.43860041126439592 0 0.30932145399283378 0.43601072791181339 0 0.30727117653343111 0.4267359414930636 0 0.30515469468720058 0.43860041126439592 0 0.29490039755973552 0.41929679716425189 0 0.30515469468720058 0.43860041126439592 0 0.29490039755973552 0.41929679716425189 0 0.29390832305854531 0.43417925322187051 0 0.30515469468720058 0.43860041126439592 0 0.30727117653343111 0.4267359414930636 0 0.29490039755973552 0.41929679716425189 0 0.30515469468720058 0.43860041126439592 0 0.30932145399283378 0.43601072791181339 0 0.30932145399283378 0.43601072791181339 0 0.30727117653343111 0.4267359414930636 0 0.31652364362590552 0.42496734788669671 0 0.30727117653343111 0.4267359414930636 0 0.31055221728225407 0.41453781267277118 0 0.31652364362590552 0.42496734788669671 0 0.30727117653343111 0.4267359414930636 0 0.31055221728225407 0.41453781267277118 0 0.29490039755973552 0.41929679716425189 0 0.31055221728225407 0.41453781267277118 0 0.29490039755973552 0.41929679716425189 0 0.3027371753967697 0.40187807462993708 0 0.29490039755973552 0.41929679716425189 0 0.28464610043227068 0.3999931830641078 0 0.29490039755973552 0.41929679716425189 0 0.28464610043227068 0.3999931830641078 0 0.3027371753967697 0.40187807462993708 0 0.29490039755973552 0.41929679716425189 0 0.28155236346502521 0.4164755774242338 0 0.28464610043227068 0.3999931830641078 0 0.29490039755973552 0.41929679716425189 0 0.28155236346502521 0.4164755774242338 0 0.28071847140995082 0.42796279483562261 0 0.29490039755973552 0.41929679716425189 0 0.29390832305854531 0.43417925322187051 0 0.28071847140995082 0.42796279483562261 0 0.28379226692031312 0.44255647938766612 0 0.29390832305854531 0.43417925322187051 0 0.28071847140995082 0.42796279483562261 0 0.27051154351642132 0.43814050273699728 0 0.26594448445814362 0.41864953463295251 0 0.26098867471977433 0.43727279513590289 0 0.27051154351642132 0.43814050273699728 0 0.28071847140995082 0.42796279483562261 0 0.26594448445814362 0.41864953463295251 0 0.27051154351642132 0.43814050273699728 0 0.28379226692031312 0.44255647938766612 0 0.28071847140995082 0.42796279483562261 0 0.26594448445814362 0.41864953463295251 0 0.25149238831313242 0.40537384282250771 0 0.27943983974793268 0.40014374958539273 0 0.26594448445814362 0.41864953463295251 0 0.27943983974793268 0.40014374958539273 0 0.28464610043227068 0.3999931830641078 0 0.28155236346502521 0.4164755774242338 0 0.26594448445814362 0.41864953463295251 0 0.28464610043227068 0.3999931830641078 0 0.28155236346502521 0.4164755774242338 0 0.28071847140995082 0.42796279483562261 0 0.26594448445814362 0.41864953463295251 0 0.26594448445814362 0.41864953463295251 0 0.28464610043227068 0.3999931830641078 0 0.24414969820032961 0.41968706205485867 0 0.26594448445814362 0.41864953463295251 0 0.25149238831313242 0.40537384282250771 0 0.24724286848401511 0.43730588620179572 0 0.26594448445814362 0.41864953463295251 0 0.25240732138420802 0.43531519637741978 0 0.24724286848401511 0.43730588620179572 0 0.24414969820032961 0.41968706205485867 0 0.26594448445814362 0.41864953463295251 0 0.26594448445814362 0.41864953463295251 0 0.25240732138420802 0.43531519637741978 0 0.26098867471977433 0.43727279513590289 0 0.24724286848401511 0.43730588620179572 0 0.26594448445814362 0.41864953463295251 0 0.26029331514895648 0.38933757907591121 0 0.27201152922514349 0.37620872627770002 0 0.25004482850601251 0.37417003650910702 0 0.24895753347362559 0.38935250427750873 0 0.26029331514895648 0.38933757907591121 0 0.25004482850601251 0.37417003650910702 0 0.26029331514895648 0.38933757907591121 0 0.25149238831313242 0.40537384282250771 0 0.27943983974793268 0.40014374958539273 0 0.25149238831313242 0.40537384282250771 0 0.27943983974793268 0.40014374958539273 0 0.24895753347362559 0.38935250427750873 0 0.26029331514895648 0.38933757907591121 0 0.25149238831313242 0.40537384282250771 0 0.27943983974793268 0.40014374958539273 0 0.27201152922514349 0.37620872627770002 0 0.28464610043227068 0.3999931830641078 0 0.26029331514895648 0.38933757907591121 0 0.27943983974793268 0.40014374958539273 0 0.27201152922514349 0.37620872627770002 0 0.27201152922514349 0.37620872627770002 0 0.28464610043227068 0.3999931830641078 0 0.27201152922514349 0.37620872627770002 0 0.29667615895540123 0.38799224146035582 0 0.28464610043227068 0.3999931830641078 0 0.27201152922514349 0.37620872627770002 0 0.29667615895540123 0.38799224146035582 0 0.29379146728033478 0.37241021500447918 0 0.29667615895540123 0.38799224146035582 0 0.28464610043227068 0.3999931830641078 0 0.3027371753967697 0.40187807462993708 0 0.29667615895540123 0.38799224146035582 0 0.28464610043227068 0.3999931830641078 0 0.31055221728225407 0.41453781267277118 0 0.3027371753967697 0.40187807462993708 0 0.31956135436067851 0.39952235043662437 0 0.3027371753967697 0.40187807462993708 0 0.30991937728163271 0.38948227525793522 0 0.31956135436067851 0.39952235043662437 0 0.29667615895540123 0.38799224146035582 0 0.3027371753967697 0.40187807462993708 0 0.30991937728163271 0.38948227525793522 0 0.29667615895540123 0.38799224146035582 0 0.30870621747853161 0.37599129985660368 0 0.29667615895540123 0.38799224146035582 0 0.30870621747853161 0.37599129985660368 0 0.29379146728033478 0.37241021500447918 0 0.29667615895540123 0.38799224146035582 0 0.30991937728163271 0.38948227525793522 0 0.30870621747853161 0.37599129985660368 0 0.30991937728163271 0.38948227525793522 0 0.32191598021678253 0.38202740990615491 0 0.31956135436067851 0.39952235043662437 0 0.32191598021678253 0.38202740990615491 0 0.33790673600516452 0.3878871159059491 0 0.31956135436067851 0.39952235043662437 0 0.30991937728163271 0.38948227525793522 0 0.30870621747853161 0.37599129985660368 0 0.32191598021678253 0.38202740990615491 0 0.33790673600516452 0.3878871159059491 0 0.34772436780185922 0.37711320982869923 0 0.33453775718698869 0.36832022575058282 0 0.32191598021678253 0.38202740990615491 0 0.33790673600516452 0.3878871159059491 0 0.33453775718698869 0.36832022575058282 0 0.33790673600516452 0.3878871159059491 0 0.33599144557606297 0.40514754333622249 0 0.31956135436067851 0.39952235043662437 0 0.33790673600516452 0.3878871159059491 0 0.33599144557606297 0.40514754333622249 0 0.35436964554151712 0.40801281798695099 0 0.33599144557606297 0.40514754333622249 0 0.31956135436067851 0.39952235043662437 0 0.32287553722626061 0.41329068756941723 0 0.31055221728225407 0.41453781267277118 0 0.31956135436067851 0.39952235043662437 0 0.32287553722626061 0.41329068756941723 0 0.31055221728225407 0.41453781267277118 0 0.32287553722626061 0.41329068756941723 0 0.31652364362590552 0.42496734788669671 0 0.32287553722626061 0.41329068756941723 0 0.31652364362590552 0.42496734788669671 0 0.33184554976717562 0.42201177294938252 0 0.30932145399283378 0.43601072791181339 0 0.33184554976717562 0.42201177294938252 0 0.30932145399283378 0.43601072791181339 0 0.32436539409019788 0.43574810172012018 0 0.33184554976717562 0.42201177294938252 0 0.30932145399283378 0.43601072791181339 0 0.31652364362590552 0.42496734788669671 0 0.33184554976717562 0.42201177294938252 0 0.3164422171315201 0.4402182607629207 0 0.30932145399283378 0.43601072791181339 0 0.32436539409019788 0.43574810172012018 0 0.30932145399283378 0.43601072791181339 0 0.31652364362590552 0.42496734788669671 0 0.33430974355392468 0.44085677769708592 0 0.32436539409019788 0.43574810172012018 0 0.33433990234874522 0.43339812658276899 0 0.32436539409019788 0.43574810172012018 0 0.33433990234874522 0.43339812658276899 0 0.33184554976717562 0.42201177294938252 0 0.33430974355392468 0.44085677769708592 0 0.33433990234874522 0.43339812658276899 0 0.34683892198368271 0.43497585396448762 0 0.33433990234874522 0.43339812658276899 0 0.33184554976717562 0.42201177294938252 0 0.34683892198368271 0.43497585396448762 0 0.33599144557606297 0.40514754333622249 0 0.32287553722626061 0.41329068756941723 0 0.33184554976717562 0.42201177294938252 0 0.33599144557606297 0.40514754333622249 0 0.33184554976717562 0.42201177294938252 0 0.35436964554151712 0.40801281798695099 0 0.33184554976717562 0.42201177294938252 0 0.35436964554151712 0.40801281798695099 0 0.33184554976717562 0.42201177294938252 0 0.35436964554151712 0.40801281798695099 0 0.35270801134429902 0.42331693779614088 0 0.35436964554151712 0.40801281798695099 0 0.35270801134429902 0.42331693779614088 0 0.36576493885511052 0.4178029688051923 0 0.33184554976717562 0.42201177294938252 0 0.34683892198368271 0.43497585396448762 0 0.35270801134429902 0.42331693779614088 0 0.34683892198368271 0.43497585396448762 0 0.35270801134429902 0.42331693779614088 0 0.36494729189279101 0.43181380661286789 0 0.37023049558979693 0.44243966271604079 0 0.34683892198368271 0.43497585396448762 0 0.36494729189279101 0.43181380661286789 0 0.35270801134429902 0.42331693779614088 0 0.36494729189279101 0.43181380661286789 0 0.36576493885511052 0.4178029688051923 0 0.36494729189279101 0.43181380661286789 0 0.36576493885511052 0.4178029688051923 0 0.37795549308522902 0.41628895699810292 0 0.37023049558979693 0.44243966271604079 0 0.36494729189279101 0.43181380661286789 0 0.38040430343443521 0.43193634251772789 0 0.35436964554151712 0.40801281798695099 0 0.36576493885511052 0.4178029688051923 0 0.3730999423012219 0.40954342286834639 0 0.36576493885511052 0.4178029688051923 0 0.3730999423012219 0.40954342286834639 0 0.37795549308522902 0.41628895699810292 0 0.35436964554151712 0.40801281798695099 0 0.3730999423012219 0.40954342286834639 0 0.37689374131585868 0.39401386302451952 0 0.35436964554151712 0.40801281798695099 0 0.35919616870876131 0.3894606022172864 0 0.37689374131585868 0.39401386302451952 0 0.35436964554151712 0.40801281798695099 0 0.37689374131585868 0.39401386302451952 0 0.35919616870876131 0.3894606022172864 0 0.37532807730040257 0.38316169753815299 0 0.37689374131585868 0.39401386302451952 0 0.35919616870876131 0.3894606022172864 0 0.35925680930652232 0.36278489544097858 0 0.37532807730040257 0.38316169753815299 0 0.34772436780185922 0.37711320982869923 0 0.35919616870876131 0.3894606022172864 0 0.35925680930652232 0.36278489544097858 0 0.33790673600516452 0.3878871159059491 0 0.34772436780185922 0.37711320982869923 0 0.35919616870876131 0.3894606022172864 0 0.33790673600516452 0.3878871159059491 0 0.35436964554151712 0.40801281798695099 0 0.35919616870876131 0.3894606022172864 0 0.35925680930652232 0.36278489544097858 0 0.3431855413126419 0.34240809334380412 0 0.35925680930652232 0.36278489544097858 0 0.3431855413126419 0.34240809334380412 0 0.33245135870072939 0.35324884091370568 0 0.3572965491905824 0.34401749644765389 0 0.35925680930652232 0.36278489544097858 0 0.3431855413126419 0.34240809334380412 0 0.34772436780185922 0.37711320982869923 0 0.35925680930652232 0.36278489544097858 0 0.33453775718698869 0.36832022575058282 0 0.35925680930652232 0.36278489544097858 0 0.37302365365364959 0.35074164613539471 0 0.37579738303020882 0.36700132473203578 0 0.35925680930652232 0.36278489544097858 0 0.37532807730040257 0.38316169753815299 0 0.35925680930652232 0.36278489544097858 0 0.37579738303020882 0.36700132473203578 0 0.37532807730040257 0.38316169753815299 0 0.3572965491905824 0.34401749644765389 0 0.37302365365364959 0.35074164613539471 0 0.36472776161066189 0.33815375545378978 0 0.3572965491905824 0.34401749644765389 0 0.35925680930652232 0.36278489544097858 0 0.37302365365364959 0.35074164613539471 0 0.37302365365364959 0.35074164613539471 0 0.36472776161066189 0.33815375545378978 0 0.37581922482641023 0.33652832221029488 0 0.36472776161066189 0.33815375545378978 0 0.36652404672022781 0.32498938145526818 0 0.37581922482641023 0.33652832221029488 0 0.36472776161066189 0.33815375545378978 0 0.36652404672022781 0.32498938145526818 0 0.35849339535265401 0.33005623103862841 0 0.3572965491905824 0.34401749644765389 0 0.36472776161066189 0.33815375545378978 0 0.35849339535265401 0.33005623103862841 0 0.36652404672022781 0.32498938145526818 0 0.35581066202774619 0.30787794864699841 0 0.37260377894228941 0.31021247519256018 0 0.36652404672022781 0.32498938145526818 0 0.35849339535265401 0.33005623103862841 0 0.35581066202774619 0.30787794864699841 0 0.36652404672022781 0.32498938145526818 0 0.37260377894228941 0.31021247519256018 0 0.37730394880888052 0.32282274240207831 0 0.36652404672022781 0.32498938145526818 0 0.37730394880888052 0.32282274240207831 0 0.37581922482641023 0.33652832221029488 0 0.3481079572140523 0.33524257318942569 0 0.35581066202774619 0.30787794864699841 0 0.3481079572140523 0.33524257318942569 0 0.34111493155921779 0.31747950799532282 0 0.35581066202774619 0.30787794864699841 0 0.35849339535265401 0.33005623103862841 0 0.3481079572140523 0.33524257318942569 0 0.35581066202774619 0.30787794864699841 0 0.3572965491905824 0.34401749644765389 0 0.35849339535265401 0.33005623103862841 0 0.3481079572140523 0.33524257318942569 0 0.3572965491905824 0.34401749644765389 0 0.3481079572140523 0.33524257318942569 0 0.3431855413126419 0.34240809334380412 0 0.3481079572140523 0.33524257318942569 0 0.3431855413126419 0.34240809334380412 0 0.32711427331876147 0.32203129124662971 0 0.3431855413126419 0.34240809334380412 0 0.32711427331876147 0.32203129124662971 0 0.32516140106458868 0.33857662798360483 0 0.3431855413126419 0.34240809334380412 0 0.32711427331876147 0.32203129124662971 0 0.34111493155921779 0.31747950799532282 0 0.32711427331876147 0.32203129124662971 0 0.33342683367631232 0.30476621889823169 0 0.3481079572140523 0.33524257318942569 0 0.34111493155921779 0.31747950799532282 0 0.32711427331876147 0.32203129124662971 0 0.32711427331876147 0.32203129124662971 0 0.30826630799796811 0.32835504542850491 0 0.3110430053248795 0.30165448914945658 0 0.32516140106458868 0.33857662798360483 0 0.3150827727083641 0.34804672426057698 0 0.30826630799796811 0.32835504542850491 0 0.32711427331876147 0.32203129124662971 0 0.32516140106458868 0.33857662798360483 0 0.30826630799796811 0.32835504542850491 0 0.32516140106458868 0.33857662798360483 0 0.3150827727083641 0.34804672426057698 0 0.33245135870072939 0.35324884091370568 0 0.3150827727083641 0.34804672426057698 0 0.33245135870072939 0.35324884091370568 0 0.31944138740024491 0.36549279456248751 0 0.3150827727083641 0.34804672426057698 0 0.31944138740024491 0.36549279456248751 0 0.3055002461498304 0.3606268844613657 0 0.3431855413126419 0.34240809334380412 0 0.32516140106458868 0.33857662798360483 0 0.33245135870072939 0.35324884091370568 0 0.35925680930652232 0.36278489544097858 0 0.33245135870072939 0.35324884091370568 0 0.33453775718698869 0.36832022575058282 0 0.33245135870072939 0.35324884091370568 0 0.33453775718698869 0.36832022575058282 0 0.31944138740024491 0.36549279456248751 0 0.32191598021678253 0.38202740990615491 0 0.33453775718698869 0.36832022575058282 0 0.31944138740024491 0.36549279456248751 0 0.30870621747853161 0.37599129985660368 0 0.32191598021678253 0.38202740990615491 0 0.31944138740024491 0.36549279456248751 0 0.30870621747853161 0.37599129985660368 0 0.31944138740024491 0.36549279456248751 0 0.3055002461498304 0.3606268844613657 0 0.30870621747853161 0.37599129985660368 0 0.3055002461498304 0.3606268844613657 0 0.29379146728033478 0.37241021500447918 0 0.3150827727083641 0.34804672426057698 0 0.3055002461498304 0.3606268844613657 0 0.29938257928849982 0.3431160598511987 0 0.3055002461498304 0.3606268844613657 0 0.29092895157386889 0.35723497281932359 0 0.29938257928849982 0.3431160598511987 0 0.29092895157386889 0.35723497281932359 0 0.27634523968582098 0.34700977391114629 0 0.29938257928849982 0.3431160598511987 0 0.27201152922514349 0.37620872627770002 0 0.29092895157386889 0.35723497281932359 0 0.29379146728033478 0.37241021500447918 0 0.3055002461498304 0.3606268844613657 0 0.29092895157386889 0.35723497281932359 0 0.29379146728033478 0.37241021500447918 0 0.27201152922514349 0.37620872627770002 0 0.29092895157386889 0.35723497281932359 0 0.27634523968582098 0.34700977391114629 0 0.27201152922514349 0.37620872627770002 0 0.25937695801801641 0.35242426949129207 0 0.27201152922514349 0.37620872627770002 0 0.27634523968582098 0.34700977391114629 0 0.25937695801801641 0.35242426949129207 0 0.27201152922514349 0.37620872627770002 0 0.25937695801801641 0.35242426949129207 0 0.25004482850601251 0.37417003650910702 0 0.24674238681088931 0.3286398127048844 0 0.26690523822224732 0.3302769593791362 0 0.25499603709520552 0.31033398653960542 0 0.24674238681088931 0.3286398127048844 0 0.25937695801801641 0.35242426949129207 0 0.26690523822224732 0.3302769593791362 0 0.24674238681088931 0.3286398127048844 0 0.25937695801801641 0.35242426949129207 0 0.27634523968582098 0.34700977391114629 0 0.26690523822224732 0.3302769593791362 0 0.28683162888174829 0.3297042643066464 0 0.27634523968582098 0.34700977391114629 0 0.25937695801801641 0.35242426949129207 0 0.26690523822224732 0.3302769593791362 0 0.26690523822224732 0.3302769593791362 0 0.27713917884180311 0.31354964932124307 0 0.28683162888174829 0.3297042643066464 0 0.26690523822224732 0.3302769593791362 0 0.27713917884180311 0.31354964932124307 0 0.25499603709520552 0.31033398653960542 0 0.27713917884180311 0.31354964932124307 0 0.29468316863929311 0.31440229445898499 0 0.28683162888174829 0.3297042643066464 0 0.29468316863929311 0.31440229445898499 0 0.28683162888174829 0.3297042643066464 0 0.30826630799796811 0.32835504542850491 0 0.27634523968582098 0.34700977391114629 0 0.28683162888174829 0.3297042643066464 0 0.29938257928849982 0.3431160598511987 0 0.3150827727083641 0.34804672426057698 0 0.29938257928849982 0.3431160598511987 0 0.30826630799796811 0.32835504542850491 0 0.28683162888174829 0.3297042643066464 0 0.29938257928849982 0.3431160598511987 0 0.30826630799796811 0.32835504542850491 0 0.29468316863929311 0.31440229445898499 0 0.30826630799796811 0.32835504542850491 0 0.3110430053248795 0.30165448914945658 0 0.3110430053248795 0.30165448914945658 0 0.29013572215006478 0.29874802408907558 0 0.29468316863929311 0.31440229445898499 0 0.3110430053248795 0.30165448914945658 0 0.29013572215006478 0.29874802408907558 0 0.3110430053248795 0.30165448914945658 0 0.29675006063835402 0.28353242775553628 0 0.3110430053248795 0.30165448914945658 0 0.29675006063835402 0.28353242775553628 0 0.29013572215006478 0.29874802408907558 0 0.3110430053248795 0.30165448914945658 0 0.29675006063835402 0.28353242775553628 0 0.32423558215884968 0.27936384155408228 0 0.29675006063835402 0.28353242775553628 0 0.29013572215006478 0.29874802408907558 0 0.28077424788493621 0.28447651677576269 0 0.27713917884180311 0.31354964932124307 0 0.29468316863929311 0.31440229445898499 0 0.29013572215006478 0.29874802408907558 0 0.29013572215006478 0.29874802408907558 0 0.26922843897525062 0.29584155902869158 0 0.27713917884180311 0.31354964932124307 0 0.29013572215006478 0.29874802408907558 0 0.26922843897525062 0.29584155902869158 0 0.27713917884180311 0.31354964932124307 0 0.26922843897525062 0.29584155902869158 0 0.25499603709520552 0.31033398653960542 0 0.28077424788493621 0.28447651677576269 0 0.26922843897525062 0.29584155902869158 0 0.26486669098251298 0.27890221943231658 0 0.29013572215006478 0.29874802408907558 0 0.28077424788493621 0.28447651677576269 0 0.26922843897525062 0.29584155902869158 0 0.26922843897525062 0.29584155902869158 0 0.25251902142887422 0.29489883967006508 0 0.26486669098251298 0.27890221943231658 0 0.2389629137609684 0.2846130902196588 0 0.25251902142887422 0.29489883967006508 0 0.26486669098251298 0.27890221943231658 0 0.26922843897525062 0.29584155902869158 0 0.25251902142887422 0.29489883967006508 0 0.25499603709520552 0.31033398653960542 0 0.25356354251313462 0.26595069759367879 0 0.26816417126529979 0.24728830496769821 0 0.25191630733126869 0.24920661226757701 0 0.25356354251313462 0.26595069759367879 0 0.26816417126529979 0.24728830496769821 0 0.25356354251313462 0.26595069759367879 0 0.26794447515623521 0.26215906315383281 0 0.26816417126529979 0.24728830496769821 0 0.2389629137609684 0.2846130902196588 0 0.25356354251313462 0.26595069759367879 0 0.26486669098251298 0.27890221943231658 0 0.25356354251313462 0.26595069759367879 0 0.26486669098251298 0.27890221943231658 0 0.26794447515623521 0.26215906315383281 0 0.26486669098251298 0.27890221943231658 0 0.26794447515623521 0.26215906315383281 0 0.28245711595182688 0.2654103663616173 0 0.28077424788493621 0.28447651677576269 0 0.26486669098251298 0.27890221943231658 0 0.28245711595182688 0.2654103663616173 0 0.28245711595182688 0.2654103663616173 0 0.26816417126529979 0.24728830496769821 0 0.26794447515623521 0.26215906315383281 0 0.28245711595182688 0.2654103663616173 0 0.26816417126529979 0.24728830496769821 0 0.28245711595182688 0.2654103663616173 0 0.26816417126529979 0.24728830496769821 0 0.29218139916548841 0.2486239686486868 0 0.28245711595182688 0.2654103663616173 0 0.30546640782105078 0.2637116868073705 0 0.29218139916548841 0.2486239686486868 0 0.29675006063835402 0.28353242775553628 0 0.28245711595182688 0.2654103663616173 0 0.29675006063835402 0.28353242775553628 0 0.28077424788493621 0.28447651677576269 0 0.28245711595182688 0.2654103663616173 0 0.29675006063835402 0.28353242775553628 0 0.28245711595182688 0.2654103663616173 0 0.30546640782105078 0.2637116868073705 0 0.29675006063835402 0.28353242775553628 0 0.30546640782105078 0.2637116868073705 0 0.32423558215884968 0.27936384155408228 0 0.30546640782105078 0.2637116868073705 0 0.3122205487373555 0.24745899623115639 0 0.29218139916548841 0.2486239686486868 0 0.30546640782105078 0.2637116868073705 0 0.32495374027443102 0.25788052029314412 0 0.3122205487373555 0.24745899623115639 0 0.35006285604338172 0.26153112420760838 0 0.33629540821485387 0.2436748746166981 0 0.32495374027443102 0.25788052029314412 0 0.35006285604338172 0.26153112420760838 0 0.33629540821485387 0.2436748746166981 0 0.32423558215884968 0.27936384155408228 0 0.34457100366465909 0.28634269707399151 0 0.35006285604338172 0.26153112420760838 0 0.32495374027443102 0.25788052029314412 0 0.32423558215884968 0.27936384155408228 0 0.35006285604338172 0.26153112420760838 0 0.30546640782105078 0.2637116868073705 0 0.32495374027443102 0.25788052029314412 0 0.32423558215884968 0.27936384155408228 0 0.3110430053248795 0.30165448914945658 0 0.32423558215884968 0.27936384155408228 0 0.33342683367631232 0.30476621889823169 0 0.32711427331876147 0.32203129124662971 0 0.3110430053248795 0.30165448914945658 0 0.33342683367631232 0.30476621889823169 0 0.3110430053248795 0.30165448914945658 0 0.33342683367631232 0.30476621889823169 0 0.32711427331876147 0.32203129124662971 0 0.3110430053248795 0.30165448914945658 0 0.34111493155921779 0.31747950799532282 0 0.33342683367631232 0.30476621889823169 0 0.35581066202774619 0.30787794864699841 0 0.32423558215884968 0.27936384155408228 0 0.33342683367631232 0.30476621889823169 0 0.34457100366465909 0.28634269707399151 0 0.34457100366465909 0.28634269707399151 0 0.35581066202774619 0.30787794864699841 0 0.36383030387190901 0.27938737379851919 0 0.33342683367631232 0.30476621889823169 0 0.35581066202774619 0.30787794864699841 0 0.33342683367631232 0.30476621889823169 0 0.34457100366465909 0.28634269707399151 0 0.35581066202774619 0.30787794864699841 0 0.35581066202774619 0.30787794864699841 0 0.37260377894228941 0.31021247519256018 0 0.37661359986437198 0.29596718776831682 0 0.35581066202774619 0.30787794864699841 0 0.37260377894228941 0.31021247519256018 0 0.35581066202774619 0.30787794864699841 0 0.36383030387190901 0.27938737379851919 0 0.36383030387190901 0.27938737379851919 0 0.37661359986437198 0.29596718776831682 0 0.35581066202774619 0.30787794864699841 0 0.36383030387190901 0.27938737379851919 0 0.37661359986437198 0.29596718776831682 0 0.36383030387190901 0.27938737379851919 0 0.38009657457754392 0.2726843797424427 0 0.37661359986437198 0.29596718776831682 0 0.36383030387190901 0.27938737379851919 0 0.37133135415870921 0.25273914700846112 0 0.38009657457754392 0.2726843797424427 0 0.36383030387190901 0.27938737379851919 0 0.37133135415870921 0.25273914700846112 0 0.36383030387190901 0.27938737379851919 0 0.37133135415870921 0.25273914700846112 0 0.35006285604338172 0.26153112420760838 0 0.37133135415870921 0.25273914700846112 0 0.35006285604338172 0.26153112420760838 0 0.35455324959031859 0.2432250833271849 0 0.34457100366465909 0.28634269707399151 0 0.36383030387190901 0.27938737379851919 0 0.35006285604338172 0.26153112420760838 0 0.36383030387190901 0.27938737379851919 0 0.35006285604338172 0.26153112420760838 0 0.39326744300132332 0.26595502407687149 0 0.40263545028097142 0.25928084217375458 0 0.41060613999230161 0.27285338321486652 0 0.39326744300132332 0.26595502407687149 0 0.39140849794397659 0.28353661092897681 0 0.41060613999230161 0.27285338321486652 0 0.39326744300132332 0.26595502407687149 0 0.40263545028097142 0.25928084217375458 0 0.39298284187090288 0.24806444035772329 0 0.40263545028097142 0.25928084217375458 0 0.40504541688886758 0.25083790210330698 0 0.39298284187090288 0.24806444035772329 0 0.39326744300132332 0.26595502407687149 0 0.3842768735112721 0.25920451289538038 0 0.39298284187090288 0.24806444035772329 0 0.37133135415870921 0.25273914700846112 0 0.3842768735112721 0.25920451289538038 0 0.38009657457754392 0.2726843797424427 0 0.37133135415870921 0.25273914700846112 0 0.3842768735112721 0.25920451289538038 0 0.39298284187090288 0.24806444035772329 0 0.39326744300132332 0.26595502407687149 0 0.38009657457754392 0.2726843797424427 0 0.39140849794397659 0.28353661092897681 0 0.39326744300132332 0.26595502407687149 0 0.3842768735112721 0.25920451289538038 0 0.38009657457754392 0.2726843797424427 0 0.37661359986437198 0.29596718776831682 0 0.39693038286618298 0.2984944409360708 0 0.39140849794397659 0.28353661092897681 0 0.38009657457754392 0.2726843797424427 0 0.37661359986437198 0.29596718776831682 0 0.39140849794397659 0.28353661092897681 0 0.37260377894228941 0.31021247519256018 0 0.38939689585683329 0.31254700173811562 0 0.37661359986437198 0.29596718776831682 0 0.38939689585683329 0.31254700173811562 0 0.37661359986437198 0.29596718776831682 0 0.39693038286618298 0.2984944409360708 0 0.38939689585683329 0.31254700173811562 0 0.37260377894228941 0.31021247519256018 0 0.37661359986437198 0.29596718776831682 0 0.38939689585683329 0.31254700173811562 0 0.39693038286618298 0.2984944409360708 0 0.40034520030979998 0.3140690007514233 0 0.38939689585683329 0.31254700173811562 0 0.39693038286618298 0.2984944409360708 0 0.40755282432221368 0.30247078973559838 0 0.40034520030979998 0.3140690007514233 0 0.39140849794397659 0.28353661092897681 0 0.4167997097475582 0.28963258873142939 0 0.39693038286618298 0.2984944409360708 0 0.39140849794397659 0.28353661092897681 0 0.4167997097475582 0.28963258873142939 0 0.39140849794397659 0.28353661092897681 0 0.4167997097475582 0.28963258873142939 0 0.41060613999230161 0.27285338321486652 0 0.39693038286618298 0.2984944409360708 0 0.4167997097475582 0.28963258873142939 0 0.40755282432221368 0.30247078973559838 0 0.4167997097475582 0.28963258873142939 0 0.42720783143089491 0.2823378786142301 0 0.41060613999230161 0.27285338321486652 0 0.40755282432221368 0.30247078973559838 0 0.41613600436531378 0.30768712852347008 0 0.40034520030979998 0.3140690007514233 0 0.4167997097475582 0.28963258873142939 0 0.41613600436531378 0.30768712852347008 0 0.42802450933929481 0.29952944990105379 0 0.4167997097475582 0.28963258873142939 0 0.40755282432221368 0.30247078973559838 0 0.41613600436531378 0.30768712852347008 0 0.41613600436531378 0.30768712852347008 0 0.42872696557319112 0.30838624039872231 0 0.42802450933929481 0.29952944990105379 0 0.41613600436531378 0.30768712852347008 0 0.42872696557319112 0.30838624039872231 0 0.42604550641036693 0.31704602283193151 0 0.42802450933929481 0.29952944990105379 0 0.43660622637406632 0.30352191176619908 0 0.44219092155113982 0.29572856653388208 0 0.42872696557319112 0.30838624039872231 0 0.42802450933929481 0.29952944990105379 0 0.43660622637406632 0.30352191176619908 0 0.42872696557319112 0.30838624039872231 0 0.43756843903768061 0.31137434343748271 0 0.42604550641036693 0.31704602283193151 0 0.42872696557319112 0.30838624039872231 0 0.43660622637406632 0.30352191176619908 0 0.43756843903768061 0.31137434343748271 0 0.4167997097475582 0.28963258873142939 0 0.44219092155113982 0.29572856653388208 0 0.4167997097475582 0.28963258873142939 0 0.43946294555256499 0.29018605432954619 0 0.44219092155113982 0.29572856653388208 0 0.4167997097475582 0.28963258873142939 0 0.42720783143089491 0.2823378786142301 0 0.43946294555256499 0.29018605432954619 0 0.4167997097475582 0.28963258873142939 0 0.42802450933929481 0.29952944990105379 0 0.44219092155113982 0.29572856653388208 0 0.42953427648845771 0.26970723592650447 0 0.43946294555256499 0.29018605432954619 0 0.42720783143089491 0.2823378786142301 0 0.42953427648845771 0.26970723592650447 0 0.41060613999230161 0.27285338321486652 0 0.42720783143089491 0.2823378786142301 0 0.42953427648845771 0.26970723592650447 0 0.43946294555256499 0.29018605432954619 0 0.42953427648845771 0.26970723592650447 0 0.41060613999230161 0.27285338321486652 0 0.41229635062582021 0.25891009303496942 0 0.42953427648845771 0.26970723592650447 0 0.41229635062582021 0.25891009303496942 0 0.41960560742434949 0.24922841752346311 0 0.40263545028097142 0.25928084217375458 0 0.40504541688886758 0.25083790210330698 0 0.41229635062582021 0.25891009303496942 0 0.40504541688886758 0.25083790210330698 0 0.41229635062582021 0.25891009303496942 0 0.41193031943217301 0.24970998685700099 0 0.40263545028097142 0.25928084217375458 0 0.41060613999230161 0.27285338321486652 0 0.41229635062582021 0.25891009303496942 0 0.41229635062582021 0.25891009303496942 0 0.41960560742434949 0.24922841752346311 0 0.41193031943217301 0.24970998685700099 0 0.41229635062582021 0.25891009303496942 0 0.41960560742434949 0.24922841752346311 0 0.42953427648845771 0.26970723592650447 0 0.43333426729933278 0.25521865159253582 0 0.41960560742434949 0.24922841752346311 0 0.42953427648845771 0.26970723592650447 0 0.43333426729933278 0.25521865159253582 0 0.44664308458244012 0.26914281405341878 0 0.42953427648845771 0.26970723592650447 0 0.41960560742434949 0.24922841752346311 0 0.43333426729933278 0.25521865159253582 0 0.44831133843309301 0.25500336940667873 0 0.44046947178534918 0.24381964733491229 0 0.43333426729933278 0.25521865159253582 0 0.44831133843309301 0.25500336940667873 0 0.44664308458244012 0.26914281405341878 0 0.44831133843309301 0.25500336940667873 0 0.44664308458244012 0.26914281405341878 0 0.46169705660053167 0.2595330470036582 0 0.44664308458244012 0.26914281405341878 0 0.46144726737967851 0.27490887408794118 0 0.44537934833550052 0.28600146328744258 0 0.42953427648845771 0.26970723592650447 0 0.44664308458244012 0.26914281405341878 0 0.44537934833550052 0.28600146328744258 0 0.46144726737967851 0.27490887408794118 0 0.46169705660053167 0.2595330470036582 0 0.47750528502099843 0.26373291612348659 0 0.46144726737967851 0.27490887408794118 0 0.44537934833550052 0.28600146328744258 0 0.44664308458244012 0.26914281405341878 0 0.46144726737967851 0.27490887408794118 0 0.46169705660053167 0.2595330470036582 0 0.44831133843309301 0.25500336940667873 0 0.46169705660053167 0.2595330470036582 0 0.45665518821624052 0.2438898889111111 0 0.46169705660053167 0.2595330470036582 0 0.45665518821624052 0.2438898889111111 0 0.4709233871432138 0.24742201075293871 0 0.46169705660053167 0.2595330470036582 0 0.47750528502099843 0.26373291612348659 0 0.4709233871432138 0.24742201075293871 0 0.47750528502099843 0.26373291612348659 0 0.4709233871432138 0.24742201075293871 0 0.47782294313133589 0.26004539001065669 0 0.47750528502099843 0.26373291612348659 0 0.4709233871432138 0.24742201075293871 0 0.47782294313133589 0.26004539001065669 0 0.48374370526303689 0.24651653993241709 0 0.4709233871432138 0.24742201075293871 0 0.47782294313133589 0.26004539001065669 0 0.47750528502099843 0.26373291612348659 0 0.47750528502099843 0.26373291612348659 0 0.48877809303430297 0.29150874977283497 0 0.46144726737967851 0.27490887408794118 0 0.47750528502099843 0.26373291612348659 0 0.47507823455702108 0.2902455862417781 0 0.46144726737967851 0.27490887408794118 0 0.47750528502099843 0.26373291612348659 0 0.47750528502099843 0.26373291612348659 0 0.47507823455702108 0.2902455862417781 0 0.47750528502099843 0.26373291612348659 0 0.5 0.27193510777227242 0 0.48877809303430297 0.29150874977283497 0 0.47750528502099843 0.26373291612348659 0 0.5 0.27193510777227242 0 0.49999999999999978 0.2482937520986134 0 0.47750528502099843 0.26373291612348659 0 0.49999999999999978 0.2482937520986134 0 0.47782294313133589 0.26004539001065669 0 0.49999999999999978 0.2482937520986134 0 0.48374370526303689 0.24651653993241709 0 0.47782294313133589 0.26004539001065669 0 0.47750528502099843 0.26373291612348659 0 0.49999999999999978 0.2482937520986134 0 0.48877809303430297 0.29150874977283497 0 0.49999999999999861 0.31921781911959018 0 0.48877809303430297 0.29150874977283497 0 0.49999999999999861 0.31921781911959018 0 0.48646213891142032 0.31661213570953761 0 0.5 0.29557646344593119 0 0.48877809303430297 0.29150874977283497 0 0.49999999999999861 0.31921781911959018 0 0.48877809303430297 0.29150874977283497 0 0.48071056335763901 0.30408286408121638 0 0.48646213891142032 0.31661213570953761 0 0.5 0.27193510777227242 0 0.5 0.29557646344593119 0 0.48877809303430297 0.29150874977283497 0 0.47750528502099843 0.26373291612348659 0 0.48877809303430297 0.29150874977283497 0 0.47507823455702108 0.2902455862417781 0 0.48877809303430297 0.29150874977283497 0 0.47507823455702108 0.2902455862417781 0 0.48071056335763901 0.30408286408121638 0 0.47507823455702108 0.2902455862417781 0 0.46758213335472149 0.30182454433633471 0 0.46475291792844919 0.29109435281808088 0 0.47507823455702108 0.2902455862417781 0 0.46758213335472149 0.30182454433633471 0 0.47267595286514902 0.31667803855234022 0 0.47507823455702108 0.2902455862417781 0 0.47267595286514902 0.31667803855234022 0 0.47507823455702108 0.2902455862417781 0 0.48071056335763901 0.30408286408121638 0 0.47267595286514902 0.31667803855234022 0 0.48071056335763901 0.30408286408121638 0 0.47267595286514902 0.31667803855234022 0 0.48646213891142032 0.31661213570953761 0 0.46758213335472149 0.30182454433633471 0 0.46094967354055361 0.31329187672128977 0 0.47267595286514902 0.31667803855234022 0 0.46758213335472149 0.30182454433633471 0 0.44219092155113982 0.29572856653388208 0 0.46758213335472149 0.30182454433633471 0 0.45323398251046798 0.30545338751138618 0 0.44219092155113982 0.29572856653388208 0 0.46758213335472149 0.30182454433633471 0 0.45605418754765292 0.29429856067355542 0 0.44219092155113982 0.29572856653388208 0 0.45323398251046798 0.30545338751138618 0 0.44938402965094998 0.31575273385283031 0 0.46094967354055361 0.31329187672128977 0 0.46758213335472149 0.30182454433633471 0 0.45323398251046798 0.30545338751138618 0 0.46094967354055361 0.31329187672128977 0 0.46144726737967851 0.27490887408794118 0 0.46475291792844919 0.29109435281808088 0 0.45667848684856949 0.2861582895343433 0 0.46144726737967851 0.27490887408794118 0 0.45667848684856949 0.2861582895343433 0 0.44537934833550052 0.28600146328744258 0 0.46144726737967851 0.27490887408794118 0 0.47507823455702108 0.2902455862417781 0 0.46475291792844919 0.29109435281808088 0 0.46758213335472149 0.30182454433633471 0 0.46475291792844919 0.29109435281808088 0 0.45605418754765292 0.29429856067355542 0 0.46475291792844919 0.29109435281808088 0 0.45605418754765292 0.29429856067355542 0 0.45667848684856949 0.2861582895343433 0 0.45605418754765292 0.29429856067355542 0 0.45667848684856949 0.2861582895343433 0 0.4485361804569703 0.29133031220973371 0 0.42953427648845771 0.26970723592650447 0 0.44537934833550052 0.28600146328744258 0 0.43946294555256499 0.29018605432954619 0 0.45667848684856949 0.2861582895343433 0 0.44537934833550052 0.28600146328744258 0 0.4485361804569703 0.29133031220973371 0 0.45605418754765292 0.29429856067355542 0 0.4485361804569703 0.29133031220973371 0 0.44219092155113982 0.29572856653388208 0 0.4485361804569703 0.29133031220973371 0 0.43946294555256499 0.29018605432954619 0 0.44219092155113982 0.29572856653388208 0 0.44537934833550052 0.28600146328744258 0 0.4485361804569703 0.29133031220973371 0 0.43946294555256499 0.29018605432954619 0 0.45323398251046798 0.30545338751138618 0 0.44404431769251218 0.3060229858875832 0 0.44938402965094998 0.31575273385283031 0 0.45323398251046798 0.30545338751138618 0 0.44219092155113982 0.29572856653388208 0 0.44404431769251218 0.3060229858875832 0 0.43660622637406632 0.30352191176619908 0 0.44219092155113982 0.29572856653388208 0 0.44404431769251218 0.3060229858875832 0 0.43756843903768061 0.31137434343748271 0 0.44404431769251218 0.3060229858875832 0 0.44938402965094998 0.31575273385283031 0 0.43660622637406632 0.30352191176619908 0 0.43756843903768061 0.31137434343748271 0 0.44404431769251218 0.3060229858875832 0 0.43756843903768061 0.31137434343748271 0 0.44938402965094998 0.31575273385283031 0 0.43697462940589588 0.32402287657681739 0 0.44938402965094998 0.31575273385283031 0 0.44771075551414519 0.32963222049659402 0 0.43697462940589588 0.32402287657681739 0 0.44938402965094998 0.31575273385283031 0 0.44771075551414519 0.32963222049659402 0 0.45940199689259598 0.32680915794138288 0 0.43842951184597551 0.33946090304339388 0 0.44771075551414519 0.32963222049659402 0 0.45410710664842191 0.33987336125922057 0 0.43842951184597551 0.33946090304339388 0 0.44771075551414519 0.32963222049659402 0 0.43697462940589588 0.32402287657681739 0 0.45410710664842191 0.33987336125922057 0 0.45940199689259598 0.32680915794138288 0 0.4702736711732769 0.34311049086290241 0 0.45940199689259598 0.32680915794138288 0 0.47267595286514902 0.31667803855234022 0 0.4702736711732769 0.34311049086290241 0 0.44771075551414519 0.32963222049659402 0 0.45410710664842191 0.33987336125922057 0 0.45940199689259598 0.32680915794138288 0 0.44938402965094998 0.31575273385283031 0 0.45940199689259598 0.32680915794138288 0 0.46094967354055361 0.31329187672128977 0 0.45940199689259598 0.32680915794138288 0 0.46094967354055361 0.31329187672128977 0 0.47267595286514902 0.31667803855234022 0 0.47267595286514902 0.31667803855234022 0 0.48511235432861888 0.33113369636636708 0 0.48646213891142032 0.31661213570953761 0 0.4702736711732769 0.34311049086290241 0 0.48511235432861888 0.33113369636636708 0 0.48388877990178442 0.35667609176681081 0 0.47267595286514902 0.31667803855234022 0 0.4702736711732769 0.34311049086290241 0 0.48511235432861888 0.33113369636636708 0 0.47267595286514902 0.31667803855234022 0 0.4702736711732769 0.34311049086290241 0 0.48511235432861888 0.33113369636636708 0 0.49999999999999861 0.31921781911959018 0 0.5 0.34489965893315011 0 0.48511235432861888 0.33113369636636708 0 0.49999999999999861 0.31921781911959018 0 0.48646213891142032 0.31661213570953761 0 0.5 0.37058149874670993 0 0.48388877990178442 0.35667609176681081 0 0.48089600100104529 0.38309243001123627 0 0.5 0.37058149874670993 0 0.5 0.34489965893315011 0 0.48388877990178442 0.35667609176681081 0 0.48511235432861888 0.33113369636636708 0 0.5 0.34489965893315011 0 0.48388877990178442 0.35667609176681081 0 0.4702736711732769 0.34311049086290241 0 0.48388877990178442 0.35667609176681081 0 0.46705065290776482 0.36723877568049912 0 0.48388877990178442 0.35667609176681081 0 0.46705065290776482 0.36723877568049912 0 0.48089600100104529 0.38309243001123627 0 0.46705065290776482 0.36723877568049912 0 0.4516484817796152 0.37183694549879343 0 0.46109592324506471 0.38403333438402459 0 0.46705065290776482 0.36723877568049912 0 0.45244574368005808 0.35531335036239231 0 0.4516484817796152 0.37183694549879343 0 0.4702736711732769 0.34311049086290241 0 0.46705065290776482 0.36723877568049912 0 0.45244574368005808 0.35531335036239231 0 0.45410710664842191 0.33987336125922057 0 0.4702736711732769 0.34311049086290241 0 0.45244574368005808 0.35531335036239231 0 0.43842951184597551 0.33946090304339388 0 0.45410710664842191 0.33987336125922057 0 0.45244574368005808 0.35531335036239231 0 0.43842951184597551 0.33946090304339388 0 0.45244574368005808 0.35531335036239231 0 0.43202811065726521 0.36783928403482569 0 0.45244574368005808 0.35531335036239231 0 0.4516484817796152 0.37183694549879343 0 0.43202811065726521 0.36783928403482569 0 0.43202811065726521 0.36783928403482569 0 0.41635359526489479 0.37464484016943472 0 0.41781770572378818 0.34940852326925542 0 0.43202811065726521 0.36783928403482569 0 0.41635359526489479 0.37464484016943472 0 0.43033137966059498 0.38218607443813502 0 0.41635359526489479 0.37464484016943472 0 0.41781770572378818 0.34940852326925542 0 0.40114118459310588 0.36354619742478539 0 0.43202811065726521 0.36783928403482569 0 0.41781770572378818 0.34940852326925542 0 0.43842951184597551 0.33946090304339388 0 0.43202811065726521 0.36783928403482569 0 0.41781770572378818 0.34940852326925542 0 0.43842951184597551 0.33946090304339388 0 0.42270953397625771 0.33087103579867222 0 0.43697462940589588 0.32402287657681739 0 0.43842951184597551 0.33946090304339388 0 0.41781770572378818 0.34940852326925542 0 0.42270953397625771 0.33087103579867222 0 0.43756843903768061 0.31137434343748271 0 0.43697462940589588 0.32402287657681739 0 0.42604550641036693 0.31704602283193151 0 0.42270953397625771 0.33087103579867222 0 0.43697462940589588 0.32402287657681739 0 0.42604550641036693 0.31704602283193151 0 0.41613600436531378 0.30768712852347008 0 0.41318212617986461 0.32064139614414922 0 0.40034520030979998 0.3140690007514233 0 0.42270953397625771 0.33087103579867222 0 0.41318212617986461 0.32064139614414922 0 0.40360730079031132 0.3309777625036851 0 0.41613600436531378 0.30768712852347008 0 0.42604550641036693 0.31704602283193151 0 0.41318212617986461 0.32064139614414922 0 0.42270953397625771 0.33087103579867222 0 0.42604550641036693 0.31704602283193151 0 0.41318212617986461 0.32064139614414922 0 0.41781770572378818 0.34940852326925542 0 0.40360730079031132 0.3309777625036851 0 0.41781770572378818 0.34940852326925542 0 0.42270953397625771 0.33087103579867222 0 0.40360730079031132 0.3309777625036851 0 0.41781770572378818 0.34940852326925542 0 0.40360730079031132 0.3309777625036851 0 0.39239522822416101 0.34584800055796361 0 0.40360730079031132 0.3309777625036851 0 0.3874833708212122 0.32974843650369667 0 0.39239522822416101 0.34584800055796361 0 0.40360730079031132 0.3309777625036851 0 0.38939689585683329 0.31254700173811562 0 0.3874833708212122 0.32974843650369667 0 0.41318212617986461 0.32064139614414922 0 0.40360730079031132 0.3309777625036851 0 0.40034520030979998 0.3140690007514233 0 0.40360730079031132 0.3309777625036851 0 0.38939689585683329 0.31254700173811562 0 0.40360730079031132 0.3309777625036851 0 0.40034520030979998 0.3140690007514233 0 0.38939689585683329 0.31254700173811562 0 0.40034520030979998 0.3140690007514233 0 0.38939689585683329 0.31254700173811562 0 0.38939689585683329 0.31254700173811562 0 0.37730394880888052 0.32282274240207831 0 0.3874833708212122 0.32974843650369667 0 0.37260377894228941 0.31021247519256018 0 0.38939689585683329 0.31254700173811562 0 0.37730394880888052 0.32282274240207831 0 0.3874833708212122 0.32974843650369667 0 0.37581922482641023 0.33652832221029488 0 0.39239522822416101 0.34584800055796361 0 0.37730394880888052 0.32282274240207831 0 0.3874833708212122 0.32974843650369667 0 0.37581922482641023 0.33652832221029488 0 0.37302365365364959 0.35074164613539471 0 0.38587261938700118 0.36085772810504618 0 0.39239522822416101 0.34584800055796361 0 0.37302365365364959 0.35074164613539471 0 0.37581922482641023 0.33652832221029488 0 0.39239522822416101 0.34584800055796361 0 0.37302365365364959 0.35074164613539471 0 0.37579738303020882 0.36700132473203578 0 0.38587261938700118 0.36085772810504618 0 0.37579738303020882 0.36700132473203578 0 0.38692681138805168 0.37499690056769608 0 0.38587261938700118 0.36085772810504618 0 0.41635359526489479 0.37464484016943472 0 0.40114118459310588 0.36354619742478539 0 0.40099163377848368 0.3797207577347837 0 0.38692681138805168 0.37499690056769608 0 0.38587261938700118 0.36085772810504618 0 0.40114118459310588 0.36354619742478539 0 0.38692681138805168 0.37499690056769608 0 0.40114118459310588 0.36354619742478539 0 0.40099163377848368 0.3797207577347837 0 0.38587261938700118 0.36085772810504618 0 0.40114118459310588 0.36354619742478539 0 0.39239522822416101 0.34584800055796361 0 0.41781770572378818 0.34940852326925542 0 0.40114118459310588 0.36354619742478539 0 0.39239522822416101 0.34584800055796361 0 0.39139934529428289 0.4035384996353274 0 0.40078117436570598 0.39290601532775637 0 0.3908000809364619 0.38652140353176367 0 0.39139934529428289 0.4035384996353274 0 0.40101267785727651 0.40393239848879298 0 0.40078117436570598 0.39290601532775637 0 0.40101267785727651 0.40393239848879298 0 0.40078117436570598 0.39290601532775637 0 0.4101150540085981 0.39701655448625012 0 0.40078117436570598 0.39290601532775637 0 0.40099163377848368 0.3797207577347837 0 0.41076572187884508 0.38638240430125442 0 0.38692681138805168 0.37499690056769608 0 0.40099163377848368 0.3797207577347837 0 0.3908000809364619 0.38652140353176367 0 0.40078117436570598 0.39290601532775637 0 0.40099163377848368 0.3797207577347837 0 0.3908000809364619 0.38652140353176367 0 0.37579738303020882 0.36700132473203578 0 0.38692681138805168 0.37499690056769608 0 0.37532807730040257 0.38316169753815299 0 0.38692681138805168 0.37499690056769608 0 0.3908000809364619 0.38652140353176367 0 0.37532807730040257 0.38316169753815299 0 0.39139934529428289 0.4035384996353274 0 0.37532807730040257 0.38316169753815299 0 0.39139934529428289 0.4035384996353274 0 0.37532807730040257 0.38316169753815299 0 0.37689374131585868 0.39401386302451952 0 0.39139934529428289 0.4035384996353274 0 0.3908000809364619 0.38652140353176367 0 0.37532807730040257 0.38316169753815299 0 0.39139934529428289 0.4035384996353274 0 0.37689374131585868 0.39401386302451952 0 0.38231913560775782 0.40715105347220543 0 0.3730999423012219 0.40954342286834639 0 0.37689374131585868 0.39401386302451952 0 0.38231913560775782 0.40715105347220543 0 0.3730999423012219 0.40954342286834639 0 0.38231913560775782 0.40715105347220543 0 0.37795549308522902 0.41628895699810292 0 0.37795549308522902 0.41628895699810292 0 0.39076755343132041 0.42249174788358651 0 0.39224715604219651 0.41237052483473102 0 0.38231913560775782 0.40715105347220543 0 0.37795549308522902 0.41628895699810292 0 0.39224715604219651 0.41237052483473102 0 0.39139934529428289 0.4035384996353274 0 0.38231913560775782 0.40715105347220543 0 0.39224715604219651 0.41237052483473102 0 0.37023049558979693 0.44243966271604079 0 0.38040430343443521 0.43193634251772789 0 0.39567187282383282 0.43100015285841642 0 0.36494729189279101 0.43181380661286789 0 0.38040430343443521 0.43193634251772789 0 0.39076755343132041 0.42249174788358651 0 0.36494729189279101 0.43181380661286789 0 0.37795549308522902 0.41628895699810292 0 0.39076755343132041 0.42249174788358651 0 0.36494729189279101 0.43181380661286789 0 0.39076755343132041 0.42249174788358651 0 0.37023049558979693 0.44243966271604079 0 0.39567187282383282 0.43100015285841642 0 0.38040430343443521 0.43193634251772789 0 0.39567187282383282 0.43100015285841642 0 0.39076755343132041 0.42249174788358651 0 0.39567187282383282 0.43100015285841642 0 0.39076755343132041 0.42249174788358651 0 0.41658781496984998 0.41316968915430502 0 0.39567187282383282 0.43100015285841642 0 0.40975977307311767 0.4309440535241707 0 0.40277120807912181 0.44488064963545743 0 0.39076755343132041 0.42249174788358651 0 0.41658781496984998 0.41316968915430502 0 0.39076755343132041 0.42249174788358651 0 0.40194150124873601 0.41210731821130492 0 0.41658781496984998 0.41316968915430502 0 0.40101267785727651 0.40393239848879298 0 0.39224715604219651 0.41237052483473102 0 0.40194150124873601 0.41210731821130492 0 0.39139934529428289 0.4035384996353274 0 0.40101267785727651 0.40393239848879298 0 0.39224715604219651 0.41237052483473102 0 0.39076755343132041 0.42249174788358651 0 0.39224715604219651 0.41237052483473102 0 0.40194150124873601 0.41210731821130492 0 0.40101267785727651 0.40393239848879298 0 0.40194150124873601 0.41210731821130492 0 0.40959183618413952 0.4056554784373882 0 0.40194150124873601 0.41210731821130492 0 0.41658781496984998 0.41316968915430502 0 0.40959183618413952 0.4056554784373882 0 0.39567187282383282 0.43100015285841642 0 0.42111325005786859 0.41956064300079188 0 0.41658781496984998 0.41316968915430502 0 0.41658781496984998 0.41316968915430502 0 0.41869960039594922 0.40172735805792198 0 0.40959183618413952 0.4056554784373882 0 0.40975977307311767 0.4309440535241707 0 0.42151880959243587 0.42871130481571929 0 0.42575029225984629 0.43817658423166628 0 0.39567187282383282 0.43100015285841642 0 0.42111325005786859 0.41956064300079188 0 0.39567187282383282 0.43100015285841642 0 0.42111325005786859 0.41956064300079188 0 0.40975977307311767 0.4309440535241707 0 0.42111325005786859 0.41956064300079188 0 0.40975977307311767 0.4309440535241707 0 0.42151880959243587 0.42871130481571929 0 0.42151880959243587 0.42871130481571929 0 0.42945192297891138 0.42616393850624851 0 0.42575029225984629 0.43817658423166628 0 0.42111325005786859 0.41956064300079188 0 0.42151880959243587 0.42871130481571929 0 0.42945192297891138 0.42616393850624851 0 0.42945192297891138 0.42616393850624851 0 0.43439853854146121 0.43334695253172728 0 0.43857382712131587 0.42666265093457761 0 0.42945192297891138 0.42616393850624851 0 0.43650619774580718 0.41968959887481389 0 0.43857382712131587 0.42666265093457761 0 0.42945192297891138 0.42616393850624851 0 0.43439853854146121 0.43334695253172728 0 0.42575029225984629 0.43817658423166628 0 0.41658781496984998 0.41316968915430502 0 0.44240807650837932 0.40384763042502347 0 0.42111325005786859 0.41956064300079188 0 0.43650619774580718 0.41968959887481389 0 0.44655462729190443 0.40812113314316739 0 0.42111325005786859 0.41956064300079188 0 0.44655462729190443 0.40812113314316739 0 0.42111325005786859 0.41956064300079188 0 0.44240807650837932 0.40384763042502347 0 0.44655462729190443 0.40812113314316739 0 0.41658781496984998 0.41316968915430502 0 0.42792896078149739 0.40351247135290369 0 0.44240807650837932 0.40384763042502347 0 0.42111325005786859 0.41956064300079188 0 0.41658781496984998 0.41316968915430502 0 0.44240807650837932 0.40384763042502347 0 0.42111325005786859 0.41956064300079188 0 0.42945192297891138 0.42616393850624851 0 0.43650619774580718 0.41968959887481389 0 0.4353740106511933 0.39825956239025367 0 0.42792896078149739 0.40351247135290369 0 0.44240807650837932 0.40384763042502347 0 0.4353740106511933 0.39825956239025367 0 0.42774204813440481 0.39712334373661562 0 0.42792896078149739 0.40351247135290369 0 0.4345514642716975 0.3917737885573907 0 0.4353740106511933 0.39825956239025367 0 0.42774204813440481 0.39712334373661562 0 0.42774204813440481 0.39712334373661562 0 0.41869960039594922 0.40172735805792198 0 0.42248521251837517 0.39040241462862763 0 0.4345514642716975 0.3917737885573907 0 0.42774204813440481 0.39712334373661562 0 0.42248521251837517 0.39040241462862763 0 0.42774204813440481 0.39712334373661562 0 0.42792896078149739 0.40351247135290369 0 0.41869960039594922 0.40172735805792198 0 0.41658781496984998 0.41316968915430502 0 0.42792896078149739 0.40351247135290369 0 0.41869960039594922 0.40172735805792198 0 0.41869960039594922 0.40172735805792198 0 0.4101150540085981 0.39701655448625012 0 0.42248521251837517 0.39040241462862763 0 0.4101150540085981 0.39701655448625012 0 0.41076572187884508 0.38638240430125442 0 0.42248521251837517 0.39040241462862763 0 0.40078117436570598 0.39290601532775637 0 0.4101150540085981 0.39701655448625012 0 0.41076572187884508 0.38638240430125442 0 0.41869960039594922 0.40172735805792198 0 0.4101150540085981 0.39701655448625012 0 0.40959183618413952 0.4056554784373882 0 0.40101267785727651 0.40393239848879298 0 0.4101150540085981 0.39701655448625012 0 0.40959183618413952 0.4056554784373882 0 0.41635359526489479 0.37464484016943472 0 0.41076572187884508 0.38638240430125442 0 0.42248521251837517 0.39040241462862763 0 0.41635359526489479 0.37464484016943472 0 0.40099163377848368 0.3797207577347837 0 0.41076572187884508 0.38638240430125442 0 0.4345514642716975 0.3917737885573907 0 0.43033137966059498 0.38218607443813502 0 0.44623851559074218 0.38627004480039617 0 0.41635359526489479 0.37464484016943472 0 0.42248521251837517 0.39040241462862763 0 0.43033137966059498 0.38218607443813502 0 0.43202811065726521 0.36783928403482569 0 0.43033137966059498 0.38218607443813502 0 0.44623851559074218 0.38627004480039617 0 0.4345514642716975 0.3917737885573907 0 0.42248521251837517 0.39040241462862763 0 0.43033137966059498 0.38218607443813502 0 0.43202811065726521 0.36783928403482569 0 0.44623851559074218 0.38627004480039617 0 0.4516484817796152 0.37183694549879343 0 0.43202811065726521 0.36783928403482569 0 0.44623851559074218 0.38627004480039617 0 0.4516484817796152 0.37183694549879343 0 0.44623851559074218 0.38627004480039617 0 0.46109592324506471 0.38403333438402459 0 0.4353740106511933 0.39825956239025367 0 0.44240807650837932 0.40384763042502347 0 0.44282652473359629 0.39558729108871521 0 0.4345514642716975 0.3917737885573907 0 0.4353740106511933 0.39825956239025367 0 0.44282652473359629 0.39558729108871521 0 0.4345514642716975 0.3917737885573907 0 0.44623851559074218 0.38627004480039617 0 0.44282652473359629 0.39558729108871521 0 0.44623851559074218 0.38627004480039617 0 0.44282652473359629 0.39558729108871521 0 0.45273459899318669 0.39887885568927117 0 0.44240807650837932 0.40384763042502347 0 0.44282652473359629 0.39558729108871521 0 0.45273459899318669 0.39887885568927117 0 0.44240807650837932 0.40384763042502347 0 0.45273459899318669 0.39887885568927117 0 0.44655462729190443 0.40812113314316739 0 0.45273459899318669 0.39887885568927117 0 0.44655462729190443 0.40812113314316739 0 0.45286957771966119 0.40726226746935312 0 0.45273459899318669 0.39887885568927117 0 0.46027475656121197 0.40914777417223219 0 0.45286957771966119 0.40726226746935312 0 0.45273459899318669 0.39887885568927117 0 0.46800728919803369 0.3968829546239519 0 0.46027475656121197 0.40914777417223219 0 0.45273459899318669 0.39887885568927117 0 0.46800728919803369 0.3968829546239519 0 0.46109592324506471 0.38403333438402459 0 0.44623851559074218 0.38627004480039617 0 0.45273459899318669 0.39887885568927117 0 0.46109592324506471 0.38403333438402459 0 0.46800728919803369 0.3968829546239519 0 0.46109592324506471 0.38403333438402459 0 0.48089600100104529 0.38309243001123627 0 0.46705065290776482 0.36723877568049912 0 0.46109592324506471 0.38403333438402459 0 0.48089600100104529 0.38309243001123627 0 0.46800728919803369 0.3968829546239519 0 0.48052571866292071 0.40739679007763829 0 0.46027475656121197 0.40914777417223219 0 0.46800728919803369 0.3968829546239519 0 0.48089600100104529 0.38309243001123627 0 0.48052571866292071 0.40739679007763829 0 0.48089600100104529 0.38309243001123627 0 0.5 0.39626333856026991 0 0.48052571866292071 0.40739679007763829 0 0.5 0.37058149874670993 0 0.48089600100104529 0.38309243001123627 0 0.5 0.39626333856026991 0 0.50000000000000044 0.42194517837382972 0 0.49249892689839653 0.44263329761028031 0 0.50000000000000044 0.42194517837382972 0 0.48607059417963511 0.43501980622280018 0 0.48286133816489218 0.42341531305452368 0 0.50000000000000044 0.42194517837382972 0 0.48607059417963511 0.43501980622280018 0 0.49249892689839653 0.44263329761028031 0 0.50000000000000044 0.42194517837382972 0 0.48052571866292071 0.40739679007763829 0 0.48286133816489218 0.42341531305452368 0 0.5 0.39626333856026991 0 0.50000000000000044 0.42194517837382972 0 0.48052571866292071 0.40739679007763829 0 0.48052571866292071 0.40739679007763829 0 0.47164064571526121 0.42103054174742499 0 0.48286133816489218 0.42341531305452368 0 0.48052571866292071 0.40739679007763829 0 0.47164064571526121 0.42103054174742499 0 0.46027475656121197 0.40914777417223219 0 0.47164064571526121 0.42103054174742499 0 0.47629252230745628 0.43202844473993951 0 0.46800990226762612 0.43013335812610792 0 0.47164064571526121 0.42103054174742499 0 0.48286133816489218 0.42341531305452368 0 0.47629252230745628 0.43202844473993951 0 0.48607059417963511 0.43501980622280018 0 0.48286133816489218 0.42341531305452368 0 0.47629252230745628 0.43202844473993951 0 0.48607059417963511 0.43501980622280018 0 0.47629252230745628 0.43202844473993951 0 0.478837816137195 0.44201535685533822 0 0.47629252230745628 0.43202844473993951 0 0.46800990226762612 0.43013335812610792 0 0.47218787177287758 0.44005088821405802 0 0.46800990226762612 0.43013335812610792 0 0.46425145425015418 0.43687243231697598 0 0.45974298735620428 0.42977630280640189 0 0.46800990226762612 0.43013335812610792 0 0.46425145425015418 0.43687243231697598 0 0.47218787177287758 0.44005088821405802 0 0.47164064571526121 0.42103054174742499 0 0.46800990226762612 0.43013335812610792 0 0.46250278901273162 0.42270752863874778 0 0.46800990226762612 0.43013335812610792 0 0.46250278901273162 0.42270752863874778 0 0.45974298735620428 0.42977630280640189 0 0.45974298735620428 0.42977630280640189 0 0.45430531478421671 0.42163543809745929 0 0.45139083174198802 0.43152763394502058 0 0.46250278901273162 0.42270752863874778 0 0.45974298735620428 0.42977630280640189 0 0.45430531478421671 0.42163543809745929 0 0.45806361024958198 0.43689797920671369 0 0.45139083174198802 0.43152763394502058 0 0.45254463300966402 0.44139975658491459 0 0.45806361024958198 0.43689797920671369 0 0.45974298735620428 0.42977630280640189 0 0.45139083174198802 0.43152763394502058 0 0.46425145425015418 0.43687243231697598 0 0.45806361024958198 0.43689797920671369 0 0.45974298735620428 0.42977630280640189 0 0.47164064571526121 0.42103054174742499 0 0.46250278901273162 0.42270752863874778 0 0.46027475656121197 0.40914777417223219 0 0.46250278901273162 0.42270752863874778 0 0.45430531478421671 0.42163543809745929 0 0.46027475656121197 0.40914777417223219 0 0.45430531478421671 0.42163543809745929 0 0.46027475656121197 0.40914777417223219 0 0.45191432803234188 0.4129013068727414 0 0.46027475656121197 0.40914777417223219 0 0.45286957771966119 0.40726226746935312 0 0.45191432803234188 0.4129013068727414 0 0.44655462729190443 0.40812113314316739 0 0.45191432803234188 0.4129013068727414 0 0.44492745993404609 0.41823451345955742 0 0.44655462729190443 0.40812113314316739 0 0.45286957771966119 0.40726226746935312 0 0.45191432803234188 0.4129013068727414 0 0.45430531478421671 0.42163543809745929 0 0.45191432803234188 0.4129013068727414 0 0.44492745993404609 0.41823451345955742 0 0.45430531478421671 0.42163543809745929 0 0.44492745993404609 0.41823451345955742 0 0.4457346137413758 0.42555210637716051 0 0.43650619774580718 0.41968959887481389 0 0.44655462729190443 0.40812113314316739 0 0.44492745993404609 0.41823451345955742 0 0.43650619774580718 0.41968959887481389 0 0.44492745993404609 0.41823451345955742 0 0.44143552463563618 0.42253471741152743 0 0.45139083174198802 0.43152763394502058 0 0.4457346137413758 0.42555210637716051 0 0.4434773561238215 0.43508604963605529 0 0.45139083174198802 0.43152763394502058 0 0.4434773561238215 0.43508604963605529 0 0.45254463300966402 0.44139975658491459 0 0.45430531478421671 0.42163543809745929 0 0.45139083174198802 0.43152763394502058 0 0.4457346137413758 0.42555210637716051 0 0.4457346137413758 0.42555210637716051 0 0.43857382712131587 0.42666265093457761 0 0.4434773561238215 0.43508604963605529 0 0.44492745993404609 0.41823451345955742 0 0.4457346137413758 0.42555210637716051 0 0.44143552463563618 0.42253471741152743 0 0.4457346137413758 0.42555210637716051 0 0.44143552463563618 0.42253471741152743 0 0.43857382712131587 0.42666265093457761 0 0.43650619774580718 0.41968959887481389 0 0.44143552463563618 0.42253471741152743 0 0.43857382712131587 0.42666265093457761 0 0.43439853854146121 0.43334695253172728 0 0.43857382712131587 0.42666265093457761 0 0.4434773561238215 0.43508604963605529 0 0.43439853854146121 0.43334695253172728 0 0.4434773561238215 0.43508604963605529 0 0.43575360864593399 0.44113171836324733 0 0.50000000000000044 0.42194517837382972 0 0.49249892689839653 0.44263329761028031 0 0.5 0.5 0 0.4434773561238215 0.43508604963605529 0 0.44474629534045218 0.44617052995890072 0 0.43575360864593399 0.44113171836324733 0 0.44474629534045218 0.44617052995890072 0 0.44517803447366883 0.45655072862241958 0 0.43084973980950259 0.45383206042618057 0 0.44474629534045218 0.44617052995890072 0 0.44517803447366883 0.45655072862241958 0 0.45376732636665679 0.45011151328119497 0 0.44474629534045218 0.44617052995890072 0 0.45254463300966402 0.44139975658491459 0 0.45376732636665679 0.45011151328119497 0 0.4434773561238215 0.43508604963605529 0 0.44474629534045218 0.44617052995890072 0 0.45254463300966402 0.44139975658491459 0 0.43783080089711851 0.46539504598376757 0 0.44517803447366883 0.45655072862241958 0 0.44904117110839831 0.46539649319527687 0 0.43783080089711851 0.46539504598376757 0 0.44904117110839831 0.46539649319527687 0 0.44214871703036779 0.47530611484236251 0 0.43783080089711851 0.46539504598376757 0 0.44517803447366883 0.45655072862241958 0 0.43084973980950259 0.45383206042618057 0 0.44517803447366883 0.45655072862241958 0 0.45504728875207989 0.45834734607148547 0 0.45376732636665679 0.45011151328119497 0 0.44517803447366883 0.45655072862241958 0 0.44904117110839831 0.46539649319527687 0 0.45504728875207989 0.45834734607148547 0 0.44904117110839831 0.46539649319527687 0 0.45889199650424761 0.46489046585241561 0 0.45504728875207989 0.45834734607148547 0 0.44904117110839831 0.46539649319527687 0 0.45889199650424761 0.46489046585241561 0 0.45442715469970812 0.47339167529063542 0 0.45889199650424761 0.46489046585241561 0 0.45504728875207989 0.45834734607148547 0 0.46161252012912629 0.45985890746288349 0 0.45504728875207989 0.45834734607148547 0 0.46131690946338172 0.45361321798580218 0 0.45376732636665679 0.45011151328119497 0 0.45504728875207989 0.45834734607148547 0 0.46131690946338172 0.45361321798580218 0 0.46161252012912629 0.45985890746288349 0 0.46131690946338172 0.45361321798580218 0 0.46680993144531391 0.45834549759849641 0 0.46806279178197718 0.45279662831304068 0 0.46131690946338172 0.45361321798580218 0 0.46680993144531391 0.45834549759849641 0 0.46161252012912629 0.45985890746288349 0 0.46680993144531391 0.45834549759849641 0 0.46161252012912629 0.45985890746288349 0 0.46568816705597882 0.46416607075614441 0 0.45889199650424761 0.46489046585241561 0 0.46161252012912629 0.45985890746288349 0 0.46568816705597882 0.46416607075614441 0 0.46680993144531391 0.45834549759849641 0 0.46568816705597882 0.46416607075614441 0 0.47076465736658712 0.46271791075287522 0 0.46568816705597882 0.46416607075614441 0 0.47150327765646421 0.46811707751431669 0 0.46453400959088093 0.47147466992026171 0 0.45889199650424761 0.46489046585241561 0 0.46568816705597882 0.46416607075614441 0 0.46453400959088093 0.47147466992026171 0 0.45806361024958198 0.43689797920671369 0 0.45254463300966402 0.44139975658491459 0 0.46238814488989982 0.4449137703802552 0 0.46131690946338172 0.45361321798580218 0 0.45376732636665679 0.45011151328119497 0 0.46238814488989982 0.4449137703802552 0 0.45254463300966402 0.44139975658491459 0 0.45376732636665679 0.45011151328119497 0 0.46238814488989982 0.4449137703802552 0 0.46806279178197718 0.45279662831304068 0 0.46238814488989982 0.4449137703802552 0 0.47069987249768042 0.4470667263486981 0 0.46131690946338172 0.45361321798580218 0 0.46806279178197718 0.45279662831304068 0 0.46238814488989982 0.4449137703802552 0 0.46425145425015418 0.43687243231697598 0 0.45806361024958198 0.43689797920671369 0 0.46238814488989982 0.4449137703802552 0 0.46425145425015418 0.43687243231697598 0 0.46238814488989982 0.4449137703802552 0 0.47218787177287758 0.44005088821405802 0 0.46238814488989982 0.4449137703802552 0 0.47218787177287758 0.44005088821405802 0 0.47069987249768042 0.4470667263486981 0 0.47629252230745628 0.43202844473993951 0 0.47218787177287758 0.44005088821405802 0 0.478837816137195 0.44201535685533822 0 0.48268722049863211 0.44876094882618339 0 0.48222537473757809 0.46099770093019182 0 0.48790110517619822 0.44149655139528737 0 0.48499785379679211 0.46332141684673073 0 0.49249892689839653 0.44263329761028031 0 0.5 0.5 0 0.47218787177287758 0.44005088821405802 0 0.478837816137195 0.44201535685533822 0 0.47608368640705179 0.44702041545276322 0 0.47218787177287758 0.44005088821405802 0 0.47608368640705179 0.44702041545276322 0 0.47069987249768042 0.4470667263486981 0 0.48607059417963511 0.43501980622280018 0 0.478837816137195 0.44201535685533822 0 0.48311779597932691 0.44295686432938147 0 0.478837816137195 0.44201535685533822 0 0.4799151576259208 0.44634586041342622 0 0.47608368640705179 0.44702041545276322 0 0.478837816137195 0.44201535685533822 0 0.48311779597932691 0.44295686432938147 0 0.4799151576259208 0.44634586041342622 0 0.48268722049863211 0.44876094882618339 0 0.478849269107398 0.45097571660346469 0 0.48022170094719779 0.45490746629732298 0 0.48311779597932691 0.44295686432938147 0 0.48268722049863211 0.44876094882618339 0 0.4799151576259208 0.44634586041342622 0 0.48268722049863211 0.44876094882618339 0 0.4799151576259208 0.44634586041342622 0 0.478849269107398 0.45097571660346469 0 0.4799151576259208 0.44634586041342622 0 0.478849269107398 0.45097571660346469 0 0.47608368640705179 0.44702041545276322 0 0.478849269107398 0.45097571660346469 0 0.47419340825614442 0.45226494510500981 0 0.4777091772080917 0.455998753672333 0 0.478849269107398 0.45097571660346469 0 0.47419340825614442 0.45226494510500981 0 0.47608368640705179 0.44702041545276322 0 0.47419340825614442 0.45226494510500981 0 0.47608368640705179 0.44702041545276322 0 0.47069987249768042 0.4470667263486981 0 0.46806279178197718 0.45279662831304068 0 0.47419340825614442 0.45226494510500981 0 0.47069987249768042 0.4470667263486981 0 0.48222537473757809 0.46099770093019182 0 0.48499785379679211 0.46332141684673073 0 0.47654964429895802 0.48049885046509611 0 0.46680993144531391 0.45834549759849641 0 0.46806279178197718 0.45279662831304068 0 0.4732346064364199 0.45829311474669382 0 0.46806279178197718 0.45279662831304068 0 0.47419340825614442 0.45226494510500981 0 0.4732346064364199 0.45829311474669382 0 0.46680993144531391 0.45834549759849641 0 0.4732346064364199 0.45829311474669382 0 0.47076465736658712 0.46271791075287522 0 0.4732346064364199 0.45829311474669382 0 0.47586222766662412 0.46326910972328061 0 0.47792326309971789 0.45939403703327819 0 0.4732346064364199 0.45829311474669382 0 0.4777091772080917 0.455998753672333 0 0.47792326309971789 0.45939403703327819 0 0.47419340825614442 0.45226494510500981 0 0.4732346064364199 0.45829311474669382 0 0.4777091772080917 0.455998753672333 0 0.46568816705597882 0.46416607075614441 0 0.47150327765646421 0.46811707751431669 0 0.47076465736658712 0.46271791075287522 0 0.4732346064364199 0.45829311474669382 0 0.47076465736658712 0.46271791075287522 0 0.47586222766662412 0.46326910972328061 0 0.47150327765646421 0.46811707751431669 0 0.47076465736658712 0.46271791075287522 0 0.47586222766662412 0.46326910972328061 0 0.47150327765646421 0.46811707751431669 0 0.47586222766662412 0.46326910972328061 0 0.47642929061743872 0.46914306749639789 0 0.47586222766662412 0.46326910972328061 0 0.48222537473757809 0.46099770093019182 0 0.47642929061743872 0.46914306749639789 0 0.47586222766662412 0.46326910972328061 0 0.48222537473757809 0.46099770093019182 0 0.47792326309971789 0.45939403703327819 0 0.48268722049863211 0.44876094882618339 0 0.48222537473757809 0.46099770093019182 0 0.48022170094719779 0.45490746629732298 0 0.478849269107398 0.45097571660346469 0 0.48022170094719779 0.45490746629732298 0 0.4777091772080917 0.455998753672333 0 0.48022170094719779 0.45490746629732298 0 0.4777091772080917 0.455998753672333 0 0.47963746318428868 0.45780421145444222 0 0.4777091772080917 0.455998753672333 0 0.47792326309971789 0.45939403703327819 0 0.47963746318428868 0.45780421145444222 0 0.48222537473757809 0.46099770093019182 0 0.47792326309971789 0.45939403703327819 0 0.47963746318428868 0.45780421145444222 0 0.48222537473757809 0.46099770093019182 0 0.48022170094719779 0.45490746629732298 0 0.47963746318428868 0.45780421145444222 0 0.48222537473757809 0.46099770093019182 0 0.48499785379679211 0.46332141684673073 0 0.49249892689839653 0.44263329761028031 0 0.48222537473757809 0.46099770093019182 0 0.49249892689839653 0.44263329761028031 0 0.48790110517619822 0.44149655139528737 0 0.48222537473757809 0.46099770093019182 0 0.48790110517619822 0.44149655139528737 0 0.48499785379679211 0.46332141684673073 0 0.49249892689839653 0.44263329761028031 0 0.48607059417963511 0.43501980622280018 0 0.48311779597932691 0.44295686432938147 0 0.48790110517619822 0.44149655139528737 0 0.48607059417963511 0.43501980622280018 0 0.49249892689839653 0.44263329761028031 0 0.48790110517619822 0.44149655139528737 0 0.48311779597932691 0.44295686432938147 0 0.48268722049863211 0.44876094882618339 0 0.48790110517619822 0.44149655139528737 0 0.48499785379679211 0.46332141684673073 0 0.5 0.5 0 0.47749678069518769 0.48400953608318109 0 0.48222537473757809 0.46099770093019182 0 0.47642929061743872 0.46914306749639789 0 0.47654964429895802 0.48049885046509611 0 0.48499785379679211 0.46332141684673073 0 0.47749678069518769 0.48400953608318109 0 0.47654964429895802 0.48049885046509611 0 0.48222537473757809 0.46099770093019182 0 0.47654964429895802 0.48049885046509611 0 0.48499785379679211 0.46332141684673073 0 0.47749678069518769 0.48400953608318109 0 0.47642929061743872 0.46914306749639789 0 0.47448605097646152 0.47405048004114331 0 0.47654964429895802 0.48049885046509611 0 0.47642929061743872 0.46914306749639789 0 0.47329548218010697 0.47113994435722911 0 0.47448605097646152 0.47405048004114331 0 0.47150327765646421 0.46811707751431669 0 0.47642929061743872 0.46914306749639789 0 0.47329548218010697 0.47113994435722911 0 0.47329548218010697 0.47113994435722911 0 0.47448605097646152 0.47405048004114331 0 0.4707633094700639 0.47324915237705828 0 0.47448605097646152 0.47405048004114331 0 0.4707633094700639 0.47324915237705828 0 0.47210616269094863 0.47776178102838379 0 0.4707633094700639 0.47324915237705828 0 0.47210616269094863 0.47776178102838379 0 0.4677179246096117 0.47743489494516078 0 0.47150327765646421 0.46811707751431669 0 0.47329548218010697 0.47113994435722911 0 0.4707633094700639 0.47324915237705828 0 0.47150327765646421 0.46811707751431669 0 0.4707633094700639 0.47324915237705828 0 0.46453400959088093 0.47147466992026171 0 0.47654964429895802 0.48049885046509611 0 0.47210616269094863 0.47776178102838379 0 0.46809850492932159 0.48422788912264819 0 0.47448605097646152 0.47405048004114331 0 0.47654964429895802 0.48049885046509611 0 0.47210616269094863 0.47776178102838379 0 0.47210616269094863 0.47776178102838379 0 0.4677179246096117 0.47743489494516078 0 0.46809850492932159 0.48422788912264819 0 0.47654964429895802 0.48049885046509611 0 0.47087391386033778 0.50000000000000044 0 0.46809850492932159 0.48422788912264819 0 0.5 0.5 0 0.47749678069518769 0.48400953608318109 0 0.47087391386033778 0.50000000000000044 0 0.47749678069518769 0.48400953608318109 0 0.47654964429895802 0.48049885046509611 0 0.47087391386033778 0.50000000000000044 0 0.47654964429895802 0.48049885046509611 0 0.47087391386033778 0.50000000000000044 0 0.47087391386033778 0.50000000000000044 0 0.4589338953039 0.48981752427484171 0 0.45016058810298148 0.5 0 0.47087391386033778 0.50000000000000044 0 0.4589338953039 0.48981752427484171 0 0.46809850492932159 0.48422788912264819 0 0.4589338953039 0.48981752427484171 0 0.46119825929785901 0.47992428533449999 0 0.46809850492932159 0.48422788912264819 0 0.4589338953039 0.48981752427484171 0 0.45016058810298148 0.5 0 0.45070790059203542 0.48443967219459588 0 0.4589338953039 0.48981752427484171 0 0.46119825929785901 0.47992428533449999 0 0.45070790059203542 0.48443967219459588 0 0.46453400959088093 0.47147466992026171 0 0.46119825929785901 0.47992428533449999 0 0.4677179246096117 0.47743489494516078 0 0.4707633094700639 0.47324915237705828 0 0.46453400959088093 0.47147466992026171 0 0.4677179246096117 0.47743489494516078 0 0.46119825929785901 0.47992428533449999 0 0.4677179246096117 0.47743489494516078 0 0.46809850492932159 0.48422788912264819 0 0.46119825929785901 0.47992428533449999 0 0.45442715469970812 0.47339167529063542 0 0.45070790059203542 0.48443967219459588 0 0.45889199650424761 0.46489046585241561 0 0.46453400959088093 0.47147466992026171 0 0.45442715469970812 0.47339167529063542 0 0.46453400959088093 0.47147466992026171 0 0.46119825929785901 0.47992428533449999 0 0.45442715469970812 0.47339167529063542 0 0.44904117110839831 0.46539649319527687 0 0.45442715469970812 0.47339167529063542 0 0.44214871703036779 0.47530611484236251 0 0.45442715469970812 0.47339167529063542 0 0.44214871703036779 0.47530611484236251 0 0.45070790059203542 0.48443967219459588 0 0.44214871703036779 0.47530611484236251 0 0.45070790059203542 0.48443967219459588 0 0.43824157364856797 0.4877632263931444 0 0.45016058810298148 0.5 0 0.43824157364856797 0.4877632263931444 0 0.4294472623456253 0.50000000000000222 0 0.45016058810298148 0.5 0 0.45070790059203542 0.48443967219459588 0 0.43824157364856797 0.4877632263931444 0 0.43824157364856797 0.4877632263931444 0 0.4294472623456253 0.50000000000000222 0 0.42288476592145569 0.47698135117472512 0 0.4294472623456253 0.50000000000000222 0 0.42288476592145569 0.47698135117472512 0 0.42288476592145569 0.47698135117472512 0 0.40397616743830389 0.46823404704707622 0 0.39978670021259571 0.5 0 0.4294472623456253 0.50000000000000222 0 0.42288476592145569 0.47698135117472512 0 0.39978670021259571 0.5 0 0.43783080089711851 0.46539504598376757 0 0.44214871703036779 0.47530611484236251 0 0.42288476592145569 0.47698135117472512 0 0.44214871703036779 0.47530611484236251 0 0.43824157364856797 0.4877632263931444 0 0.42288476592145569 0.47698135117472512 0 0.43783080089711851 0.46539504598376757 0 0.42288476592145569 0.47698135117472512 0 0.43084973980950259 0.45383206042618057 0 0.42288476592145569 0.47698135117472512 0 0.43084973980950259 0.45383206042618057 0 0.41632226949728668 0.45396270234944791 0 0.43084973980950259 0.45383206042618057 0 0.43575360864593399 0.44113171836324733 0 0.42575029225984629 0.43817658423166628 0 0.43084973980950259 0.45383206042618057 0 0.42575029225984629 0.43817658423166628 0 0.41632226949728668 0.45396270234944791 0 0.43439853854146121 0.43334695253172728 0 0.43575360864593399 0.44113171836324733 0 0.42575029225984629 0.43817658423166628 0 0.44474629534045218 0.44617052995890072 0 0.43084973980950259 0.45383206042618057 0 0.43575360864593399 0.44113171836324733 0 0.40975977307311767 0.4309440535241707 0 0.41632226949728668 0.45396270234944791 0 0.40975977307311767 0.4309440535241707 0 0.41632226949728668 0.45396270234944791 0 0.40277120807912181 0.44488064963545743 0 0.40975977307311767 0.4309440535241707 0 0.42575029225984629 0.43817658423166628 0 0.41632226949728668 0.45396270234944791 0 0.41632226949728668 0.45396270234944791 0 0.40397616743830389 0.46823404704707622 0 0.40277120807912181 0.44488064963545743 0 0.42288476592145569 0.47698135117472512 0 0.41632226949728668 0.45396270234944791 0 0.42288476592145569 0.47698135117472512 0 0.41632226949728668 0.45396270234944791 0 0.40397616743830389 0.46823404704707622 0 0.40397616743830389 0.46823404704707622 0 0.3914315947512424 0.45558027212499541 0 0.38608907541949888 0.47640493513650201 0 0.40397616743830389 0.46823404704707622 0 0.3914315947512424 0.45558027212499541 0 0.40277120807912181 0.44488064963545743 0 0.3914315947512424 0.45558027212499541 0 0.40277120807912181 0.44488064963545743 0 0.38996981265582331 0.44267230085881909 0 0.39567187282383282 0.43100015285841642 0 0.40277120807912181 0.44488064963545743 0 0.38996981265582331 0.44267230085881909 0 0.37023049558979693 0.44243966271604079 0 0.39567187282383282 0.43100015285841642 0 0.38996981265582331 0.44267230085881909 0 0.37023049558979693 0.44243966271604079 0 0.38996981265582331 0.44267230085881909 0 0.38191163166310799 0.44948622619984879 0 0.3914315947512424 0.45558027212499541 0 0.38996981265582331 0.44267230085881909 0 0.38191163166310799 0.44948622619984879 0 0.37023049558979693 0.44243966271604079 0 0.38191163166310799 0.44948622619984879 0 0.37601462365556942 0.45725266909953982 0 0.36629076891963169 0.4716758837031908 0 0.37601462365556942 0.45725266909953982 0 0.38608907541949888 0.47640493513650201 0 0.3914315947512424 0.45558027212499541 0 0.37601462365556942 0.45725266909953982 0 0.38608907541949888 0.47640493513650201 0 0.3914315947512424 0.45558027212499541 0 0.38191163166310799 0.44948622619984879 0 0.37601462365556942 0.45725266909953982 0 0.40397616743830389 0.46823404704707622 0 0.38608907541949888 0.47640493513650201 0 0.39978670021259571 0.5 0 0.37012613807956618 0.5 0 0.38608907541949888 0.47640493513650201 0 0.39978670021259571 0.5 0 0.34141921861735719 0.067579393527610526 0 0.33466390169128768 0.095467244696698567 0 0.35301293421369478 0.077169886295031048 0 0.34141921861735719 0.067579393527610526 0 0.33466390169128768 0.095467244696698567 0 0.34141921861735719 0.067579393527610526 0 0.32443758592830457 0.080711647831618966 0 0.33466390169128768 0.095467244696698567 0 0.34141921861735719 0.067579393527610526 0 0.32443758592830457 0.080711647831618966 0 0.32730167687102829 0.060217632285516881 0 0.32730167687102829 0.060217632285516881 0 0.30642881819862838 0.080743722212510485 0 0.32730167687102829 0.060217632285516881 0 0.30841852684153609 0.058545680878099637 0 0.30642881819862838 0.080743722212510485 0 0.32443758592830457 0.080711647831618966 0 0.32730167687102829 0.060217632285516881 0 0.30642881819862838 0.080743722212510485 0 0.32443758592830457 0.080711647831618966 0 0.33466390169128768 0.095467244696698567 0 0.30802282078042859 0.1034634579887893 0 0.32443758592830457 0.080711647831618966 0 0.30642881819862838 0.080743722212510485 0 0.30802282078042859 0.1034634579887893 0 0.32912443987471829 0.11261861215727779 0 0.33466390169128768 0.095467244696698567 0 0.30802282078042859 0.1034634579887893 0 0.31654185007284819 0.12022243899103451 0 0.32912443987471829 0.11261861215727779 0 0.30802282078042859 0.1034634579887893 0 0.31654185007284819 0.12022243899103451 0 0.32912443987471829 0.11261861215727779 0 0.3293260288753706 0.12662057091205531 0 0.32912443987471829 0.11261861215727779 0 0.3400679449540831 0.12102442402254431 0 0.34612409287429202 0.10891353633254459 0 0.32912443987471829 0.11261861215727779 0 0.3400679449540831 0.12102442402254431 0 0.3293260288753706 0.12662057091205531 0 0.32912443987471829 0.11261861215727779 0 0.33466390169128768 0.095467244696698567 0 0.34612409287429202 0.10891353633254459 0 0.33466390169128768 0.095467244696698567 0 0.34612409287429202 0.10891353633254459 0 0.3619662266091811 0.089262460385423889 0 0.34612409287429202 0.10891353633254459 0 0.36112302224135773 0.11277521153298881 0 0.3619662266091811 0.089262460385423889 0 0.34612409287429202 0.10891353633254459 0 0.36112302224135773 0.11277521153298881 0 0.35131572215963902 0.12563937409389231 0 0.36112302224135773 0.11277521153298881 0 0.35131572215963902 0.12563937409389231 0 0.36027981787353441 0.13628796268055371 0 0.3400679449540831 0.12102442402254431 0 0.34612409287429202 0.10891353633254459 0 0.35131572215963902 0.12563937409389231 0 0.36112302224135773 0.11277521153298881 0 0.3737374959112344 0.1047415756277144 0 0.3772864422104612 0.1215050391393626 0 0.36112302224135773 0.11277521153298881 0 0.36027981787353441 0.13628796268055371 0 0.36112302224135773 0.11277521153298881 0 0.36027981787353441 0.13628796268055371 0 0.3772864422104612 0.1215050391393626 0 0.36112302224135773 0.11277521153298881 0 0.3737374959112344 0.1047415756277144 0 0.3619662266091811 0.089262460385423889 0 0.36112302224135773 0.11277521153298881 0 0.3619662266091811 0.089262460385423889 0 0.3737374959112344 0.1047415756277144 0 0.3619662266091811 0.089262460385423889 0 0.37901036843610469 0.078043396751232272 0 0.33466390169128768 0.095467244696698567 0 0.3619662266091811 0.089262460385423889 0 0.35301293421369478 0.077169886295031048 0 0.3619662266091811 0.089262460385423889 0 0.35301293421369478 0.077169886295031048 0 0.36280943097700458 0.065749709237859 0 0.34141921861735719 0.067579393527610526 0 0.35301293421369478 0.077169886295031048 0 0.3531558131185013 0.057673261749419537 0 0.35301293421369478 0.077169886295031048 0 0.36280943097700458 0.065749709237859 0 0.3531558131185013 0.057673261749419537 0 0.3619662266091811 0.089262460385423889 0 0.36280943097700458 0.065749709237859 0 0.3619662266091811 0.089262460385423889 0 0.36280943097700458 0.065749709237859 0 0.37901036843610469 0.078043396751232272 0 0.36280943097700458 0.065749709237859 0 0.37036712815049061 0.048210502621681417 0 0.38428324096097499 0.05134521787475009 0 0.36280943097700458 0.065749709237859 0 0.36078310898827642 0.05385930791073916 0 0.37036712815049061 0.048210502621681417 0 0.36078310898827642 0.05385930791073916 0 0.37036712815049061 0.048210502621681417 0 0.35680006370710921 0.043803758033996679 0 0.37036712815049061 0.048210502621681417 0 0.37317808859647822 0.034225398516132828 0 0.35680006370710921 0.043803758033996679 0 0.37317808859647822 0.034225398516132828 0 0.35680006370710921 0.043803758033996679 0 0.36599914633082947 0.022163058614241029 0 0.37317808859647822 0.034225398516132828 0 0.35680006370710921 0.043803758033996679 0 0.34817453554342748 0.039691542358522652 0 0.35214543196535542 0.02329856337107488 0 0.34817453554342748 0.039691542358522652 0 0.35680006370710921 0.043803758033996679 0 0.36599914633082947 0.022163058614241029 0 0.34141921861735719 0.067579393527610526 0 0.34817453554342748 0.039691542358522652 0 0.3531558131185013 0.057673261749419537 0 0.34817453554342748 0.039691542358522652 0 0.35680006370710921 0.043803758033996679 0 0.3531558131185013 0.057673261749419537 0 0.34141921861735719 0.067579393527610526 0 0.34817453554342748 0.039691542358522652 0 0.36280943097700458 0.065749709237859 0 0.36078310898827642 0.05385930791073916 0 0.3531558131185013 0.057673261749419537 0 0.36078310898827642 0.05385930791073916 0 0.35680006370710921 0.043803758033996679 0 0.3531558131185013 0.057673261749419537 0 0.36459978185581599 0.0016197853629371991 0 0.38382375711823202 0.0046345748699598427 0 0.36599914633082947 0.022163058614241029 0 0.38382375711823202 0.0046345748699598427 0 0.36459978185581599 0.0016197853629371991 0 0.36453688913150201 0.011724313320365521 0 0.38382375711823202 0.0046345748699598427 0 0.36453688913150201 0.011724313320365521 0 0.36599914633082947 0.022163058614241029 0 0.38382375711823202 0.0046345748699598427 0 0.36459978185581599 0.0016197853629371991 0 0.35611632838728552 0.0069055843836276897 0 0.35766033028314259 0.00053150962912805184 0 0.36459978185581599 0.0016197853629371991 0 0.36453688913150201 0.011724313320365521 0 0.35611632838728552 0.0069055843836276897 0 0.36459978185581599 0.0016197853629371991 0 0.35611632838728552 0.0069055843836276897 0 0.36459978185581599 0.0016197853629371991 0 0.35766033028314259 0.00053150962912805184 0 0.36453688913150201 0.011724313320365521 0 0.36599914633082947 0.022163058614241029 0 0.35214543196535542 0.02329856337107488 0 0.37317808859647822 0.034225398516132828 0 0.36599914633082947 0.022163058614241029 0 0.37778714102223682 0.02331484962467225 0 0.34817453554342748 0.039691542358522652 0 0.36599914633082947 0.022163058614241029 0 0.35214543196535542 0.02329856337107488 0 0.34817453554342748 0.039691542358522652 0 0.36599914633082947 0.022163058614241029 0 0.34817453554342748 0.039691542358522652 0 0.35214543196535542 0.02329856337107488 0 0.34073010365916312 0.029606654903674989 0 0.34396446868085268 0.020327156331984911 0 0.35214543196535542 0.02329856337107488 0 0.34073010365916312 0.029606654903674989 0 0.34396446868085268 0.020327156331984911 0 0.35214543196535542 0.02329856337107488 0 0.3486391139840414 0.01378171327663134 0 0.35611632838728552 0.0069055843836276897 0 0.35766033028314259 0.00053150962912805184 0 0.34186169234775288 -0.0019461032070706239 0 0.35214543196535542 0.02329856337107488 0 0.3486391139840414 0.01378171327663134 0 0.35611632838728552 0.0069055843836276897 0 0.36453688913150201 0.011724313320365521 0 0.35214543196535542 0.02329856337107488 0 0.35611632838728552 0.0069055843836276897 0 0.35214543196535542 0.02329856337107488 0 0.35611632838728552 0.0069055843836276897 0 0.34788587975520718 0.01203374327326698 0 0.35611632838728552 0.0069055843836276897 0 0.34788587975520718 0.01203374327326698 0 0.3486391139840414 0.01378171327663134 0 0.35611632838728552 0.0069055843836276897 0 0.34396446868085268 0.020327156331984911 0 0.34788587975520718 0.01203374327326698 0 0.3486391139840414 0.01378171327663134 0 0.34788587975520718 0.01203374327326698 0 0.3486391139840414 0.01378171327663134 0 0.34788587975520718 0.01203374327326698 0 0.35611632838728552 0.0069055843836276897 0 0.34186169234775288 -0.0019461032070706239 0 0.34788587975520718 0.01203374327326698 0 0.34186169234775288 -0.0019461032070706239 0 0.35611632838728552 0.0069055843836276897 0 0.35766033028314259 0.00053150962912805184 0 0.34788587975520718 0.01203374327326698 0 0.33040276643443328 0.0077194922335834752 0 0.34186169234775288 -0.0019461032070706239 0 0.34788587975520718 0.01203374327326698 0 0.33040276643443328 0.0077194922335834752 0 0.33042181404049609 0.022915106835276582 0 0.33042181404049609 0.022915106835276582 0 0.34073010365916312 0.029606654903674989 0 0.32916694000703273 0.041137671269217399 0 0.34396446868085268 0.020327156331984911 0 0.34788587975520718 0.01203374327326698 0 0.33042181404049609 0.022915106835276582 0 0.34788587975520718 0.01203374327326698 0 0.33042181404049609 0.022915106835276582 0 0.34396446868085268 0.020327156331984911 0 0.33042181404049609 0.022915106835276582 0 0.34073010365916312 0.029606654903674989 0 0.33042181404049609 0.022915106835276582 0 0.31665256165565792 0.012274888616195721 0 0.31295774832578521 0.033796470397286393 0 0.33042181404049609 0.022915106835276582 0 0.31295774832578521 0.033796470397286393 0 0.33040276643443328 0.0077194922335834752 0 0.31665256165565792 0.012274888616195721 0 0.3153171152914937 -0.0061089421248620053 0 0.33040276643443328 0.0077194922335834752 0 0.33042181404049609 0.022915106835276582 0 0.31665256165565792 0.012274888616195721 0 0.34141921861735719 0.067579393527610526 0 0.34817453554342748 0.039691542358522652 0 0.32730167687102829 0.060217632285516881 0 0.34817453554342748 0.039691542358522652 0 0.32916694000703273 0.041137671269217399 0 0.32730167687102829 0.060217632285516881 0 0.34817453554342748 0.039691542358522652 0 0.32730167687102829 0.060217632285516881 0 0.34817453554342748 0.039691542358522652 0 0.34073010365916312 0.029606654903674989 0 0.32916694000703273 0.041137671269217399 0 0.32916694000703273 0.041137671269217399 0 0.31295774832578521 0.033796470397286393 0 0.30841852684153609 0.058545680878099637 0 0.33042181404049609 0.022915106835276582 0 0.32916694000703273 0.041137671269217399 0 0.31295774832578521 0.033796470397286393 0 0.32916694000703273 0.041137671269217399 0 0.32730167687102829 0.060217632285516881 0 0.30841852684153609 0.058545680878099637 0 0.30841852684153609 0.058545680878099637 0 0.29549368261107423 0.044677833959296212 0 0.29116922898793479 0.065304421801999329 0 0.31295774832578521 0.033796470397286393 0 0.30841852684153609 0.058545680878099637 0 0.29549368261107423 0.044677833959296212 0 0.31295774832578521 0.033796470397286393 0 0.29549368261107423 0.044677833959296212 0 0.29002010253153498 0.029240258759704641 0 0.31295774832578521 0.033796470397286393 0 0.29549368261107423 0.044677833959296212 0 0.29549368261107423 0.044677833959296212 0 0.29002010253153498 0.029240258759704641 0 0.27280963139467213 0.037002697350774501 0 0.29549368261107423 0.044677833959296212 0 0.27447269405752689 0.057703547068217037 0 0.29116922898793479 0.065304421801999329 0 0.31665256165565792 0.012274888616195721 0 0.29594264507526558 0.01116838319107246 0 0.3153171152914937 -0.0061089421248620053 0 0.31295774832578521 0.033796470397286393 0 0.29002010253153498 0.029240258759704641 0 0.29594264507526558 0.01116838319107246 0 0.31665256165565792 0.012274888616195721 0 0.31295774832578521 0.033796470397286393 0 0.29594264507526558 0.01116838319107246 0 0.29002010253153498 0.029240258759704641 0 0.29594264507526558 0.01116838319107246 0 0.27289680525087828 0.01955590890009366 0 0.29594264507526558 0.01116838319107246 0 0.27345126597006592 0.00071225981742997107 0 0.2887725382352363 -0.01027178104266422 0 0.29594264507526558 0.01116838319107246 0 0.27345126597006592 0.00071225981742997107 0 0.27289680525087828 0.01955590890009366 0 0.29002010253153498 0.029240258759704641 0 0.27289680525087828 0.01955590890009366 0 0.27280963139467213 0.037002697350774501 0 0.27289680525087828 0.01955590890009366 0 0.25458476701871002 0.02766973368984053 0 0.27280963139467213 0.037002697350774501 0 0.24502883806765671 0.008523642691556723 0 0.27289680525087828 0.01955590890009366 0 0.25458476701871002 0.02766973368984053 0 0.24502883806765671 0.008523642691556723 0 0.27345126597006592 0.00071225981742997107 0 0.27289680525087828 0.01955590890009366 0 0.29549368261107423 0.044677833959296212 0 0.27447269405752689 0.057703547068217037 0 0.27280963139467213 0.037002697350774501 0 0.24773452015769859 0.046187867395794058 0 0.25458476701871002 0.02766973368984053 0 0.27280963139467213 0.037002697350774501 0 0.24773452015769859 0.046187867395794058 0 0.27447269405752689 0.057703547068217037 0 0.25865679783116052 0.070915849861062308 0 0.24773452015769859 0.046187867395794058 0 0.27447269405752689 0.057703547068217037 0 0.27280963139467213 0.037002697350774501 0 0.25865679783116052 0.070915849861062308 0 0.27616036645407022 0.081171112570811929 0 0.25384944954462069 0.095449856149134135 0 0.23940360910079561 0.072187684139423405 0 0.25865679783116052 0.070915849861062308 0 0.25384944954462069 0.095449856149134135 0 0.27616036645407022 0.081171112570811929 0 0.26943926039456972 0.099795050200150268 0 0.25384944954462069 0.095449856149134135 0 0.27616036645407022 0.081171112570811929 0 0.28555595952622859 0.10126981213950439 0 0.27447269405752689 0.057703547068217037 0 0.25865679783116052 0.070915849861062308 0 0.27616036645407022 0.081171112570811929 0 0.27447269405752689 0.057703547068217037 0 0.27616036645407022 0.081171112570811929 0 0.29116922898793479 0.065304421801999329 0 0.27616036645407022 0.081171112570811929 0 0.29116922898793479 0.065304421801999329 0 0.30642881819862838 0.080743722212510485 0 0.27616036645407022 0.081171112570811929 0 0.30642881819862838 0.080743722212510485 0 0.28555595952622859 0.10126981213950439 0 0.30642881819862838 0.080743722212510485 0 0.28555595952622859 0.10126981213950439 0 0.30841852684153609 0.058545680878099637 0 0.29116922898793479 0.065304421801999329 0 0.30642881819862838 0.080743722212510485 0 0.31654185007284819 0.12022243899103451 0 0.30802282078042859 0.1034634579887893 0 0.3052906345432434 0.12599964084974211 0 0.30802282078042859 0.1034634579887893 0 0.29424027191342261 0.1198469668002466 0 0.3052906345432434 0.12599964084974211 0 0.30642881819862838 0.080743722212510485 0 0.30802282078042859 0.1034634579887893 0 0.28555595952622859 0.10126981213950439 0 0.30802282078042859 0.1034634579887893 0 0.28555595952622859 0.10126981213950439 0 0.29424027191342261 0.1198469668002466 0 0.28555595952622859 0.10126981213950439 0 0.29424027191342261 0.1198469668002466 0 0.28555595952622859 0.10126981213950439 0 0.29424027191342261 0.1198469668002466 0 0.27064383871955061 0.1159341922076164 0 0.29424027191342261 0.1198469668002466 0 0.27064383871955061 0.1159341922076164 0 0.27836593757777162 0.12622500564243611 0 0.28555595952622859 0.10126981213950439 0 0.27064383871955061 0.1159341922076164 0 0.26943926039456972 0.099795050200150268 0 0.27616036645407022 0.081171112570811929 0 0.28555595952622859 0.10126981213950439 0 0.26943926039456972 0.099795050200150268 0 0.28555595952622859 0.10126981213950439 0 0.27064383871955061 0.1159341922076164 0 0.26943926039456972 0.099795050200150268 0 0.25384944954462069 0.095449856149134135 0 0.25620984555605009 0.1131725934863051 0 0.2388396102423237 0.1172756265968197 0 0.25620984555605009 0.1131725934863051 0 0.25573171791287269 0.13059857227572849 0 0.27064383871955061 0.1159341922076164 0 0.25620984555605009 0.1131725934863051 0 0.25573171791287269 0.13059857227572849 0 0.27064383871955061 0.1159341922076164 0 0.26943926039456972 0.099795050200150268 0 0.25620984555605009 0.1131725934863051 0 0.27064383871955061 0.1159341922076164 0 0.25573171791287269 0.13059857227572849 0 0.27064383871955061 0.1159341922076164 0 0.25573171791287269 0.13059857227572849 0 0.26474489835187032 0.13327120188759109 0 0.25663613896196991 0.14035755598763441 0 0.26474489835187032 0.13327120188759109 0 0.27429386623587182 0.14432025961747261 0 0.2388396102423237 0.1172756265968197 0 0.25573171791287269 0.13059857227572849 0 0.25663613896196991 0.14035755598763441 0 0.25573171791287269 0.13059857227572849 0 0.25663613896196991 0.14035755598763441 0 0.26474489835187032 0.13327120188759109 0 0.26474489835187032 0.13327120188759109 0 0.27836593757777162 0.12622500564243611 0 0.2838347413262432 0.13584766167429049 0 0.26474489835187032 0.13327120188759109 0 0.2838347413262432 0.13584766167429049 0 0.26474489835187032 0.13327120188759109 0 0.27429386623587182 0.14432025961747261 0 0.2838347413262432 0.13584766167429049 0 0.27064383871955061 0.1159341922076164 0 0.26474489835187032 0.13327120188759109 0 0.27836593757777162 0.12622500564243611 0 0.25663613896196991 0.14035755598763441 0 0.27429386623587182 0.14432025961747261 0 0.27443266768161589 0.16343948537844899 0 0.27429386623587182 0.14432025961747261 0 0.27443266768161589 0.16343948537844899 0 0.29182088485765978 0.14868539315939769 0 0.25663613896196991 0.14035755598763441 0 0.27443266768161589 0.16343948537844899 0 0.25663613896196991 0.14035755598763441 0 0.25299790414357343 0.16100449818938201 0 0.27443266768161589 0.16343948537844899 0 0.2398937274470776 0.1701272920004806 0 0.25299790414357343 0.16100449818938201 0 0.26290520812746782 0.1776609444212616 0 0.25299790414357343 0.16100449818938201 0 0.26290520812746782 0.1776609444212616 0 0.27443266768161589 0.16343948537844899 0 0.2475941291823989 0.18769603697772511 0 0.2398937274470776 0.1701272920004806 0 0.26290520812746782 0.1776609444212616 0 0.26290520812746782 0.1776609444212616 0 0.27443266768161589 0.16343948537844899 0 0.27827491417824468 0.1876060113889412 0 0.27443266768161589 0.16343948537844899 0 0.29952215514580832 0.1666340054519716 0 0.29182088485765978 0.14868539315939769 0 0.27443266768161589 0.16343948537844899 0 0.29222919640126049 0.18652141476926479 0 0.27443266768161589 0.16343948537844899 0 0.29222919640126049 0.18652141476926479 0 0.29952215514580832 0.1666340054519716 0 0.27443266768161589 0.16343948537844899 0 0.29222919640126049 0.18652141476926479 0 0.27827491417824468 0.1876060113889412 0 0.29222919640126049 0.18652141476926479 0 0.29952215514580832 0.1666340054519716 0 0.30186684762655891 0.18706314627180651 0 0.31878666198549099 0.1723556818718206 0 0.29222919640126049 0.18652141476926479 0 0.30186684762655891 0.18706314627180651 0 0.29952215514580832 0.1666340054519716 0 0.30186684762655891 0.18706314627180651 0 0.29952215514580832 0.1666340054519716 0 0.31878666198549099 0.1723556818718206 0 0.29952215514580832 0.1666340054519716 0 0.30681511389035809 0.14674659613467919 0 0.29952215514580832 0.1666340054519716 0 0.30681511389035809 0.14674659613467919 0 0.31878666198549099 0.1723556818718206 0 0.29952215514580832 0.1666340054519716 0 0.30681511389035809 0.14674659613467919 0 0.29182088485765978 0.14868539315939769 0 0.30681511389035809 0.14674659613467919 0 0.3029245843006162 0.13842412146098901 0 0.29182088485765978 0.14868539315939769 0 0.30681511389035809 0.14674659613467919 0 0.30953966586774662 0.13931692564310591 0 0.31977433524352539 0.15291883525178929 0 0.30681511389035809 0.14674659613467919 0 0.3029245843006162 0.13842412146098901 0 0.30681511389035809 0.14674659613467919 0 0.30953966586774662 0.13931692564310591 0 0.3029245843006162 0.13842412146098901 0 0.30681511389035809 0.14674659613467919 0 0.30953966586774662 0.13931692564310591 0 0.30953966586774662 0.13931692564310591 0 0.3052906345432434 0.12599964084974211 0 0.3029245843006162 0.13842412146098901 0 0.31654185007284819 0.12022243899103451 0 0.30953966586774662 0.13931692564310591 0 0.3052906345432434 0.12599964084974211 0 0.29424027191342261 0.1198469668002466 0 0.3052906345432434 0.12599964084974211 0 0.3029245843006162 0.13842412146098901 0 0.29424027191342261 0.1198469668002466 0 0.3029245843006162 0.13842412146098901 0 0.30953966586774662 0.13931692564310591 0 0.3029245843006162 0.13842412146098901 0 0.3029245843006162 0.13842412146098901 0 0.2838347413262432 0.13584766167429049 0 0.29424027191342261 0.1198469668002466 0 0.27836593757777162 0.12622500564243611 0 0.2838347413262432 0.13584766167429049 0 0.29424027191342261 0.1198469668002466 0 0.3029245843006162 0.13842412146098901 0 0.2838347413262432 0.13584766167429049 0 0.27429386623587182 0.14432025961747261 0 0.2838347413262432 0.13584766167429049 0 0.29182088485765978 0.14868539315939769 0 0.3029245843006162 0.13842412146098901 0 0.2838347413262432 0.13584766167429049 0 0.29182088485765978 0.14868539315939769 0 0.26816417126529979 0.24728830496769821 0 0.28191036028008071 0.22971804954519179 0 0.29218139916548841 0.2486239686486868 0 0.26816417126529979 0.24728830496769821 0 0.28191036028008071 0.22971804954519179 0 0.26816417126529979 0.24728830496769821 0 0.26935092184594922 0.23199051857883521 0 0.28191036028008071 0.22971804954519179 0 0.26575823541941801 0.2442378127097945 0 0.26816417126529979 0.24728830496769821 0 0.26935092184594922 0.23199051857883521 0 0.26575823541941801 0.2442378127097945 0 0.26816417126529979 0.24728830496769821 0 0.26575823541941801 0.2442378127097945 0 0.26816417126529979 0.24728830496769821 0 0.25191630733126869 0.24920661226757701 0 0.26575823541941801 0.2442378127097945 0 0.25191630733126869 0.24920661226757701 0 0.25384997619844579 0.23452952838135141 0 0.26575823541941801 0.2442378127097945 0 0.25384997619844579 0.23452952838135141 0 0.26935092184594922 0.23199051857883521 0 0.25384997619844579 0.23452952838135141 0 0.26117317217072289 0.21972062922760091 0 0.26935092184594922 0.23199051857883521 0 0.23966537526391099 0.21545910125246351 0 0.25384997619844579 0.23452952838135141 0 0.26117317217072289 0.21972062922760091 0 0.26117317217072289 0.21972062922760091 0 0.26935092184594922 0.23199051857883521 0 0.27777523544604321 0.21630652393113339 0 0.26935092184594922 0.23199051857883521 0 0.27777523544604321 0.21630652393113339 0 0.28191036028008071 0.22971804954519179 0 0.26117317217072289 0.21972062922760091 0 0.27777523544604321 0.21630652393113339 0 0.2716253392386293 0.19992191555020641 0 0.26117317217072289 0.21972062922760091 0 0.25326763791429752 0.20481875588833531 0 0.2716253392386293 0.19992191555020641 0 0.23966537526391099 0.21545910125246351 0 0.26117317217072289 0.21972062922760091 0 0.25326763791429752 0.20481875588833531 0 0.2475941291823989 0.18769603697772511 0 0.26290520812746782 0.1776609444212616 0 0.2716253392386293 0.19992191555020641 0 0.2475941291823989 0.18769603697772511 0 0.2716253392386293 0.19992191555020641 0 0.2475941291823989 0.18769603697772511 0 0.25326763791429752 0.20481875588833531 0 0.2716253392386293 0.19992191555020641 0 0.26290520812746782 0.1776609444212616 0 0.2716253392386293 0.19992191555020641 0 0.27827491417824468 0.1876060113889412 0 0.2716253392386293 0.19992191555020641 0 0.27827491417824468 0.1876060113889412 0 0.28821981343768271 0.19745473317944121 0 0.29222919640126049 0.18652141476926479 0 0.28821981343768271 0.19745473317944121 0 0.30388165286261343 0.20163454056516239 0 0.29222919640126049 0.18652141476926479 0 0.27827491417824468 0.1876060113889412 0 0.28821981343768271 0.19745473317944121 0 0.29222919640126049 0.18652141476926479 0 0.28821981343768271 0.19745473317944121 0 0.30186684762655891 0.18706314627180651 0 0.30388165286261343 0.20163454056516239 0 0.3171863871435624 0.1846285486212508 0 0.30388165286261343 0.20163454056516239 0 0.3171863871435624 0.1846285486212508 0 0.29222919640126049 0.18652141476926479 0 0.30388165286261343 0.20163454056516239 0 0.29222919640126049 0.18652141476926479 0 0.30186684762655891 0.18706314627180651 0 0.30388165286261343 0.20163454056516239 0 0.30388165286261343 0.20163454056516239 0 0.29565654929486113 0.2121477941226852 0 0.31320480662446809 0.21372658279547629 0 0.29565654929486113 0.2121477941226852 0 0.32252796038632769 0.22581862502578651 0 0.31320480662446809 0.21372658279547629 0 0.30388165286261343 0.20163454056516239 0 0.29565654929486113 0.2121477941226852 0 0.30388165286261343 0.20163454056516239 0 0.31320480662446809 0.21372658279547629 0 0.2716253392386293 0.19992191555020641 0 0.28821981343768271 0.19745473317944121 0 0.29565654929486113 0.2121477941226852 0 0.28821981343768271 0.19745473317944121 0 0.30388165286261343 0.20163454056516239 0 0.29565654929486113 0.2121477941226852 0 0.2716253392386293 0.19992191555020641 0 0.29565654929486113 0.2121477941226852 0 0.27777523544604321 0.21630652393113339 0 0.2716253392386293 0.19992191555020641 0 0.29565654929486113 0.2121477941226852 0 0.29565654929486113 0.2121477941226852 0 0.28191036028008071 0.22971804954519179 0 0.30030798342997039 0.2325199636831389 0 0.27777523544604321 0.21630652393113339 0 0.29565654929486113 0.2121477941226852 0 0.28191036028008071 0.22971804954519179 0 0.29565654929486113 0.2121477941226852 0 0.28191036028008071 0.22971804954519179 0 0.29565654929486113 0.2121477941226852 0 0.30030798342997039 0.2325199636831389 0 0.32252796038632769 0.22581862502578651 0 0.29565654929486113 0.2121477941226852 0 0.32252796038632769 0.22581862502578651 0 0.30030798342997039 0.2325199636831389 0 0.3122205487373555 0.24745899623115639 0 0.32252796038632769 0.22581862502578651 0 0.30030798342997039 0.2325199636831389 0 0.3122205487373555 0.24745899623115639 0 0.29218139916548841 0.2486239686486868 0 0.28191036028008071 0.22971804954519179 0 0.30030798342997039 0.2325199636831389 0 0.29218139916548841 0.2486239686486868 0 0.33629540821485387 0.2436748746166981 0 0.32252796038632769 0.22581862502578651 0 0.33629540821485387 0.2436748746166981 0 0.33259714760517339 0.2309413242145944 0 0.34517725015399459 0.23419145631923749 0 0.32495374027443102 0.25788052029314412 0 0.3122205487373555 0.24745899623115639 0 0.33629540821485387 0.2436748746166981 0 0.3122205487373555 0.24745899623115639 0 0.33629540821485387 0.2436748746166981 0 0.32252796038632769 0.22581862502578651 0 0.32252796038632769 0.22581862502578651 0 0.33259714760517339 0.2309413242145944 0 0.32252796038632769 0.22581862502578651 0 0.31320480662446809 0.21372658279547629 0 0.32252796038632769 0.22581862502578651 0 0.33125267367822342 0.22180789749000551 0 0.32499489453936248 0.21536776646307501 0 0.33629540821485387 0.2436748746166981 0 0.32252796038632769 0.22581862502578651 0 0.33259714760517339 0.2309413242145944 0 0.33125267367822342 0.22180789749000551 0 0.33259714760517339 0.2309413242145944 0 0.34099383609916878 0.22334663104871949 0 0.33125267367822342 0.22180789749000551 0 0.34099383609916878 0.22334663104871949 0 0.33515739454658738 0.21268098105655289 0 0.32252796038632769 0.22581862502578651 0 0.33125267367822342 0.22180789749000551 0 0.33259714760517339 0.2309413242145944 0 0.33259714760517339 0.2309413242145944 0 0.34099383609916878 0.22334663104871949 0 0.34517725015399459 0.23419145631923749 0 0.34216459535668692 0.20736929626569989 0 0.33515739454658738 0.21268098105655289 0 0.34721285934184382 0.21480265649415151 0 0.34099383609916878 0.22334663104871949 0 0.33515739454658738 0.21268098105655289 0 0.34721285934184382 0.21480265649415151 0 0.34216459535668692 0.20736929626569989 0 0.33515739454658738 0.21268098105655289 0 0.3365767396857155 0.1989611500322046 0 0.33515739454658738 0.21268098105655289 0 0.32283556985395873 0.2023626661269039 0 0.3365767396857155 0.1989611500322046 0 0.33125267367822342 0.22180789749000551 0 0.33515739454658738 0.21268098105655289 0 0.32499489453936248 0.21536776646307501 0 0.30388165286261343 0.20163454056516239 0 0.31320480662446809 0.21372658279547629 0 0.32283556985395873 0.2023626661269039 0 0.32252796038632769 0.22581862502578651 0 0.32499489453936248 0.21536776646307501 0 0.31320480662446809 0.21372658279547629 0 0.32499489453936248 0.21536776646307501 0 0.31320480662446809 0.21372658279547629 0 0.32283556985395873 0.2023626661269039 0 0.33515739454658738 0.21268098105655289 0 0.32499489453936248 0.21536776646307501 0 0.32283556985395873 0.2023626661269039 0 0.30388165286261343 0.20163454056516239 0 0.32283556985395873 0.2023626661269039 0 0.3171863871435624 0.1846285486212508 0 0.32283556985395873 0.2023626661269039 0 0.3171863871435624 0.1846285486212508 0 0.3295368398265357 0.18729136490401671 0 0.3365767396857155 0.1989611500322046 0 0.34927238032072683 0.19186984734859511 0 0.34059438102493128 0.18288190306238539 0 0.3365767396857155 0.1989611500322046 0 0.3295368398265357 0.18729136490401671 0 0.34059438102493128 0.18288190306238539 0 0.32283556985395873 0.2023626661269039 0 0.3365767396857155 0.1989611500322046 0 0.3295368398265357 0.18729136490401671 0 0.34216459535668692 0.20736929626569989 0 0.3365767396857155 0.1989611500322046 0 0.3497113878526007 0.2030323974798908 0 0.3365767396857155 0.1989611500322046 0 0.34927238032072683 0.19186984734859511 0 0.3497113878526007 0.2030323974798908 0 0.34927238032072683 0.19186984734859511 0 0.3497113878526007 0.2030323974798908 0 0.35886656107151288 0.19922652711687289 0 0.34927238032072683 0.19186984734859511 0 0.35886656107151288 0.19922652711687289 0 0.35970402978413618 0.18937113729802901 0 0.36748578966362211 0.19369679982271309 0 0.37387192337018721 0.20442911734433289 0 0.37701840052955249 0.18497325936672221 0 0.35970402978413618 0.18937113729802901 0 0.36748578966362211 0.19369679982271309 0 0.36465881969693392 0.18140316239184731 0 0.35886656107151288 0.19922652711687289 0 0.35970402978413618 0.18937113729802901 0 0.36748578966362211 0.19369679982271309 0 0.36748578966362211 0.19369679982271309 0 0.36667714106039462 0.20514567274092979 0 0.37387192337018721 0.20442911734433289 0 0.35886656107151288 0.19922652711687289 0 0.36748578966362211 0.19369679982271309 0 0.36667714106039462 0.20514567274092979 0 0.37387192337018721 0.20442911734433289 0 0.36688434978973189 0.21722535848888341 0 0.37883240444550981 0.22609092021840321 0 0.35886656107151288 0.19922652711687289 0 0.36667714106039462 0.20514567274092979 0 0.3578788630559987 0.21102444092517639 0 0.36667714106039462 0.20514567274092979 0 0.37387192337018721 0.20442911734433289 0 0.36688434978973189 0.21722535848888341 0 0.36667714106039462 0.20514567274092979 0 0.36688434978973189 0.21722535848888341 0 0.3578788630559987 0.21102444092517639 0 0.36688434978973189 0.21722535848888341 0 0.3578788630559987 0.21102444092517639 0 0.35456962366194128 0.2252133908971263 0 0.3578788630559987 0.21102444092517639 0 0.34721285934184382 0.21480265649415151 0 0.35456962366194128 0.2252133908971263 0 0.3497113878526007 0.2030323974798908 0 0.35886656107151288 0.19922652711687289 0 0.3578788630559987 0.21102444092517639 0 0.3497113878526007 0.2030323974798908 0 0.3578788630559987 0.21102444092517639 0 0.34721285934184382 0.21480265649415151 0 0.34216459535668692 0.20736929626569989 0 0.3497113878526007 0.2030323974798908 0 0.34721285934184382 0.21480265649415151 0 0.34517725015399459 0.23419145631923749 0 0.35456962366194128 0.2252133908971263 0 0.35455324959031859 0.2432250833271849 0 0.35456962366194128 0.2252133908971263 0 0.36523419632924231 0.23289877998801181 0 0.35455324959031859 0.2432250833271849 0 0.34099383609916878 0.22334663104871949 0 0.34721285934184382 0.21480265649415151 0 0.35456962366194128 0.2252133908971263 0 0.34099383609916878 0.22334663104871949 0 0.34517725015399459 0.23419145631923749 0 0.35456962366194128 0.2252133908971263 0 0.36688434978973189 0.21722535848888341 0 0.35456962366194128 0.2252133908971263 0 0.36523419632924231 0.23289877998801181 0 0.36688434978973189 0.21722535848888341 0 0.36523419632924231 0.23289877998801181 0 0.37883240444550981 0.22609092021840321 0 0.37133135415870921 0.25273914700846112 0 0.36523419632924231 0.23289877998801181 0 0.37883240444550981 0.22609092021840321 0 0.37133135415870921 0.25273914700846112 0 0.36523419632924231 0.23289877998801181 0 0.35455324959031859 0.2432250833271849 0 0.35006285604338172 0.26153112420760838 0 0.33629540821485387 0.2436748746166981 0 0.35455324959031859 0.2432250833271849 0 0.33629540821485387 0.2436748746166981 0 0.34517725015399459 0.23419145631923749 0 0.35455324959031859 0.2432250833271849 0 0.3290299395161187 0.14194742953746481 0 0.34852021316449078 0.1445779334318236 0 0.34379585570545929 0.1506165647334268 0 0.3290299395161187 0.14194742953746481 0 0.34852021316449078 0.1445779334318236 0 0.3290299395161187 0.14194742953746481 0 0.3309728473276447 0.15174223820632621 0 0.34379585570545929 0.1506165647334268 0 0.3309728473276447 0.15174223820632621 0 0.331291258845476 0.16148612330262471 0 0.34379585570545929 0.1506165647334268 0 0.331291258845476 0.16148612330262471 0 0.34379585570545929 0.1506165647334268 0 0.3290299395161187 0.14194742953746481 0 0.34262265432247851 0.1325211199087368 0 0.34852021316449078 0.1445779334318236 0 0.3400679449540831 0.12102442402254431 0 0.34262265432247851 0.1325211199087368 0 0.3293260288753706 0.12662057091205531 0 0.3290299395161187 0.14194742953746481 0 0.34262265432247851 0.1325211199087368 0 0.3293260288753706 0.12662057091205531 0 0.31654185007284819 0.12022243899103451 0 0.30953966586774662 0.13931692564310591 0 0.30953966586774662 0.13931692564310591 0 0.3290299395161187 0.14194742953746481 0 0.32081699214401271 0.13278931797889121 0 0.31654185007284819 0.12022243899103451 0 0.30953966586774662 0.13931692564310591 0 0.32081699214401271 0.13278931797889121 0 0.3290299395161187 0.14194742953746481 0 0.3293260288753706 0.12662057091205531 0 0.32081699214401271 0.13278931797889121 0 0.31654185007284819 0.12022243899103451 0 0.3293260288753706 0.12662057091205531 0 0.32081699214401271 0.13278931797889121 0 0.30953966586774662 0.13931692564310591 0 0.3290299395161187 0.14194742953746481 0 0.30953966586774662 0.13931692564310591 0 0.3290299395161187 0.14194742953746481 0 0.31977433524352539 0.15291883525178929 0 0.3309728473276447 0.15174223820632621 0 0.31977433524352539 0.15291883525178929 0 0.331291258845476 0.16148612330262471 0 0.3290299395161187 0.14194742953746481 0 0.3309728473276447 0.15174223820632621 0 0.31977433524352539 0.15291883525178929 0 0.30681511389035809 0.14674659613467919 0 0.31878666198549099 0.1723556818718206 0 0.31977433524352539 0.15291883525178929 0 0.31878666198549099 0.1723556818718206 0 0.331291258845476 0.16148612330262471 0 0.30681511389035809 0.14674659613467919 0 0.31977433524352539 0.15291883525178929 0 0.31878666198549099 0.1723556818718206 0 0.31878666198549099 0.1723556818718206 0 0.331291258845476 0.16148612330262471 0 0.31878666198549099 0.1723556818718206 0 0.331291258845476 0.16148612330262471 0 0.33049112142451048 0.16762255667733861 0 0.30186684762655891 0.18706314627180651 0 0.3171863871435624 0.1846285486212508 0 0.31878666198549099 0.1723556818718206 0 0.32183656014499212 0.17868473922752609 0 0.3295368398265357 0.18729136490401671 0 0.33049112142451048 0.16762255667733861 0 0.3171863871435624 0.1846285486212508 0 0.32183656014499212 0.17868473922752609 0 0.3171863871435624 0.1846285486212508 0 0.31878666198549099 0.1723556818718206 0 0.32183656014499212 0.17868473922752609 0 0.31878666198549099 0.1723556818718206 0 0.32183656014499212 0.17868473922752609 0 0.31878666198549099 0.1723556818718206 0 0.32183656014499212 0.17868473922752609 0 0.33049112142451048 0.16762255667733861 0 0.32183656014499212 0.17868473922752609 0 0.33049112142451048 0.16762255667733861 0 0.3171863871435624 0.1846285486212508 0 0.32183656014499212 0.17868473922752609 0 0.3295368398265357 0.18729136490401671 0 0.3295368398265357 0.18729136490401671 0 0.34059438102493128 0.18288190306238539 0 0.33049112142451048 0.16762255667733861 0 0.34059438102493128 0.18288190306238539 0 0.33049112142451048 0.16762255667733861 0 0.34471721193040689 0.17151378765888639 0 0.33049112142451048 0.16762255667733861 0 0.34610762234637588 0.1612531120542243 0 0.34379585570545929 0.1506165647334268 0 0.331291258845476 0.16148612330262471 0 0.33049112142451048 0.16762255667733861 0 0.34379585570545929 0.1506165647334268 0 0.33049112142451048 0.16762255667733861 0 0.34379585570545929 0.1506165647334268 0 0.33049112142451048 0.16762255667733861 0 0.34610762234637588 0.1612531120542243 0 0.34471721193040689 0.17151378765888639 0 0.34610762234637588 0.1612531120542243 0 0.35140991738353028 0.16856248684795361 0 0.35427836449105049 0.15907746409333559 0 0.35901193667472159 0.17164282592599631 0 0.35427836449105049 0.15907746409333559 0 0.35992731542079281 0.1461174924677778 0 0.34610762234637588 0.1612531120542243 0 0.35427836449105049 0.15907746409333559 0 0.35078077963301002 0.15209425129682119 0 0.34610762234637588 0.1612531120542243 0 0.35140991738353028 0.16856248684795361 0 0.34471721193040689 0.17151378765888639 0 0.35140991738353028 0.16856248684795361 0 0.35901193667472159 0.17164282592599631 0 0.35427836449105049 0.15907746409333559 0 0.34927238032072683 0.19186984734859511 0 0.34059438102493128 0.18288190306238539 0 0.3529344514750965 0.17932524450732529 0 0.35140991738353028 0.16856248684795361 0 0.34471721193040689 0.17151378765888639 0 0.3529344514750965 0.17932524450732529 0 0.34059438102493128 0.18288190306238539 0 0.34471721193040689 0.17151378765888639 0 0.3529344514750965 0.17932524450732529 0 0.35901193667472159 0.17164282592599631 0 0.3529344514750965 0.17932524450732529 0 0.36465881969693392 0.18140316239184731 0 0.35140991738353028 0.16856248684795361 0 0.35901193667472159 0.17164282592599631 0 0.3529344514750965 0.17932524450732529 0 0.35970402978413618 0.18937113729802901 0 0.3529344514750965 0.17932524450732529 0 0.36465881969693392 0.18140316239184731 0 0.34927238032072683 0.19186984734859511 0 0.35970402978413618 0.18937113729802901 0 0.3529344514750965 0.17932524450732529 0 0.35901193667472159 0.17164282592599631 0 0.36465881969693392 0.18140316239184731 0 0.36770334632679152 0.1705038253050993 0 0.36770334632679152 0.1705038253050993 0 0.37701840052955249 0.18497325936672221 0 0.37701474254214568 0.17422418068080639 0 0.36465881969693392 0.18140316239184731 0 0.36770334632679152 0.1705038253050993 0 0.37701840052955249 0.18497325936672221 0 0.36770334632679152 0.1705038253050993 0 0.37701840052955249 0.18497325936672221 0 0.36748578966362211 0.19369679982271309 0 0.36465881969693392 0.18140316239184731 0 0.37701840052955249 0.18497325936672221 0 0.35901193667472159 0.17164282592599631 0 0.36804920991237622 0.15925058011246179 0 0.35992731542079281 0.1461174924677778 0 0.35901193667472159 0.17164282592599631 0 0.35992731542079281 0.1461174924677778 0 0.35901193667472159 0.17164282592599631 0 0.36770334632679152 0.1705038253050993 0 0.36804920991237622 0.15925058011246179 0 0.36770334632679152 0.1705038253050993 0 0.37676134109315701 0.16414884220615661 0 0.37701474254214568 0.17422418068080639 0 0.36770334632679152 0.1705038253050993 0 0.36804920991237622 0.15925058011246179 0 0.37676134109315701 0.16414884220615661 0 0.36804920991237622 0.15925058011246179 0 0.3779440566209013 0.14854912112243801 0 0.37676134109315701 0.16414884220615661 0 0.36804920991237622 0.15925058011246179 0 0.35992731542079281 0.1461174924677778 0 0.3779440566209013 0.14854912112243801 0 0.36816019919183401 0.14157705952426 0 0.35992731542079281 0.1461174924677778 0 0.3779440566209013 0.14854912112243801 0 0.35992731542079281 0.1461174924677778 0 0.3779440566209013 0.14854912112243801 0 0.36816019919183401 0.14157705952426 0 0.37448960685210758 0.1353536618262707 0 0.3779440566209013 0.14854912112243801 0 0.36816019919183401 0.14157705952426 0 0.35992731542079281 0.1461174924677778 0 0.36027981787353441 0.13628796268055371 0 0.35992731542079281 0.1461174924677778 0 0.36027981787353441 0.13628796268055371 0 0.35427836449105049 0.15907746409333559 0 0.35992731542079281 0.1461174924677778 0 0.35078077963301002 0.15209425129682119 0 0.35992731542079281 0.1461174924677778 0 0.35044412065935482 0.14483759351915529 0 0.35078077963301002 0.15209425129682119 0 0.35992731542079281 0.1461174924677778 0 0.35044412065935482 0.14483759351915529 0 0.36027981787353441 0.13628796268055371 0 0.35044412065935482 0.14483759351915529 0 0.34852021316449078 0.1445779334318236 0 0.35574433956713031 0.13534411990267761 0 0.35992731542079281 0.1461174924677778 0 0.35044412065935482 0.14483759351915529 0 0.35044412065935482 0.14483759351915529 0 0.34852021316449078 0.1445779334318236 0 0.34852021316449078 0.1445779334318236 0 0.34379585570545929 0.1506165647334268 0 0.35044412065935482 0.14483759351915529 0 0.34379585570545929 0.1506165647334268 0 0.35044412065935482 0.14483759351915529 0 0.34852021316449078 0.1445779334318236 0 0.34379585570545929 0.1506165647334268 0 0.34610762234637588 0.1612531120542243 0 0.34379585570545929 0.1506165647334268 0 0.35078077963301002 0.15209425129682119 0 0.35044412065935482 0.14483759351915529 0 0.34379585570545929 0.1506165647334268 0 0.35078077963301002 0.15209425129682119 0 0.3400679449540831 0.12102442402254431 0 0.34262265432247851 0.1325211199087368 0 0.35131572215963902 0.12563937409389231 0 0.34262265432247851 0.1325211199087368 0 0.35131572215963902 0.12563937409389231 0 0.35003335113921552 0.13175881806893369 0 0.34262265432247851 0.1325211199087368 0 0.34852021316449078 0.1445779334318236 0 0.34939507859688079 0.13570997898241949 0 0.34852021316449078 0.1445779334318236 0 0.34939507859688079 0.13570997898241949 0 0.35574433956713031 0.13534411990267761 0 0.34262265432247851 0.1325211199087368 0 0.35003335113921552 0.13175881806893369 0 0.34939507859688079 0.13570997898241949 0 0.34852021316449078 0.1445779334318236 0 0.35574433956713031 0.13534411990267761 0 0.35044412065935482 0.14483759351915529 0 0.36027981787353441 0.13628796268055371 0 0.35044412065935482 0.14483759351915529 0 0.35574433956713031 0.13534411990267761 0 0.36027981787353441 0.13628796268055371 0 0.35003335113921552 0.13175881806893369 0 0.34939507859688079 0.13570997898241949 0 0.35574433956713031 0.13534411990267761 0 0.35131572215963902 0.12563937409389231 0 0.35574433956713031 0.13534411990267761 0 0.36027981787353441 0.13628796268055371 0 0.35131572215963902 0.12563937409389231 0 0.35003335113921552 0.13175881806893369 0 0.35574433956713031 0.13534411990267761 0 0.36027981787353441 0.13628796268055371 0 0.3772864422104612 0.1215050391393626 0 0.36027981787353441 0.13628796268055371 0 0.37448960685210758 0.1353536618262707 0 0.3772864422104612 0.1215050391393626 0 0.36816019919183401 0.14157705952426 0 0.36027981787353441 0.13628796268055371 0 0.37448960685210758 0.1353536618262707 0 0.37448960685210758 0.1353536618262707 0 0.39354960417489132 0.13240510493107291 0 0.3772864422104612 0.1215050391393626 0 0.37448960685210758 0.1353536618262707 0 0.39354960417489132 0.13240510493107291 0 0.3779440566209013 0.14854912112243801 0 0.39354960417489132 0.13240510493107291 0 0.4140019186303075 0.12822819622514059 0 0.40952130728670239 0.14328475965468879 0 0.39354960417489132 0.13240510493107291 0 0.4140019186303075 0.12822819622514059 0 0.40657417080820651 0.11523193835467981 0 0.39354960417489132 0.13240510493107291 0 0.39596079782100979 0.15098074977709819 0 0.40952130728670239 0.14328475965468879 0 0.39596079782100979 0.15098074977709819 0 0.3779440566209013 0.14854912112243801 0 0.39354960417489132 0.13240510493107291 0 0.39596079782100979 0.15098074977709819 0 0.3779440566209013 0.14854912112243801 0 0.39596079782100979 0.15098074977709819 0 0.3779440566209013 0.14854912112243801 0 0.38754869977955092 0.1619079067846057 0 0.3779440566209013 0.14854912112243801 0 0.37676134109315701 0.16414884220615661 0 0.38754869977955092 0.1619079067846057 0 0.37676134109315701 0.16414884220615661 0 0.38309065021169469 0.17181772474481941 0 0.37701474254214568 0.17422418068080639 0 0.37676134109315701 0.16414884220615661 0 0.38309065021169469 0.17181772474481941 0 0.38754869977955092 0.1619079067846057 0 0.38309065021169469 0.17181772474481941 0 0.38754869977955092 0.1619079067846057 0 0.39109280163370053 0.1735765317390463 0 0.37701840052955249 0.18497325936672221 0 0.38152488929701961 0.1791926217000957 0 0.3858201504572657 0.18551455577770859 0 0.37701840052955249 0.18497325936672221 0 0.38152488929701961 0.1791926217000957 0 0.37701474254214568 0.17422418068080639 0 0.38309065021169469 0.17181772474481941 0 0.38152488929701961 0.1791926217000957 0 0.37701474254214568 0.17422418068080639 0 0.38309065021169469 0.17181772474481941 0 0.38673033223941389 0.17846412776814419 0 0.39109280163370053 0.1735765317390463 0 0.38673033223941389 0.17846412776814419 0 0.39145968851851098 0.17908558128872451 0 0.39109280163370053 0.1735765317390463 0 0.38309065021169469 0.17181772474481941 0 0.38152488929701961 0.1791926217000957 0 0.38673033223941389 0.17846412776814419 0 0.38152488929701961 0.1791926217000957 0 0.38673033223941389 0.17846412776814419 0 0.3858201504572657 0.18551455577770859 0 0.38673033223941389 0.17846412776814419 0 0.38920674522441168 0.18214034211247229 0 0.3858201504572657 0.18551455577770859 0 0.38673033223941389 0.17846412776814419 0 0.38920674522441168 0.18214034211247229 0 0.39145968851851098 0.17908558128872451 0 0.38920674522441168 0.18214034211247229 0 0.3883360758904571 0.18509015364955081 0 0.38968885722907032 0.18752229251290789 0 0.38920674522441168 0.18214034211247229 0 0.3883360758904571 0.18509015364955081 0 0.3858201504572657 0.18551455577770859 0 0.38920674522441168 0.18214034211247229 0 0.39192026792225931 0.18481100013101301 0 0.38968885722907032 0.18752229251290789 0 0.3883360758904571 0.18509015364955081 0 0.3858201504572657 0.18551455577770859 0 0.38968885722907032 0.18752229251290789 0 0.39748094171833931 0.1849949950301128 0 0.39504611515198351 0.1879339769907416 0 0.39852843986709102 0.1892889698195403 0 0.39748094171833931 0.1849949950301128 0 0.39365862851270311 0.18570185087627639 0 0.39367470471629501 0.18278830301368959 0 0.39748094171833931 0.1849949950301128 0 0.39365862851270311 0.18570185087627639 0 0.39504611515198351 0.1879339769907416 0 0.39365862851270311 0.18570185087627639 0 0.3923414998734609 0.1875781385279997 0 0.39504611515198351 0.1879339769907416 0 0.39365862851270311 0.18570185087627639 0 0.39192026792225931 0.18481100013101301 0 0.3923414998734609 0.1875781385279997 0 0.39192026792225931 0.18481100013101301 0 0.38968885722907032 0.18752229251290789 0 0.3923414998734609 0.1875781385279997 0 0.39365862851270311 0.18570185087627639 0 0.39192026792225931 0.18481100013101301 0 0.39367470471629501 0.18278830301368959 0 0.39367470471629501 0.18278830301368959 0 0.39659385877873349 0.1784586018102701 0 0.39145968851851098 0.17908558128872451 0 0.38920674522441168 0.18214034211247229 0 0.39192026792225931 0.18481100013101301 0 0.39367470471629501 0.18278830301368959 0 0.38920674522441168 0.18214034211247229 0 0.39367470471629501 0.18278830301368959 0 0.39145968851851098 0.17908558128872451 0 0.39748094171833931 0.1849949950301128 0 0.39367470471629501 0.18278830301368959 0 0.39659385877873349 0.1784586018102701 0 0.39659385877873349 0.1784586018102701 0 0.39109280163370053 0.1735765317390463 0 0.40022718646642719 0.16799052750858229 0 0.39659385877873349 0.1784586018102701 0 0.39145968851851098 0.17908558128872451 0 0.39109280163370053 0.1735765317390463 0 0.40523975154182817 0.1820809015611842 0 0.40022718646642719 0.16799052750858229 0 0.4108632937158348 0.173418010651472 0 0.39659385877873349 0.1784586018102701 0 0.40523975154182817 0.1820809015611842 0 0.40022718646642719 0.16799052750858229 0 0.39748094171833931 0.1849949950301128 0 0.39659385877873349 0.1784586018102701 0 0.40523975154182817 0.1820809015611842 0 0.40523975154182817 0.1820809015611842 0 0.40213665071755927 0.18764125549320981 0 0.4072056290230654 0.1917314599979453 0 0.39748094171833931 0.1849949950301128 0 0.40523975154182817 0.1820809015611842 0 0.40213665071755927 0.18764125549320981 0 0.39748094171833931 0.1849949950301128 0 0.40213665071755927 0.18764125549320981 0 0.39852843986709102 0.1892889698195403 0 0.39596079782100979 0.15098074977709819 0 0.38754869977955092 0.1619079067846057 0 0.40022718646642719 0.16799052750858229 0 0.39596079782100979 0.15098074977709819 0 0.40022718646642719 0.16799052750858229 0 0.41459021086811132 0.1591680749185411 0 0.38754869977955092 0.1619079067846057 0 0.39109280163370053 0.1735765317390463 0 0.40022718646642719 0.16799052750858229 0 0.40022718646642719 0.16799052750858229 0 0.41459021086811132 0.1591680749185411 0 0.4108632937158348 0.173418010651472 0 0.41459021086811132 0.1591680749185411 0 0.4108632937158348 0.173418010651472 0 0.42309504939347048 0.1741737562075191 0 0.40523975154182817 0.1820809015611842 0 0.41475516907587529 0.1836022759679049 0 0.4072056290230654 0.1917314599979453 0 0.40523975154182817 0.1820809015611842 0 0.4108632937158348 0.173418010651472 0 0.41475516907587529 0.1836022759679049 0 0.4108632937158348 0.173418010651472 0 0.41475516907587529 0.1836022759679049 0 0.42309504939347048 0.1741737562075191 0 0.41475516907587529 0.1836022759679049 0 0.42445923864125951 0.185647925583247 0 0.42309504939347048 0.1741737562075191 0 0.42309504939347048 0.1741737562075191 0 0.43605395734202002 0.18019968627054031 0 0.43386868853765292 0.16244718732545349 0 0.42445923864125951 0.185647925583247 0 0.43605395734202002 0.18019968627054031 0 0.42998576701167962 0.19644016238761469 0 0.42445923864125951 0.185647925583247 0 0.42309504939347048 0.1741737562075191 0 0.43605395734202002 0.18019968627054031 0 0.41459021086811132 0.1591680749185411 0 0.42309504939347048 0.1741737562075191 0 0.43386868853765292 0.16244718732545349 0 0.43386868853765292 0.16244718732545349 0 0.42934325676537699 0.14186600891046811 0 0.44347952873763791 0.1495458162240092 0 0.41459021086811132 0.1591680749185411 0 0.43386868853765292 0.16244718732545349 0 0.42934325676537699 0.14186600891046811 0 0.42934325676537699 0.14186600891046811 0 0.42759536995770181 0.12741842698392269 0 0.44164427294959729 0.1236138555640913 0 0.42934325676537699 0.14186600891046811 0 0.42759536995770181 0.12741842698392269 0 0.4140019186303075 0.12822819622514059 0 0.42934325676537699 0.14186600891046811 0 0.4140019186303075 0.12822819622514059 0 0.40952130728670239 0.14328475965468879 0 0.41459021086811132 0.1591680749185411 0 0.42934325676537699 0.14186600891046811 0 0.40952130728670239 0.14328475965468879 0 0.39596079782100979 0.15098074977709819 0 0.41459021086811132 0.1591680749185411 0 0.40952130728670239 0.14328475965468879 0 0.40603105077845342 0.24396416794525669 0 0.40175235186532171 0.23615893359935289 0 0.39298284187090288 0.24806444035772329 0 0.40504541688886758 0.25083790210330698 0 0.40603105077845342 0.24396416794525669 0 0.39298284187090288 0.24806444035772329 0 0.40175235186532171 0.23615893359935289 0 0.39298284187090288 0.24806444035772329 0 0.38873350533157658 0.2362065207873173 0 0.37133135415870921 0.25273914700846112 0 0.39298284187090288 0.24806444035772329 0 0.38873350533157658 0.2362065207873173 0 0.37133135415870921 0.25273914700846112 0 0.37883240444550981 0.22609092021840321 0 0.37133135415870921 0.25273914700846112 0 0.38873350533157658 0.2362065207873173 0 0.37883240444550981 0.22609092021840321 0 0.38873350533157658 0.2362065207873173 0 0.37883240444550981 0.22609092021840321 0 0.4004861264089794 0.22142658586351921 0 0.4004861264089794 0.22142658586351921 0 0.39966110729416549 0.2080910008497586 0 0.40963335735925788 0.2286597091866106 0 0.40175235186532171 0.23615893359935289 0 0.4004861264089794 0.22142658586351921 0 0.41463879808564519 0.24341047829869331 0 0.40175235186532171 0.23615893359935289 0 0.38873350533157658 0.2362065207873173 0 0.4004861264089794 0.22142658586351921 0 0.39966110729416549 0.2080910008497586 0 0.40963335735925788 0.2286597091866106 0 0.4004861264089794 0.22142658586351921 0 0.38633345473231229 0.1994426934283457 0 0.39966110729416549 0.2080910008497586 0 0.40900361774870198 0.212249797078188 0 0.40963335735925788 0.2286597091866106 0 0.4004861264089794 0.22142658586351921 0 0.39966110729416549 0.2080910008497586 0 0.38633345473231229 0.1994426934283457 0 0.37883240444550981 0.22609092021840321 0 0.4004861264089794 0.22142658586351921 0 0.38633345473231229 0.1994426934283457 0 0.37883240444550981 0.22609092021840321 0 0.38633345473231229 0.1994426934283457 0 0.37387192337018721 0.20442911734433289 0 0.37883240444550981 0.22609092021840321 0 0.38633345473231229 0.1994426934283457 0 0.37387192337018721 0.20442911734433289 0 0.37701840052955249 0.18497325936672221 0 0.38633345473231229 0.1994426934283457 0 0.37701840052955249 0.18497325936672221 0 0.38633345473231229 0.1994426934283457 0 0.3858201504572657 0.18551455577770859 0 0.38633345473231229 0.1994426934283457 0 0.38968885722907032 0.18752229251290789 0 0.38633345473231229 0.1994426934283457 0 0.38968885722907032 0.18752229251290789 0 0.37701840052955249 0.18497325936672221 0 0.3858201504572657 0.18551455577770859 0 0.38633345473231229 0.1994426934283457 0 0.38968885722907032 0.18752229251290789 0 0.3923414998734609 0.1875781385279997 0 0.39441444091453798 0.18939047469457221 0 0.39966110729416549 0.2080910008497586 0 0.38968885722907032 0.18752229251290789 0 0.39966110729416549 0.2080910008497586 0 0.38633345473231229 0.1994426934283457 0 0.38968885722907032 0.18752229251290789 0 0.38968885722907032 0.18752229251290789 0 0.39441444091453798 0.18939047469457221 0 0.39646729245108397 0.19462899562167121 0 0.39966110729416549 0.2080910008497586 0 0.38968885722907032 0.18752229251290789 0 0.39646729245108397 0.19462899562167121 0 0.3923414998734609 0.1875781385279997 0 0.39441444091453798 0.18939047469457221 0 0.39504611515198351 0.1879339769907416 0 0.39441444091453798 0.18939047469457221 0 0.39646729245108397 0.19462899562167121 0 0.39852843986709102 0.1892889698195403 0 0.39441444091453798 0.18939047469457221 0 0.39504611515198351 0.1879339769907416 0 0.39852843986709102 0.1892889698195403 0 0.39966110729416549 0.2080910008497586 0 0.39646729245108397 0.19462899562167121 0 0.40336821791877731 0.198056836680921 0 0.39966110729416549 0.2080910008497586 0 0.40336821791877731 0.198056836680921 0 0.41064078569669921 0.2026793871130036 0 0.40336821791877731 0.198056836680921 0 0.40168830634048408 0.1925901160696635 0 0.4072056290230654 0.1917314599979453 0 0.40213665071755927 0.18764125549320981 0 0.40168830634048408 0.1925901160696635 0 0.4072056290230654 0.1917314599979453 0 0.40213665071755927 0.18764125549320981 0 0.39852843986709102 0.1892889698195403 0 0.40168830634048408 0.1925901160696635 0 0.39646729245108397 0.19462899562167121 0 0.40336821791877731 0.198056836680921 0 0.40168830634048408 0.1925901160696635 0 0.39646729245108397 0.19462899562167121 0 0.39852843986709102 0.1892889698195403 0 0.40168830634048408 0.1925901160696635 0 0.41475516907587529 0.1836022759679049 0 0.4072056290230654 0.1917314599979453 0 0.41840625038325202 0.1938237470826559 0 0.4072056290230654 0.1917314599979453 0 0.41064078569669921 0.2026793871130036 0 0.41840625038325202 0.1938237470826559 0 0.40336821791877731 0.198056836680921 0 0.4072056290230654 0.1917314599979453 0 0.41064078569669921 0.2026793871130036 0 0.41064078569669921 0.2026793871130036 0 0.41840625038325202 0.1938237470826559 0 0.42198038387554659 0.20313031309463131 0 0.41475516907587529 0.1836022759679049 0 0.42445923864125951 0.185647925583247 0 0.41840625038325202 0.1938237470826559 0 0.42998576701167962 0.19644016238761469 0 0.43244019304630932 0.21041812494154549 0 0.44463840581531799 0.19317719379591711 0 0.43605395734202002 0.18019968627054031 0 0.42998576701167962 0.19644016238761469 0 0.44463840581531799 0.19317719379591711 0 0.42445923864125951 0.185647925583247 0 0.41840625038325202 0.1938237470826559 0 0.42998576701167962 0.19644016238761469 0 0.41840625038325202 0.1938237470826559 0 0.42998576701167962 0.19644016238761469 0 0.42198038387554659 0.20313031309463131 0 0.42198038387554659 0.20313031309463131 0 0.43244019304630932 0.21041812494154549 0 0.41842892323979269 0.2122901439483367 0 0.42998576701167962 0.19644016238761469 0 0.42198038387554659 0.20313031309463131 0 0.43244019304630932 0.21041812494154549 0 0.43244019304630932 0.21041812494154549 0 0.41842892323979269 0.2122901439483367 0 0.42211349285480132 0.2240848132599354 0 0.41842892323979269 0.2122901439483367 0 0.40900361774870198 0.212249797078188 0 0.41479484780063852 0.21932111586826769 0 0.41842892323979269 0.2122901439483367 0 0.41479484780063852 0.21932111586826769 0 0.42211349285480132 0.2240848132599354 0 0.41064078569669921 0.2026793871130036 0 0.42198038387554659 0.20313031309463131 0 0.41842892323979269 0.2122901439483367 0 0.41064078569669921 0.2026793871130036 0 0.41842892323979269 0.2122901439483367 0 0.40900361774870198 0.212249797078188 0 0.39966110729416549 0.2080910008497586 0 0.41064078569669921 0.2026793871130036 0 0.40900361774870198 0.212249797078188 0 0.4004861264089794 0.22142658586351921 0 0.41463879808564519 0.24341047829869331 0 0.4004861264089794 0.22142658586351921 0 0.40963335735925788 0.2286597091866106 0 0.41463879808564519 0.24341047829869331 0 0.40900361774870198 0.212249797078188 0 0.40963335735925788 0.2286597091866106 0 0.41479484780063852 0.21932111586826769 0 0.40963335735925788 0.2286597091866106 0 0.4209513074311263 0.2338054307977854 0 0.42211349285480132 0.2240848132599354 0 0.40963335735925788 0.2286597091866106 0 0.41479484780063852 0.21932111586826769 0 0.42211349285480132 0.2240848132599354 0 0.43244019304630932 0.21041812494154549 0 0.42211349285480132 0.2240848132599354 0 0.43515910734204272 0.22862660486014841 0 0.4209513074311263 0.2338054307977854 0 0.42211349285480132 0.2240848132599354 0 0.43515910734204272 0.22862660486014841 0 0.43515910734204272 0.22862660486014841 0 0.41960560742434949 0.24922841752346311 0 0.43515910734204272 0.22862660486014841 0 0.41960560742434949 0.24922841752346311 0 0.44046947178534918 0.24381964733491229 0 0.4209513074311263 0.2338054307977854 0 0.43515910734204272 0.22862660486014841 0 0.41960560742434949 0.24922841752346311 0 0.43333426729933278 0.25521865159253582 0 0.41960560742434949 0.24922841752346311 0 0.44046947178534918 0.24381964733491229 0 0.40963335735925788 0.2286597091866106 0 0.41960560742434949 0.24922841752346311 0 0.40963335735925788 0.2286597091866106 0 0.4209513074311263 0.2338054307977854 0 0.41960560742434949 0.24922841752346311 0 0.40963335735925788 0.2286597091866106 0 0.41960560742434949 0.24922841752346311 0 0.41463879808564519 0.24341047829869331 0 0.41960560742434949 0.24922841752346311 0 0.41463879808564519 0.24341047829869331 0 0.41193031943217301 0.24970998685700099 0 0.40603105077845342 0.24396416794525669 0 0.40175235186532171 0.23615893359935289 0 0.41463879808564519 0.24341047829869331 0 0.40603105077845342 0.24396416794525669 0 0.41463879808564519 0.24341047829869331 0 0.41193031943217301 0.24970998685700099 0 0.40504541688886758 0.25083790210330698 0 0.40603105077845342 0.24396416794525669 0 0.41193031943217301 0.24970998685700099 0 0.45665518821624052 0.2438898889111111 0 0.46435139066828729 0.2311944741473449 0 0.4709233871432138 0.24742201075293871 0 0.46435139066828729 0.2311944741473449 0 0.4709233871432138 0.24742201075293871 0 0.45665518821624052 0.2438898889111111 0 0.44946955305433117 0.23111108149007009 0 0.46435139066828729 0.2311944741473449 0 0.44831133843309301 0.25500336940667873 0 0.45665518821624052 0.2438898889111111 0 0.44046947178534918 0.24381964733491229 0 0.45665518821624052 0.2438898889111111 0 0.44046947178534918 0.24381964733491229 0 0.44946955305433117 0.23111108149007009 0 0.43515910734204272 0.22862660486014841 0 0.44046947178534918 0.24381964733491229 0 0.44946955305433117 0.23111108149007009 0 0.43515910734204272 0.22862660486014841 0 0.44946955305433117 0.23111108149007009 0 0.45071260725973611 0.2080247921968339 0 0.44946955305433117 0.23111108149007009 0 0.46435139066828729 0.2311944741473449 0 0.45071260725973611 0.2080247921968339 0 0.46435139066828729 0.2311944741473449 0 0.45071260725973611 0.2080247921968339 0 0.4774668000841949 0.2103691858651891 0 0.43244019304630932 0.21041812494154549 0 0.43515910734204272 0.22862660486014841 0 0.45071260725973611 0.2080247921968339 0 0.43515910734204272 0.22862660486014841 0 0.45071260725973611 0.2080247921968339 0 0.43244019304630932 0.21041812494154549 0 0.45071260725973611 0.2080247921968339 0 0.44463840581531799 0.19317719379591711 0 0.45071260725973611 0.2080247921968339 0 0.4774668000841949 0.2103691858651891 0 0.46626610717742972 0.1874229795335193 0 0.45071260725973611 0.2080247921968339 0 0.46626610717742972 0.1874229795335193 0 0.45071260725973611 0.2080247921968339 0 0.44463840581531799 0.19317719379591711 0 0.46626610717742972 0.1874229795335193 0 0.5 0.18864431420976499 0 0.4774668000841949 0.2103691858651891 0 0.46626610717742972 0.1874229795335193 0 0.5 0.18864431420976499 0 0.5 0.2184690331541892 0 0.4774668000841949 0.2103691858651891 0 0.46435139066828729 0.2311944741473449 0 0.4774668000841949 0.2103691858651891 0 0.48310174223308672 0.23113876210711809 0 0.5 0.2184690331541892 0 0.48310174223308672 0.23113876210711809 0 0.49999999999999978 0.2482937520986134 0 0.5 0.2184690331541892 0 0.4774668000841949 0.2103691858651891 0 0.48310174223308672 0.23113876210711809 0 0.48310174223308672 0.23113876210711809 0 0.49999999999999978 0.2482937520986134 0 0.48374370526303689 0.24651653993241709 0 0.46435139066828729 0.2311944741473449 0 0.48310174223308672 0.23113876210711809 0 0.4709233871432138 0.24742201075293871 0 0.48310174223308672 0.23113876210711809 0 0.48374370526303689 0.24651653993241709 0 0.4709233871432138 0.24742201075293871 0 0.45941912895137732 0.1473680259051349 0 0.46732480033342449 0.16303508961350319 0 0.47887403501588072 0.1448113977995823 0 0.45941912895137732 0.1473680259051349 0 0.46264032088443419 0.1288421885786912 0 0.47887403501588072 0.1448113977995823 0 0.45941912895137732 0.1473680259051349 0 0.46264032088443419 0.1288421885786912 0 0.4485061422843038 0.13718111093321531 0 0.46264032088443419 0.1288421885786912 0 0.4485061422843038 0.13718111093321531 0 0.44164427294959729 0.1236138555640913 0 0.42934325676537699 0.14186600891046811 0 0.4485061422843038 0.13718111093321531 0 0.44164427294959729 0.1236138555640913 0 0.45941912895137732 0.1473680259051349 0 0.4485061422843038 0.13718111093321531 0 0.44347952873763791 0.1495458162240092 0 0.45941912895137732 0.1473680259051349 0 0.44347952873763791 0.1495458162240092 0 0.45024512342731171 0.1687518779590749 0 0.42934325676537699 0.14186600891046811 0 0.4485061422843038 0.13718111093321531 0 0.44347952873763791 0.1495458162240092 0 0.43605395734202002 0.18019968627054031 0 0.43386868853765292 0.16244718732545349 0 0.45024512342731171 0.1687518779590749 0 0.43386868853765292 0.16244718732545349 0 0.44347952873763791 0.1495458162240092 0 0.45024512342731171 0.1687518779590749 0 0.43605395734202002 0.18019968627054031 0 0.44463840581531799 0.19317719379591711 0 0.45024512342731171 0.1687518779590749 0 0.44463840581531799 0.19317719379591711 0 0.45024512342731171 0.1687518779590749 0 0.46626610717742972 0.1874229795335193 0 0.45024512342731171 0.1687518779590749 0 0.46626610717742972 0.1874229795335193 0 0.46732480033342449 0.16303508961350319 0 0.45941912895137732 0.1473680259051349 0 0.45024512342731171 0.1687518779590749 0 0.46732480033342449 0.16303508961350319 0 0.5 0.18864431420976499 0 0.46626610717742972 0.1874229795335193 0 0.48181960709512323 0.16682116687020471 0 0.46732480033342449 0.16303508961350319 0 0.48181960709512323 0.16682116687020471 0 0.47887403501588072 0.1448113977995823 0 0.46626610717742972 0.1874229795335193 0 0.46732480033342449 0.16303508961350319 0 0.48181960709512323 0.16682116687020471 0 0.46626610717742972 0.1874229795335193 0 0.48181960709512323 0.16682116687020471 0 0.48181960709512323 0.16682116687020471 0 0.5 0.1588195952653407 0 0.47887403501588072 0.1448113977995823 0 0.5 0.18864431420976499 0 0.48181960709512323 0.16682116687020471 0 0.5 0.1588195952653407 0 0.5 0.1588195952653407 0 0.47887403501588072 0.1448113977995823 0 0.5 0.12899487632091661 0 0.46264032088443419 0.1288421885786912 0 0.47887403501588072 0.1448113977995823 0 0.48150805756809162 0.1234629709036128 0 0.47887403501588072 0.1448113977995823 0 0.5 0.12899487632091661 0 0.48150805756809162 0.1234629709036128 0 0.5 0.12899487632091661 0 0.5 0.099170157376492374 0 0.48150805756809162 0.1234629709036128 0 0.5 0.099170157376492374 0 0.46906253122839331 0.10767259656258441 0 0.48161863208253869 0.083109236145439941 0 0.5 0.099170157376492374 0 0.46906253122839331 0.10767259656258441 0 0.48150805756809162 0.1234629709036128 0 0.46264032088443419 0.1288421885786912 0 0.46906253122839331 0.10767259656258441 0 0.48150805756809162 0.1234629709036128 0 0.50000000000000067 0.069345438432068085 0 0.47050981111710038 0.064702358747088753 0 0.50000000000000067 0.069345438432068085 0 0.47050981111710038 0.064702358747088753 0 0.48616510334546681 0.057250162076796812 0 0.5 0.099170157376492374 0 0.50000000000000067 0.069345438432068085 0 0.48161863208253869 0.083109236145439941 0 0.46906253122839331 0.10767259656258441 0 0.48161863208253869 0.083109236145439941 0 0.46155367765226207 0.085257994772241386 0 0.50000000000000067 0.069345438432068085 0 0.48161863208253869 0.083109236145439941 0 0.47050981111710038 0.064702358747088753 0 0.48161863208253869 0.083109236145439941 0 0.47050981111710038 0.064702358747088753 0 0.46155367765226207 0.085257994772241386 0 0.47050981111710038 0.064702358747088753 0 0.45357773844926091 0.07281603556646013 0 0.44101962223420038 0.060059279062109019 0 0.47050981111710038 0.064702358747088753 0 0.45357773844926091 0.07281603556646013 0 0.46155367765226207 0.085257994772241386 0 0.44122784279348071 0.081244509684401375 0 0.44143606335276159 0.1024297403066937 0 0.42998921844653848 0.089695133087693696 0 0.45357773844926091 0.07281603556646013 0 0.46155367765226207 0.085257994772241386 0 0.44122784279348071 0.081244509684401375 0 0.44122784279348071 0.081244509684401375 0 0.44143606335276159 0.1024297403066937 0 0.46155367765226207 0.085257994772241386 0 0.44122784279348071 0.081244509684401375 0 0.44143606335276159 0.1024297403066937 0 0.44122784279348071 0.081244509684401375 0 0.44101962223420038 0.060059279062109019 0 0.45357773844926091 0.07281603556646013 0 0.44122784279348071 0.081244509684401375 0 0.44101962223420038 0.060059279062109019 0 0.46264032088443419 0.1288421885786912 0 0.46906253122839331 0.10767259656258441 0 0.44164427294959729 0.1236138555640913 0 0.46906253122839331 0.10767259656258441 0 0.44143606335276159 0.1024297403066937 0 0.46906253122839331 0.10767259656258441 0 0.46155367765226207 0.085257994772241386 0 0.44143606335276159 0.1024297403066937 0 0.44143606335276159 0.1024297403066937 0 0.44164427294959729 0.1236138555640913 0 0.46906253122839331 0.10767259656258441 0 0.44143606335276159 0.1024297403066937 0 0.44164427294959729 0.1236138555640913 0 0.42759536995770181 0.12741842698392269 0 0.44164427294959729 0.1236138555640913 0 0.42535235701690932 0.1140294360496955 0 0.44143606335276159 0.1024297403066937 0 0.44164427294959729 0.1236138555640913 0 0.42535235701690932 0.1140294360496955 0 0.42759536995770181 0.12741842698392269 0 0.4140019186303075 0.12822819622514059 0 0.42535235701690932 0.1140294360496955 0 0.4140019186303075 0.12822819622514059 0 0.42535235701690932 0.1140294360496955 0 0.40657417080820651 0.11523193835467981 0 0.42535235701690932 0.1140294360496955 0 0.40657417080820651 0.11523193835467981 0 0.41538907986049273 0.097486633176080695 0 0.44143606335276159 0.1024297403066937 0 0.41538907986049273 0.097486633176080695 0 0.42998921844653848 0.089695133087693696 0 0.44143606335276159 0.1024297403066937 0 0.41538907986049273 0.097486633176080695 0 0.44143606335276159 0.1024297403066937 0 0.42535235701690932 0.1140294360496955 0 0.41538907986049273 0.097486633176080695 0 0.44122784279348071 0.081244509684401375 0 0.42998921844653848 0.089695133087693696 0 0.42190388777941912 0.077619649183598982 0 0.41538907986049273 0.097486633176080695 0 0.42998921844653848 0.089695133087693696 0 0.42190388777941912 0.077619649183598982 0 0.44122784279348071 0.081244509684401375 0 0.42190388777941912 0.077619649183598982 0 0.44101962223420038 0.060059279062109019 0 0.42190388777941912 0.077619649183598982 0 0.41843956690449668 0.056504164627157669 0 0.44101962223420038 0.060059279062109019 0 0.42190388777941912 0.077619649183598982 0 0.40480856524449732 0.083460059192286051 0 0.40413226790965529 0.070632643065209805 0 0.42190388777941912 0.077619649183598982 0 0.40413226790965529 0.070632643065209805 0 0.41843956690449668 0.056504164627157669 0 0.41538907986049273 0.097486633176080695 0 0.42190388777941912 0.077619649183598982 0 0.40480856524449732 0.083460059192286051 0 0.41538907986049273 0.097486633176080695 0 0.40480856524449732 0.083460059192286051 0 0.38934209636822309 0.0925435260454706 0 0.40480856524449732 0.083460059192286051 0 0.39327549430469622 0.079017844491070133 0 0.38934209636822309 0.0925435260454706 0 0.40413226790965529 0.070632643065209805 0 0.3920208138579182 0.06717964046938639 0 0.39940269767815972 0.056859100164669669 0 0.40480856524449732 0.083460059192286051 0 0.39327549430469622 0.079017844491070133 0 0.40413226790965529 0.070632643065209805 0 0.39327549430469622 0.079017844491070133 0 0.40413226790965529 0.070632643065209805 0 0.3920208138579182 0.06717964046938639 0 0.36280943097700458 0.065749709237859 0 0.37901036843610469 0.078043396751232272 0 0.38428324096097499 0.05134521787475009 0 0.3920208138579182 0.06717964046938639 0 0.37901036843610469 0.078043396751232272 0 0.38428324096097499 0.05134521787475009 0 0.37901036843610469 0.078043396751232272 0 0.38428324096097499 0.05134521787475009 0 0.39327549430469622 0.079017844491070133 0 0.3920208138579182 0.06717964046938639 0 0.37901036843610469 0.078043396751232272 0 0.3737374959112344 0.1047415756277144 0 0.37901036843610469 0.078043396751232272 0 0.38934209636822309 0.0925435260454706 0 0.3737374959112344 0.1047415756277144 0 0.37901036843610469 0.078043396751232272 0 0.39327549430469622 0.079017844491070133 0 0.37901036843610469 0.078043396751232272 0 0.38934209636822309 0.0925435260454706 0 0.3737374959112344 0.1047415756277144 0 0.38934209636822309 0.0925435260454706 0 0.39429306654738788 0.1067221155981713 0 0.39354960417489132 0.13240510493107291 0 0.3772864422104612 0.1215050391393626 0 0.3929258209352367 0.1189660495058216 0 0.3737374959112344 0.1047415756277144 0 0.3772864422104612 0.1215050391393626 0 0.39429306654738788 0.1067221155981713 0 0.3772864422104612 0.1215050391393626 0 0.3929258209352367 0.1189660495058216 0 0.39429306654738788 0.1067221155981713 0 0.3772864422104612 0.1215050391393626 0 0.39429306654738788 0.1067221155981713 0 0.39354960417489132 0.13240510493107291 0 0.40657417080820651 0.11523193835467981 0 0.3929258209352367 0.1189660495058216 0 0.40657417080820651 0.11523193835467981 0 0.3929258209352367 0.1189660495058216 0 0.39429306654738788 0.1067221155981713 0 0.41538907986049273 0.097486633176080695 0 0.38934209636822309 0.0925435260454706 0 0.41538907986049273 0.097486633176080695 0 0.38934209636822309 0.0925435260454706 0 0.39429306654738788 0.1067221155981713 0 0.40657417080820651 0.11523193835467981 0 0.41538907986049273 0.097486633176080695 0 0.39429306654738788 0.1067221155981713 0 0.38955611348584679 0.024647038998268121 0 0.41532753770718023 0.0095751381954073643 0 0.39321760861815841 0.0061077605428421378 0 0.38955611348584679 0.024647038998268121 0 0.39321760861815841 0.0061077605428421378 0 0.40866897052541401 0.00084043267164977053 0 0.41532753770718023 0.0095751381954073643 0 0.39321760861815841 0.0061077605428421378 0 0.38955611348584679 0.024647038998268121 0 0.41532753770718023 0.0095751381954073643 0 0.39321760861815841 0.0061077605428421378 0 0.41532753770718023 0.0095751381954073643 0 0.39321760861815841 0.0061077605428421378 0 0.40866897052541401 0.00084043267164977053 0 0.40336105594536298 -0.0041477388281668708 0 0.39321760861815841 0.0061077605428421378 0 0.38382375711823202 0.0046345748699598427 0 0.39584289766833841 -0.0071848871236637746 0 0.39321760861815841 0.0061077605428421378 0 0.38382375711823202 0.0046345748699598427 0 0.38955611348584679 0.024647038998268121 0 0.39321760861815841 0.0061077605428421378 0 0.38382375711823202 0.0046345748699598427 0 0.36599914633082947 0.022163058614241029 0 0.38382375711823202 0.0046345748699598427 0 0.37778714102223682 0.02331484962467225 0 0.37317808859647822 0.034225398516132828 0 0.38955611348584679 0.024647038998268121 0 0.38382375711823202 0.0046345748699598427 0 0.38955611348584679 0.024647038998268121 0 0.37778714102223682 0.02331484962467225 0 0.37317808859647822 0.034225398516132828 0 0.38955611348584679 0.024647038998268121 0 0.37778714102223682 0.02331484962467225 0 0.37317808859647822 0.034225398516132828 0 0.38955611348584679 0.024647038998268121 0 0.38428324096097499 0.05134521787475009 0 0.37036712815049061 0.048210502621681417 0 0.37317808859647822 0.034225398516132828 0 0.38428324096097499 0.05134521787475009 0 0.38955611348584679 0.024647038998268121 0 0.38428324096097499 0.05134521787475009 0 0.38428324096097499 0.05134521787475009 0 0.39940269767815972 0.056859100164669669 0 0.40206542685979041 0.040987403890005117 0 0.3920208138579182 0.06717964046938639 0 0.38428324096097499 0.05134521787475009 0 0.39940269767815972 0.056859100164669669 0 0.38955611348584679 0.024647038998268121 0 0.40206542685979041 0.040987403890005117 0 0.41531896041239791 0.0306196393110271 0 0.38955611348584679 0.024647038998268121 0 0.38428324096097499 0.05134521787475009 0 0.40206542685979041 0.040987403890005117 0 0.40206542685979041 0.040987403890005117 0 0.42436234114541821 0.042403717605747238 0 0.41531896041239791 0.0306196393110271 0 0.40206542685979041 0.040987403890005117 0 0.41843956690449668 0.056504164627157669 0 0.42436234114541821 0.042403717605747238 0 0.39940269767815972 0.056859100164669669 0 0.40206542685979041 0.040987403890005117 0 0.41843956690449668 0.056504164627157669 0 0.40413226790965529 0.070632643065209805 0 0.39940269767815972 0.056859100164669669 0 0.41843956690449668 0.056504164627157669 0 0.41843956690449668 0.056504164627157669 0 0.43116323785720961 0.049969518581928898 0 0.44101962223420038 0.060059279062109019 0 0.41843956690449668 0.056504164627157669 0 0.44101962223420038 0.060059279062109019 0 0.41843956690449668 0.056504164627157669 0 0.43116323785720961 0.049969518581928898 0 0.42436234114541821 0.042403717605747238 0 0.42436234114541821 0.042403717605747238 0 0.42778464214072442 0.029501398292696459 0 0.44083142114472312 0.040910913032701647 0 0.43116323785720961 0.049969518581928898 0 0.42436234114541821 0.042403717605747238 0 0.44083142114472312 0.040910913032701647 0 0.42436234114541821 0.042403717605747238 0 0.42778464214072442 0.029501398292696459 0 0.41531896041239791 0.0306196393110271 0 0.42778464214072442 0.029501398292696459 0 0.41532753770718023 0.0095751381954073643 0 0.44064322005524559 0.02176254700329432 0 0.42778464214072442 0.029501398292696459 0 0.44064322005524559 0.02176254700329432 0 0.44083142114472312 0.040910913032701647 0 0.38955611348584679 0.024647038998268121 0 0.41531896041239791 0.0306196393110271 0 0.41532753770718023 0.0095751381954073643 0 0.42778464214072442 0.029501398292696459 0 0.41531896041239791 0.0306196393110271 0 0.41532753770718023 0.0095751381954073643 0 0.41532753770718023 0.0095751381954073643 0 0.42611381172438428 0.0032670020744285789 0 0.40866897052541401 0.00084043267164977053 0 0.41532753770718023 0.0095751381954073643 0 0.41902260763332583 -0.0018871477833984119 0 0.41532753770718023 0.0095751381954073643 0 0.42611381172438428 0.0032670020744285789 0 0.41902260763332583 -0.0018871477833984119 0 0.41532753770718023 0.0095751381954073643 0 0.44188439354677878 0.01373990272674726 0 0.44064322005524559 0.02176254700329432 0 0.42611381172438428 0.0032670020744285789 0 0.44188439354677878 0.01373990272674726 0 0.42902897096264492 -0.0042686482322491174 0 0.41532753770718023 0.0095751381954073643 0 0.44188439354677878 0.01373990272674726 0 0.41532753770718023 0.0095751381954073643 0 0.42611381172438428 0.0032670020744285789 0 0.44188439354677878 0.01373990272674726 0 0.44188439354677878 0.01373990272674726 0 0.42902897096264492 -0.0042686482322491174 0 0.44188439354677878 0.01373990272674726 0 0.45799276648461301 0.0039916399069799451 0 0.4440821215548531 -0.0020077937309988859 0 0.44188439354677878 0.01373990272674726 0 0.4440821215548531 -0.0020077937309988859 0 0.42902897096264492 -0.0042686482322491174 0 0.44188439354677878 0.01373990272674726 0 0.44064322005524559 0.02176254700329432 0 0.44985002839194782 0.024898582271573631 0 0.44064322005524559 0.02176254700329432 0 0.44985002839194782 0.024898582271573631 0 0.44429059077557681 0.039235925349123957 0 0.44188439354677878 0.01373990272674726 0 0.44985002839194782 0.024898582271573631 0 0.4659390172436681 0.01751225605776692 0 0.44188439354677878 0.01373990272674726 0 0.44985002839194782 0.024898582271573631 0 0.44985002839194782 0.024898582271573631 0 0.4659390172436681 0.01751225605776692 0 0.46041353625474563 0.035419735428311942 0 0.44188439354677878 0.01373990272674726 0 0.4659390172436681 0.01751225605776692 0 0.4659390172436681 0.01751225605776692 0 0.46041353625474563 0.035419735428311942 0 0.4659390172436681 0.01751225605776692 0 0.45799276648461301 0.0039916399069799451 0 0.47238720687794861 -0.0033856210835209021 0 0.44188439354677878 0.01373990272674726 0 0.4659390172436681 0.01751225605776692 0 0.45799276648461301 0.0039916399069799451 0 0.44101962223420038 0.060059279062109019 0 0.44083142114472312 0.040910913032701647 0 0.44101962223420038 0.060059279062109019 0 0.44670962429745897 0.047701173100663352 0 0.44083142114472312 0.040910913032701647 0 0.43116323785720961 0.049969518581928898 0 0.44101962223420038 0.060059279062109019 0 0.44083142114472312 0.040910913032701647 0 0.44101962223420038 0.060059279062109019 0 0.44670962429745897 0.047701173100663352 0 0.45613378378570812 0.049289944954666952 0 0.45188688377837238 0.042911694708191617 0 0.44429059077557681 0.039235925349123957 0 0.46041353625474563 0.035419735428311942 0 0.44985002839194782 0.024898582271573631 0 0.44429059077557681 0.039235925349123957 0 0.46041353625474563 0.035419735428311942 0 0.44429059077557681 0.039235925349123957 0 0.46041353625474563 0.035419735428311942 0 0.44064322005524559 0.02176254700329432 0 0.44083142114472312 0.040910913032701647 0 0.44429059077557681 0.039235925349123957 0 0.44064322005524559 0.02176254700329432 0 0.44083142114472312 0.040910913032701647 0 0.44670962429745897 0.047701173100663352 0 0.45188688377837238 0.042911694708191617 0 0.44429059077557681 0.039235925349123957 0 0.44670962429745897 0.047701173100663352 0 0.45188688377837238 0.042911694708191617 0 0.45613378378570812 0.049289944954666952 0 0.44670962429745897 0.047701173100663352 0 0.44083142114472312 0.040910913032701647 0 0.44429059077557681 0.039235925349123957 0 0.46041353625474563 0.035419735428311942 0 0.45613378378570812 0.049289944954666952 0 0.47415060226476652 0.047255185577138779 0 0.45188688377837238 0.042911694708191617 0 0.46041353625474563 0.035419735428311942 0 0.45613378378570812 0.049289944954666952 0 0.46041353625474563 0.035419735428311942 0 0.45613378378570812 0.049289944954666952 0 0.47050981111710038 0.064702358747088753 0 0.45613378378570812 0.049289944954666952 0 0.47415060226476652 0.047255185577138779 0 0.47050981111710038 0.064702358747088753 0 0.44101962223420038 0.060059279062109019 0 0.45613378378570812 0.049289944954666952 0 0.47050981111710038 0.064702358747088753 0 0.44101962223420038 0.060059279062109019 0 0.47050981111710038 0.064702358747088753 0 0.47415060226476652 0.047255185577138779 0 0.48616510334546681 0.057250162076796812 0 0.46041353625474563 0.035419735428311942 0 0.48020676812737478 0.030734814049014049 0 0.46041353625474563 0.035419735428311942 0 0.47415060226476652 0.047255185577138779 0 0.48020676812737478 0.030734814049014049 0 0.47415060226476652 0.047255185577138779 0 0.5 0.04769766555089161 0 0.48020676812737478 0.030734814049014049 0 0.5 0.04769766555089161 0 0.48020676812737478 0.030734814049014049 0 0.50000000000000366 0.026049892669715049 0 0.50000000000000067 0.069345438432068085 0 0.5 0.04769766555089161 0 0.48616510334546681 0.057250162076796812 0 0.47415060226476652 0.047255185577138779 0 0.5 0.04769766555089161 0 0.48616510334546681 0.057250162076796812 0 0.4659390172436681 0.01751225605776692 0 0.47683851853448012 0.0098621813465796185 0 0.47238720687794861 -0.0033856210835209021 0 0.4659390172436681 0.01751225605776692 0 0.47238720687794861 -0.0033856210835209021 0 0.47683851853448012 0.0098621813465796185 0 0.48296950862183657 0.020183053642827829 0 0.4860583413944673 0.0051390367692453389 0 0.47683851853448012 0.0098621813465796185 0 0.4860583413944673 0.0051390367692453389 0 0.47238720687794861 -0.0033856210835209021 0 0.4659390172436681 0.01751225605776692 0 0.48020676812737478 0.030734814049014049 0 0.48296950862183657 0.020183053642827829 0 0.4659390172436681 0.01751225605776692 0 0.46041353625474563 0.035419735428311942 0 0.48020676812737478 0.030734814049014049 0 0.4659390172436681 0.01751225605776692 0 0.48296950862183657 0.020183053642827829 0 0.4659390172436681 0.01751225605776692 0 0.47683851853448012 0.0098621813465796185 0 0.48296950862183657 0.020183053642827829 0 0.48296950862183657 0.020183053642827829 0 0.50000000000000366 0.026049892669715049 0 0.50000000000000488 0.022853851227890191 0 0.48020676812737478 0.030734814049014049 0 0.50000000000000366 0.026049892669715049 0 0.48296950862183657 0.020183053642827829 0 0.50000000000000488 0.022853851227890191 0 0.48296950862183657 0.020183053642827829 0 0.50000000000000488 0.022853851227890191 0 0.4860583413944673 0.0051390367692453389 0 0.48020676812737478 0.030734814049014049 0 0.48296950862183657 0.020183053642827829 0 0.50000000000000366 0.026049892669715049 0 0.50000000000000488 0.022853851227890191 0 0.4860583413944673 0.0051390367692453389 0 0.5 -0.0070502846343831749 0 0.4860583413944673 0.0051390367692453389 0 0.48539293578850629 -0.010816366411807421 0 0.5 -0.0070502846343831749 0 0.4860583413944673 0.0051390367692453389 0 0.48539293578850629 -0.010816366411807421 0 0.47238720687794861 -0.0033856210835209021 0 0.47250816997415718 -0.01065708789369822 0 0.47238720687794861 -0.0033856210835209021 0 0.47883539651222401 -0.024283498224810209 0 0.47238720687794861 -0.0033856210835209021 0 0.47883539651222401 -0.024283498224810209 0 0.48539293578850629 -0.010816366411807421 0 0.47238720687794861 -0.0033856210835209021 0 0.47883539651222401 -0.024283498224810209 0 0.48539293578850629 -0.010816366411807421 0 0.47883539651222401 -0.024283498224810209 0 0.5 -0.036954420496656537 0 0.48539293578850629 -0.010816366411807421 0 0.5 -0.0070502846343831749 0 0.5 -0.036954420496656537 0 0.47883539651222401 -0.024283498224810209 0 0.5 -0.036954420496656537 0 0.47785653815921098 -0.04992989538101706 0 0.5 -0.036954420496656537 0 0.47785653815921098 -0.04992989538101706 0 0.5 -0.066858556358929899 0 0.47785653815921098 -0.04992989538101706 0 0.47750845018693938 -0.072180340200545146 0 0.45665965976846451 -0.064400147530065191 0 0.47883539651222401 -0.024283498224810209 0 0.47785653815921098 -0.04992989538101706 0 0.46766689801967642 -0.036140532834496232 0 0.46766689801967642 -0.036140532834496232 0 0.45396681631203528 -0.04368193354200342 0 0.45387504267478662 -0.022536102640373021 0 0.47785653815921098 -0.04992989538101706 0 0.46766689801967642 -0.036140532834496232 0 0.45396681631203528 -0.04368193354200342 0 0.47785653815921098 -0.04992989538101706 0 0.45396681631203528 -0.04368193354200342 0 0.45665965976846451 -0.064400147530065191 0 0.45665965976846451 -0.064400147530065191 0 0.43663422392225493 -0.055347139831893363 0 0.45396681631203528 -0.04368193354200342 0 0.45665965976846451 -0.064400147530065191 0 0.43663422392225493 -0.055347139831893363 0 0.45396681631203528 -0.04368193354200342 0 0.43524191537541601 -0.034415117387047833 0 0.43663422392225493 -0.055347139831893363 0 0.45396681631203528 -0.04368193354200342 0 0.45387504267478662 -0.022536102640373021 0 0.43524191537541601 -0.034415117387047833 0 0.45387504267478662 -0.022536102640373021 0 0.43524191537541601 -0.034415117387047833 0 0.44156621616131281 -0.015461818203072551 0 0.45387504267478662 -0.022536102640373021 0 0.43524191537541601 -0.034415117387047833 0 0.44156621616131281 -0.015461818203072551 0 0.4440821215548531 -0.0020077937309988859 0 0.43639355291961263 -0.0093908309790168235 0 0.44156621616131281 -0.015461818203072551 0 0.4440821215548531 -0.0020077937309988859 0 0.45728196880795452 -0.0077390437691694201 0 0.44156621616131281 -0.015461818203072551 0 0.45728196880795452 -0.0077390437691694201 0 0.45387504267478662 -0.022536102640373021 0 0.45799276648461301 0.0039916399069799451 0 0.4440821215548531 -0.0020077937309988859 0 0.45728196880795452 -0.0077390437691694201 0 0.47250816997415718 -0.01065708789369822 0 0.45728196880795452 -0.0077390437691694201 0 0.45387504267478662 -0.022536102640373021 0 0.47250816997415718 -0.01065708789369822 0 0.47238720687794861 -0.0033856210835209021 0 0.45728196880795452 -0.0077390437691694201 0 0.45799276648461301 0.0039916399069799451 0 0.47238720687794861 -0.0033856210835209021 0 0.45728196880795452 -0.0077390437691694201 0 0.47250816997415718 -0.01065708789369822 0 0.47883539651222401 -0.024283498224810209 0 0.45387504267478662 -0.022536102640373021 0 0.47883539651222401 -0.024283498224810209 0 0.46766689801967642 -0.036140532834496232 0 0.45387504267478662 -0.022536102640373021 0 0.47250816997415718 -0.01065708789369822 0 0.45387504267478662 -0.022536102640373021 0 0.48243877335194602 -0.11164641300803679 0 0.45909133198292129 -0.1097405911914678 0 0.47141046065717251 -0.13259826916789391 0 0.48243877335194602 -0.11164641300803679 0 0.5 -0.096762692221203261 0 0.5 -0.12666682808347679 0 0.48243877335194602 -0.11164641300803679 0 0.5 -0.12666682808347679 0 0.47141046065717251 -0.13259826916789391 0 0.48243877335194602 -0.11164641300803679 0 0.5 -0.096762692221203261 0 0.47401098260232088 -0.094859863720988855 0 0.48243877335194602 -0.11164641300803679 0 0.47401098260232088 -0.094859863720988855 0 0.45909133198292129 -0.1097405911914678 0 0.5 -0.096762692221203261 0 0.47401098260232088 -0.094859863720988855 0 0.47750845018693938 -0.072180340200545146 0 0.5 -0.096762692221203261 0 0.5 -0.066858556358929899 0 0.47750845018693938 -0.072180340200545146 0 0.47785653815921098 -0.04992989538101706 0 0.5 -0.066858556358929899 0 0.47750845018693938 -0.072180340200545146 0 0.47750845018693938 -0.072180340200545146 0 0.45665965976846451 -0.064400147530065191 0 0.45167029117592372 -0.083572868370439798 0 0.44441122164829788 -0.070311632498723492 0 0.43268071172654882 -0.077926374262495587 0 0.43663422392225493 -0.055347139831893363 0 0.45665965976846451 -0.064400147530065191 0 0.44441122164829788 -0.070311632498723492 0 0.43663422392225493 -0.055347139831893363 0 0.45665965976846451 -0.064400147530065191 0 0.44441122164829788 -0.070311632498723492 0 0.45167029117592372 -0.083572868370439798 0 0.44441122164829788 -0.070311632498723492 0 0.45167029117592372 -0.083572868370439798 0 0.43268071172654882 -0.077926374262495587 0 0.45167029117592372 -0.083572868370439798 0 0.43961583453722758 -0.1023112712011507 0 0.43268071172654882 -0.077926374262495587 0 0.47401098260232088 -0.094859863720988855 0 0.47750845018693938 -0.072180340200545146 0 0.45167029117592372 -0.083572868370439798 0 0.47401098260232088 -0.094859863720988855 0 0.45167029117592372 -0.083572868370439798 0 0.45909133198292129 -0.1097405911914678 0 0.45167029117592372 -0.083572868370439798 0 0.43961583453722758 -0.1023112712011507 0 0.45909133198292129 -0.1097405911914678 0 0.43961583453722758 -0.1023112712011507 0 0.45909133198292129 -0.1097405911914678 0 0.44655095734790629 -0.1266961681398058 0 0.43961583453722758 -0.1023112712011507 0 0.44655095734790629 -0.1266961681398058 0 0.45909133198292129 -0.1097405911914678 0 0.44655095734790629 -0.1266961681398058 0 0.47141046065717251 -0.13259826916789391 0 0.42599102573534869 -0.12054499986971449 0 0.41631695511098549 -0.1001062752680104 0 0.4000778861949239 -0.1169583502240253 0 0.43961583453722758 -0.1023112712011507 0 0.42599102573534869 -0.12054499986971449 0 0.44655095734790629 -0.1266961681398058 0 0.43961583453722758 -0.1023112712011507 0 0.42599102573534869 -0.12054499986971449 0 0.41631695511098549 -0.1001062752680104 0 0.41631695511098549 -0.1001062752680104 0 0.43268071172654882 -0.077926374262495587 0 0.40567417254765298 -0.080610831813335393 0 0.43961583453722758 -0.1023112712011507 0 0.43268071172654882 -0.077926374262495587 0 0.43961583453722758 -0.1023112712011507 0 0.41631695511098549 -0.1001062752680104 0 0.43268071172654882 -0.077926374262495587 0 0.43268071172654882 -0.077926374262495587 0 0.42574558891587011 -0.053541477323840347 0 0.43268071172654882 -0.077926374262495587 0 0.41269990568370712 -0.066447160205438338 0 0.42574558891587011 -0.053541477323840347 0 0.43268071172654882 -0.077926374262495587 0 0.41269990568370712 -0.066447160205438338 0 0.40567417254765298 -0.080610831813335393 0 0.41631695511098549 -0.1001062752680104 0 0.38397765249956251 -0.092453403817774643 0 0.40567417254765298 -0.080610831813335393 0 0.39788563835686469 -0.068957556063373227 0 0.38715483983987359 -0.074637146742684624 0 0.40567417254765298 -0.080610831813335393 0 0.41269990568370712 -0.066447160205438338 0 0.39788563835686469 -0.068957556063373227 0 0.40308599478014512 -0.060837850326274617 0 0.41269990568370712 -0.066447160205438338 0 0.39788563835686469 -0.068957556063373227 0 0.40567417254765298 -0.080610831813335393 0 0.39788563835686469 -0.068957556063373227 0 0.38712880738954242 -0.064020364886393691 0 0.39414164869935348 -0.056652903392408277 0 0.39788563835686469 -0.068957556063373227 0 0.38712880738954242 -0.064020364886393691 0 0.38715483983987359 -0.074637146742684624 0 0.38712880738954242 -0.064020364886393691 0 0.37860592874597487 -0.065910332619155132 0 0.38715483983987359 -0.074637146742684624 0 0.37860592874597487 -0.065910332619155132 0 0.38715483983987359 -0.074637146742684624 0 0.367877418804201 -0.067948457411523944 0 0.38397765249956251 -0.092453403817774643 0 0.367877418804201 -0.067948457411523944 0 0.38715483983987359 -0.074637146742684624 0 0.38397765249956251 -0.092453403817774643 0 0.367877418804201 -0.067948457411523944 0 0.38715483983987359 -0.074637146742684624 0 0.38397765249956251 -0.092453403817774643 0 0.40567417254765298 -0.080610831813335393 0 0.41631695511098549 -0.1001062752680104 0 0.38397765249956251 -0.092453403817774643 0 0.4000778861949239 -0.1169583502240253 0 0.38397765249956251 -0.092453403817774643 0 0.4000778861949239 -0.1169583502240253 0 0.38397765249956251 -0.092453403817774643 0 0.377531650343081 -0.11818312845693291 0 0.4000778861949239 -0.1169583502240253 0 0.377531650343081 -0.11818312845693291 0 0.4000778861949239 -0.1169583502240253 0 0.39081372193917802 -0.13921075430993471 0 0.41617354837850401 -0.022277199191240549 0 0.40331812579436482 -0.040285750150233238 0 0.40004134521566709 -0.028442921163632829 0 0.41617354837850401 -0.022277199191240549 0 0.40568453858840048 -0.019707946809430801 0 0.40004134521566709 -0.028442921163632829 0 0.41617354837850401 -0.022277199191240549 0 0.42200058775885591 -0.031806908612775457 0 0.41452526250194238 -0.035165997521992877 0 0.41617354837850401 -0.022277199191240549 0 0.41343808224476869 -0.011039096853305791 0 0.40568453858840048 -0.019707946809430801 0 0.41343808224476869 -0.011039096853305791 0 0.40568453858840048 -0.019707946809430801 0 0.40595925382499881 -0.01323156054509427 0 0.41617354837850401 -0.022277199191240549 0 0.41343808224476869 -0.011039096853305791 0 0.42902897096264492 -0.0042686482322491174 0 0.40728443312674051 -0.009432454321143896 0 0.41343808224476869 -0.011039096853305791 0 0.40595925382499881 -0.01323156054509427 0 0.40728443312674051 -0.009432454321143896 0 0.41343808224476869 -0.011039096853305791 0 0.41241604272304189 -0.0054458487684321318 0 0.40866897052541401 0.00084043267164977053 0 0.41241604272304189 -0.0054458487684321318 0 0.41902260763332583 -0.0018871477833984119 0 0.40728443312674051 -0.009432454321143896 0 0.41241604272304189 -0.0054458487684321318 0 0.40336105594536298 -0.0041477388281668708 0 0.40866897052541401 0.00084043267164977053 0 0.41241604272304189 -0.0054458487684321318 0 0.40336105594536298 -0.0041477388281668708 0 0.41343808224476869 -0.011039096853305791 0 0.41241604272304189 -0.0054458487684321318 0 0.41902260763332583 -0.0018871477833984119 0 0.41343808224476869 -0.011039096853305791 0 0.41902260763332583 -0.0018871477833984119 0 0.42902897096264492 -0.0042686482322491174 0 0.41617354837850401 -0.022277199191240549 0 0.42902897096264492 -0.0042686482322491174 0 0.42930457856916521 -0.018754168978605879 0 0.41617354837850401 -0.022277199191240549 0 0.42902897096264492 -0.0042686482322491174 0 0.42611381172438428 0.0032670020744285789 0 0.41902260763332583 -0.0018871477833984119 0 0.42902897096264492 -0.0042686482322491174 0 0.4440821215548531 -0.0020077937309988859 0 0.42902897096264492 -0.0042686482322491174 0 0.43639355291961263 -0.0093908309790168235 0 0.42902897096264492 -0.0042686482322491174 0 0.43639355291961263 -0.0093908309790168235 0 0.42930457856916521 -0.018754168978605879 0 0.44156621616131281 -0.015461818203072551 0 0.43639355291961263 -0.0093908309790168235 0 0.42930457856916521 -0.018754168978605879 0 0.42930457856916521 -0.018754168978605879 0 0.43524191537541601 -0.034415117387047833 0 0.42200058775885591 -0.031806908612775457 0 0.44156621616131281 -0.015461818203072551 0 0.42930457856916521 -0.018754168978605879 0 0.43524191537541601 -0.034415117387047833 0 0.41617354837850401 -0.022277199191240549 0 0.42930457856916521 -0.018754168978605879 0 0.42200058775885591 -0.031806908612775457 0 0.43524191537541601 -0.034415117387047833 0 0.41660878807604512 -0.046294132133722271 0 0.43524191537541601 -0.034415117387047833 0 0.42200058775885591 -0.031806908612775457 0 0.41660878807604512 -0.046294132133722271 0 0.43524191537541601 -0.034415117387047833 0 0.43663422392225493 -0.055347139831893363 0 0.41660878807604512 -0.046294132133722271 0 0.43268071172654882 -0.077926374262495587 0 0.43663422392225493 -0.055347139831893363 0 0.42574558891587011 -0.053541477323840347 0 0.43663422392225493 -0.055347139831893363 0 0.42574558891587011 -0.053541477323840347 0 0.41660878807604512 -0.046294132133722271 0 0.43663422392225493 -0.055347139831893363 0 0.41660878807604512 -0.046294132133722271 0 0.41269990568370712 -0.066447160205438338 0 0.42574558891587011 -0.053541477323840347 0 0.4124232741800965 -0.056362711209388933 0 0.42574558891587011 -0.053541477323840347 0 0.4124232741800965 -0.056362711209388933 0 0.41660878807604512 -0.046294132133722271 0 0.41660878807604512 -0.046294132133722271 0 0.40380515982995763 -0.054456717313471577 0 0.40546178997150689 -0.047152760207232088 0 0.4124232741800965 -0.056362711209388933 0 0.41660878807604512 -0.046294132133722271 0 0.40380515982995763 -0.054456717313471577 0 0.41660878807604512 -0.046294132133722271 0 0.40380515982995763 -0.054456717313471577 0 0.41269990568370712 -0.066447160205438338 0 0.4124232741800965 -0.056362711209388933 0 0.40308599478014512 -0.060837850326274617 0 0.4124232741800965 -0.056362711209388933 0 0.40308599478014512 -0.060837850326274617 0 0.40380515982995763 -0.054456717313471577 0 0.41617354837850401 -0.022277199191240549 0 0.40331812579436482 -0.040285750150233238 0 0.41617354837850401 -0.022277199191240549 0 0.41452526250194238 -0.035165997521992877 0 0.40331812579436482 -0.040285750150233238 0 0.42200058775885591 -0.031806908612775457 0 0.41452526250194238 -0.035165997521992877 0 0.41660878807604512 -0.046294132133722271 0 0.41660878807604512 -0.046294132133722271 0 0.40331812579436482 -0.040285750150233238 0 0.41660878807604512 -0.046294132133722271 0 0.40331812579436482 -0.040285750150233238 0 0.40546178997150689 -0.047152760207232088 0 0.41452526250194238 -0.035165997521992877 0 0.41660878807604512 -0.046294132133722271 0 0.40331812579436482 -0.040285750150233238 0 0.40331812579436482 -0.040285750150233238 0 0.38489540429013558 -0.031957290241550522 0 0.39040469671237632 -0.043485170247506678 0 0.40331812579436482 -0.040285750150233238 0 0.38489540429013558 -0.031957290241550522 0 0.40004134521566709 -0.028442921163632829 0 0.40331812579436482 -0.040285750150233238 0 0.38489540429013558 -0.031957290241550522 0 0.40331812579436482 -0.040285750150233238 0 0.39811508618566022 -0.047574441231501258 0 0.40331812579436482 -0.040285750150233238 0 0.40546178997150689 -0.047152760207232088 0 0.39811508618566022 -0.047574441231501258 0 0.40331812579436482 -0.040285750150233238 0 0.39811508618566022 -0.047574441231501258 0 0.39040469671237632 -0.043485170247506678 0 0.40308599478014512 -0.060837850326274617 0 0.40380515982995763 -0.054456717313471577 0 0.39414164869935348 -0.056652903392408277 0 0.40380515982995763 -0.054456717313471577 0 0.39811508618566022 -0.047574441231501258 0 0.39414164869935348 -0.056652903392408277 0 0.40380515982995763 -0.054456717313471577 0 0.40546178997150689 -0.047152760207232088 0 0.39811508618566022 -0.047574441231501258 0 0.39811508618566022 -0.047574441231501258 0 0.39075267398097352 -0.050566671785063563 0 0.39414164869935348 -0.056652903392408277 0 0.39811508618566022 -0.047574441231501258 0 0.39075267398097352 -0.050566671785063563 0 0.39040469671237632 -0.043485170247506678 0 0.39075267398097352 -0.050566671785063563 0 0.39414164869935348 -0.056652903392408277 0 0.38716095432298497 -0.05577919591507341 0 0.39788563835686469 -0.068957556063373227 0 0.40308599478014512 -0.060837850326274617 0 0.39414164869935348 -0.056652903392408277 0 0.38712880738954242 -0.064020364886393691 0 0.38716095432298497 -0.05577919591507341 0 0.37790393092896729 -0.057362288634667587 0 0.38712880738954242 -0.064020364886393691 0 0.39414164869935348 -0.056652903392408277 0 0.38716095432298497 -0.05577919591507341 0 0.38716095432298497 -0.05577919591507341 0 0.38394098398449239 -0.049341648138828152 0 0.37790393092896729 -0.057362288634667587 0 0.39075267398097352 -0.050566671785063563 0 0.38716095432298497 -0.05577919591507341 0 0.38394098398449239 -0.049341648138828152 0 0.39075267398097352 -0.050566671785063563 0 0.38394098398449239 -0.049341648138828152 0 0.39040469671237632 -0.043485170247506678 0 0.38394098398449239 -0.049341648138828152 0 0.37790393092896729 -0.057362288634667587 0 0.37256074689908181 -0.048143954845173878 0 0.38712880738954242 -0.064020364886393691 0 0.37860592874597487 -0.065910332619155132 0 0.37790393092896729 -0.057362288634667587 0 0.37860592874597487 -0.065910332619155132 0 0.37790393092896729 -0.057362288634667587 0 0.37256210544576412 -0.062113062608914471 0 0.38489540429013558 -0.031957290241550522 0 0.37984251461446161 -0.041867490335570363 0 0.36741074118622208 -0.03640938820479258 0 0.38394098398449239 -0.049341648138828152 0 0.39040469671237632 -0.043485170247506678 0 0.37984251461446161 -0.041867490335570363 0 0.38489540429013558 -0.031957290241550522 0 0.39040469671237632 -0.043485170247506678 0 0.37984251461446161 -0.041867490335570363 0 0.38394098398449239 -0.049341648138828152 0 0.37984251461446161 -0.041867490335570363 0 0.37256074689908181 -0.048143954845173878 0 0.38489540429013558 -0.031957290241550522 0 0.36647268278590661 -0.023628830332867449 0 0.38489540429013558 -0.031957290241550522 0 0.37926200528762849 -0.020296695835783529 0 0.36647268278590661 -0.023628830332867449 0 0.37926200528762849 -0.020296695835783529 0 0.3897001344472939 -0.02095124803312887 0 0.38712380876863389 -0.01241429637512821 0 0.38489540429013558 -0.031957290241550522 0 0.37926200528762849 -0.020296695835783529 0 0.3897001344472939 -0.02095124803312887 0 0.38489540429013558 -0.031957290241550522 0 0.3897001344472939 -0.02095124803312887 0 0.40004134521566709 -0.028442921163632829 0 0.40004134521566709 -0.028442921163632829 0 0.39584289766833841 -0.0071848871236637746 0 0.40568453858840048 -0.019707946809430801 0 0.40004134521566709 -0.028442921163632829 0 0.39983447257892601 -0.01111014848105445 0 0.3897001344472939 -0.02095124803312887 0 0.40004134521566709 -0.028442921163632829 0 0.39584289766833841 -0.0071848871236637746 0 0.40004134521566709 -0.028442921163632829 0 0.39983447257892601 -0.01111014848105445 0 0.39584289766833841 -0.0071848871236637746 0 0.40336105594536298 -0.0041477388281668708 0 0.39983447257892601 -0.01111014848105445 0 0.39584289766833841 -0.0071848871236637746 0 0.40728443312674051 -0.009432454321143896 0 0.40595925382499881 -0.01323156054509427 0 0.39983447257892601 -0.01111014848105445 0 0.40568453858840048 -0.019707946809430801 0 0.40595925382499881 -0.01323156054509427 0 0.39983447257892601 -0.01111014848105445 0 0.40728443312674051 -0.009432454321143896 0 0.40336105594536298 -0.0041477388281668708 0 0.39983447257892601 -0.01111014848105445 0 0.3897001344472939 -0.02095124803312887 0 0.39584289766833841 -0.0071848871236637746 0 0.38712380876863389 -0.01241429637512821 0 0.39983447257892601 -0.01111014848105445 0 0.39584289766833841 -0.0071848871236637746 0 0.39321760861815841 0.0061077605428421378 0 0.40336105594536298 -0.0041477388281668708 0 0.39584289766833841 -0.0071848871236637746 0 0.39321760861815841 0.0061077605428421378 0 0.39584289766833841 -0.0071848871236637746 0 0.38382375711823202 0.0046345748699598427 0 0.39584289766833841 -0.0071848871236637746 0 0.37926200528762849 -0.020296695835783529 0 0.38712380876863389 -0.01241429637512821 0 0.36958213714694382 -0.01070440389615673 0 0.36459978185581599 0.0016197853629371991 0 0.38382375711823202 0.0046345748699598427 0 0.38712380876863389 -0.01241429637512821 0 0.38382375711823202 0.0046345748699598427 0 0.39584289766833841 -0.0071848871236637746 0 0.38712380876863389 -0.01241429637512821 0 0.36459978185581599 0.0016197853629371991 0 0.38712380876863389 -0.01241429637512821 0 0.36459978185581599 0.0016197853629371991 0 0.38712380876863389 -0.01241429637512821 0 0.36958213714694382 -0.01070440389615673 0 0.36958213714694382 -0.01070440389615673 0 0.36390959287229319 -0.00571944909010089 0 0.34804996128167759 -0.0153003704241844 0 0.36459978185581599 0.0016197853629371991 0 0.36958213714694382 -0.01070440389615673 0 0.36390959287229319 -0.00571944909010089 0 0.36459978185581599 0.0016197853629371991 0 0.35766033028314259 0.00053150962912805184 0 0.35857616837682899 -0.0032493280030100671 0 0.36459978185581599 0.0016197853629371991 0 0.36390959287229319 -0.00571944909010089 0 0.35857616837682899 -0.0032493280030100671 0 0.36647268278590661 -0.023628830332867449 0 0.35061344207100081 -0.031077514328909681 0 0.36741074118622208 -0.03640938820479258 0 0.36958213714694382 -0.01070440389615673 0 0.36647268278590661 -0.023628830332867449 0 0.34804996128167759 -0.0153003704241844 0 0.38489540429013558 -0.031957290241550522 0 0.36647268278590661 -0.023628830332867449 0 0.36741074118622208 -0.03640938820479258 0 0.37926200528762849 -0.020296695835783529 0 0.36958213714694382 -0.01070440389615673 0 0.36647268278590661 -0.023628830332867449 0 0.36647268278590661 -0.023628830332867449 0 0.34804996128167759 -0.0153003704241844 0 0.36647268278590661 -0.023628830332867449 0 0.35061344207100081 -0.031077514328909681 0 0.34804996128167759 -0.0153003704241844 0 0.35766033028314259 0.00053150962912805184 0 0.34186169234775288 -0.0019461032070706239 0 0.35766033028314259 0.00053150962912805184 0 0.35074932873207337 -0.0056413875646207229 0 0.34186169234775288 -0.0019461032070706239 0 0.36390959287229319 -0.00571944909010089 0 0.35857616837682899 -0.0032493280030100671 0 0.34804996128167759 -0.0153003704241844 0 0.35766033028314259 0.00053150962912805184 0 0.35857616837682899 -0.0032493280030100671 0 0.35074932873207337 -0.0056413875646207229 0 0.35766033028314259 0.00053150962912805184 0 0.35857616837682899 -0.0032493280030100671 0 0.35857616837682899 -0.0032493280030100671 0 0.34804996128167759 -0.0153003704241844 0 0.35074932873207337 -0.0056413875646207229 0 0.34804996128167759 -0.0153003704241844 0 0.35074932873207337 -0.0056413875646207229 0 0.34186169234775288 -0.0019461032070706239 0 0.34186169234775288 -0.0019461032070706239 0 0.33141434204394188 -0.026190427544278371 0 0.33040276643443328 0.0077194922335834752 0 0.34186169234775288 -0.0019461032070706239 0 0.3153171152914937 -0.0061089421248620053 0 0.34186169234775288 -0.0019461032070706239 0 0.3153171152914937 -0.0061089421248620053 0 0.34186169234775288 -0.0019461032070706239 0 0.33141434204394188 -0.026190427544278371 0 0.3153171152914937 -0.0061089421248620053 0 0.34804996128167759 -0.0153003704241844 0 0.34186169234775288 -0.0019461032070706239 0 0.33141434204394188 -0.026190427544278371 0 0.35061344207100081 -0.031077514328909681 0 0.34804996128167759 -0.0153003704241844 0 0.33141434204394188 -0.026190427544278371 0 0.33141434204394188 -0.026190427544278371 0 0.3153171152914937 -0.0061089421248620053 0 0.31048683641877761 -0.02647334588461828 0 0.3209669917401119 -0.050434751881478029 0 0.31198502812308032 -0.071278471368552754 0 0.33141434204394188 -0.026190427544278371 0 0.3209669917401119 -0.050434751881478029 0 0.33141434204394188 -0.026190427544278371 0 0.3209669917401119 -0.050434751881478029 0 0.31048683641877761 -0.02647334588461828 0 0.33141434204394188 -0.026190427544278371 0 0.3209669917401119 -0.050434751881478029 0 0.33855574001941718 -0.04149255846206204 0 0.35061344207100081 -0.031077514328909681 0 0.33141434204394188 -0.026190427544278371 0 0.33855574001941718 -0.04149255846206204 0 0.3209669917401119 -0.050434751881478029 0 0.34287915089856957 -0.057469557547578237 0 0.32994565146579879 -0.070408000129971129 0 0.3209669917401119 -0.050434751881478029 0 0.34287915089856957 -0.057469557547578237 0 0.3209669917401119 -0.050434751881478029 0 0.33855574001941718 -0.04149255846206204 0 0.34287915089856957 -0.057469557547578237 0 0.34287915089856957 -0.057469557547578237 0 0.36536635039603249 -0.064126550355458833 0 0.3517771851088396 -0.04344351100527323 0 0.36536635039603249 -0.064126550355458833 0 0.34287915089856957 -0.057469557547578237 0 0.3517771851088396 -0.04344351100527323 0 0.36536635039603249 -0.064126550355458833 0 0.33855574001941718 -0.04149255846206204 0 0.34287915089856957 -0.057469557547578237 0 0.3517771851088396 -0.04344351100527323 0 0.35061344207100081 -0.031077514328909681 0 0.3517771851088396 -0.04344351100527323 0 0.36741074118622208 -0.03640938820479258 0 0.35061344207100081 -0.031077514328909681 0 0.33855574001941718 -0.04149255846206204 0 0.3517771851088396 -0.04344351100527323 0 0.3517771851088396 -0.04344351100527323 0 0.36472778273402628 -0.046144250895080723 0 0.36741074118622208 -0.03640938820479258 0 0.37984251461446161 -0.041867490335570363 0 0.36741074118622208 -0.03640938820479258 0 0.37256074689908181 -0.048143954845173878 0 0.36472778273402628 -0.046144250895080723 0 0.36741074118622208 -0.03640938820479258 0 0.37256074689908181 -0.048143954845173878 0 0.3517771851088396 -0.04344351100527323 0 0.36716245774196171 -0.056580149525083182 0 0.36536635039603249 -0.064126550355458833 0 0.3517771851088396 -0.04344351100527323 0 0.36472778273402628 -0.046144250895080723 0 0.36716245774196171 -0.056580149525083182 0 0.37790393092896729 -0.057362288634667587 0 0.36716245774196171 -0.056580149525083182 0 0.37256074689908181 -0.048143954845173878 0 0.36472778273402628 -0.046144250895080723 0 0.36716245774196171 -0.056580149525083182 0 0.37256074689908181 -0.048143954845173878 0 0.36716245774196171 -0.056580149525083182 0 0.37256210544576412 -0.062113062608914471 0 0.367877418804201 -0.067948457411523944 0 0.37790393092896729 -0.057362288634667587 0 0.36716245774196171 -0.056580149525083182 0 0.37256210544576412 -0.062113062608914471 0 0.37860592874597487 -0.065910332619155132 0 0.37256210544576412 -0.062113062608914471 0 0.367877418804201 -0.067948457411523944 0 0.36716245774196171 -0.056580149525083182 0 0.367877418804201 -0.067948457411523944 0 0.36536635039603249 -0.064126550355458833 0 0.36536635039603249 -0.064126550355458833 0 0.36199140161628118 -0.070693499331433679 0 0.35432834397913621 -0.068042042597914673 0 0.367877418804201 -0.067948457411523944 0 0.36536635039603249 -0.064126550355458833 0 0.367877418804201 -0.067948457411523944 0 0.36536635039603249 -0.064126550355458833 0 0.36199140161628118 -0.070693499331433679 0 0.367877418804201 -0.067948457411523944 0 0.36199140161628118 -0.070693499331433679 0 0.36681486797569479 -0.079448043400362392 0 0.36199140161628118 -0.070693499331433679 0 0.36681486797569479 -0.079448043400362392 0 0.35701387758556968 -0.076067074508636423 0 0.38397765249956251 -0.092453403817774643 0 0.367877418804201 -0.067948457411523944 0 0.36681486797569479 -0.079448043400362392 0 0.38397765249956251 -0.092453403817774643 0 0.36328287045184932 -0.090591602182129582 0 0.36681486797569479 -0.079448043400362392 0 0.36328287045184932 -0.090591602182129582 0 0.36681486797569479 -0.079448043400362392 0 0.35701387758556968 -0.076067074508636423 0 0.36328287045184932 -0.090591602182129582 0 0.3503140659036772 -0.084187620873411792 0 0.35701387758556968 -0.076067074508636423 0 0.3503140659036772 -0.084187620873411792 0 0.34496597973823279 -0.071475718388247636 0 0.33602886641856522 -0.088125389228978279 0 0.36328287045184932 -0.090591602182129582 0 0.3503140659036772 -0.084187620873411792 0 0.3486820652911754 -0.097691542219808747 0 0.3503140659036772 -0.084187620873411792 0 0.3486820652911754 -0.097691542219808747 0 0.33602886641856522 -0.088125389228978279 0 0.34287915089856957 -0.057469557547578237 0 0.36536635039603249 -0.064126550355458833 0 0.35432834397913621 -0.068042042597914673 0 0.3503140659036772 -0.084187620873411792 0 0.34496597973823279 -0.071475718388247636 0 0.35701387758556968 -0.076067074508636423 0 0.34287915089856957 -0.057469557547578237 0 0.34496597973823279 -0.071475718388247636 0 0.35432834397913621 -0.068042042597914673 0 0.36199140161628118 -0.070693499331433679 0 0.35432834397913621 -0.068042042597914673 0 0.35701387758556968 -0.076067074508636423 0 0.34496597973823279 -0.071475718388247636 0 0.35432834397913621 -0.068042042597914673 0 0.35701387758556968 -0.076067074508636423 0 0.377531650343081 -0.11818312845693291 0 0.3605480264482771 -0.1076531473471193 0 0.35743407601693239 -0.1234387315732044 0 0.38397765249956251 -0.092453403817774643 0 0.36328287045184932 -0.090591602182129582 0 0.3605480264482771 -0.1076531473471193 0 0.38397765249956251 -0.092453403817774643 0 0.377531650343081 -0.11818312845693291 0 0.3605480264482771 -0.1076531473471193 0 0.36328287045184932 -0.090591602182129582 0 0.3605480264482771 -0.1076531473471193 0 0.3486820652911754 -0.097691542219808747 0 0.3605480264482771 -0.1076531473471193 0 0.3486820652911754 -0.097691542219808747 0 0.34549152156418572 -0.11268068622347339 0 0.35743407601693239 -0.1234387315732044 0 0.34549152156418572 -0.11268068622347339 0 0.33916847671495948 -0.1272035077980376 0 0.3605480264482771 -0.1076531473471193 0 0.35743407601693239 -0.1234387315732044 0 0.34549152156418572 -0.11268068622347339 0 0.34549152156418572 -0.11268068622347339 0 0.32951021368732453 -0.1144084130127828 0 0.33916847671495948 -0.1272035077980376 0 0.32951021368732453 -0.1144084130127828 0 0.32166324728259499 -0.13135633786462661 0 0.33916847671495948 -0.1272035077980376 0 0.34549152156418572 -0.11268068622347339 0 0.32951021368732453 -0.1144084130127828 0 0.33665901951003208 -0.1023726452224928 0 0.32951021368732453 -0.1144084130127828 0 0.33665901951003208 -0.1023726452224928 0 0.32142436305900579 -0.099761858768234152 0 0.3486820652911754 -0.097691542219808747 0 0.34549152156418572 -0.11268068622347339 0 0.33665901951003208 -0.1023726452224928 0 0.3486820652911754 -0.097691542219808747 0 0.33665901951003208 -0.1023726452224928 0 0.33602886641856522 -0.088125389228978279 0 0.33665901951003208 -0.1023726452224928 0 0.32142436305900579 -0.099761858768234152 0 0.33602886641856522 -0.088125389228978279 0 0.32951021368732453 -0.1144084130127828 0 0.32142436305900579 -0.099761858768234152 0 0.31265465399316889 -0.11307544219983209 0 0.31265465399316889 -0.11307544219983209 0 0.30585118941309869 -0.12691687349975089 0 0.32166324728259499 -0.13135633786462661 0 0.32951021368732453 -0.1144084130127828 0 0.31265465399316889 -0.11307544219983209 0 0.32166324728259499 -0.13135633786462661 0 0.34496597973823279 -0.071475718388247636 0 0.32994565146579879 -0.070408000129971129 0 0.33602886641856522 -0.088125389228978279 0 0.34287915089856957 -0.057469557547578237 0 0.34496597973823279 -0.071475718388247636 0 0.32994565146579879 -0.070408000129971129 0 0.32994565146579879 -0.070408000129971129 0 0.33602886641856522 -0.088125389228978279 0 0.32304291409474239 -0.084410454359534426 0 0.32142436305900579 -0.099761858768234152 0 0.32304291409474239 -0.084410454359534426 0 0.3030030645060493 -0.0921221908556277 0 0.32304291409474239 -0.084410454359534426 0 0.31198502812308032 -0.071278471368552754 0 0.3030030645060493 -0.0921221908556277 0 0.32304291409474239 -0.084410454359534426 0 0.3030030645060493 -0.0921221908556277 0 0.32142436305900579 -0.099761858768234152 0 0.33602886641856522 -0.088125389228978279 0 0.32304291409474239 -0.084410454359534426 0 0.32994565146579879 -0.070408000129971129 0 0.32304291409474239 -0.084410454359534426 0 0.31198502812308032 -0.071278471368552754 0 0.3209669917401119 -0.050434751881478029 0 0.32994565146579879 -0.070408000129971129 0 0.31198502812308032 -0.071278471368552754 0 0.31198502812308032 -0.071278471368552754 0 0.29969182285399132 -0.062832736685797821 0 0.29546637918640728 -0.07763776604170057 0 0.31198502812308032 -0.071278471368552754 0 0.3030030645060493 -0.0921221908556277 0 0.29546637918640728 -0.07763776604170057 0 0.31198502812308032 -0.071278471368552754 0 0.3030030645060493 -0.0921221908556277 0 0.3030030645060493 -0.0921221908556277 0 0.28427873383264662 -0.08643932501553736 0 0.29546637918640728 -0.07763776604170057 0 0.3030030645060493 -0.0921221908556277 0 0.28427873383264662 -0.08643932501553736 0 0.27608284085717177 -0.10248163343912969 0 0.28427873383264662 -0.08643932501553736 0 0.29546637918640728 -0.07763776604170057 0 0.27612109171129889 -0.072480719732976595 0 0.29969182285399132 -0.062832736685797821 0 0.27612109171129889 -0.072480719732976595 0 0.29969182285399132 -0.062832736685797821 0 0.27612109171129889 -0.072480719732976595 0 0.28162267234533322 -0.054423897587784917 0 0.29969182285399132 -0.062832736685797821 0 0.29546637918640728 -0.07763776604170057 0 0.27612109171129889 -0.072480719732976595 0 0.29380685764977238 -0.11346308737115909 0 0.29097746285681292 -0.13296084054707949 0 0.30585118941309869 -0.12691687349975089 0 0.31265465399316889 -0.11307544219983209 0 0.29380685764977238 -0.11346308737115909 0 0.30585118941309869 -0.12691687349975089 0 0.31265465399316889 -0.11307544219983209 0 0.3030030645060493 -0.0921221908556277 0 0.29380685764977238 -0.11346308737115909 0 0.32142436305900579 -0.099761858768234152 0 0.31265465399316889 -0.11307544219983209 0 0.3030030645060493 -0.0921221908556277 0 0.3030030645060493 -0.0921221908556277 0 0.29380685764977238 -0.11346308737115909 0 0.3030030645060493 -0.0921221908556277 0 0.27608284085717177 -0.10248163343912969 0 0.3030030645060493 -0.0921221908556277 0 0.29380685764977238 -0.11346308737115909 0 0.27608284085717177 -0.10248163343912969 0 0.29380685764977238 -0.11346308737115909 0 0.2759419647077706 -0.11943119333582231 0 0.29097746285681292 -0.13296084054707949 0 0.29380685764977238 -0.11346308737115909 0 0.2759419647077706 -0.11943119333582231 0 0.27608284085717177 -0.10248163343912969 0 0.2759419647077706 -0.11943119333582231 0 0.27608284085717177 -0.10248163343912969 0 0.24916261720829391 -0.1128410760226309 0 0.27608284085717177 -0.10248163343912969 0 0.24916261720829391 -0.1128410760226309 0 0.27608284085717177 -0.10248163343912969 0 0.27072029290230593 -0.087474315008252257 0 0.24916261720829391 -0.1128410760226309 0 0.27072029290230593 -0.087474315008252257 0 0.25255036056860641 -0.082128702780155355 0 0.24916261720829391 -0.1128410760226309 0 0.2759419647077706 -0.11943119333582231 0 0.26968004496680192 -0.1354093292991122 0 0.24916261720829391 -0.1128410760226309 0 0.27612109171129889 -0.072480719732976595 0 0.27072029290230593 -0.087474315008252257 0 0.25255036056860641 -0.082128702780155355 0 0.28427873383264662 -0.08643932501553736 0 0.27612109171129889 -0.072480719732976595 0 0.27072029290230593 -0.087474315008252257 0 0.28427873383264662 -0.08643932501553736 0 0.27608284085717177 -0.10248163343912969 0 0.27072029290230593 -0.087474315008252257 0 0.27612109171129889 -0.072480719732976595 0 0.25255036056860641 -0.082128702780155355 0 0.25614171351425058 -0.057605891013993667 0 0.27612109171129889 -0.072480719732976595 0 0.25255036056860641 -0.082128702780155355 0 0.25614171351425058 -0.057605891013993667 0 0.2740950910354541 -0.035386727162715348 0 0.28162267234533322 -0.054423897587784917 0 0.27612109171129889 -0.072480719732976595 0 0.25614171351425058 -0.057605891013993667 0 0.28162267234533322 -0.054423897587784917 0 0.25614171351425058 -0.057605891013993667 0 0.2740950910354541 -0.035386727162715348 0 0.24403893135934571 -0.037256147821468667 0 0.2740950910354541 -0.035386727162715348 0 0.26222796117897867 -0.01443461996046645 0 0.24403893135934571 -0.037256147821468667 0 0.24502883806765671 0.008523642691556723 0 0.27345126597006592 0.00071225981742997107 0 0.26222796117897867 -0.01443461996046645 0 0.26222796117897867 -0.01443461996046645 0 0.2887725382352363 -0.01027178104266422 0 0.27345126597006592 0.00071225981742997107 0 0.26222796117897867 -0.01443461996046645 0 0.2887725382352363 -0.01027178104266422 0 0.2740950910354541 -0.035386727162715348 0 0.26222796117897867 -0.01443461996046645 0 0.2887725382352363 -0.01027178104266422 0 0.2740950910354541 -0.035386727162715348 0 0.29296786011376652 -0.028107680413614649 0 0.2887725382352363 -0.01027178104266422 0 0.3153171152914937 -0.0061089421248620053 0 0.2887725382352363 -0.01027178104266422 0 0.3153171152914937 -0.0061089421248620053 0 0.2887725382352363 -0.01027178104266422 0 0.31048683641877761 -0.02647334588461828 0 0.29594264507526558 0.01116838319107246 0 0.3153171152914937 -0.0061089421248620053 0 0.2887725382352363 -0.01027178104266422 0 0.29296786011376652 -0.028107680413614649 0 0.2887725382352363 -0.01027178104266422 0 0.31048683641877761 -0.02647334588461828 0 0.3209669917401119 -0.050434751881478029 0 0.31048683641877761 -0.02647334588461828 0 0.2975310413877828 -0.042910739522097223 0 0.3209669917401119 -0.050434751881478029 0 0.2975310413877828 -0.042910739522097223 0 0.29296786011376652 -0.028107680413614649 0 0.31048683641877761 -0.02647334588461828 0 0.2975310413877828 -0.042910739522097223 0 0.3209669917401119 -0.050434751881478029 0 0.31198502812308032 -0.071278471368552754 0 0.29969182285399132 -0.062832736685797821 0 0.3209669917401119 -0.050434751881478029 0 0.29969182285399132 -0.062832736685797821 0 0.2975310413877828 -0.042910739522097223 0 0.29969182285399132 -0.062832736685797821 0 0.2975310413877828 -0.042910739522097223 0 0.28162267234533322 -0.054423897587784917 0 0.2740950910354541 -0.035386727162715348 0 0.29296786011376652 -0.028107680413614649 0 0.2975310413877828 -0.042910739522097223 0 0.2740950910354541 -0.035386727162715348 0 0.2975310413877828 -0.042910739522097223 0 0.28162267234533322 -0.054423897587784917 0 0.2740950910354541 -0.035386727162715348 0 0.2975310413877828 -0.042910739522097223 0 0.28599713250703918 -0.20031163355485249 0 0.30096916920491351 -0.21264004708164749 0 0.28860803900635101 -0.2222818645608142 0 0.28599713250703918 -0.20031163355485249 0 0.28860803900635101 -0.2222818645608142 0 0.27472451538918602 -0.21515400219702141 0 0.28599713250703918 -0.20031163355485249 0 0.27934977169502012 -0.18132833357158179 0 0.30297614009657281 -0.18293099963707701 0 0.28599713250703918 -0.20031163355485249 0 0.3105875994156681 -0.20078733944699301 0 0.30297614009657281 -0.18293099963707701 0 0.3105875994156681 -0.20078733944699301 0 0.30297614009657281 -0.18293099963707701 0 0.3211547771963868 -0.18823870198864109 0 0.28599713250703918 -0.20031163355485249 0 0.3105875994156681 -0.20078733944699301 0 0.30096916920491351 -0.21264004708164749 0 0.3105875994156681 -0.20078733944699301 0 0.30096916920491351 -0.21264004708164749 0 0.31487138951265148 -0.21656650482682349 0 0.30096916920491351 -0.21264004708164749 0 0.30282141040025518 -0.2244224621518692 0 0.31487138951265148 -0.21656650482682349 0 0.30282141040025518 -0.2244224621518692 0 0.29233168041781638 -0.237437495347567 0 0.31732677385954328 -0.23318639894249371 0 0.30282141040025518 -0.2244224621518692 0 0.31487138951265148 -0.21656650482682349 0 0.31732677385954328 -0.23318639894249371 0 0.30096916920491351 -0.21264004708164749 0 0.30282141040025518 -0.2244224621518692 0 0.28860803900635101 -0.2222818645608142 0 0.29233168041781638 -0.237437495347567 0 0.31732677385954328 -0.23318639894249371 0 0.30812350189974758 -0.24139148326430979 0 0.30334697131571631 -0.24598665396577821 0 0.31948858200591429 -0.24895538480140031 0 0.30812350189974758 -0.24139148326430979 0 0.29233168041781638 -0.237437495347567 0 0.31732677385954328 -0.23318639894249371 0 0.30812350189974758 -0.24139148326430979 0 0.30334697131571631 -0.24598665396577821 0 0.29233168041781638 -0.237437495347567 0 0.30334697131571631 -0.24598665396577821 0 0.31948858200591429 -0.24895538480140031 0 0.30270319855564731 -0.25083068480389359 0 0.30334697131571631 -0.24598665396577821 0 0.29342444761073561 -0.2490154373494701 0 0.30270319855564731 -0.25083068480389359 0 0.29233168041781638 -0.237437495347567 0 0.28475750139054989 -0.24680621714445891 0 0.26733658697608947 -0.2416885917526401 0 0.30334697131571631 -0.24598665396577821 0 0.29342444761073561 -0.2490154373494701 0 0.29233168041781638 -0.237437495347567 0 0.29342444761073561 -0.2490154373494701 0 0.29233168041781638 -0.237437495347567 0 0.28475750139054989 -0.24680621714445891 0 0.29342444761073561 -0.2490154373494701 0 0.28475750139054989 -0.24680621714445891 0 0.28855536188488351 -0.25406702018922561 0 0.29233168041781638 -0.237437495347567 0 0.28860803900635101 -0.2222818645608142 0 0.27336691787881301 -0.2280363603538669 0 0.30282141040025518 -0.2244224621518692 0 0.29233168041781638 -0.237437495347567 0 0.28860803900635101 -0.2222818645608142 0 0.27336691787881301 -0.2280363603538669 0 0.26733658697608947 -0.2416885917526401 0 0.25700636866691529 -0.23229792619875059 0 0.28860803900635101 -0.2222818645608142 0 0.27336691787881301 -0.2280363603538669 0 0.27472451538918602 -0.21515400219702141 0 0.27336691787881301 -0.2280363603538669 0 0.26115909430663092 -0.21897946382591371 0 0.27472451538918602 -0.21515400219702141 0 0.29233168041781638 -0.237437495347567 0 0.26733658697608947 -0.2416885917526401 0 0.28475750139054989 -0.24680621714445891 0 0.26733658697608947 -0.2416885917526401 0 0.27900645603208429 -0.25229706430207338 0 0.29233168041781638 -0.237437495347567 0 0.27336691787881301 -0.2280363603538669 0 0.26733658697608947 -0.2416885917526401 0 0.26733658697608947 -0.2416885917526401 0 0.27900645603208429 -0.25229706430207338 0 0.26733658697608947 -0.2416885917526401 0 0.2538276387990735 -0.243986156319283 0 0.26146442537082609 -0.25583685081005042 0 0.26733658697608947 -0.2416885917526401 0 0.2538276387990735 -0.243986156319283 0 0.26733658697608947 -0.2416885917526401 0 0.25700636866691529 -0.23229792619875059 0 0.26733658697608947 -0.2416885917526401 0 0.2538276387990735 -0.243986156319283 0 0.25700636866691529 -0.23229792619875059 0 0.2538276387990735 -0.243986156319283 0 0.25700636866691529 -0.23229792619875059 0 0.24490165686425211 -0.23528228860034259 0 0.27336691787881301 -0.2280363603538669 0 0.26115909430663092 -0.21897946382591371 0 0.25700636866691529 -0.23229792619875059 0 0.26115909430663092 -0.21897946382591371 0 0.25700636866691529 -0.23229792619875059 0 0.2474680867721589 -0.22346196655244499 0 0.26115909430663092 -0.21897946382591371 0 0.25071911215742437 -0.20927805116274709 0 0.2474680867721589 -0.22346196655244499 0 0.25071911215742437 -0.20927805116274709 0 0.26553192509875939 -0.20550449456077191 0 0.25474998502698032 -0.19691874005317461 0 0.26115909430663092 -0.21897946382591371 0 0.25071911215742437 -0.20927805116274709 0 0.26553192509875939 -0.20550449456077191 0 0.26115909430663092 -0.21897946382591371 0 0.26553192509875939 -0.20550449456077191 0 0.27472451538918602 -0.21515400219702141 0 0.28599713250703918 -0.20031163355485249 0 0.26553192509875939 -0.20550449456077191 0 0.27472451538918602 -0.21515400219702141 0 0.28599713250703918 -0.20031163355485249 0 0.26553192509875939 -0.20550449456077191 0 0.26654543567081013 -0.19131702701194489 0 0.28599713250703918 -0.20031163355485249 0 0.26654543567081013 -0.19131702701194489 0 0.27934977169502012 -0.18132833357158179 0 0.25474998502698032 -0.19691874005317461 0 0.25706624972303532 -0.17543805633142839 0 0.24002367982415451 -0.19374267904470141 0 0.26654543567081013 -0.19131702701194489 0 0.25474998502698032 -0.19691874005317461 0 0.25706624972303532 -0.17543805633142839 0 0.26553192509875939 -0.20550449456077191 0 0.26654543567081013 -0.19131702701194489 0 0.25474998502698032 -0.19691874005317461 0 0.25706624972303532 -0.17543805633142839 0 0.27680814305248802 -0.16466095624802721 0 0.26247388047373083 -0.15483700496883221 0 0.25706624972303532 -0.17543805633142839 0 0.26247388047373083 -0.15483700496883221 0 0.24384523969761221 -0.14863354701755199 0 0.27680814305248802 -0.16466095624802721 0 0.26247388047373083 -0.15483700496883221 0 0.28587983052980898 -0.15032919588913951 0 0.26654543567081013 -0.19131702701194489 0 0.25706624972303532 -0.17543805633142839 0 0.27934977169502012 -0.18132833357158179 0 0.25706624972303532 -0.17543805633142839 0 0.27680814305248802 -0.16466095624802721 0 0.27934977169502012 -0.18132833357158179 0 0.26968004496680192 -0.1354093292991122 0 0.24916261720829391 -0.1128410760226309 0 0.24384523969761221 -0.14863354701755199 0 0.26247388047373083 -0.15483700496883221 0 0.26968004496680192 -0.1354093292991122 0 0.24384523969761221 -0.14863354701755199 0 0.26968004496680192 -0.1354093292991122 0 0.24384523969761221 -0.14863354701755199 0 0.26247388047373083 -0.15483700496883221 0 0.26968004496680192 -0.1354093292991122 0 0.28587983052980898 -0.15032919588913951 0 0.2759419647077706 -0.11943119333582231 0 0.26968004496680192 -0.1354093292991122 0 0.29097746285681292 -0.13296084054707949 0 0.26968004496680192 -0.1354093292991122 0 0.29097746285681292 -0.13296084054707949 0 0.28587983052980898 -0.15032919588913951 0 0.29097746285681292 -0.13296084054707949 0 0.28587983052980898 -0.15032919588913951 0 0.30902832676855202 -0.1463287366881352 0 0.28587983052980898 -0.15032919588913951 0 0.30902832676855202 -0.1463287366881352 0 0.29758277532553101 -0.16510799318255129 0 0.29097746285681292 -0.13296084054707949 0 0.30902832676855202 -0.1463287366881352 0 0.30585118941309869 -0.12691687349975089 0 0.30902832676855202 -0.1463287366881352 0 0.30585118941309869 -0.12691687349975089 0 0.32166324728259499 -0.13135633786462661 0 0.27934977169502012 -0.18132833357158179 0 0.29758277532553101 -0.16510799318255129 0 0.30297614009657281 -0.18293099963707701 0 0.27680814305248802 -0.16466095624802721 0 0.28587983052980898 -0.15032919588913951 0 0.29758277532553101 -0.16510799318255129 0 0.27680814305248802 -0.16466095624802721 0 0.27934977169502012 -0.18132833357158179 0 0.29758277532553101 -0.16510799318255129 0 0.30902832676855202 -0.1463287366881352 0 0.29758277532553101 -0.16510799318255129 0 0.32014315144259708 -0.1671158802551084 0 0.29758277532553101 -0.16510799318255129 0 0.30297614009657281 -0.18293099963707701 0 0.32014315144259708 -0.1671158802551084 0 0.30297614009657281 -0.18293099963707701 0 0.32014315144259708 -0.1671158802551084 0 0.3211547771963868 -0.18823870198864109 0 0.32014315144259708 -0.1671158802551084 0 0.33607407970480141 -0.18141609537731751 0 0.3211547771963868 -0.18823870198864109 0 0.33751965399993589 -0.165035750869688 0 0.33406292577867708 -0.14895917159312161 0 0.35393355286250311 -0.16404111759013801 0 0.32014315144259708 -0.1671158802551084 0 0.33751965399993589 -0.165035750869688 0 0.33607407970480141 -0.18141609537731751 0 0.32014315144259708 -0.1671158802551084 0 0.33751965399993589 -0.165035750869688 0 0.33406292577867708 -0.14895917159312161 0 0.33607407970480141 -0.18141609537731751 0 0.35181632405452712 -0.18225122765141341 0 0.33952255019030481 -0.19740788659300501 0 0.33751965399993589 -0.165035750869688 0 0.33607407970480141 -0.18141609537731751 0 0.35181632405452712 -0.18225122765141341 0 0.30902832676855202 -0.1463287366881352 0 0.32166324728259499 -0.13135633786462661 0 0.33406292577867708 -0.14895917159312161 0 0.30902832676855202 -0.1463287366881352 0 0.32014315144259708 -0.1671158802551084 0 0.33406292577867708 -0.14895917159312161 0 0.32166324728259499 -0.13135633786462661 0 0.33406292577867708 -0.14895917159312161 0 0.33916847671495948 -0.1272035077980376 0 0.33406292577867708 -0.14895917159312161 0 0.33916847671495948 -0.1272035077980376 0 0.35143322607792538 -0.1392080240126416 0 0.35743407601693239 -0.1234387315732044 0 0.33916847671495948 -0.1272035077980376 0 0.35143322607792538 -0.1392080240126416 0 0.33406292577867708 -0.14895917159312161 0 0.35143322607792538 -0.1392080240126416 0 0.35393355286250311 -0.16404111759013801 0 0.35143322607792538 -0.1392080240126416 0 0.36317328408474442 -0.15056839290755411 0 0.35393355286250311 -0.16404111759013801 0 0.36317328408474442 -0.15056839290755411 0 0.37043155495316582 -0.13570389560102139 0 0.37748824702897688 -0.15844041801785649 0 0.35143322607792538 -0.1392080240126416 0 0.36317328408474442 -0.15056839290755411 0 0.37043155495316582 -0.13570389560102139 0 0.377531650343081 -0.11818312845693291 0 0.35743407601693239 -0.1234387315732044 0 0.37043155495316582 -0.13570389560102139 0 0.35743407601693239 -0.1234387315732044 0 0.35143322607792538 -0.1392080240126416 0 0.37043155495316582 -0.13570389560102139 0 0.35181632405452712 -0.18225122765141341 0 0.35393355286250311 -0.16404111759013801 0 0.36799527080895472 -0.17575353387052289 0 0.33751965399993589 -0.165035750869688 0 0.35181632405452712 -0.18225122765141341 0 0.35393355286250311 -0.16404111759013801 0 0.35393355286250311 -0.16404111759013801 0 0.36799527080895472 -0.17575353387052289 0 0.37748824702897688 -0.15844041801785649 0 0.36317328408474442 -0.15056839290755411 0 0.35393355286250311 -0.16404111759013801 0 0.37748824702897688 -0.15844041801785649 0 0.35181632405452712 -0.18225122765141341 0 0.36799527080895472 -0.17575353387052289 0 0.36910296642835988 -0.19322893042875181 0 0.36910296642835988 -0.19322893042875181 0 0.36093814601367208 -0.20591459616417759 0 0.37529156238419897 -0.20727319872900471 0 0.36910296642835988 -0.19322893042875181 0 0.36093814601367208 -0.20591459616417759 0 0.35427653325422431 -0.19748133037764881 0 0.37146636834626762 -0.21746005090504539 0 0.36384916509106152 -0.21443038616939331 0 0.37529156238419897 -0.20727319872900471 0 0.36093814601367208 -0.20591459616417759 0 0.36384916509106152 -0.21443038616939331 0 0.37529156238419897 -0.20727319872900471 0 0.36093814601367208 -0.20591459616417759 0 0.36384916509106152 -0.21443038616939331 0 0.35572062353684553 -0.2149042470782114 0 0.36384916509106152 -0.21443038616939331 0 0.35572062353684553 -0.2149042470782114 0 0.36154188385719332 -0.22218708165319939 0 0.37146636834626762 -0.21746005090504539 0 0.36384916509106152 -0.21443038616939331 0 0.36154188385719332 -0.22218708165319939 0 0.36093814601367208 -0.20591459616417759 0 0.34895003846154449 -0.20707969951931771 0 0.35427653325422431 -0.19748133037764881 0 0.36093814601367208 -0.20591459616417759 0 0.35572062353684553 -0.2149042470782114 0 0.34895003846154449 -0.20707969951931771 0 0.35572062353684553 -0.2149042470782114 0 0.34895003846154449 -0.20707969951931771 0 0.34681287085581031 -0.21537326103128851 0 0.35572062353684553 -0.2149042470782114 0 0.34681287085581031 -0.21537326103128851 0 0.34942674832653742 -0.22305165922821979 0 0.34895003846154449 -0.20707969951931771 0 0.34681287085581031 -0.21537326103128851 0 0.33862139625010212 -0.21163835397800809 0 0.35181632405452712 -0.18225122765141341 0 0.36910296642835988 -0.19322893042875181 0 0.35427653325422431 -0.19748133037764881 0 0.34895003846154449 -0.20707969951931771 0 0.35427653325422431 -0.19748133037764881 0 0.33952255019030481 -0.19740788659300501 0 0.35181632405452712 -0.18225122765141341 0 0.35427653325422431 -0.19748133037764881 0 0.33952255019030481 -0.19740788659300501 0 0.33607407970480141 -0.18141609537731751 0 0.33952255019030481 -0.19740788659300501 0 0.3211547771963868 -0.18823870198864109 0 0.33952255019030481 -0.19740788659300501 0 0.32581763571721373 -0.20626962156498749 0 0.3211547771963868 -0.18823870198864109 0 0.34895003846154449 -0.20707969951931771 0 0.33952255019030481 -0.19740788659300501 0 0.33862139625010212 -0.21163835397800809 0 0.33862139625010212 -0.21163835397800809 0 0.32581763571721373 -0.20626962156498749 0 0.32892855306271462 -0.2221251257289133 0 0.34681287085581031 -0.21537326103128851 0 0.33862139625010212 -0.21163835397800809 0 0.34134554770402181 -0.22019234535268589 0 0.33862139625010212 -0.21163835397800809 0 0.32892855306271462 -0.2221251257289133 0 0.34134554770402181 -0.22019234535268589 0 0.33952255019030481 -0.19740788659300501 0 0.33862139625010212 -0.21163835397800809 0 0.32581763571721373 -0.20626962156498749 0 0.32581763571721373 -0.20626962156498749 0 0.31487138951265148 -0.21656650482682349 0 0.32892855306271462 -0.2221251257289133 0 0.3105875994156681 -0.20078733944699301 0 0.32581763571721373 -0.20626962156498749 0 0.31487138951265148 -0.21656650482682349 0 0.3105875994156681 -0.20078733944699301 0 0.32581763571721373 -0.20626962156498749 0 0.3211547771963868 -0.18823870198864109 0 0.31732677385954328 -0.23318639894249371 0 0.32986217040025001 -0.23920084951267939 0 0.33348379557066721 -0.23496701437411699 0 0.30812350189974758 -0.24139148326430979 0 0.31948858200591429 -0.24895538480140031 0 0.31732677385954328 -0.23318639894249371 0 0.31948858200591429 -0.24895538480140031 0 0.31732677385954328 -0.23318639894249371 0 0.32986217040025001 -0.23920084951267939 0 0.31487138951265148 -0.21656650482682349 0 0.31732677385954328 -0.23318639894249371 0 0.32892855306271462 -0.2221251257289133 0 0.31732677385954328 -0.23318639894249371 0 0.32892855306271462 -0.2221251257289133 0 0.34232186730127001 -0.22893530253742039 0 0.31732677385954328 -0.23318639894249371 0 0.34232186730127001 -0.22893530253742039 0 0.33348379557066721 -0.23496701437411699 0 0.31732677385954328 -0.23318639894249371 0 0.34232186730127001 -0.22893530253742039 0 0.32892855306271462 -0.2221251257289133 0 0.34134554770402181 -0.22019234535268589 0 0.34232186730127001 -0.22893530253742039 0 0.34232186730127001 -0.22893530253742039 0 0.33348379557066721 -0.23496701437411699 0 0.34442437072160559 -0.23854550650387449 0 0.31948858200591429 -0.24895538480140031 0 0.34442437072160559 -0.23854550650387449 0 0.32810416354918359 -0.25546771460389628 0 0.31948858200591429 -0.24895538480140031 0 0.32986217040025001 -0.23920084951267939 0 0.34442437072160559 -0.23854550650387449 0 0.35206922458546819 -0.2425929435678775 0 0.32810416354918359 -0.25546771460389628 0 0.31948858200591429 -0.24895538480140031 0 0.34442437072160559 -0.23854550650387449 0 0.34442437072160559 -0.23854550650387449 0 0.35206922458546819 -0.2425929435678775 0 0.32810416354918359 -0.25546771460389628 0 0.32986217040025001 -0.23920084951267939 0 0.33348379557066721 -0.23496701437411699 0 0.34442437072160559 -0.23854550650387449 0 0.34442437072160559 -0.23854550650387449 0 0.35206922458546819 -0.2425929435678775 0 0.36936015943729689 -0.22813562820634881 0 0.35206922458546819 -0.2425929435678775 0 0.36421571969384159 -0.24460496201461249 0 0.35162734258361761 -0.25242186516885701 0 0.34442437072160559 -0.23854550650387449 0 0.36936015943729689 -0.22813562820634881 0 0.34442437072160559 -0.23854550650387449 0 0.3558739584365066 -0.2296493917759232 0 0.36936015943729689 -0.22813562820634881 0 0.34681287085581031 -0.21537326103128851 0 0.34134554770402181 -0.22019234535268589 0 0.34942674832653742 -0.22305165922821979 0 0.34134554770402181 -0.22019234535268589 0 0.34232186730127001 -0.22893530253742039 0 0.34942674832653742 -0.22305165922821979 0 0.34232186730127001 -0.22893530253742039 0 0.34442437072160559 -0.23854550650387449 0 0.34801173619647979 -0.2300454650113595 0 0.34942674832653742 -0.22305165922821979 0 0.34801173619647979 -0.2300454650113595 0 0.3558739584365066 -0.2296493917759232 0 0.34442437072160559 -0.23854550650387449 0 0.34801173619647979 -0.2300454650113595 0 0.3558739584365066 -0.2296493917759232 0 0.34232186730127001 -0.22893530253742039 0 0.34942674832653742 -0.22305165922821979 0 0.34801173619647979 -0.2300454650113595 0 0.35572062353684553 -0.2149042470782114 0 0.34942674832653742 -0.22305165922821979 0 0.36154188385719332 -0.22218708165319939 0 0.34942674832653742 -0.22305165922821979 0 0.3558739584365066 -0.2296493917759232 0 0.36154188385719332 -0.22218708165319939 0 0.35206922458546819 -0.2425929435678775 0 0.36936015943729689 -0.22813562820634881 0 0.37603428562175278 -0.22971817253185869 0 0.3558739584365066 -0.2296493917759232 0 0.36154188385719332 -0.22218708165319939 0 0.36936015943729689 -0.22813562820634881 0 0.37146636834626762 -0.21746005090504539 0 0.36154188385719332 -0.22218708165319939 0 0.36936015943729689 -0.22813562820634881 0 0.35206922458546819 -0.2425929435678775 0 0.37603428562175278 -0.22971817253185869 0 0.35206922458546819 -0.2425929435678775 0 0.36421571969384159 -0.24460496201461249 0 0.37603428562175278 -0.22971817253185869 0 0.36421571969384159 -0.24460496201461249 0 0.37178074500542491 -0.24902341934924671 0 0.35852737192959488 -0.25473250193359598 0 0.36421571969384159 -0.24460496201461249 0 0.37434333852477197 -0.24063481326921241 0 0.37603428562175278 -0.22971817253185869 0 0.36421571969384159 -0.24460496201461249 0 0.37434333852477197 -0.24063481326921241 0 0.37178074500542491 -0.24902341934924671 0 0.37434333852477197 -0.24063481326921241 0 0.37178074500542491 -0.24902341934924671 0 0.38388338791819782 -0.24158300915388869 0 0.37178074500542491 -0.24902341934924671 0 0.38388338791819782 -0.24158300915388869 0 0.38850651680992782 -0.25425160754921949 0 0.38388338791819782 -0.24158300915388869 0 0.39198724449361738 -0.23258288145297071 0 0.37603428562175278 -0.22971817253185869 0 0.37434333852477197 -0.24063481326921241 0 0.38388338791819782 -0.24158300915388869 0 0.37603428562175278 -0.22971817253185869 0 0.38388338791819782 -0.24158300915388869 0 0.40053146605475087 -0.24463834674800181 0 0.38850651680992782 -0.25425160754921949 0 0.38388338791819782 -0.24158300915388869 0 0.40053146605475087 -0.24463834674800181 0 0.39198724449361738 -0.23258288145297071 0 0.40053146605475087 -0.24463834674800181 0 0.40519113472039719 -0.22924912892228111 0 0.39198724449361738 -0.23258288145297071 0 0.40519113472039719 -0.22924912892228111 0 0.39198724449361738 -0.23258288145297071 0 0.39429594815298818 -0.21772574990882301 0 0.36936015943729689 -0.22813562820634881 0 0.39429594815298818 -0.21772574990882301 0 0.36936015943729689 -0.22813562820634881 0 0.37603428562175278 -0.22971817253185869 0 0.39429594815298818 -0.21772574990882301 0 0.39198724449361738 -0.23258288145297071 0 0.37603428562175278 -0.22971817253185869 0 0.39429594815298818 -0.21772574990882301 0 0.37146636834626762 -0.21746005090504539 0 0.36936015943729689 -0.22813562820634881 0 0.39429594815298818 -0.21772574990882301 0 0.37529156238419897 -0.20727319872900471 0 0.39240247956416952 -0.19866561412211581 0 0.39429594815298818 -0.21772574990882301 0 0.37146636834626762 -0.21746005090504539 0 0.37529156238419897 -0.20727319872900471 0 0.39429594815298818 -0.21772574990882301 0 0.36910296642835988 -0.19322893042875181 0 0.39240247956416952 -0.19866561412211581 0 0.38879519631929338 -0.18002677349278989 0 0.36910296642835988 -0.19322893042875181 0 0.37529156238419897 -0.20727319872900471 0 0.39240247956416952 -0.19866561412211581 0 0.39240247956416952 -0.19866561412211581 0 0.40885620483640162 -0.18820474957671321 0 0.38879519631929338 -0.18002677349278989 0 0.39240247956416952 -0.19866561412211581 0 0.39429594815298818 -0.21772574990882301 0 0.41923173686867959 -0.20731587161129719 0 0.40519113472039719 -0.22924912892228111 0 0.39429594815298818 -0.21772574990882301 0 0.41923173686867959 -0.20731587161129719 0 0.39429594815298818 -0.21772574990882301 0 0.41923173686867959 -0.20731587161129719 0 0.39240247956416952 -0.19866561412211581 0 0.41923173686867959 -0.20731587161129719 0 0.40885620483640162 -0.18820474957671321 0 0.41923173686867959 -0.20731587161129719 0 0.40885620483640162 -0.18820474957671321 0 0.43150182027404649 -0.18401999969678151 0 0.41923173686867959 -0.20731587161129719 0 0.44416752558437111 -0.1969059933137714 0 0.41923173686867959 -0.20731587161129719 0 0.43150182027404649 -0.18401999969678151 0 0.44416752558437111 -0.1969059933137714 0 0.41923173686867959 -0.20731587161129719 0 0.43793780326323839 -0.22010071050784141 0 0.43764031473814058 -0.20869901504486141 0 0.41923173686867959 -0.20731587161129719 0 0.43764031473814058 -0.20869901504486141 0 0.44416752558437111 -0.1969059933137714 0 0.41923173686867959 -0.20731587161129719 0 0.42215984558340891 -0.2359521077738598 0 0.43793780326323839 -0.22010071050784141 0 0.42215984558340891 -0.2359521077738598 0 0.44456519172895659 -0.23924963380793271 0 0.43793780326323839 -0.22010071050784141 0 0.42215984558340891 -0.2359521077738598 0 0.44456519172895659 -0.23924963380793271 0 0.43216559270086402 -0.25737884658375371 0 0.40053146605475087 -0.24463834674800181 0 0.40519113472039719 -0.22924912892228111 0 0.42215984558340891 -0.2359521077738598 0 0.40053146605475087 -0.24463834674800181 0 0.42215984558340891 -0.2359521077738598 0 0.41358604713730163 -0.25721063449283432 0 0.40519113472039719 -0.22924912892228111 0 0.41923173686867959 -0.20731587161129719 0 0.42215984558340891 -0.2359521077738598 0 0.4000778861949239 -0.1169583502240253 0 0.39081372193917802 -0.13921075430993471 0 0.4161781198902853 -0.1414632966302761 0 0.377531650343081 -0.11818312845693291 0 0.37043155495316582 -0.13570389560102139 0 0.39081372193917802 -0.13921075430993471 0 0.37043155495316582 -0.13570389560102139 0 0.39081372193917802 -0.13921075430993471 0 0.37748824702897688 -0.15844041801785649 0 0.39081372193917802 -0.13921075430993471 0 0.39712501526671051 -0.15802734628228779 0 0.37748824702897688 -0.15844041801785649 0 0.39081372193917802 -0.13921075430993471 0 0.39712501526671051 -0.15802734628228779 0 0.4161781198902853 -0.1414632966302761 0 0.39712501526671051 -0.15802734628228779 0 0.38879519631929338 -0.18002677349278989 0 0.41234979115581899 -0.17099548896058189 0 0.39712501526671051 -0.15802734628228779 0 0.37748824702897688 -0.15844041801785649 0 0.38879519631929338 -0.18002677349278989 0 0.36799527080895472 -0.17575353387052289 0 0.37748824702897688 -0.15844041801785649 0 0.38879519631929338 -0.18002677349278989 0 0.36799527080895472 -0.17575353387052289 0 0.36910296642835988 -0.19322893042875181 0 0.38879519631929338 -0.18002677349278989 0 0.40885620483640162 -0.18820474957671321 0 0.38879519631929338 -0.18002677349278989 0 0.41234979115581899 -0.17099548896058189 0 0.40885620483640162 -0.18820474957671321 0 0.43150182027404649 -0.18401999969678151 0 0.41234979115581899 -0.17099548896058189 0 0.43150182027404649 -0.18401999969678151 0 0.43227835358564681 -0.1659682430365268 0 0.41234979115581899 -0.17099548896058189 0 0.43150182027404649 -0.18401999969678151 0 0.43227835358564681 -0.1659682430365268 0 0.44837858728100821 -0.1904731894427775 0 0.39712501526671051 -0.15802734628228779 0 0.41234979115581899 -0.17099548896058189 0 0.4161781198902853 -0.1414632966302761 0 0.43227835358564681 -0.1659682430365268 0 0.41234979115581899 -0.17099548896058189 0 0.4161781198902853 -0.1414632966302761 0 0.43227835358564681 -0.1659682430365268 0 0.4161781198902853 -0.1414632966302761 0 0.43568461662669689 -0.14296521253873459 0 0.43227835358564681 -0.1659682430365268 0 0.4161781198902853 -0.1414632966302761 0 0.42599102573534869 -0.12054499986971449 0 0.4161781198902853 -0.1414632966302761 0 0.43568461662669689 -0.14296521253873459 0 0.42599102573534869 -0.12054499986971449 0 0.43568461662669689 -0.14296521253873459 0 0.44655095734790629 -0.1266961681398058 0 0.4000778861949239 -0.1169583502240253 0 0.4161781198902853 -0.1414632966302761 0 0.42599102573534869 -0.12054499986971449 0 0.4000778861949239 -0.1169583502240253 0 0.4161781198902853 -0.1414632966302761 0 0.44655095734790629 -0.1266961681398058 0 0.45348608015858499 -0.15108106507846081 0 0.47141046065717251 -0.13259826916789391 0 0.44655095734790629 -0.1266961681398058 0 0.45348608015858499 -0.15108106507846081 0 0.43568461662669689 -0.14296521253873459 0 0.44655095734790629 -0.1266961681398058 0 0.45348608015858499 -0.15108106507846081 0 0.43227835358564681 -0.1659682430365268 0 0.43568461662669689 -0.14296521253873459 0 0.45348608015858499 -0.15108106507846081 0 0.45348608015858499 -0.15108106507846081 0 0.47274063334608651 -0.15656820004917271 0 0.47141046065717251 -0.13259826916789391 0 0.45348608015858499 -0.15108106507846081 0 0.4591449490306756 -0.1709063341138389 0 0.47274063334608651 -0.15656820004917271 0 0.43227835358564681 -0.1659682430365268 0 0.45348608015858499 -0.15108106507846081 0 0.4591449490306756 -0.1709063341138389 0 0.43227835358564681 -0.1659682430365268 0 0.4591449490306756 -0.1709063341138389 0 0.44837858728100821 -0.1904731894427775 0 0.43227835358564681 -0.1659682430365268 0 0.44837858728100821 -0.1904731894427775 0 0.4591449490306756 -0.1709063341138389 0 0.46910331430006258 -0.1864961150162455 0 0.47676347545130621 -0.17077431955379191 0 0.4591449490306756 -0.1709063341138389 0 0.46910331430006258 -0.1864961150162455 0 0.44837858728100821 -0.1904731894427775 0 0.46910331430006258 -0.1864961150162455 0 0.4940391030157541 -0.1760862367187197 0 0.47676347545130621 -0.17077431955379191 0 0.46910331430006258 -0.1864961150162455 0 0.4940391030157541 -0.1760862367187197 0 0.48362395040724809 -0.19187600385120321 0 0.46910331430006258 -0.1864961150162455 0 0.4940391030157541 -0.1760862367187197 0 0.4940391030157541 -0.1760862367187197 0 0.5 -0.18647509980802399 0 0.5 -0.1565709639457504 0 0.4940391030157541 -0.1760862367187197 0 0.5 -0.18647509980802399 0 0.48362395040724809 -0.19187600385120321 0 0.4940391030157541 -0.1760862367187197 0 0.48595251878240708 -0.16107838505580399 0 0.47676347545130621 -0.17077431955379191 0 0.4940391030157541 -0.1760862367187197 0 0.5 -0.1565709639457504 0 0.48595251878240708 -0.16107838505580399 0 0.48595251878240708 -0.16107838505580399 0 0.47676347545130621 -0.17077431955379191 0 0.47274063334608651 -0.15656820004917271 0 0.4591449490306756 -0.1709063341138389 0 0.47676347545130621 -0.17077431955379191 0 0.47274063334608651 -0.15656820004917271 0 0.48595251878240708 -0.16107838505580399 0 0.47274063334608651 -0.15656820004917271 0 0.48621938209888871 -0.1453922050115852 0 0.47274063334608651 -0.15656820004917271 0 0.48621938209888871 -0.1453922050115852 0 0.47141046065717251 -0.13259826916789391 0 0.5 -0.1565709639457504 0 0.48595251878240708 -0.16107838505580399 0 0.48621938209888871 -0.1453922050115852 0 0.5 -0.1565709639457504 0 0.48621938209888871 -0.1453922050115852 0 0.5 -0.12666682808347679 0 0.48621938209888871 -0.1453922050115852 0 0.5 -0.12666682808347679 0 0.47141046065717251 -0.13259826916789391 0 0.4548114650637799 -0.2233014153366113 0 0.46358778151453828 -0.2371091749627624 0 0.46988322935749749 -0.2177843034645959 0 0.4548114650637799 -0.2233014153366113 0 0.46358778151453828 -0.2371091749627624 0 0.44456519172895659 -0.23924963380793271 0 0.46358778151453828 -0.2371091749627624 0 0.44456519172895659 -0.23924963380793271 0 0.45788204121143278 -0.25923937752425191 0 0.46358778151453828 -0.2371091749627624 0 0.48028109801640212 -0.24525901446801709 0 0.45788204121143278 -0.25923937752425191 0 0.4548114650637799 -0.2233014153366113 0 0.44456519172895659 -0.23924963380793271 0 0.43793780326323839 -0.22010071050784141 0 0.4548114650637799 -0.2233014153366113 0 0.43793780326323839 -0.22010071050784141 0 0.44922419323627338 -0.21047348474653571 0 0.43793780326323839 -0.22010071050784141 0 0.43764031473814058 -0.20869901504486141 0 0.44922419323627338 -0.21047348474653571 0 0.43764031473814058 -0.20869901504486141 0 0.44922419323627338 -0.21047348474653571 0 0.44416752558437111 -0.1969059933137714 0 0.43150182027404649 -0.18401999969678151 0 0.44837858728100821 -0.1904731894427775 0 0.44416752558437111 -0.1969059933137714 0 0.44922419323627338 -0.21047348474653571 0 0.44416752558437111 -0.1969059933137714 0 0.45916538343800528 -0.20115421453925381 0 0.46910331430006258 -0.1864961150162455 0 0.44416752558437111 -0.1969059933137714 0 0.46910331430006258 -0.1864961150162455 0 0.44416752558437111 -0.1969059933137714 0 0.45916538343800528 -0.20115421453925381 0 0.46910331430006258 -0.1864961150162455 0 0.44837858728100821 -0.1904731894427775 0 0.44416752558437111 -0.1969059933137714 0 0.46910331430006258 -0.1864961150162455 0 0.45916538343800528 -0.20115421453925381 0 0.47222363910876891 -0.20215710136058629 0 0.4617553433454597 -0.21105432866842819 0 0.46988322935749749 -0.2177843034645959 0 0.47222363910876891 -0.20215710136058629 0 0.4548114650637799 -0.2233014153366113 0 0.44922419323627338 -0.21047348474653571 0 0.4617553433454597 -0.21105432866842819 0 0.44922419323627338 -0.21047348474653571 0 0.45916538343800528 -0.20115421453925381 0 0.4617553433454597 -0.21105432866842819 0 0.45916538343800528 -0.20115421453925381 0 0.4617553433454597 -0.21105432866842819 0 0.47222363910876891 -0.20215710136058629 0 0.4548114650637799 -0.2233014153366113 0 0.4617553433454597 -0.21105432866842819 0 0.46988322935749749 -0.2177843034645959 0 0.46988322935749749 -0.2177843034645959 0 0.48512725635516979 -0.20633959514265729 0 0.48179389075726892 -0.22674420531652989 0 0.46988322935749749 -0.2177843034645959 0 0.47222363910876891 -0.20215710136058629 0 0.48512725635516979 -0.20633959514265729 0 0.46910331430006258 -0.1864961150162455 0 0.47222363910876891 -0.20215710136058629 0 0.48362395040724809 -0.19187600385120321 0 0.47222363910876891 -0.20215710136058629 0 0.48362395040724809 -0.19187600385120321 0 0.48512725635516979 -0.20633959514265729 0 0.5 -0.18647509980802399 0 0.48362395040724809 -0.19187600385120321 0 0.48512725635516979 -0.20633959514265729 0 0.5 -0.18647509980802399 0 0.4999999999999995 -0.21637923567029749 0 0.48512725635516979 -0.20633959514265729 0 0.4999999999999995 -0.21637923567029749 0 0.48512725635516979 -0.20633959514265729 0 0.48179389075726892 -0.22674420531652989 0 0.4999999999999995 -0.21637923567029749 0 0.48179389075726892 -0.22674420531652989 0 0.4999999999999995 -0.21637923567029749 0 0.48179389075726892 -0.22674420531652989 0 0.5 -0.2457434582493791 0 0.46358778151453828 -0.2371091749627624 0 0.48179389075726892 -0.22674420531652989 0 0.46358778151453828 -0.2371091749627624 0 0.46988322935749749 -0.2177843034645959 0 0.48179389075726892 -0.22674420531652989 0 0.46358778151453828 -0.2371091749627624 0 0.48179389075726892 -0.22674420531652989 0 0.48028109801640212 -0.24525901446801709 0 0.48179389075726892 -0.22674420531652989 0 0.48028109801640212 -0.24525901446801709 0 0.5 -0.2457434582493791 0 0.48028109801640212 -0.24525901446801709 0 0.5 -0.2457434582493791 0 0.48000624335297942 -0.26467602007376773 0 0.5 -0.2457434582493791 0 0.48000624335297942 -0.26467602007376773 0 0.5 -0.28491853366847941 0 0.48000624335297942 -0.26467602007376773 0 0.46410817167890178 -0.2900625350446418 0 0.5 -0.28491853366847941 0 0.48028109801640212 -0.24525901446801709 0 0.48000624335297942 -0.26467602007376773 0 0.45788204121143278 -0.25923937752425191 0 0.48000624335297942 -0.26467602007376773 0 0.45788204121143278 -0.25923937752425191 0 0.46410817167890178 -0.2900625350446418 0 0.45788204121143278 -0.25923937752425191 0 0.44012465357312031 -0.28215677747919299 0 0.46410817167890178 -0.2900625350446418 0 0.45788204121143278 -0.25923937752425191 0 0.44012465357312031 -0.28215677747919299 0 0.43216559270086402 -0.25737884658375371 0 0.44456519172895659 -0.23924963380793271 0 0.45788204121143278 -0.25923937752425191 0 0.43216559270086402 -0.25737884658375371 0 0.44667694186927448 -0.31064688789394312 0 0.44012465357312031 -0.28215677747919299 0 0.46410817167890178 -0.2900625350446418 0 0.44667694186927448 -0.31064688789394312 0 0.46410817167890178 -0.2900625350446418 0 0.46811354018726709 -0.31867409174409439 0 0.46410817167890178 -0.2900625350446418 0 0.46811354018726709 -0.31867409174409439 0 0.46410817167890178 -0.2900625350446418 0 0.48305542796654222 -0.30771363213866132 0 0.46811354018726709 -0.31867409174409439 0 0.5 -0.28491853366847941 0 0.48305542796654222 -0.30771363213866132 0 0.5 -0.33719936809742979 0 0.46410817167890178 -0.2900625350446418 0 0.5 -0.28491853366847941 0 0.48305542796654222 -0.30771363213866132 0 0.48305542796654222 -0.30771363213866132 0 0.5 -0.33719936809742979 0 0.46811354018726709 -0.31867409174409439 0 0.5 -0.33719936809742979 0 0.47211890869563261 -0.34728564844354692 0 0.46811354018726709 -0.31867409174409439 0 0.5 -0.33719936809742979 0 0.5 -0.40695687264915381 0 0.47612427720399791 -0.37589720514299929 0 0.47211890869563261 -0.34728564844354692 0 0.46811354018726709 -0.31867409174409439 0 0.5 -0.33719936809742979 0 0.47211890869563261 -0.34728564844354692 0 0.47612427720399791 -0.37589720514299929 0 0.47211890869563261 -0.34728564844354692 0 0.45821727882586549 -0.36139513288848268 0 0.47612427720399791 -0.37589720514299929 0 0.47211890869563261 -0.34728564844354692 0 0.47612427720399791 -0.37589720514299929 0 0.45821727882586549 -0.36139513288848268 0 0.47612427720399791 -0.37589720514299929 0 0.45246596930531557 -0.38027639429684068 0 0.47211890869563261 -0.34728564844354692 0 0.45821727882586549 -0.36139513288848268 0 0.45243406367133149 -0.33867658347413548 0 0.43794317525305021 -0.36483983308489099 0 0.45243406367133149 -0.33867658347413548 0 0.43055229420191687 -0.33704372213728567 0 0.45821727882586549 -0.36139513288848268 0 0.43794317525305021 -0.36483983308489099 0 0.45243406367133149 -0.33867658347413548 0 0.45821727882586549 -0.36139513288848268 0 0.43794317525305021 -0.36483983308489099 0 0.45246596930531557 -0.38027639429684068 0 0.44667694186927448 -0.31064688789394312 0 0.46811354018726709 -0.31867409174409439 0 0.45243406367133149 -0.33867658347413548 0 0.47211890869563261 -0.34728564844354692 0 0.46811354018726709 -0.31867409174409439 0 0.45243406367133149 -0.33867658347413548 0 0.44667694186927448 -0.31064688789394312 0 0.45243406367133149 -0.33867658347413548 0 0.43055229420191687 -0.33704372213728567 0 0.43055229420191687 -0.33704372213728567 0 0.42316141315078348 -0.30924761118968019 0 0.44667694186927448 -0.31064688789394312 0 0.43055229420191687 -0.33704372213728567 0 0.42316141315078348 -0.30924761118968019 0 0.43055229420191687 -0.33704372213728567 0 0.40692787713057599 -0.32836954693800607 0 0.41337981830548259 -0.34583960885143239 0 0.43055229420191687 -0.33704372213728567 0 0.40692787713057599 -0.32836954693800607 0 0.42316141315078348 -0.30924761118968019 0 0.40692787713057599 -0.32836954693800607 0 0.40147669905715039 -0.30662017309328349 0 0.42316141315078348 -0.30924761118968019 0 0.43794317525305021 -0.36483983308489099 0 0.41190905644720388 -0.36511364591329298 0 0.43137278571327298 -0.38063131481786328 0 0.43794317525305021 -0.36483983308489099 0 0.43055229420191687 -0.33704372213728567 0 0.41337981830548259 -0.34583960885143239 0 0.43794317525305021 -0.36483983308489099 0 0.43055229420191687 -0.33704372213728567 0 0.41337981830548259 -0.34583960885143239 0 0.41190905644720388 -0.36511364591329298 0 0.39731930301535812 -0.34632239286915728 0 0.43794317525305021 -0.36483983308489099 0 0.41337981830548259 -0.34583960885143239 0 0.41190905644720388 -0.36511364591329298 0 0.41190905644720388 -0.36511364591329298 0 0.39294362352409112 -0.37362758972254678 0 0.39173477139546747 -0.36034459423782927 0 0.41190905644720388 -0.36511364591329298 0 0.39294362352409112 -0.37362758972254678 0 0.40300458737144101 -0.38190116100390969 0 0.41190905644720388 -0.36511364591329298 0 0.39173477139546747 -0.36034459423782927 0 0.39731930301535812 -0.34632239286915728 0 0.39173477139546747 -0.36034459423782927 0 0.39731930301535812 -0.34632239286915728 0 0.38434941408998641 -0.35431111120547643 0 0.39731930301535812 -0.34632239286915728 0 0.38434941408998641 -0.35431111120547643 0 0.38516897933142669 -0.34134708612902498 0 0.37725125690826539 -0.350326147703383 0 0.38434941408998641 -0.35431111120547643 0 0.38516897933142669 -0.34134708612902498 0 0.37725125690826539 -0.350326147703383 0 0.38516897933142669 -0.34134708612902498 0 0.37219439069436278 -0.33973455654827522 0 0.37725125690826539 -0.350326147703383 0 0.38434941408998641 -0.35431111120547643 0 0.37653734604282962 -0.36071243495520089 0 0.39294362352409112 -0.37362758972254678 0 0.38439364276721599 -0.36549691650697369 0 0.37655859199567587 -0.37356725680210112 0 0.39173477139546747 -0.36034459423782927 0 0.38434941408998641 -0.35431111120547643 0 0.38439364276721599 -0.36549691650697369 0 0.39294362352409112 -0.37362758972254678 0 0.39173477139546747 -0.36034459423782927 0 0.38439364276721599 -0.36549691650697369 0 0.38439364276721599 -0.36549691650697369 0 0.37653734604282962 -0.36071243495520089 0 0.37655859199567587 -0.37356725680210112 0 0.38434941408998641 -0.35431111120547643 0 0.38439364276721599 -0.36549691650697369 0 0.37653734604282962 -0.36071243495520089 0 0.40692787713057599 -0.32836954693800607 0 0.38899088554071098 -0.32222889487932332 0 0.40147669905715039 -0.30662017309328349 0 0.40692787713057599 -0.32836954693800607 0 0.39731930301535812 -0.34632239286915728 0 0.39460176125451801 -0.33456698020387787 0 0.40692787713057599 -0.32836954693800607 0 0.39460176125451801 -0.33456698020387787 0 0.38899088554071098 -0.32222889487932332 0 0.40692787713057599 -0.32836954693800607 0 0.41337981830548259 -0.34583960885143239 0 0.39731930301535812 -0.34632239286915728 0 0.39731930301535812 -0.34632239286915728 0 0.39460176125451801 -0.33456698020387787 0 0.38516897933142669 -0.34134708612902498 0 0.38516897933142669 -0.34134708612902498 0 0.38899088554071098 -0.32222889487932332 0 0.37219439069436278 -0.33973455654827522 0 0.38899088554071098 -0.32222889487932332 0 0.37463532271886968 -0.3304806410833328 0 0.37219439069436278 -0.33973455654827522 0 0.38899088554071098 -0.32222889487932332 0 0.37219439069436278 -0.33973455654827522 0 0.39460176125451801 -0.33456698020387787 0 0.38516897933142669 -0.34134708612902498 0 0.38899088554071098 -0.32222889487932332 0 0.38899088554071098 -0.32222889487932332 0 0.37704019807901118 -0.31821116939100041 0 0.37463532271886968 -0.3304806410833328 0 0.38899088554071098 -0.32222889487932332 0 0.37704019807901118 -0.31821116939100041 0 0.38623838138964378 -0.30797187654088221 0 0.38623838138964378 -0.30797187654088221 0 0.38725332723018258 -0.29083006818484031 0 0.36907421003950408 -0.30734622852578569 0 0.37704019807901118 -0.31821116939100041 0 0.38623838138964378 -0.30797187654088221 0 0.36907421003950408 -0.30734622852578569 0 0.38623838138964378 -0.30797187654088221 0 0.40147669905715039 -0.30662017309328349 0 0.38725332723018258 -0.29083006818484031 0 0.38899088554071098 -0.32222889487932332 0 0.38623838138964378 -0.30797187654088221 0 0.40147669905715039 -0.30662017309328349 0 0.40147669905715039 -0.30662017309328349 0 0.38725332723018258 -0.29083006818484031 0 0.4157705320996502 -0.28145150024207488 0 0.38725332723018258 -0.29083006818484031 0 0.37662082769964689 -0.2774383894982605 0 0.39730279924783418 -0.26663237111648119 0 0.37662082769964689 -0.2774383894982605 0 0.37844154921457002 -0.26294067859328962 0 0.39730279924783418 -0.26663237111648119 0 0.38850651680992782 -0.25425160754921949 0 0.37844154921457002 -0.26294067859328962 0 0.39730279924783418 -0.26663237111648119 0 0.37178074500542491 -0.24902341934924671 0 0.38850651680992782 -0.25425160754921949 0 0.37844154921457002 -0.26294067859328962 0 0.40053146605475087 -0.24463834674800181 0 0.38850651680992782 -0.25425160754921949 0 0.39730279924783418 -0.26663237111648119 0 0.40053146605475087 -0.24463834674800181 0 0.39730279924783418 -0.26663237111648119 0 0.41358604713730163 -0.25721063449283432 0 0.38725332723018258 -0.29083006818484031 0 0.39730279924783418 -0.26663237111648119 0 0.4157705320996502 -0.28145150024207488 0 0.39730279924783418 -0.26663237111648119 0 0.41358604713730163 -0.25721063449283432 0 0.4157705320996502 -0.28145150024207488 0 0.41358604713730163 -0.25721063449283432 0 0.43216559270086402 -0.25737884658375371 0 0.4157705320996502 -0.28145150024207488 0 0.42215984558340891 -0.2359521077738598 0 0.41358604713730163 -0.25721063449283432 0 0.43216559270086402 -0.25737884658375371 0 0.44012465357312031 -0.28215677747919299 0 0.43216559270086402 -0.25737884658375371 0 0.4157705320996502 -0.28145150024207488 0 0.44012465357312031 -0.28215677747919299 0 0.42316141315078348 -0.30924761118968019 0 0.4157705320996502 -0.28145150024207488 0 0.44667694186927448 -0.31064688789394312 0 0.44012465357312031 -0.28215677747919299 0 0.42316141315078348 -0.30924761118968019 0 0.40147669905715039 -0.30662017309328349 0 0.42316141315078348 -0.30924761118968019 0 0.4157705320996502 -0.28145150024207488 0 0.42316141315078348 -0.30924761118968019 0 0.4157705320996502 -0.28145150024207488 0 0.5 -0.5 0 0.46914370415076678 -0.47301642599581623 0 0.49064868510325071 -0.43539540273925742 0 0.5 -0.5 0 0.49064868510325071 -0.43539540273925742 0 0.5 -0.40695687264915381 0 0.5 -0.5 0 0.46914370415076678 -0.47301642599581623 0 0.43721955460278877 -0.49999999999999828 0 0.44247203224431247 -0.47815634278871638 0 0.46914370415076678 -0.47301642599581623 0 0.43721955460278877 -0.49999999999999828 0 0.44247203224431247 -0.47815634278871638 0 0.43721955460278877 -0.49999999999999828 0 0.44247203224431247 -0.47815634278871638 0 0.46914370415076678 -0.47301642599581623 0 0.44772450988583518 -0.45631268557743432 0 0.46914370415076678 -0.47301642599581623 0 0.46918659749454272 -0.44585404415834551 0 0.49064868510325071 -0.43539540273925742 0 0.46918659749454272 -0.44585404415834551 0 0.49064868510325071 -0.43539540273925742 0 0.46918659749454272 -0.44585404415834551 0 0.47243248537644261 -0.43298411113964819 0 0.49064868510325071 -0.43539540273925742 0 0.46918659749454272 -0.44585404415834551 0 0.46218535996508531 -0.4385038619470667 0 0.47243248537644261 -0.43298411113964819 0 0.46918659749454272 -0.44585404415834551 0 0.44772450988583518 -0.45631268557743432 0 0.46218535996508531 -0.4385038619470667 0 0.44772450988583518 -0.45631268557743432 0 0.45203538837569007 -0.43864732698586451 0 0.46918659749454272 -0.44585404415834551 0 0.46218535996508531 -0.4385038619470667 0 0.44772450988583518 -0.45631268557743432 0 0.46914370415076678 -0.47301642599581623 0 0.46918659749454272 -0.44585404415834551 0 0.44772450988583518 -0.45631268557743432 0 0.44772450988583518 -0.45631268557743432 0 0.43871194631166388 -0.44304653507354458 0 0.43348570467526287 -0.46325136557206642 0 0.44247203224431247 -0.47815634278871638 0 0.44772450988583518 -0.45631268557743432 0 0.43348570467526287 -0.46325136557206642 0 0.44247203224431247 -0.47815634278871638 0 0.44772450988583518 -0.45631268557743432 0 0.44772450988583518 -0.45631268557743432 0 0.43348570467526287 -0.46325136557206642 0 0.44772450988583518 -0.45631268557743432 0 0.43871194631166388 -0.44304653507354458 0 0.45203538837569007 -0.43864732698586451 0 0.44772450988583518 -0.45631268557743432 0 0.45203538837569007 -0.43864732698586451 0 0.43871194631166388 -0.44304653507354458 0 0.45203538837569007 -0.43864732698586451 0 0.43871194631166388 -0.44304653507354458 0 0.45203538837569007 -0.43864732698586451 0 0.44656967234976253 -0.43496071651682422 0 0.44981551902942513 -0.42646863519196232 0 0.45309121800415653 -0.43399397420152658 0 0.44656967234976253 -0.43496071651682422 0 0.44981551902942513 -0.42646863519196232 0 0.44656967234976253 -0.43496071651682422 0 0.44204334581928578 -0.43016722962667542 0 0.45203538837569007 -0.43864732698586451 0 0.45309121800415653 -0.43399397420152658 0 0.45203538837569007 -0.43864732698586451 0 0.45309121800415653 -0.43399397420152658 0 0.44656967234976253 -0.43496071651682422 0 0.43871194631166388 -0.44304653507354458 0 0.44656967234976253 -0.43496071651682422 0 0.44204334581928578 -0.43016722962667542 0 0.43871194631166388 -0.44304653507354458 0 0.44204334581928578 -0.43016722962667542 0 0.44981551902942513 -0.42646863519196232 0 0.44204334581928578 -0.43016722962667542 0 0.44158562497290849 -0.42029651392787232 0 0.44204334581928578 -0.43016722962667542 0 0.44158562497290849 -0.42029651392787232 0 0.4291623469563175 -0.42963089929852272 0 0.44158562497290849 -0.42029651392787232 0 0.4465725370873892 -0.40899083793849211 0 0.43361634334994159 -0.41188893264196619 0 0.44981551902942513 -0.42646863519196232 0 0.44158562497290849 -0.42029651392787232 0 0.455748687922305 -0.41682208002756949 0 0.44158562497290849 -0.42029651392787232 0 0.4465725370873892 -0.40899083793849211 0 0.455748687922305 -0.41682208002756949 0 0.455748687922305 -0.41682208002756949 0 0.46115012668705879 -0.42802601489631198 0 0.47335454489212181 -0.42011393876180769 0 0.4465725370873892 -0.40899083793849211 0 0.455748687922305 -0.41682208002756949 0 0.46175668853996438 -0.40109910467033338 0 0.455748687922305 -0.41682208002756949 0 0.47335454489212181 -0.42011393876180769 0 0.46175668853996438 -0.40109910467033338 0 0.44981551902942513 -0.42646863519196232 0 0.455748687922305 -0.41682208002756949 0 0.46115012668705879 -0.42802601489631198 0 0.44981551902942513 -0.42646863519196232 0 0.45309121800415653 -0.43399397420152658 0 0.46115012668705879 -0.42802601489631198 0 0.46218535996508531 -0.4385038619470667 0 0.45309121800415653 -0.43399397420152658 0 0.46115012668705879 -0.42802601489631198 0 0.46218535996508531 -0.4385038619470667 0 0.45203538837569007 -0.43864732698586451 0 0.45309121800415653 -0.43399397420152658 0 0.46218535996508531 -0.4385038619470667 0 0.46115012668705879 -0.42802601489631198 0 0.47243248537644261 -0.43298411113964819 0 0.5 -0.40695687264915381 0 0.47335454489212181 -0.42011393876180769 0 0.46175668853996438 -0.40109910467033338 0 0.47243248537644261 -0.43298411113964819 0 0.49064868510325071 -0.43539540273925742 0 0.47335454489212181 -0.42011393876180769 0 0.46115012668705879 -0.42802601489631198 0 0.47243248537644261 -0.43298411113964819 0 0.47335454489212181 -0.42011393876180769 0 0.49064868510325071 -0.43539540273925742 0 0.5 -0.40695687264915381 0 0.47335454489212181 -0.42011393876180769 0 0.5 -0.40695687264915381 0 0.47612427720399791 -0.37589720514299929 0 0.46175668853996438 -0.40109910467033338 0 0.47612427720399791 -0.37589720514299929 0 0.46175668853996438 -0.40109910467033338 0 0.45246596930531557 -0.38027639429684068 0 0.46175668853996438 -0.40109910467033338 0 0.44015534065182649 -0.39484755842471919 0 0.45246596930531557 -0.38027639429684068 0 0.4465725370873892 -0.40899083793849211 0 0.46175668853996438 -0.40109910467033338 0 0.44015534065182649 -0.39484755842471919 0 0.4465725370873892 -0.40899083793849211 0 0.44015534065182649 -0.39484755842471919 0 0.43361634334994159 -0.41188893264196619 0 0.44015534065182649 -0.39484755842471919 0 0.45246596930531557 -0.38027639429684068 0 0.43137278571327298 -0.38063131481786328 0 0.43794317525305021 -0.36483983308489099 0 0.45246596930531557 -0.38027639429684068 0 0.43137278571327298 -0.38063131481786328 0 0.43137278571327298 -0.38063131481786328 0 0.42167524284075558 -0.39955158098274091 0 0.41571582335337143 -0.3820960462712551 0 0.44015534065182649 -0.39484755842471919 0 0.43137278571327298 -0.38063131481786328 0 0.42167524284075558 -0.39955158098274091 0 0.44015534065182649 -0.39484755842471919 0 0.42167524284075558 -0.39955158098274091 0 0.43361634334994159 -0.41188893264196619 0 0.42167524284075558 -0.39955158098274091 0 0.40467817922441629 -0.39435368903658219 0 0.4059920081115887 -0.4111142878910744 0 0.42167524284075558 -0.39955158098274091 0 0.41571582335337143 -0.3820960462712551 0 0.40467817922441629 -0.39435368903658219 0 0.41571582335337143 -0.3820960462712551 0 0.40300458737144101 -0.38190116100390969 0 0.40467817922441629 -0.39435368903658219 0 0.41190905644720388 -0.36511364591329298 0 0.41571582335337143 -0.3820960462712551 0 0.40300458737144101 -0.38190116100390969 0 0.41190905644720388 -0.36511364591329298 0 0.43137278571327298 -0.38063131481786328 0 0.41571582335337143 -0.3820960462712551 0 0.40300458737144101 -0.38190116100390969 0 0.38925678516405798 -0.38718477970959558 0 0.40467817922441629 -0.39435368903658219 0 0.39294362352409112 -0.37362758972254678 0 0.40300458737144101 -0.38190116100390969 0 0.38925678516405798 -0.38718477970959558 0 0.39294362352409112 -0.37362758972254678 0 0.37655859199567587 -0.37356725680210112 0 0.38925678516405798 -0.38718477970959558 0 0.37655859199567587 -0.37356725680210112 0 0.38925678516405798 -0.38718477970959558 0 0.37330473209329468 -0.38652264201337289 0 0.38925678516405798 -0.38718477970959558 0 0.37994999016683761 -0.39569750069821019 0 0.37330473209329468 -0.38652264201337289 0 0.38925678516405798 -0.38718477970959558 0 0.37994999016683761 -0.39569750069821019 0 0.39157393497893173 -0.40229763305841792 0 0.37724184313777309 -0.40502327110628372 0 0.37994999016683761 -0.39569750069821019 0 0.39157393497893173 -0.40229763305841792 0 0.39157393497893173 -0.40229763305841792 0 0.40467817922441629 -0.39435368903658219 0 0.4059920081115887 -0.4111142878910744 0 0.38925678516405798 -0.38718477970959558 0 0.39157393497893173 -0.40229763305841792 0 0.40467817922441629 -0.39435368903658219 0 0.4059920081115887 -0.4111142878910744 0 0.38921930119492387 -0.41636953781766922 0 0.40115039908813588 -0.42294277018906401 0 0.39157393497893173 -0.40229763305841792 0 0.4059920081115887 -0.4111142878910744 0 0.38921930119492387 -0.41636953781766922 0 0.37724184313777309 -0.40502327110628372 0 0.39157393497893173 -0.40229763305841792 0 0.38921930119492387 -0.41636953781766922 0 0.38921930119492387 -0.41636953781766922 0 0.37675352626854169 -0.42749082062860438 0 0.36114900456627291 -0.41416542628647413 0 0.37724184313777309 -0.40502327110628372 0 0.38921930119492387 -0.41636953781766922 0 0.36114900456627291 -0.41416542628647413 0 0.38921930119492387 -0.41636953781766922 0 0.36114900456627291 -0.41416542628647413 0 0.37675352626854169 -0.42749082062860438 0 0.39634139065743068 -0.43689968762724812 0 0.38364425218113479 -0.44214978882543837 0 0.38921930119492387 -0.41636953781766922 0 0.37675352626854169 -0.42749082062860438 0 0.39634139065743068 -0.43689968762724812 0 0.39634139065743068 -0.43689968762724812 0 0.40115039908813588 -0.42294277018906401 0 0.41304889638860021 -0.4273875674202644 0 0.38921930119492387 -0.41636953781766922 0 0.39634139065743068 -0.43689968762724812 0 0.40115039908813588 -0.42294277018906401 0 0.41304889638860021 -0.4273875674202644 0 0.4291623469563175 -0.42963089929852272 0 0.41562283893173169 -0.45067022476536722 0 0.41304889638860021 -0.4273875674202644 0 0.42069896752944069 -0.41591465364691382 0 0.4291623469563175 -0.42963089929852272 0 0.42167524284075558 -0.39955158098274091 0 0.4059920081115887 -0.4111142878910744 0 0.42069896752944069 -0.41591465364691382 0 0.4059920081115887 -0.4111142878910744 0 0.40115039908813588 -0.42294277018906401 0 0.41304889638860021 -0.4273875674202644 0 0.4059920081115887 -0.4111142878910744 0 0.41304889638860021 -0.4273875674202644 0 0.42069896752944069 -0.41591465364691382 0 0.42167524284075558 -0.39955158098274091 0 0.42069896752944069 -0.41591465364691382 0 0.43361634334994159 -0.41188893264196619 0 0.42069896752944069 -0.41591465364691382 0 0.43361634334994159 -0.41188893264196619 0 0.4291623469563175 -0.42963089929852272 0 0.44158562497290849 -0.42029651392787232 0 0.43361634334994159 -0.41188893264196619 0 0.4291623469563175 -0.42963089929852272 0 0.43871194631166388 -0.44304653507354458 0 0.44204334581928578 -0.43016722962667542 0 0.4291623469563175 -0.42963089929852272 0 0.43871194631166388 -0.44304653507354458 0 0.41562283893173169 -0.45067022476536722 0 0.43871194631166388 -0.44304653507354458 0 0.4291623469563175 -0.42963089929852272 0 0.41562283893173169 -0.45067022476536722 0 0.43871194631166388 -0.44304653507354458 0 0.43348570467526287 -0.46325136557206642 0 0.41562283893173169 -0.45067022476536722 0 0.43348570467526287 -0.46325136557206642 0 0.41383203898520182 -0.47282874899210248 0 0.43871194631166388 -0.44304653507354458 0 0.43348570467526287 -0.46325136557206642 0 0.41562283893173169 -0.45067022476536722 0 0.40023509062496182 -0.46988081925770508 0 0.41383203898520182 -0.47282874899210248 0 0.43348570467526287 -0.46325136557206642 0 0.41562283893173169 -0.45067022476536722 0 0.41383203898520182 -0.47282874899210248 0 0.39634139065743068 -0.43689968762724812 0 0.41304889638860021 -0.4273875674202644 0 0.41562283893173169 -0.45067022476536722 0 0.39634139065743068 -0.43689968762724812 0 0.41562283893173169 -0.45067022476536722 0 0.39253373155179971 -0.45829391445718981 0 0.39634139065743068 -0.43689968762724812 0 0.38364425218113479 -0.44214978882543837 0 0.39253373155179971 -0.45829391445718981 0 0.38364425218113479 -0.44214978882543837 0 0.39253373155179971 -0.45829391445718981 0 0.36894836024676703 -0.4459147325887115 0 0.37675352626854169 -0.42749082062860438 0 0.38364425218113479 -0.44214978882543837 0 0.36894836024676703 -0.4459147325887115 0 0.39253373155179971 -0.45829391445718981 0 0.36944462417186769 -0.4659176041490124 0 0.39253373155179971 -0.45829391445718981 0 0.38481180180543689 -0.47093280811495503 0 0.36944462417186769 -0.4659176041490124 0 0.39253373155179971 -0.45829391445718981 0 0.36944462417186769 -0.4659176041490124 0 0.36894836024676703 -0.4459147325887115 0 0.41562283893173169 -0.45067022476536722 0 0.39253373155179971 -0.45829391445718981 0 0.41562283893173169 -0.45067022476536722 0 0.39253373155179971 -0.45829391445718981 0 0.40023509062496182 -0.46988081925770508 0 0.39253373155179971 -0.45829391445718981 0 0.40023509062496182 -0.46988081925770508 0 0.38481180180543689 -0.47093280811495503 0 0.39417837329514038 -0.48240613241213792 0 0.40870373472020072 -0.48326191071644931 0 0.41383203898520182 -0.47282874899210248 0 0.39417837329514038 -0.48240613241213792 0 0.41383203898520182 -0.47282874899210248 0 0.40023509062496182 -0.46988081925770508 0 0.39417837329514038 -0.48240613241213792 0 0.41383203898520182 -0.47282874899210248 0 0.39417837329514038 -0.48240613241213792 0 0.39872958156394089 -0.4849177273275086 0 0.40870373472020072 -0.48326191071644931 0 0.40023509062496182 -0.46988081925770508 0 0.39417837329514038 -0.48240613241213792 0 0.38481180180543689 -0.47093280811495503 0 0.39872958156394089 -0.4849177273275086 0 0.37254254917793822 -0.47922951058416979 0 0.39417837329514038 -0.48240613241213792 0 0.38481180180543689 -0.47093280811495503 0 0.37254254917793822 -0.47922951058416979 0 0.39417837329514038 -0.48240613241213792 0 0.39872958156394089 -0.4849177273275086 0 0.37254254917793822 -0.47922951058416979 0 0.38481180180543689 -0.47093280811495503 0 0.37254254917793822 -0.47922951058416979 0 0.36944462417186769 -0.4659176041490124 0 0.38309445967137129 -0.49192120796377908 0 0.37087931350645942 -0.5 0 0.37254254917793822 -0.47922951058416979 0 0.39014186006510432 -0.4896234286503095 0 0.38309445967137129 -0.49192120796377908 0 0.37254254917793822 -0.47922951058416979 0 0.38309445967137129 -0.49192120796377908 0 0.39742975347278658 -0.5 0 0.37087931350645942 -0.5 0 0.39014186006510432 -0.4896234286503095 0 0.39872958156394089 -0.4849177273275086 0 0.37254254917793822 -0.47922951058416979 0 0.39014186006510432 -0.4896234286503095 0 0.38309445967137129 -0.49192120796377908 0 0.39742975347278658 -0.5 0 0.39014186006510432 -0.4896234286503095 0 0.39742975347278658 -0.5 0 0.3989129564394841 -0.49204869737608981 0 0.39014186006510432 -0.4896234286503095 0 0.39872958156394089 -0.4849177273275086 0 0.3989129564394841 -0.49204869737608981 0 0.3989129564394841 -0.49204869737608981 0 0.40383549929632362 -0.48824914480023129 0 0.40944636037366139 -0.49232509949704312 0 0.39872958156394089 -0.4849177273275086 0 0.40383549929632362 -0.48824914480023129 0 0.40870373472020072 -0.48326191071644931 0 0.39872958156394089 -0.4849177273275086 0 0.3989129564394841 -0.49204869737608981 0 0.40383549929632362 -0.48824914480023129 0 0.39742975347278658 -0.5 0 0.3989129564394841 -0.49204869737608981 0 0.40944636037366139 -0.49232509949704312 0 0.39742975347278658 -0.5 0 0.40944636037366139 -0.49232509949704312 0 0.42398019343911392 -0.50000000000000133 0 0.40944636037366139 -0.49232509949704312 0 0.41811538250540692 -0.48650103938460831 0 0.42398019343911392 -0.50000000000000133 0 0.40944636037366139 -0.49232509949704312 0 0.41811538250540692 -0.48650103938460831 0 0.40870373472020072 -0.48326191071644931 0 0.40383549929632362 -0.48824914480023129 0 0.40944636037366139 -0.49232509949704312 0 0.40870373472020072 -0.48326191071644931 0 0.41811538250540692 -0.48650103938460831 0 0.40870373472020072 -0.48326191071644931 0 0.41383203898520182 -0.47282874899210248 0 0.41811538250540692 -0.48650103938460831 0 0.41383203898520182 -0.47282874899210248 0 0.42873294905718839 -0.48162568278603379 0 0.44247203224431247 -0.47815634278871638 0 0.43348570467526287 -0.46325136557206642 0 0.42873294905718839 -0.48162568278603379 0 0.43348570467526287 -0.46325136557206642 0 0.42873294905718839 -0.48162568278603379 0 0.43348570467526287 -0.46325136557206642 0 0.41383203898520182 -0.47282874899210248 0 0.42873294905718839 -0.48162568278603379 0 0.41811538250540692 -0.48650103938460831 0 0.42873294905718839 -0.48162568278603379 0 0.42398019343911392 -0.50000000000000133 0 0.42873294905718839 -0.48162568278603379 0 0.43721955460278877 -0.49999999999999828 0 0.42398019343911392 -0.50000000000000133 0 0.44247203224431247 -0.47815634278871638 0 0.42873294905718839 -0.48162568278603379 0 0.43721955460278877 -0.49999999999999828 0 0.42873294905718839 -0.48162568278603379 0 0.42398019343911392 -0.50000000000000133 0 0.31777843357380497 -0.49999999999999889 0 0.32740914194814302 -0.4797971130986885 0 0.30846276710435028 -0.48605293235654179 0 0.31777843357380497 -0.49999999999999889 0 0.30846276710435028 -0.48605293235654179 0 0.31708404780773519 -0.4746163573441714 0 0.32740914194814302 -0.4797971130986885 0 0.30846276710435028 -0.48605293235654179 0 0.32740914194814302 -0.4797971130986885 0 0.30846276710435028 -0.48605293235654179 0 0.31708404780773519 -0.4746163573441714 0 0.32761604647806858 -0.46947079943621839 0 0.30887657616420161 -0.46540030503160568 0 0.31708404780773519 -0.4746163573441714 0 0.32761604647806858 -0.46947079943621839 0 0.32740914194814302 -0.4797971130986885 0 0.32761604647806858 -0.46947079943621839 0 0.3463555167919351 -0.47354129384083321 0 0.32740914194814302 -0.4797971130986885 0 0.3463555167919351 -0.47354129384083321 0 0.32761604647806858 -0.46947079943621839 0 0.32740914194814302 -0.4797971130986885 0 0.3463555167919351 -0.47354129384083321 0 0.31777843357380497 -0.49999999999999889 0 0.32740914194814302 -0.4797971130986885 0 0.3443288735401322 -0.5 0 0.32740914194814302 -0.4797971130986885 0 0.3443288735401322 -0.5 0 0.3463555167919351 -0.47354129384083321 0 0.3569992528753847 -0.4876635362854686 0 0.3443288735401322 -0.5 0 0.37087931350645942 -0.5 0 0.3569992528753847 -0.4876635362854686 0 0.3443288735401322 -0.5 0 0.3463555167919351 -0.47354129384083321 0 0.3569992528753847 -0.4876635362854686 0 0.37087931350645942 -0.5 0 0.37254254917793822 -0.47922951058416979 0 0.37254254917793822 -0.47922951058416979 0 0.3463555167919351 -0.47354129384083321 0 0.36944462417186769 -0.4659176041490124 0 0.37254254917793822 -0.47922951058416979 0 0.3463555167919351 -0.47354129384083321 0 0.3569992528753847 -0.4876635362854686 0 0.37254254917793822 -0.47922951058416979 0 0.3463555167919351 -0.47354129384083321 0 0.3463555167919351 -0.47354129384083321 0 0.36944462417186769 -0.4659176041490124 0 0.3463555167919351 -0.47354129384083321 0 0.35650231948554362 -0.45623110614981077 0 0.33905499650725568 -0.45422779571067851 0 0.3463555167919351 -0.47354129384083321 0 0.35650231948554362 -0.45623110614981077 0 0.36944462417186769 -0.4659176041490124 0 0.35650231948554362 -0.45623110614981077 0 0.36944462417186769 -0.4659176041490124 0 0.36894836024676703 -0.4459147325887115 0 0.35650231948554362 -0.45623110614981077 0 0.36894836024676703 -0.4459147325887115 0 0.35361871733544981 -0.43305537036686109 0 0.35650231948554362 -0.45623110614981077 0 0.33905499650725568 -0.45422779571067851 0 0.35361871733544981 -0.43305537036686109 0 0.33048390840235781 -0.43861992010511791 0 0.33905499650725568 -0.45422779571067851 0 0.319753470550179 -0.45444828436522738 0 0.33048390840235781 -0.43861992010511791 0 0.33905499650725568 -0.45422779571067851 0 0.35361871733544981 -0.43305537036686109 0 0.32761604647806858 -0.46947079943621839 0 0.33905499650725568 -0.45422779571067851 0 0.319753470550179 -0.45444828436522738 0 0.32761604647806858 -0.46947079943621839 0 0.3463555167919351 -0.47354129384083321 0 0.33905499650725568 -0.45422779571067851 0 0.32761604647806858 -0.46947079943621839 0 0.30887657616420161 -0.46540030503160568 0 0.32761604647806858 -0.46947079943621839 0 0.319753470550179 -0.45444828436522738 0 0.30887657616420161 -0.46540030503160568 0 0.33048390840235781 -0.43861992010511791 0 0.30734909946926581 -0.44418446984337462 0 0.33048390840235781 -0.43861992010511791 0 0.319753470550179 -0.45444828436522738 0 0.30734909946926581 -0.44418446984337462 0 0.33048390840235781 -0.43861992010511791 0 0.31666566748996022 -0.42825861813861232 0 0.30734909946926581 -0.44418446984337462 0 0.33048390840235781 -0.43861992010511791 0 0.31666566748996022 -0.42825861813861232 0 0.33307870793762168 -0.41196131475527897 0 0.33307870793762168 -0.41196131475527897 0 0.30500841130897061 -0.4097572032240831 0 0.33307870793762168 -0.41196131475527897 0 0.30500841130897061 -0.4097572032240831 0 0.31024346633473221 -0.41792040565894878 0 0.31666566748996022 -0.42825861813861232 0 0.33307870793762168 -0.41196131475527897 0 0.31024346633473221 -0.41792040565894878 0 0.33048390840235781 -0.43861992010511791 0 0.35361871733544981 -0.43305537036686109 0 0.33048390840235781 -0.43861992010511791 0 0.33307870793762168 -0.41196131475527897 0 0.35361871733544981 -0.43305537036686109 0 0.37675352626854169 -0.42749082062860438 0 0.35361871733544981 -0.43305537036686109 0 0.37675352626854169 -0.42749082062860438 0 0.35361871733544981 -0.43305537036686109 0 0.36114900456627291 -0.41416542628647413 0 0.37675352626854169 -0.42749082062860438 0 0.36894836024676703 -0.4459147325887115 0 0.35361871733544981 -0.43305537036686109 0 0.33307870793762168 -0.41196131475527897 0 0.35361871733544981 -0.43305537036686109 0 0.36114900456627291 -0.41416542628647413 0 0.33307870793762168 -0.41196131475527897 0 0.36114900456627291 -0.41416542628647413 0 0.33307870793762168 -0.41196131475527897 0 0.36114900456627291 -0.41416542628647413 0 0.34590450666672939 -0.39969137298690349 0 0.36114900456627291 -0.41416542628647413 0 0.34590450666672939 -0.39969137298690349 0 0.36431698478189922 -0.39658625767064681 0 0.34590450666672939 -0.39969137298690349 0 0.36431698478189922 -0.39658625767064681 0 0.34748867884538298 -0.38560494389043559 0 0.37724184313777309 -0.40502327110628372 0 0.37994999016683761 -0.39569750069821019 0 0.36431698478189922 -0.39658625767064681 0 0.37994999016683761 -0.39569750069821019 0 0.36431698478189922 -0.39658625767064681 0 0.37330473209329468 -0.38652264201337289 0 0.37724184313777309 -0.40502327110628372 0 0.36114900456627291 -0.41416542628647413 0 0.36431698478189922 -0.39658625767064681 0 0.36431698478189922 -0.39658625767064681 0 0.37330473209329468 -0.38652264201337289 0 0.36294720531266811 -0.38018066368018399 0 0.37655859199567587 -0.37356725680210112 0 0.37330473209329468 -0.38652264201337289 0 0.36294720531266811 -0.38018066368018399 0 0.36431698478189922 -0.39658625767064681 0 0.36294720531266811 -0.38018066368018399 0 0.34748867884538298 -0.38560494389043559 0 0.36294720531266811 -0.38018066368018399 0 0.34748867884538298 -0.38560494389043559 0 0.35135706915401588 -0.37017394756356969 0 0.34748867884538298 -0.38560494389043559 0 0.35135706915401588 -0.37017394756356969 0 0.33860140100166652 -0.37474587988617891 0 0.32180490615531843 -0.39225154155513092 0 0.33860140100166652 -0.37474587988617891 0 0.34748867884538298 -0.38560494389043559 0 0.32180490615531843 -0.39225154155513092 0 0.33860140100166652 -0.37474587988617891 0 0.33307870793762168 -0.41196131475527897 0 0.34590450666672939 -0.39969137298690349 0 0.32180490615531843 -0.39225154155513092 0 0.34590450666672939 -0.39969137298690349 0 0.34748867884538298 -0.38560494389043559 0 0.32180490615531843 -0.39225154155513092 0 0.33307870793762168 -0.41196131475527897 0 0.32180490615531843 -0.39225154155513092 0 0.30500841130897061 -0.4097572032240831 0 0.32180490615531843 -0.39225154155513092 0 0.30500841130897061 -0.4097572032240831 0 0.32180490615531843 -0.39225154155513092 0 0.33860140100166652 -0.37474587988617891 0 0.31323691028295181 -0.37098663086795219 0 0.32180490615531843 -0.39225154155513092 0 0.30376608135307642 -0.38256574588337439 0 0.31323691028295181 -0.37098663086795219 0 0.32180490615531843 -0.39225154155513092 0 0.30376608135307642 -0.38256574588337439 0 0.30731149415820402 -0.39515612727383359 0 0.30376608135307642 -0.38256574588337439 0 0.30731149415820402 -0.39515612727383359 0 0.29337198732769459 -0.39866819468633308 0 0.32180490615531843 -0.39225154155513092 0 0.30731149415820402 -0.39515612727383359 0 0.30500841130897061 -0.4097572032240831 0 0.30731149415820402 -0.39515612727383359 0 0.29337198732769459 -0.39866819468633308 0 0.30500841130897061 -0.4097572032240831 0 0.29337198732769459 -0.39866819468633308 0 0.2799407683096225 -0.4077888634617477 0 0.30500841130897061 -0.4097572032240831 0 0.29337198732769459 -0.39866819468633308 0 0.278149446005374 -0.39788240814120979 0 0.2799407683096225 -0.4077888634617477 0 0.29337198732769459 -0.39866819468633308 0 0.28877460187089993 -0.38482352348357052 0 0.278149446005374 -0.39788240814120979 0 0.30376608135307642 -0.38256574588337439 0 0.29337198732769459 -0.39866819468633308 0 0.28877460187089993 -0.38482352348357052 0 0.28877460187089993 -0.38482352348357052 0 0.28059514594661789 -0.37749688251145941 0 0.276430809046046 -0.38800123371271289 0 0.30376608135307642 -0.38256574588337439 0 0.28877460187089993 -0.38482352348357052 0 0.29406281218487668 -0.37110195615280478 0 0.28877460187089993 -0.38482352348357052 0 0.28059514594661789 -0.37749688251145941 0 0.29406281218487668 -0.37110195615280478 0 0.27063627606564722 -0.38146981263072172 0 0.26290172883027341 -0.38265145819369878 0 0.27307123056561983 -0.36208788657748658 0 0.28059514594661789 -0.37749688251145941 0 0.276430809046046 -0.38800123371271289 0 0.27063627606564722 -0.38146981263072172 0 0.28877460187089993 -0.38482352348357052 0 0.276430809046046 -0.38800123371271289 0 0.278149446005374 -0.39788240814120979 0 0.27021864096413573 -0.39052612391390579 0 0.26741570795753072 -0.38643910548815003 0 0.27063627606564722 -0.38146981263072172 0 0.276430809046046 -0.38800123371271289 0 0.27021864096413573 -0.39052612391390579 0 0.27063627606564722 -0.38146981263072172 0 0.26741570795753072 -0.38643910548815003 0 0.27063627606564722 -0.38146981263072172 0 0.26290172883027341 -0.38265145819369878 0 0.27021864096413573 -0.39052612391390579 0 0.26741570795753072 -0.38643910548815003 0 0.26460793079589717 -0.39204645848148278 0 0.26290172883027341 -0.38265145819369878 0 0.24170827130145911 -0.36851600104022741 0 0.26290172883027341 -0.38265145819369878 0 0.25290265537557088 -0.40287040976406652 0 0.23670873457410921 -0.37862547682540998 0 0.26741570795753072 -0.38643910548815003 0 0.26290172883027341 -0.38265145819369878 0 0.26460793079589717 -0.39204645848148278 0 0.26290172883027341 -0.38265145819369878 0 0.25290265537557088 -0.40287040976406652 0 0.26460793079589717 -0.39204645848148278 0 0.26290172883027341 -0.38265145819369878 0 0.25290265537557088 -0.40287040976406652 0 0.25487312531027401 -0.40582052369941718 0 0.25290265537557088 -0.40287040976406652 0 0.26422859541755339 -0.40152360769324658 0 0.25290265537557088 -0.40287040976406652 0 0.25157189961603621 -0.40556130771334759 0 0.25487312531027401 -0.40582052369941718 0 0.25290265537557088 -0.40287040976406652 0 0.25487312531027401 -0.40582052369941718 0 0.25157189961603621 -0.40556130771334759 0 0.25487312531027401 -0.40582052369941718 0 0.25290265537557088 -0.40287040976406652 0 0.25157189961603621 -0.40556130771334759 0 0.25290265537557088 -0.40287040976406652 0 0.26460793079589717 -0.39204645848148278 0 0.26422859541755339 -0.40152360769324658 0 0.25487312531027401 -0.40582052369941718 0 0.26422859541755339 -0.40152360769324658 0 0.2799407683096225 -0.4077888634617477 0 0.26422859541755339 -0.40152360769324658 0 0.27049404179538011 -0.39733735467012199 0 0.2799407683096225 -0.4077888634617477 0 0.26460793079589717 -0.39204645848148278 0 0.26422859541755339 -0.40152360769324658 0 0.27049404179538011 -0.39733735467012199 0 0.27021864096413573 -0.39052612391390579 0 0.26460793079589717 -0.39204645848148278 0 0.27049404179538011 -0.39733735467012199 0 0.27021864096413573 -0.39052612391390579 0 0.27049404179538011 -0.39733735467012199 0 0.27359367896458092 -0.39371644966374431 0 0.276430809046046 -0.38800123371271289 0 0.27021864096413573 -0.39052612391390579 0 0.27359367896458092 -0.39371644966374431 0 0.276430809046046 -0.38800123371271289 0 0.27359367896458092 -0.39371644966374431 0 0.278149446005374 -0.39788240814120979 0 0.27049404179538011 -0.39733735467012199 0 0.27359367896458092 -0.39371644966374431 0 0.278149446005374 -0.39788240814120979 0 0.27049404179538011 -0.39733735467012199 0 0.278149446005374 -0.39788240814120979 0 0.2799407683096225 -0.4077888634617477 0 0.25487312531027401 -0.40582052369941718 0 0.2799407683096225 -0.4077888634617477 0 0.27236935201136631 -0.41843914721718511 0 0.25487312531027401 -0.40582052369941718 0 0.2799407683096225 -0.4077888634617477 0 0.2799407683096225 -0.4077888634617477 0 0.27236935201136631 -0.41843914721718511 0 0.28327229028388118 -0.41696091427050369 0 0.27236935201136631 -0.41843914721718511 0 0.28214617269356762 -0.42588265829911459 0 0.28327229028388118 -0.41696091427050369 0 0.27236935201136631 -0.41843914721718511 0 0.2638588996409259 -0.419273689163152 0 0.2638588996409259 -0.419273689163152 0 0.23731646036861351 -0.42187646254780581 0 0.24978898330324689 -0.40916651161004941 0 0.2638588996409259 -0.419273689163152 0 0.23731646036861351 -0.42187646254780581 0 0.25487312531027401 -0.40582052369941718 0 0.27236935201136631 -0.41843914721718511 0 0.2638588996409259 -0.419273689163152 0 0.25487312531027401 -0.40582052369941718 0 0.2638588996409259 -0.419273689163152 0 0.25487312531027401 -0.40582052369941718 0 0.2638588996409259 -0.419273689163152 0 0.24978898330324689 -0.40916651161004941 0 0.25487312531027401 -0.40582052369941718 0 0.25157189961603621 -0.40556130771334759 0 0.24978898330324689 -0.40916651161004941 0 0.25157189961603621 -0.40556130771334759 0 0.24978898330324689 -0.40916651161004941 0 0.2638588996409259 -0.419273689163152 0 0.27403659508855033 -0.43451135437239358 0 0.25818984504014392 -0.43773795357143519 0 0.2638588996409259 -0.419273689163152 0 0.25818984504014392 -0.43773795357143519 0 0.2458814731527304 -0.43245118805556382 0 0.27236935201136631 -0.41843914721718511 0 0.2638588996409259 -0.419273689163152 0 0.27403659508855033 -0.43451135437239358 0 0.27236935201136631 -0.41843914721718511 0 0.27403659508855033 -0.43451135437239358 0 0.28214617269356762 -0.42588265829911459 0 0.2638588996409259 -0.419273689163152 0 0.27403659508855033 -0.43451135437239358 0 0.27403659508855033 -0.43451135437239358 0 0.28970516354326709 -0.4362146828719129 0 0.28214617269356762 -0.42588265829911459 0 0.28970516354326709 -0.4362146828719129 0 0.29233458633086729 -0.42647872765493072 0 0.30262707173807718 -0.42791155662944719 0 0.29233458633086729 -0.42647872765493072 0 0.28989894624364509 -0.42012582270453042 0 0.29729557743577961 -0.42225891776964769 0 0.29233458633086729 -0.42647872765493072 0 0.28214617269356762 -0.42588265829911459 0 0.28989894624364509 -0.42012582270453042 0 0.28970516354326709 -0.4362146828719129 0 0.29233458633086729 -0.42647872765493072 0 0.28214617269356762 -0.42588265829911459 0 0.28327229028388118 -0.41696091427050369 0 0.29200621216120459 -0.41256807966994019 0 0.28989894624364509 -0.42012582270453042 0 0.28214617269356762 -0.42588265829911459 0 0.28327229028388118 -0.41696091427050369 0 0.28989894624364509 -0.42012582270453042 0 0.2799407683096225 -0.4077888634617477 0 0.30500841130897061 -0.4097572032240831 0 0.2799407683096225 -0.4077888634617477 0 0.29200621216120459 -0.41256807966994019 0 0.30500841130897061 -0.4097572032240831 0 0.2799407683096225 -0.4077888634617477 0 0.28327229028388118 -0.41696091427050369 0 0.29200621216120459 -0.41256807966994019 0 0.29200621216120459 -0.41256807966994019 0 0.28989894624364509 -0.42012582270453042 0 0.2967561993417599 -0.41674260586548217 0 0.28989894624364509 -0.42012582270453042 0 0.2967561993417599 -0.41674260586548217 0 0.29729557743577961 -0.42225891776964769 0 0.29200621216120459 -0.41256807966994019 0 0.2967561993417599 -0.41674260586548217 0 0.30187087132828772 -0.41302721365644263 0 0.2967561993417599 -0.41674260586548217 0 0.30258353590210618 -0.41849154021046731 0 0.29729557743577961 -0.42225891776964769 0 0.2967561993417599 -0.41674260586548217 0 0.30258353590210618 -0.41849154021046731 0 0.30187087132828772 -0.41302721365644263 0 0.30258353590210618 -0.41849154021046731 0 0.30187087132828772 -0.41302721365644263 0 0.30492657121852418 -0.41479909068748538 0 0.29200621216120459 -0.41256807966994019 0 0.30187087132828772 -0.41302721365644263 0 0.30500841130897061 -0.4097572032240831 0 0.30187087132828772 -0.41302721365644263 0 0.30500841130897061 -0.4097572032240831 0 0.30492657121852418 -0.41479909068748538 0 0.30187087132828772 -0.41302721365644263 0 0.30500841130897061 -0.4097572032240831 0 0.30500841130897061 -0.4097572032240831 0 0.30492657121852418 -0.41479909068748538 0 0.31024346633473221 -0.41792040565894878 0 0.30258353590210618 -0.41849154021046731 0 0.31024346633473221 -0.41792040565894878 0 0.30262707173807718 -0.42791155662944719 0 0.30258353590210618 -0.41849154021046731 0 0.30492657121852418 -0.41479909068748538 0 0.31024346633473221 -0.41792040565894878 0 0.31666566748996022 -0.42825861813861232 0 0.31024346633473221 -0.41792040565894878 0 0.30262707173807718 -0.42791155662944719 0 0.28970516354326709 -0.4362146828719129 0 0.30262707173807718 -0.42791155662944719 0 0.30734909946926581 -0.44418446984337462 0 0.31666566748996022 -0.42825861813861232 0 0.30262707173807718 -0.42791155662944719 0 0.30734909946926581 -0.44418446984337462 0 0.29233458633086729 -0.42647872765493072 0 0.30262707173807718 -0.42791155662944719 0 0.29729557743577961 -0.42225891776964769 0 0.30258353590210618 -0.41849154021046731 0 0.30262707173807718 -0.42791155662944719 0 0.29729557743577961 -0.42225891776964769 0 0.319753470550179 -0.45444828436522738 0 0.30734909946926581 -0.44418446984337462 0 0.30035387943449249 -0.4553510092405304 0 0.30734909946926581 -0.44418446984337462 0 0.30035387943449249 -0.4553510092405304 0 0.28421429053617459 -0.44974901958163538 0 0.319753470550179 -0.45444828436522738 0 0.30887657616420161 -0.46540030503160568 0 0.30035387943449249 -0.4553510092405304 0 0.30887657616420161 -0.46540030503160568 0 0.30035387943449249 -0.4553510092405304 0 0.2963385288202624 -0.46790097596908858 0 0.30035387943449249 -0.4553510092405304 0 0.2963385288202624 -0.46790097596908858 0 0.28421429053617459 -0.44974901958163538 0 0.2963385288202624 -0.46790097596908858 0 0.28421429053617459 -0.44974901958163538 0 0.2963385288202624 -0.46790097596908858 0 0.28421429053617459 -0.44974901958163538 0 0.2762646876022099 -0.47019445102184498 0 0.27403659508855033 -0.43451135437239358 0 0.28970516354326709 -0.4362146828719129 0 0.28421429053617459 -0.44974901958163538 0 0.28970516354326709 -0.4362146828719129 0 0.30734909946926581 -0.44418446984337462 0 0.28421429053617459 -0.44974901958163538 0 0.30734909946926581 -0.44418446984337462 0 0.28421429053617459 -0.44974901958163538 0 0.27403659508855033 -0.43451135437239358 0 0.28421429053617459 -0.44974901958163538 0 0.28421429053617459 -0.44974901958163538 0 0.26316522138220222 -0.45481189226798141 0 0.27403659508855033 -0.43451135437239358 0 0.28421429053617459 -0.44974901958163538 0 0.26316522138220222 -0.45481189226798141 0 0.25818984504014392 -0.43773795357143519 0 0.26316522138220222 -0.45481189226798141 0 0.24472284787994869 -0.44485666861058237 0 0.27403659508855033 -0.43451135437239358 0 0.25818984504014392 -0.43773795357143519 0 0.26316522138220222 -0.45481189226798141 0 0.26316522138220222 -0.45481189226798141 0 0.24211615222823071 -0.45987476495433138 0 0.24472284787994869 -0.44485666861058237 0 0.26316522138220222 -0.45481189226798141 0 0.2762646876022099 -0.47019445102184498 0 0.25704613436640061 -0.47851187754702579 0 0.26316522138220222 -0.45481189226798141 0 0.25704613436640061 -0.47851187754702579 0 0.24211615222823071 -0.45987476495433138 0 0.26316522138220222 -0.45481189226798141 0 0.24211615222823071 -0.45987476495433138 0 0.28421429053617459 -0.44974901958163538 0 0.26316522138220222 -0.45481189226798141 0 0.2762646876022099 -0.47019445102184498 0 0.2762646876022099 -0.47019445102184498 0 0.25704613436640061 -0.47851187754702579 0 0.27171905511034911 -0.48543319868678508 0 0.2762646876022099 -0.47019445102184498 0 0.27171905511034911 -0.48543319868678508 0 0.2873427218590453 -0.49302646617826978 0 0.25704613436640061 -0.47851187754702579 0 0.26622267661374083 -0.49999999999999872 0 0.24017857710909041 -0.5 0 0.25704613436640061 -0.47851187754702579 0 0.26622267661374083 -0.49999999999999872 0 0.27171905511034911 -0.48543319868678508 0 0.26622267661374083 -0.49999999999999872 0 0.2873427218590453 -0.49302646617826978 0 0.26622267661374083 -0.49999999999999872 0 0.27171905511034911 -0.48543319868678508 0 0.2873427218590453 -0.49302646617826978 0 0.26622267661374083 -0.49999999999999872 0 0.2873427218590453 -0.49302646617826978 0 0.29200055509377287 -0.5 0 0.2873427218590453 -0.49302646617826978 0 0.29200055509377287 -0.5 0 0.30846276710435028 -0.48605293235654179 0 0.2963385288202624 -0.46790097596908858 0 0.2762646876022099 -0.47019445102184498 0 0.2873427218590453 -0.49302646617826978 0 0.30887657616420161 -0.46540030503160568 0 0.2963385288202624 -0.46790097596908858 0 0.30846276710435028 -0.48605293235654179 0 0.2963385288202624 -0.46790097596908858 0 0.2873427218590453 -0.49302646617826978 0 0.30846276710435028 -0.48605293235654179 0 0.2963385288202624 -0.46790097596908858 0 0.30846276710435028 -0.48605293235654179 0 0.31708404780773519 -0.4746163573441714 0 0.30887657616420161 -0.46540030503160568 0 0.30846276710435028 -0.48605293235654179 0 0.31777843357380497 -0.49999999999999889 0 0.29200055509377287 -0.5 0 0.30846276710435028 -0.48605293235654179 0 0.2873427218590453 -0.49302646617826978 0 0.30846276710435028 -0.48605293235654179 0 0.33891225779016732 -0.28238564021998691 0 0.33149771766007402 -0.30001414710683749 0 0.32545867162029879 -0.28380017181572881 0 0.33891225779016732 -0.28238564021998691 0 0.33149771766007402 -0.30001414710683749 0 0.3487231760697509 -0.30066031440716368 0 0.33149771766007402 -0.30001414710683749 0 0.35062666321971642 -0.31740327914382699 0 0.33149771766007402 -0.30001414710683749 0 0.3487231760697509 -0.30066031440716368 0 0.35062666321971642 -0.31740327914382699 0 0.33149771766007402 -0.30001414710683749 0 0.31542750239419942 -0.29947292928289659 0 0.31495401674792167 -0.31345967574744882 0 0.33149771766007402 -0.30001414710683749 0 0.33089331707070768 -0.32280120611538748 0 0.31495401674792167 -0.31345967574744882 0 0.33149771766007402 -0.30001414710683749 0 0.31236877210043268 -0.28262501506984689 0 0.33149771766007402 -0.30001414710683749 0 0.31542750239419942 -0.29947292928289659 0 0.31236877210043268 -0.28262501506984689 0 0.33149771766007402 -0.30001414710683749 0 0.32545867162029879 -0.28380017181572881 0 0.31236877210043268 -0.28262501506984689 0 0.33891225779016732 -0.28238564021998691 0 0.31688619849725208 -0.27349040615296011 0 0.31688619849725208 -0.27349040615296011 0 0.32450724380411078 -0.25740009099478589 0 0.30413910251289888 -0.26834248563991481 0 0.31688619849725208 -0.27349040615296011 0 0.32457317556750009 -0.26748196603209529 0 0.32450724380411078 -0.25740009099478589 0 0.33891225779016732 -0.28238564021998691 0 0.31688619849725208 -0.27349040615296011 0 0.32457317556750009 -0.26748196603209529 0 0.31688619849725208 -0.27349040615296011 0 0.31236877210043268 -0.28262501506984689 0 0.32545867162029879 -0.28380017181572881 0 0.31688619849725208 -0.27349040615296011 0 0.31236877210043268 -0.28262501506984689 0 0.33891225779016732 -0.28238564021998691 0 0.32545867162029879 -0.28380017181572881 0 0.31688619849725208 -0.27349040615296011 0 0.32450724380411078 -0.25740009099478589 0 0.30413910251289888 -0.26834248563991481 0 0.31688619849725208 -0.27349040615296011 0 0.32450724380411078 -0.25740009099478589 0 0.31948858200591429 -0.24895538480140031 0 0.32450724380411078 -0.25740009099478589 0 0.30413910251289888 -0.26834248563991481 0 0.32457317556750009 -0.26748196603209529 0 0.32450724380411078 -0.25740009099478589 0 0.32849371080272338 -0.26059386243685528 0 0.32450724380411078 -0.25740009099478589 0 0.32810416354918359 -0.25546771460389628 0 0.32849371080272338 -0.26059386243685528 0 0.31948858200591429 -0.24895538480140031 0 0.32450724380411078 -0.25740009099478589 0 0.32810416354918359 -0.25546771460389628 0 0.32450724380411078 -0.25740009099478589 0 0.32810416354918359 -0.25546771460389628 0 0.35206922458546819 -0.2425929435678775 0 0.32810416354918359 -0.25546771460389628 0 0.33929421772345042 -0.25584115290640691 0 0.32810416354918359 -0.25546771460389628 0 0.33316748106084559 -0.25927948987249222 0 0.33929421772345042 -0.25584115290640691 0 0.33316748106084559 -0.25927948987249222 0 0.33194140665501881 -0.26301415099677161 0 0.33820221180489851 -0.26242962772265932 0 0.33316748106084559 -0.25927948987249222 0 0.32849371080272338 -0.26059386243685528 0 0.33194140665501881 -0.26301415099677161 0 0.32810416354918359 -0.25546771460389628 0 0.33316748106084559 -0.25927948987249222 0 0.32849371080272338 -0.26059386243685528 0 0.32457317556750009 -0.26748196603209529 0 0.32849371080272338 -0.26059386243685528 0 0.33194140665501881 -0.26301415099677161 0 0.33820221180489851 -0.26242962772265932 0 0.33838015542742422 -0.26907129793516549 0 0.34756558382942998 -0.26314319419524601 0 0.33820221180489851 -0.26242962772265932 0 0.33929421772345042 -0.25584115290640691 0 0.34756558382942998 -0.26314319419524601 0 0.33194140665501881 -0.26301415099677161 0 0.33820221180489851 -0.26242962772265932 0 0.33838015542742422 -0.26907129793516549 0 0.33316748106084559 -0.25927948987249222 0 0.33820221180489851 -0.26242962772265932 0 0.33929421772345042 -0.25584115290640691 0 0.32457317556750009 -0.26748196603209529 0 0.33194140665501881 -0.26301415099677161 0 0.33838015542742422 -0.26907129793516549 0 0.33891225779016732 -0.28238564021998691 0 0.32457317556750009 -0.26748196603209529 0 0.33838015542742422 -0.26907129793516549 0 0.33891225779016732 -0.28238564021998691 0 0.33838015542742422 -0.26907129793516549 0 0.3506376976989482 -0.27616872846289692 0 0.3506376976989482 -0.27616872846289692 0 0.36311551863328329 -0.26982830391897888 0 0.3609383170830836 -0.29128087428701072 0 0.33838015542742422 -0.26907129793516549 0 0.3506376976989482 -0.27616872846289692 0 0.34756558382942998 -0.26314319419524601 0 0.3506376976989482 -0.27616872846289692 0 0.34756558382942998 -0.26314319419524601 0 0.36311551863328329 -0.26982830391897888 0 0.33929421772345042 -0.25584115290640691 0 0.34756558382942998 -0.26314319419524601 0 0.35162734258361761 -0.25242186516885701 0 0.35206922458546819 -0.2425929435678775 0 0.33929421772345042 -0.25584115290640691 0 0.35162734258361761 -0.25242186516885701 0 0.34756558382942998 -0.26314319419524601 0 0.35852737192959488 -0.25473250193359598 0 0.36311551863328329 -0.26982830391897888 0 0.36421571969384159 -0.24460496201461249 0 0.35852737192959488 -0.25473250193359598 0 0.35162734258361761 -0.25242186516885701 0 0.34756558382942998 -0.26314319419524601 0 0.35852737192959488 -0.25473250193359598 0 0.35162734258361761 -0.25242186516885701 0 0.37178074500542491 -0.24902341934924671 0 0.35852737192959488 -0.25473250193359598 0 0.36796629619571819 -0.2591312259487778 0 0.35852737192959488 -0.25473250193359598 0 0.36796629619571819 -0.2591312259487778 0 0.36311551863328329 -0.26982830391897888 0 0.37844154921457002 -0.26294067859328962 0 0.36796629619571819 -0.2591312259487778 0 0.36311551863328329 -0.26982830391897888 0 0.37178074500542491 -0.24902341934924671 0 0.37844154921457002 -0.26294067859328962 0 0.36796629619571819 -0.2591312259487778 0 0.37662082769964689 -0.2774383894982605 0 0.36311551863328329 -0.26982830391897888 0 0.3609383170830836 -0.29128087428701072 0 0.37662082769964689 -0.2774383894982605 0 0.37844154921457002 -0.26294067859328962 0 0.36311551863328329 -0.26982830391897888 0 0.38725332723018258 -0.29083006818484031 0 0.3609383170830836 -0.29128087428701072 0 0.36907421003950408 -0.30734622852578569 0 0.38725332723018258 -0.29083006818484031 0 0.37662082769964689 -0.2774383894982605 0 0.3609383170830836 -0.29128087428701072 0 0.33891225779016732 -0.28238564021998691 0 0.3506376976989482 -0.27616872846289692 0 0.3609383170830836 -0.29128087428701072 0 0.33891225779016732 -0.28238564021998691 0 0.3609383170830836 -0.29128087428701072 0 0.3487231760697509 -0.30066031440716368 0 0.33891225779016732 -0.28238564021998691 0 0.3609383170830836 -0.29128087428701072 0 0.3487231760697509 -0.30066031440716368 0 0.36907421003950408 -0.30734622852578569 0 0.35062666321971642 -0.31740327914382699 0 0.3609383170830836 -0.29128087428701072 0 0.3487231760697509 -0.30066031440716368 0 0.36907421003950408 -0.30734622852578569 0 0.37704019807901118 -0.31821116939100041 0 0.36907421003950408 -0.30734622852578569 0 0.36420613216148001 -0.32105017041593897 0 0.36907421003950408 -0.30734622852578569 0 0.36420613216148001 -0.32105017041593897 0 0.35062666321971642 -0.31740327914382699 0 0.37704019807901118 -0.31821116939100041 0 0.36420613216148001 -0.32105017041593897 0 0.37463532271886968 -0.3304806410833328 0 0.36420613216148001 -0.32105017041593897 0 0.37463532271886968 -0.3304806410833328 0 0.35328143237080267 -0.33685700093578808 0 0.37463532271886968 -0.3304806410833328 0 0.37219439069436278 -0.33973455654827522 0 0.35328143237080267 -0.33685700093578808 0 0.37219439069436278 -0.33973455654827522 0 0.35328143237080267 -0.33685700093578808 0 0.36187220681042243 -0.34664139095833302 0 0.37463532271886968 -0.3304806410833328 0 0.35328143237080267 -0.33685700093578808 0 0.35328143237080267 -0.33685700093578808 0 0.34957973154128041 -0.34618211696341539 0 0.33192754202273572 -0.34323336078824351 0 0.35328143237080267 -0.33685700093578808 0 0.36187220681042243 -0.34664139095833302 0 0.34957973154128041 -0.34618211696341539 0 0.36420613216148001 -0.32105017041593897 0 0.35328143237080267 -0.33685700093578808 0 0.35062666321971642 -0.31740327914382699 0 0.35328143237080267 -0.33685700093578808 0 0.35062666321971642 -0.31740327914382699 0 0.34168223867099062 -0.33007371174581152 0 0.37655859199567587 -0.37356725680210112 0 0.36287328785402612 -0.36899476329825298 0 0.36948003967883492 -0.36376344626797991 0 0.37655859199567587 -0.37356725680210112 0 0.36294720531266811 -0.38018066368018399 0 0.36287328785402612 -0.36899476329825298 0 0.37653734604282962 -0.36071243495520089 0 0.36948003967883492 -0.36376344626797991 0 0.36925867876408658 -0.35496334079180009 0 0.37653734604282962 -0.36071243495520089 0 0.37655859199567587 -0.37356725680210112 0 0.36948003967883492 -0.36376344626797991 0 0.36948003967883492 -0.36376344626797991 0 0.36217229373755672 -0.36057943549254429 0 0.36925867876408658 -0.35496334079180009 0 0.36287328785402612 -0.36899476329825298 0 0.36217229373755672 -0.36057943549254429 0 0.35795013664840342 -0.36424709114289849 0 0.36287328785402612 -0.36899476329825298 0 0.36948003967883492 -0.36376344626797991 0 0.36217229373755672 -0.36057943549254429 0 0.37219439069436278 -0.33973455654827522 0 0.35539789584801468 -0.35724021821722712 0 0.37219439069436278 -0.33973455654827522 0 0.36475581476100521 -0.35312938776246161 0 0.35539789584801468 -0.35724021821722712 0 0.37219439069436278 -0.33973455654827522 0 0.36187220681042243 -0.34664139095833302 0 0.35539789584801468 -0.35724021821722712 0 0.36217229373755672 -0.36057943549254429 0 0.36475581476100521 -0.35312938776246161 0 0.35539789584801468 -0.35724021821722712 0 0.36217229373755672 -0.36057943549254429 0 0.36475581476100521 -0.35312938776246161 0 0.36925867876408658 -0.35496334079180009 0 0.37725125690826539 -0.350326147703383 0 0.37653734604282962 -0.36071243495520089 0 0.36925867876408658 -0.35496334079180009 0 0.37725125690826539 -0.350326147703383 0 0.37219439069436278 -0.33973455654827522 0 0.36925867876408658 -0.35496334079180009 0 0.37219439069436278 -0.33973455654827522 0 0.36475581476100521 -0.35312938776246161 0 0.36925867876408658 -0.35496334079180009 0 0.34957973154128041 -0.34618211696341539 0 0.35320517612990071 -0.35553714392729158 0 0.33192754202273572 -0.34323336078824351 0 0.3534984398014635 -0.35024730304545121 0 0.34957973154128041 -0.34618211696341539 0 0.35320517612990071 -0.35553714392729158 0 0.36187220681042243 -0.34664139095833302 0 0.3534984398014635 -0.35024730304545121 0 0.3558501669988845 -0.3524210775484839 0 0.36187220681042243 -0.34664139095833302 0 0.3534984398014635 -0.35024730304545121 0 0.34957973154128041 -0.34618211696341539 0 0.35320517612990071 -0.35553714392729158 0 0.35539789584801468 -0.35724021821722712 0 0.34042329576697339 -0.35823164563226978 0 0.36187220681042243 -0.34664139095833302 0 0.35539789584801468 -0.35724021821722712 0 0.3558501669988845 -0.3524210775484839 0 0.3534984398014635 -0.35024730304545121 0 0.35320517612990071 -0.35553714392729158 0 0.3558501669988845 -0.3524210775484839 0 0.35320517612990071 -0.35553714392729158 0 0.35539789584801468 -0.35724021821722712 0 0.3558501669988845 -0.3524210775484839 0 0.35539789584801468 -0.35724021821722712 0 0.33860140100166652 -0.37474587988617891 0 0.34042329576697339 -0.35823164563226978 0 0.35539789584801468 -0.35724021821722712 0 0.35135706915401588 -0.37017394756356969 0 0.33860140100166652 -0.37474587988617891 0 0.35539789584801468 -0.35724021821722712 0 0.33860140100166652 -0.37474587988617891 0 0.35539789584801468 -0.35724021821722712 0 0.35795013664840342 -0.36424709114289849 0 0.35135706915401588 -0.37017394756356969 0 0.36217229373755672 -0.36057943549254429 0 0.35539789584801468 -0.35724021821722712 0 0.35795013664840342 -0.36424709114289849 0 0.36294720531266811 -0.38018066368018399 0 0.36287328785402612 -0.36899476329825298 0 0.35135706915401588 -0.37017394756356969 0 0.36287328785402612 -0.36899476329825298 0 0.35795013664840342 -0.36424709114289849 0 0.35135706915401588 -0.37017394756356969 0 0.33860140100166652 -0.37474587988617891 0 0.34042329576697339 -0.35823164563226978 0 0.3265103903251248 -0.35945213496471662 0 0.35320517612990071 -0.35553714392729158 0 0.33192754202273572 -0.34323336078824351 0 0.35320517612990071 -0.35553714392729158 0 0.34042329576697339 -0.35823164563226978 0 0.33192754202273572 -0.34323336078824351 0 0.34042329576697339 -0.35823164563226978 0 0.3265103903251248 -0.35945213496471662 0 0.33192754202273572 -0.34323336078824351 0 0.3154146555364471 -0.34816417689355561 0 0.33192754202273572 -0.34323336078824351 0 0.3154146555364471 -0.34816417689355561 0 0.3265103903251248 -0.35945213496471662 0 0.33192754202273572 -0.34323336078824351 0 0.3154146555364471 -0.34816417689355561 0 0.31323691028295181 -0.37098663086795219 0 0.3265103903251248 -0.35945213496471662 0 0.33860140100166652 -0.37474587988617891 0 0.31323691028295181 -0.37098663086795219 0 0.3265103903251248 -0.35945213496471662 0 0.35062666321971642 -0.31740327914382699 0 0.33089331707070768 -0.32280120611538748 0 0.34168223867099062 -0.33007371174581152 0 0.33149771766007402 -0.30001414710683749 0 0.35062666321971642 -0.31740327914382699 0 0.33089331707070768 -0.32280120611538748 0 0.33089331707070768 -0.32280120611538748 0 0.33192754202273572 -0.34323336078824351 0 0.34168223867099062 -0.33007371174581152 0 0.35328143237080267 -0.33685700093578808 0 0.33192754202273572 -0.34323336078824351 0 0.35328143237080267 -0.33685700093578808 0 0.33192754202273572 -0.34323336078824351 0 0.34168223867099062 -0.33007371174581152 0 0.3154146555364471 -0.34816417689355561 0 0.33192754202273572 -0.34323336078824351 0 0.31266888802952059 -0.33209705206665119 0 0.33089331707070768 -0.32280120611538748 0 0.33192754202273572 -0.34323336078824351 0 0.31266888802952059 -0.33209705206665119 0 0.33192754202273572 -0.34323336078824351 0 0.31266888802952059 -0.33209705206665119 0 0.33089331707070768 -0.32280120611538748 0 0.31266888802952059 -0.33209705206665119 0 0.31495401674792167 -0.31345967574744882 0 0.31266888802952059 -0.33209705206665119 0 0.31495401674792167 -0.31345967574744882 0 0.29341023403630562 -0.32096074334505892 0 0.31266888802952059 -0.33209705206665119 0 0.29341023403630562 -0.32096074334505892 0 0.3154146555364471 -0.34816417689355561 0 0.31266888802952059 -0.33209705206665119 0 0.29821893739111432 -0.3376351833950002 0 0.31266888802952059 -0.33209705206665119 0 0.29821893739111432 -0.3376351833950002 0 0.29341023403630562 -0.32096074334505892 0 0.29821893739111432 -0.3376351833950002 0 0.28324073230096269 -0.34152431496127278 0 0.29341023403630562 -0.32096074334505892 0 0.28324073230096269 -0.34152431496127278 0 0.29341023403630562 -0.32096074334505892 0 0.28324073230096269 -0.34152431496127278 0 0.29341023403630562 -0.32096074334505892 0 0.27257483066671129 -0.32623096063484219 0 0.29341023403630562 -0.32096074334505892 0 0.27045895388275498 -0.30768917507057048 0 0.31323691028295181 -0.37098663086795219 0 0.29890176905015869 -0.35309499299886782 0 0.29406281218487668 -0.37110195615280478 0 0.30376608135307642 -0.38256574588337439 0 0.31323691028295181 -0.37098663086795219 0 0.29406281218487668 -0.37110195615280478 0 0.3154146555364471 -0.34816417689355561 0 0.31323691028295181 -0.37098663086795219 0 0.29890176905015869 -0.35309499299886782 0 0.3154146555364471 -0.34816417689355561 0 0.29821893739111432 -0.3376351833950002 0 0.29890176905015869 -0.35309499299886782 0 0.3154146555364471 -0.34816417689355561 0 0.29890176905015869 -0.35309499299886782 0 0.28324073230096269 -0.34152431496127278 0 0.29890176905015869 -0.35309499299886782 0 0.27307123056561983 -0.36208788657748658 0 0.29821893739111432 -0.3376351833950002 0 0.28324073230096269 -0.34152431496127278 0 0.29890176905015869 -0.35309499299886782 0 0.28059514594661789 -0.37749688251145941 0 0.29406281218487668 -0.37110195615280478 0 0.27307123056561983 -0.36208788657748658 0 0.29890176905015869 -0.35309499299886782 0 0.29406281218487668 -0.37110195615280478 0 0.27307123056561983 -0.36208788657748658 0 0.28059514594661789 -0.37749688251145941 0 0.27063627606564722 -0.38146981263072172 0 0.27307123056561983 -0.36208788657748658 0 0.26290172883027341 -0.38265145819369878 0 0.27307123056561983 -0.36208788657748658 0 0.28324073230096269 -0.34152431496127278 0 0.27307123056561983 -0.36208788657748658 0 0.28324073230096269 -0.34152431496127278 0 0.27307123056561983 -0.36208788657748658 0 0.25902008546228139 -0.33944764004923739 0 0.27307123056561983 -0.36208788657748658 0 0.25016122440348099 -0.35456012118761387 0 0.25902008546228139 -0.33944764004923739 0 0.26290172883027341 -0.38265145819369878 0 0.27307123056561983 -0.36208788657748658 0 0.25780649861617821 -0.36733526799276739 0 0.26290172883027341 -0.38265145819369878 0 0.25780649861617821 -0.36733526799276739 0 0.24170827130145911 -0.36851600104022741 0 0.27307123056561983 -0.36208788657748658 0 0.25016122440348099 -0.35456012118761387 0 0.25780649861617821 -0.36733526799276739 0 0.27257483066671129 -0.32623096063484219 0 0.25674414765125192 -0.32153292974807168 0 0.27045895388275498 -0.30768917507057048 0 0.29341023403630562 -0.32096074334505892 0 0.27257483066671129 -0.32623096063484219 0 0.27045895388275498 -0.30768917507057048 0 0.28324073230096269 -0.34152431496127278 0 0.27257483066671129 -0.32623096063484219 0 0.25902008546228139 -0.33944764004923739 0 0.27257483066671129 -0.32623096063484219 0 0.25902008546228139 -0.33944764004923739 0 0.25674414765125192 -0.32153292974807168 0 0.25902008546228139 -0.33944764004923739 0 0.25674414765125192 -0.32153292974807168 0 0.23663746231218019 -0.32558129144487769 0 0.25674414765125192 -0.32153292974807168 0 0.27045895388275498 -0.30768917507057048 0 0.24451567491351181 -0.30988941304627587 0 0.27045895388275498 -0.30768917507057048 0 0.24750767372920429 -0.29441760679608231 0 0.24451567491351181 -0.30988941304627587 0 0.27045895388275498 -0.30768917507057048 0 0.24750767372920429 -0.29441760679608231 0 0.26933829144208221 -0.28372997478518469 0 0.24865637472303559 -0.27728039917688507 0 0.24750767372920429 -0.29441760679608231 0 0.26933829144208221 -0.28372997478518469 0 0.27045895388275498 -0.30768917507057048 0 0.24750767372920429 -0.29441760679608231 0 0.26933829144208221 -0.28372997478518469 0 0.27045895388275498 -0.30768917507057048 0 0.28396972673167459 -0.29080273138076301 0 0.26933829144208221 -0.28372997478518469 0 0.28396972673167459 -0.29080273138076301 0 0.28180038579786648 -0.27949520726006949 0 0.27045895388275498 -0.30768917507057048 0 0.28857793451958469 -0.30405092516071902 0 0.28396972673167459 -0.29080273138076301 0 0.29341023403630562 -0.32096074334505892 0 0.27045895388275498 -0.30768917507057048 0 0.28857793451958469 -0.30405092516071902 0 0.29341023403630562 -0.32096074334505892 0 0.28857793451958469 -0.30405092516071902 0 0.30288950306836931 -0.30179287920745301 0 0.28857793451958469 -0.30405092516071902 0 0.29735664071998719 -0.28913593265213972 0 0.30288950306836931 -0.30179287920745301 0 0.28396972673167459 -0.29080273138076301 0 0.28953870887964972 -0.28279325983877462 0 0.28180038579786648 -0.27949520726006949 0 0.28396972673167459 -0.29080273138076301 0 0.28953870887964972 -0.28279325983877462 0 0.29735664071998719 -0.28913593265213972 0 0.28953870887964972 -0.28279325983877462 0 0.29735664071998719 -0.28913593265213972 0 0.29489219767257202 -0.27992957760209408 0 0.28857793451958469 -0.30405092516071902 0 0.28396972673167459 -0.29080273138076301 0 0.29735664071998719 -0.28913593265213972 0 0.31542750239419942 -0.29947292928289659 0 0.31236877210043268 -0.28262501506984689 0 0.30288950306836931 -0.30179287920745301 0 0.31236877210043268 -0.28262501506984689 0 0.30288950306836931 -0.30179287920745301 0 0.29735664071998719 -0.28913593265213972 0 0.31236877210043268 -0.28262501506984689 0 0.30288950306836931 -0.30179287920745301 0 0.29735664071998719 -0.28913593265213972 0 0.31236877210043268 -0.28262501506984689 0 0.30104320449713451 -0.27997981374830122 0 0.29735664071998719 -0.28913593265213972 0 0.30104320449713451 -0.27997981374830122 0 0.29489219767257202 -0.27992957760209408 0 0.29341023403630562 -0.32096074334505892 0 0.30288950306836931 -0.30179287920745301 0 0.31495401674792167 -0.31345967574744882 0 0.29341023403630562 -0.32096074334505892 0 0.30288950306836931 -0.30179287920745301 0 0.31542750239419942 -0.29947292928289659 0 0.31495401674792167 -0.31345967574744882 0 0.30288950306836931 -0.30179287920745301 0 0.31948858200591429 -0.24895538480140031 0 0.29455279329022288 -0.25936526309892599 0 0.31948858200591429 -0.24895538480140031 0 0.30270319855564731 -0.25083068480389359 0 0.29455279329022288 -0.25936526309892599 0 0.31948858200591429 -0.24895538480140031 0 0.30413910251289888 -0.26834248563991481 0 0.29455279329022288 -0.25936526309892599 0 0.30413910251289888 -0.26834248563991481 0 0.29067632508807889 -0.26290553685150669 0 0.29342444761073561 -0.2490154373494701 0 0.30270319855564731 -0.25083068480389359 0 0.29455279329022288 -0.25936526309892599 0 0.31688619849725208 -0.27349040615296011 0 0.30413910251289888 -0.26834248563991481 0 0.31688619849725208 -0.27349040615296011 0 0.31236877210043268 -0.28262501506984689 0 0.30413910251289888 -0.26834248563991481 0 0.31236877210043268 -0.28262501506984689 0 0.30413910251289888 -0.26834248563991481 0 0.29943643885206489 -0.27086890181723722 0 0.31236877210043268 -0.28262501506984689 0 0.29943643885206489 -0.27086890181723722 0 0.31236877210043268 -0.28262501506984689 0 0.30104320449713451 -0.27997981374830122 0 0.29943643885206489 -0.27086890181723722 0 0.30104320449713451 -0.27997981374830122 0 0.29943643885206489 -0.27086890181723722 0 0.29526627671383621 -0.27310924172839129 0 0.30104320449713451 -0.27997981374830122 0 0.29526627671383621 -0.27310924172839129 0 0.29489219767257202 -0.27992957760209408 0 0.30413910251289888 -0.26834248563991481 0 0.29943643885206489 -0.27086890181723722 0 0.29067632508807889 -0.26290553685150669 0 0.30413910251289888 -0.26834248563991481 0 0.29943643885206489 -0.27086890181723722 0 0.29943643885206489 -0.27086890181723722 0 0.29526627671383621 -0.27310924172839129 0 0.29943643885206489 -0.27086890181723722 0 0.29070985511479219 -0.26996860976649489 0 0.29067632508807889 -0.26290553685150669 0 0.29943643885206489 -0.27086890181723722 0 0.29067632508807889 -0.26290553685150669 0 0.29943643885206489 -0.27086890181723722 0 0.29526627671383621 -0.27310924172839129 0 0.29070985511479219 -0.26996860976649489 0 0.29526627671383621 -0.27310924172839129 0 0.29070985511479219 -0.26996860976649489 0 0.28953189466040019 -0.27553176578282901 0 0.29526627671383621 -0.27310924172839129 0 0.29489219767257202 -0.27992957760209408 0 0.28953189466040019 -0.27553176578282901 0 0.28953870887964972 -0.28279325983877462 0 0.29489219767257202 -0.27992957760209408 0 0.28953189466040019 -0.27553176578282901 0 0.28953189466040019 -0.27553176578282901 0 0.28180038579786648 -0.27949520726006949 0 0.28355603387518719 -0.27155009664995139 0 0.28953870887964972 -0.28279325983877462 0 0.28953189466040019 -0.27553176578282901 0 0.28180038579786648 -0.27949520726006949 0 0.29070985511479219 -0.26996860976649489 0 0.28538392147282099 -0.26645021187832468 0 0.28355603387518719 -0.27155009664995139 0 0.29070985511479219 -0.26996860976649489 0 0.28538392147282099 -0.26645021187832468 0 0.29067632508807889 -0.26290553685150669 0 0.29070985511479219 -0.26996860976649489 0 0.28953189466040019 -0.27553176578282901 0 0.28355603387518719 -0.27155009664995139 0 0.28538392147282099 -0.26645021187832468 0 0.28355603387518719 -0.27155009664995139 0 0.27993127607616303 -0.26568643484764221 0 0.28538392147282099 -0.26645021187832468 0 0.28587422930842099 -0.26096620828599898 0 0.27993127607616303 -0.26568643484764221 0 0.28587422930842099 -0.26096620828599898 0 0.29067632508807889 -0.26290553685150669 0 0.27900645603208429 -0.25229706430207338 0 0.28538392147282099 -0.26645021187832468 0 0.28587422930842099 -0.26096620828599898 0 0.29067632508807889 -0.26290553685150669 0 0.28587422930842099 -0.26096620828599898 0 0.29067632508807889 -0.26290553685150669 0 0.30413910251289888 -0.26834248563991481 0 0.29455279329022288 -0.25936526309892599 0 0.29067632508807889 -0.26290553685150669 0 0.29455279329022288 -0.25936526309892599 0 0.29067632508807889 -0.26290553685150669 0 0.28855536188488351 -0.25406702018922561 0 0.29342444761073561 -0.2490154373494701 0 0.29455279329022288 -0.25936526309892599 0 0.28855536188488351 -0.25406702018922561 0 0.28475750139054989 -0.24680621714445891 0 0.28855536188488351 -0.25406702018922561 0 0.27900645603208429 -0.25229706430207338 0 0.29067632508807889 -0.26290553685150669 0 0.28855536188488351 -0.25406702018922561 0 0.27900645603208429 -0.25229706430207338 0 0.29067632508807889 -0.26290553685150669 0 0.27900645603208429 -0.25229706430207338 0 0.28587422930842099 -0.26096620828599898 0 0.27900645603208429 -0.25229706430207338 0 0.2777471093450074 -0.25993694902172559 0 0.27900645603208429 -0.25229706430207338 0 0.2777471093450074 -0.25993694902172559 0 0.27149854063402512 -0.25616919287358703 0 0.2777471093450074 -0.25993694902172559 0 0.27242504467434348 -0.26456584479932671 0 0.27149854063402512 -0.25616919287358703 0 0.28587422930842099 -0.26096620828599898 0 0.2777471093450074 -0.25993694902172559 0 0.27993127607616303 -0.26568643484764221 0 0.2777471093450074 -0.25993694902172559 0 0.27242504467434348 -0.26456584479932671 0 0.27993127607616303 -0.26568643484764221 0 0.27242504467434348 -0.26456584479932671 0 0.26307847596695039 -0.27052873695471552 0 0.26146442537082609 -0.25583685081005042 0 0.27242504467434348 -0.26456584479932671 0 0.27149854063402512 -0.25616919287358703 0 0.26146442537082609 -0.25583685081005042 0 0.26733658697608947 -0.2416885917526401 0 0.27149854063402512 -0.25616919287358703 0 0.26146442537082609 -0.25583685081005042 0 0.26733658697608947 -0.2416885917526401 0 0.27900645603208429 -0.25229706430207338 0 0.27149854063402512 -0.25616919287358703 0 0.26933829144208221 -0.28372997478518469 0 0.28180038579786648 -0.27949520726006949 0 0.27486765919820538 -0.27256341512291421 0 0.28180038579786648 -0.27949520726006949 0 0.28355603387518719 -0.27155009664995139 0 0.27486765919820538 -0.27256341512291421 0 0.27242504467434348 -0.26456584479932671 0 0.27486765919820538 -0.27256341512291421 0 0.27993127607616303 -0.26568643484764221 0 0.28355603387518719 -0.27155009664995139 0 0.27486765919820538 -0.27256341512291421 0 0.27993127607616303 -0.26568643484764221 0 0.27242504467434348 -0.26456584479932671 0 0.27486765919820538 -0.27256341512291421 0 0.26307847596695039 -0.27052873695471552 0 0.26933829144208221 -0.28372997478518469 0 0.27486765919820538 -0.27256341512291421 0 0.26307847596695039 -0.27052873695471552 0 0.26933829144208221 -0.28372997478518469 0 0.26307847596695039 -0.27052873695471552 0 0.24865637472303559 -0.27728039917688507 0 0.26307847596695039 -0.27052873695471552 0 0.25101111975996859 -0.26563328692327859 0 0.24865637472303559 -0.27728039917688507 0 0.25101111975996859 -0.26563328692327859 0 0.26146442537082609 -0.25583685081005042 0 0.2448903888819314 -0.25274008289494182 0 0.2538276387990735 -0.243986156319283 0 0.26146442537082609 -0.25583685081005042 0 0.2448903888819314 -0.25274008289494182 0 0.26307847596695039 -0.27052873695471552 0 0.25101111975996859 -0.26563328692327859 0 0.26146442537082609 -0.25583685081005042 0 0.25101111975996859 -0.26563328692327859 0 0.2448903888819314 -0.25274008289494182 0 0.2364462938643549 -0.26822675108045579 0 0.2448903888819314 -0.25274008289494182 0 0.2364462938643549 -0.26822675108045579 0 0.23102541472123911 -0.25599355796250051 0 0.2448903888819314 -0.25274008289494182 0 0.23102541472123911 -0.25599355796250051 0 0.2355561727938057 -0.24422168856868201 0 0.24865637472303559 -0.27728039917688507 0 0.2364462938643549 -0.26822675108045579 0 0.2245563935756536 -0.28114603852159398 0 0.25101111975996859 -0.26563328692327859 0 0.24865637472303559 -0.27728039917688507 0 0.2364462938643549 -0.26822675108045579 0 0.2364462938643549 -0.26822675108045579 0 0.2245563935756536 -0.28114603852159398 0 0.22044795806211831 -0.26218928624163029 0 0.22044795806211831 -0.26218928624163029 0 0.23102541472123911 -0.25599355796250051 0 0.22036553595057129 -0.24563164019566869 0 0.2364462938643549 -0.26822675108045579 0 0.22044795806211831 -0.26218928624163029 0 0.23102541472123911 -0.25599355796250051 0 0.22044795806211831 -0.26218928624163029 0 0.20456781783476069 -0.25396670583710529 0 0.22036553595057129 -0.24563164019566869 0 0.22044795806211831 -0.26218928624163029 0 0.20456781783476069 -0.25396670583710529 0 0.20160511342210291 -0.2678744702471057 0 0.2245563935756536 -0.28114603852159398 0 0.20160511342210291 -0.2678744702471057 0 0.2019198381618168 -0.28326470310752488 0 0.2245563935756536 -0.28114603852159398 0 0.20160511342210291 -0.2678744702471057 0 0.2245563935756536 -0.28114603852159398 0 0.22044795806211831 -0.26218928624163029 0 0.20160511342210291 -0.2678744702471057 0 0.20160511342210291 -0.2678744702471057 0 0.1786538332685523 -0.25460290197261742 0 0.18617355488529971 -0.27574024348564791 0 0.20160511342210291 -0.2678744702471057 0 0.2019198381618168 -0.28326470310752488 0 0.18617355488529971 -0.27574024348564791 0 0.20456781783476069 -0.25396670583710529 0 0.20160511342210291 -0.2678744702471057 0 0.1786538332685523 -0.25460290197261742 0 0.20160511342210291 -0.2678744702471057 0 0.1786538332685523 -0.25460290197261742 0 0.1979107111278321 -0.29322402346471382 0 0.21346470950660959 -0.29300202656947189 0 0.1872036309678928 -0.30450828607407959 0 0.2076527524326254 -0.30853802527989549 0 0.20396838391790831 -0.31541686340156178 0 0.1872036309678928 -0.30450828607407959 0 0.21346470950660959 -0.29300202656947189 0 0.2076527524326254 -0.30853802527989549 0 0.1872036309678928 -0.30450828607407959 0 0.21346470950660959 -0.29300202656947189 0 0.1872036309678928 -0.30450828607407959 0 0.18907724088750361 -0.29628162746642173 0 0.1979107111278321 -0.29322402346471382 0 0.1872036309678928 -0.30450828607407959 0 0.18907724088750361 -0.29628162746642173 0 0.1878085464534032 -0.28860141635661651 0 0.1979107111278321 -0.29322402346471382 0 0.1878085464534032 -0.28860141635661651 0 0.2019198381618168 -0.28326470310752488 0 0.18617355488529971 -0.27574024348564791 0 0.1878085464534032 -0.28860141635661651 0 0.2019198381618168 -0.28326470310752488 0 0.1979107111278321 -0.29322402346471382 0 0.2019198381618168 -0.28326470310752488 0 0.1979107111278321 -0.29322402346471382 0 0.21346470950660959 -0.29300202656947189 0 0.2245563935756536 -0.28114603852159398 0 0.2019198381618168 -0.28326470310752488 0 0.21346470950660959 -0.29300202656947189 0 0.21346470950660959 -0.29300202656947189 0 0.2076527524326254 -0.30853802527989549 0 0.2188042407491522 -0.3061664508678551 0 0.2076527524326254 -0.30853802527989549 0 0.2188042407491522 -0.3061664508678551 0 0.21715792990084659 -0.31917672727185448 0 0.2188042407491522 -0.3061664508678551 0 0.2283103357443797 -0.29898326899784378 0 0.22743547616129961 -0.31113220622020971 0 0.2188042407491522 -0.3061664508678551 0 0.22743547616129961 -0.31113220622020971 0 0.21715792990084659 -0.31917672727185448 0 0.2283103357443797 -0.29898326899784378 0 0.22743547616129961 -0.31113220622020971 0 0.24451567491351181 -0.30988941304627587 0 0.21346470950660959 -0.29300202656947189 0 0.2188042407491522 -0.3061664508678551 0 0.2283103357443797 -0.29898326899784378 0 0.2245563935756536 -0.28114603852159398 0 0.2283103357443797 -0.29898326899784378 0 0.24750767372920429 -0.29441760679608231 0 0.2245563935756536 -0.28114603852159398 0 0.21346470950660959 -0.29300202656947189 0 0.2283103357443797 -0.29898326899784378 0 0.24865637472303559 -0.27728039917688507 0 0.2245563935756536 -0.28114603852159398 0 0.24750767372920429 -0.29441760679608231 0 0.2245563935756536 -0.28114603852159398 0 0.24750767372920429 -0.29441760679608231 0 0.2283103357443797 -0.29898326899784378 0 0.24750767372920429 -0.29441760679608231 0 0.24451567491351181 -0.30988941304627587 0 0.25674414765125192 -0.32153292974807168 0 0.24451567491351181 -0.30988941304627587 0 0.23663746231218019 -0.32558129144487769 0 0.22743547616129961 -0.31113220622020971 0 0.24451567491351181 -0.30988941304627587 0 0.23663746231218019 -0.32558129144487769 0 0.25902008546228139 -0.33944764004923739 0 0.23663746231218019 -0.32558129144487769 0 0.23812677282779671 -0.34579504452205923 0 0.23663746231218019 -0.32558129144487769 0 0.22305327423549071 -0.33520998890311388 0 0.23812677282779671 -0.34579504452205923 0 0.23663746231218019 -0.32558129144487769 0 0.22305327423549071 -0.33520998890311388 0 0.21715792990084659 -0.31917672727185448 0 0.22743547616129961 -0.31113220622020971 0 0.23663746231218019 -0.32558129144487769 0 0.21715792990084659 -0.31917672727185448 0 0.25016122440348099 -0.35456012118761387 0 0.25780649861617821 -0.36733526799276739 0 0.24170827130145911 -0.36851600104022741 0 0.25016122440348099 -0.35456012118761387 0 0.24170827130145911 -0.36851600104022741 0 0.23812677282779671 -0.34579504452205923 0 0.25016122440348099 -0.35456012118761387 0 0.25902008546228139 -0.33944764004923739 0 0.23812677282779671 -0.34579504452205923 0 0.22305327423549071 -0.33520998890311388 0 0.23812677282779671 -0.34579504452205923 0 0.22051481377264559 -0.354380543886755 0 0.24170827130145911 -0.36851600104022741 0 0.23812677282779671 -0.34579504452205923 0 0.22051481377264559 -0.354380543886755 0 0.24170827130145911 -0.36851600104022741 0 0.22051481377264559 -0.354380543886755 0 0.23670873457410921 -0.37862547682540998 0 0.22051481377264559 -0.354380543886755 0 0.21671442970331559 -0.36952189520083739 0 0.23670873457410921 -0.37862547682540998 0 0.24170827130145911 -0.36851600104022741 0 0.22051481377264559 -0.354380543886755 0 0.22051481377264559 -0.354380543886755 0 0.23670873457410921 -0.37862547682540998 0 0.2145442295313045 -0.35406247509838012 0 0.19610549299704269 -0.35761320467495011 0 0.20223677674008531 -0.37536150164024062 0 0.2145442295313045 -0.35406247509838012 0 0.20223677674008531 -0.37536150164024062 0 0.21671442970331559 -0.36952189520083739 0 0.2145442295313045 -0.35406247509838012 0 0.20223677674008531 -0.37536150164024062 0 0.22051481377264559 -0.354380543886755 0 0.19726166297455741 -0.33887132759476052 0 0.22051481377264559 -0.354380543886755 0 0.2145442295313045 -0.35406247509838012 0 0.19726166297455741 -0.33887132759476052 0 0.22051481377264559 -0.354380543886755 0 0.21671442970331559 -0.36952189520083739 0 0.2145442295313045 -0.35406247509838012 0 0.2145442295313045 -0.35406247509838012 0 0.19610549299704269 -0.35761320467495011 0 0.19726166297455741 -0.33887132759476052 0 0.18800049553334899 -0.35067348666979081 0 0.19610549299704269 -0.35761320467495011 0 0.19726166297455741 -0.33887132759476052 0 0.18800049553334899 -0.35067348666979081 0 0.19610549299704269 -0.35761320467495011 0 0.18169290130044011 -0.36055065201636799 0 0.19610549299704269 -0.35761320467495011 0 0.18850222486442261 -0.37083334481065872 0 0.20223677674008531 -0.37536150164024062 0 0.19610549299704269 -0.35761320467495011 0 0.18850222486442261 -0.37083334481065872 0 0.18169290130044011 -0.36055065201636799 0 0.22305327423549071 -0.33520998890311388 0 0.21715792990084659 -0.31917672727185448 0 0.2038592223702686 -0.32944441498041771 0 0.20396838391790831 -0.31541686340156178 0 0.21715792990084659 -0.31917672727185448 0 0.2038592223702686 -0.32944441498041771 0 0.2076527524326254 -0.30853802527989549 0 0.20396838391790831 -0.31541686340156178 0 0.21715792990084659 -0.31917672727185448 0 0.22305327423549071 -0.33520998890311388 0 0.22051481377264559 -0.354380543886755 0 0.2038592223702686 -0.32944441498041771 0 0.22051481377264559 -0.354380543886755 0 0.2038592223702686 -0.32944441498041771 0 0.22051481377264559 -0.354380543886755 0 0.2038592223702686 -0.32944441498041771 0 0.19726166297455741 -0.33887132759476052 0 0.2038592223702686 -0.32944441498041771 0 0.19726166297455741 -0.33887132759476052 0 0.18946458957283371 -0.32686389011310341 0 0.2038592223702686 -0.32944441498041771 0 0.18946458957283371 -0.32686389011310341 0 0.19011791489938501 -0.32059219805621608 0 0.20396838391790831 -0.31541686340156178 0 0.2038592223702686 -0.32944441498041771 0 0.1872036309678928 -0.30450828607407959 0 0.2038592223702686 -0.32944441498041771 0 0.19011791489938501 -0.32059219805621608 0 0.1872036309678928 -0.30450828607407959 0 0.2038592223702686 -0.32944441498041771 0 0.1872036309678928 -0.30450828607407959 0 0.18946458957283371 -0.32686389011310341 0 0.19011791489938501 -0.32059219805621608 0 0.18343459098095011 -0.32171141587599461 0 0.19011791489938501 -0.32059219805621608 0 0.1801473472751117 -0.31602746403189369 0 0.18343459098095011 -0.32171141587599461 0 0.19011791489938501 -0.32059219805621608 0 0.1801473472751117 -0.31602746403189369 0 0.1872036309678928 -0.30450828607407959 0 0.1801473472751117 -0.31602746403189369 0 0.1740085121764697 -0.32336211130276538 0 0.16624449121000939 -0.313691507573988 0 0.1801473472751117 -0.31602746403189369 0 0.1740085121764697 -0.32336211130276538 0 0.18343459098095011 -0.32171141587599461 0 0.18946458957283371 -0.32686389011310341 0 0.1740085121764697 -0.32336211130276538 0 0.18343459098095011 -0.32171141587599461 0 0.19726166297455741 -0.33887132759476052 0 0.1740085121764697 -0.32336211130276538 0 0.19726166297455741 -0.33887132759476052 0 0.18946458957283371 -0.32686389011310341 0 0.1740085121764697 -0.32336211130276538 0 0.19726166297455741 -0.33887132759476052 0 0.1740085121764697 -0.32336211130276538 0 0.17084668282717949 -0.33444376436359807 0 0.19726166297455741 -0.33887132759476052 0 0.17084668282717949 -0.33444376436359807 0 0.1769419248613559 -0.34565876239308452 0 0.17084668282717949 -0.33444376436359807 0 0.1579746676120877 -0.33844373838875669 0 0.1769419248613559 -0.34565876239308452 0 0.17084668282717949 -0.33444376436359807 0 0.1579746676120877 -0.33844373838875669 0 0.16287194105557451 -0.32656317014060099 0 0.16287194105557451 -0.32656317014060099 0 0.16624449121000939 -0.313691507573988 0 0.14528535145212601 -0.3228747290738968 0 0.1740085121764697 -0.32336211130276538 0 0.16287194105557451 -0.32656317014060099 0 0.16624449121000939 -0.313691507573988 0 0.1740085121764697 -0.32336211130276538 0 0.17084668282717949 -0.33444376436359807 0 0.16287194105557451 -0.32656317014060099 0 0.18850222486442261 -0.37083334481065872 0 0.18169290130044011 -0.36055065201636799 0 0.17566325228533769 -0.37771211281408068 0 0.18169290130044011 -0.36055065201636799 0 0.16476591200055099 -0.36143087792073608 0 0.17566325228533769 -0.37771211281408068 0 0.18169290130044011 -0.36055065201636799 0 0.1769419248613559 -0.34565876239308452 0 0.16476591200055099 -0.36143087792073608 0 0.18800049553334899 -0.35067348666979081 0 0.19726166297455741 -0.33887132759476052 0 0.1769419248613559 -0.34565876239308452 0 0.18800049553334899 -0.35067348666979081 0 0.18169290130044011 -0.36055065201636799 0 0.1769419248613559 -0.34565876239308452 0 0.1579746676120877 -0.33844373838875669 0 0.1769419248613559 -0.34565876239308452 0 0.16476591200055099 -0.36143087792073608 0 0.16476591200055099 -0.36143087792073608 0 0.17566325228533769 -0.37771211281408068 0 0.16064821501244969 -0.38160022960319528 0 0.16476591200055099 -0.36143087792073608 0 0.14708381304481141 -0.36811750004093857 0 0.16064821501244969 -0.38160022960319528 0 0.14708381304481141 -0.36811750004093857 0 0.14310340874650751 -0.35116913907698971 0 0.1340546722423305 -0.36362250164351873 0 0.16476591200055099 -0.36143087792073608 0 0.14708381304481141 -0.36811750004093857 0 0.14310340874650751 -0.35116913907698971 0 0.1579746676120877 -0.33844373838875669 0 0.16476591200055099 -0.36143087792073608 0 0.14310340874650751 -0.35116913907698971 0 0.14310340874650751 -0.35116913907698971 0 0.13814505060406329 -0.3371351449365903 0 0.11787172207594671 -0.35404558409213099 0 0.14310340874650751 -0.35116913907698971 0 0.1340546722423305 -0.36362250164351873 0 0.11787172207594671 -0.35404558409213099 0 0.1340546722423305 -0.36362250164351873 0 0.1281597451020563 -0.38115778336401568 0 0.11787172207594671 -0.35404558409213099 0 0.14708381304481141 -0.36811750004093857 0 0.1340546722423305 -0.36362250164351873 0 0.1281597451020563 -0.38115778336401568 0 0.16624449121000939 -0.313691507573988 0 0.14528535145212601 -0.3228747290738968 0 0.15600928873626829 -0.30488595851687977 0 0.16624449121000939 -0.313691507573988 0 0.14528535145212601 -0.3228747290738968 0 0.1579746676120877 -0.33844373838875669 0 0.14310340874650751 -0.35116913907698971 0 0.13814505060406329 -0.3371351449365903 0 0.1579746676120877 -0.33844373838875669 0 0.16287194105557451 -0.32656317014060099 0 0.14528535145212601 -0.3228747290738968 0 0.1579746676120877 -0.33844373838875669 0 0.14528535145212601 -0.3228747290738968 0 0.13814505060406329 -0.3371351449365903 0 0.14528535145212601 -0.3228747290738968 0 0.13814505060406329 -0.3371351449365903 0 0.1243262116942427 -0.33205795057380549 0 0.13814505060406329 -0.3371351449365903 0 0.1243262116942427 -0.33205795057380549 0 0.11787172207594671 -0.35404558409213099 0 0.14528535145212601 -0.3228747290738968 0 0.1243262116942427 -0.33205795057380549 0 0.14528535145212601 -0.3228747290738968 0 0.12642119591326259 -0.30901513411978632 0 0.1243262116942427 -0.33205795057380549 0 0.14528535145212601 -0.3228747290738968 0 0.12642119591326259 -0.30901513411978632 0 0.1417328999497251 -0.30462507190237331 0 0.12642119591326259 -0.30901513411978632 0 0.1417328999497251 -0.30462507190237331 0 0.13508701183200689 -0.29197957117870571 0 0.14528535145212601 -0.3228747290738968 0 0.1417328999497251 -0.30462507190237331 0 0.15600928873626829 -0.30488595851687977 0 0.1417328999497251 -0.30462507190237331 0 0.14984738564292591 -0.29498976961013329 0 0.13508701183200689 -0.29197957117870571 0 0.1417328999497251 -0.30462507190237331 0 0.15600928873626829 -0.30488595851687977 0 0.14984738564292591 -0.29498976961013329 0 0.14984738564292591 -0.29498976961013329 0 0.13508701183200689 -0.29197957117870571 0 0.15185155798713029 -0.2798214517088996 0 0.14984738564292591 -0.29498976961013329 0 0.15185155798713029 -0.2798214517088996 0 0.16455616970949899 -0.29363679474380799 0 0.13508701183200689 -0.29197957117870571 0 0.12936800559182801 -0.27235718855874019 0 0.15185155798713029 -0.2798214517088996 0 0.12936800559182801 -0.27235718855874019 0 0.15357400750707581 -0.26113889521412309 0 0.13475341233392191 -0.24985250807845871 0 0.12936800559182801 -0.27235718855874019 0 0.1162321014502215 -0.25452752110021859 0 0.13475341233392191 -0.24985250807845871 0 0.15357400750707581 -0.26113889521412309 0 0.1557025531150017 -0.2413313336981292 0 0.13475341233392191 -0.24985250807845871 0 0.12936800559182801 -0.27235718855874019 0 0.15357400750707581 -0.26113889521412309 0 0.15185155798713029 -0.2798214517088996 0 0.15357400750707581 -0.26113889521412309 0 0.15185155798713029 -0.2798214517088996 0 0.1685908476252411 -0.27549950142870988 0 0.15357400750707581 -0.26113889521412309 0 0.1786538332685523 -0.25460290197261742 0 0.1557025531150017 -0.2413313336981292 0 0.15357400750707581 -0.26113889521412309 0 0.1685908476252411 -0.27549950142870988 0 0.1786538332685523 -0.25460290197261742 0 0.1685908476252411 -0.27549950142870988 0 0.18617355488529971 -0.27574024348564791 0 0.1767359623938897 -0.28805672144716421 0 0.1685908476252411 -0.27549950142870988 0 0.1786538332685523 -0.25460290197261742 0 0.18617355488529971 -0.27574024348564791 0 0.1878085464534032 -0.28860141635661651 0 0.18617355488529971 -0.27574024348564791 0 0.1767359623938897 -0.28805672144716421 0 0.1767359623938897 -0.28805672144716421 0 0.17503849261423551 -0.29613207522837531 0 0.16455616970949899 -0.29363679474380799 0 0.1767359623938897 -0.28805672144716421 0 0.17503849261423551 -0.29613207522837531 0 0.18338607500088641 -0.29879278397027731 0 0.18907724088750361 -0.29628162746642173 0 0.1878085464534032 -0.28860141635661651 0 0.18338607500088641 -0.29879278397027731 0 0.1878085464534032 -0.28860141635661651 0 0.1767359623938897 -0.28805672144716421 0 0.18338607500088641 -0.29879278397027731 0 0.18907724088750361 -0.29628162746642173 0 0.1872036309678928 -0.30450828607407959 0 0.18338607500088641 -0.29879278397027731 0 0.16624449121000939 -0.313691507573988 0 0.1872036309678928 -0.30450828607407959 0 0.1872036309678928 -0.30450828607407959 0 0.18338607500088641 -0.29879278397027731 0 0.17237924947348041 -0.3034393906012558 0 0.1801473472751117 -0.31602746403189369 0 0.16624449121000939 -0.313691507573988 0 0.1872036309678928 -0.30450828607407959 0 0.16624449121000939 -0.313691507573988 0 0.1872036309678928 -0.30450828607407959 0 0.17237924947348041 -0.3034393906012558 0 0.1872036309678928 -0.30450828607407959 0 0.18338607500088641 -0.29879278397027731 0 0.17503849261423551 -0.29613207522837531 0 0.18338607500088641 -0.29879278397027731 0 0.17237924947348041 -0.3034393906012558 0 0.16624449121000939 -0.313691507573988 0 0.15600928873626829 -0.30488595851687977 0 0.17237924947348041 -0.3034393906012558 0 0.15600928873626829 -0.30488595851687977 0 0.17237924947348041 -0.3034393906012558 0 0.16455616970949899 -0.29363679474380799 0 0.17503849261423551 -0.29613207522837531 0 0.17237924947348041 -0.3034393906012558 0 0.16455616970949899 -0.29363679474380799 0 0.15600928873626829 -0.30488595851687977 0 0.14984738564292591 -0.29498976961013329 0 0.16455616970949899 -0.29363679474380799 0 0.1685908476252411 -0.27549950142870988 0 0.1767359623938897 -0.28805672144716421 0 0.16455616970949899 -0.29363679474380799 0 0.15185155798713029 -0.2798214517088996 0 0.1685908476252411 -0.27549950142870988 0 0.16455616970949899 -0.29363679474380799 0 0.18809037809979001 -0.5 0 0.20038039862023599 -0.48291914820849002 0 0.18222678381117521 -0.48279505628326641 0 0.18809037809979001 -0.5 0 0.20038039862023599 -0.48291914820849002 0 0.21413447760444029 -0.5 0 0.20038039862023599 -0.48291914820849002 0 0.1868186143285987 -0.46613018820261132 0 0.18222678381117521 -0.48279505628326641 0 0.20038039862023599 -0.48291914820849002 0 0.20570137835005209 -0.46076033295649232 0 0.1868186143285987 -0.46613018820261132 0 0.20038039862023599 -0.48291914820849002 0 0.21935477369884451 -0.4738211708127838 0 0.20570137835005209 -0.46076033295649232 0 0.20038039862023599 -0.48291914820849002 0 0.21413447760444029 -0.5 0 0.21935477369884451 -0.4738211708127838 0 0.21413447760444029 -0.5 0 0.24017857710909041 -0.5 0 0.23456602300140131 -0.48244156266282823 0 0.21413447760444029 -0.5 0 0.23456602300140131 -0.48244156266282823 0 0.21935477369884451 -0.4738211708127838 0 0.25704613436640061 -0.47851187754702579 0 0.24017857710909041 -0.5 0 0.23456602300140131 -0.48244156266282823 0 0.25704613436640061 -0.47851187754702579 0 0.23456602300140131 -0.48244156266282823 0 0.24211615222823071 -0.45987476495433138 0 0.23456602300140131 -0.48244156266282823 0 0.21935477369884451 -0.4738211708127838 0 0.24211615222823071 -0.45987476495433138 0 0.21935477369884451 -0.4738211708127838 0 0.24211615222823071 -0.45987476495433138 0 0.22014413388641679 -0.45183767530244179 0 0.24211615222823071 -0.45987476495433138 0 0.24472284787994869 -0.44485666861058237 0 0.23251075997647891 -0.44099317432663571 0 0.25818984504014392 -0.43773795357143519 0 0.24472284787994869 -0.44485666861058237 0 0.2458814731527304 -0.43245118805556382 0 0.24472284787994869 -0.44485666861058237 0 0.23251075997647891 -0.44099317432663571 0 0.2458814731527304 -0.43245118805556382 0 0.24211615222823071 -0.45987476495433138 0 0.23251075997647891 -0.44099317432663571 0 0.22014413388641679 -0.45183767530244179 0 0.23251075997647891 -0.44099317432663571 0 0.22014413388641679 -0.45183767530244179 0 0.2215018063572394 -0.43756147612299612 0 0.22014413388641679 -0.45183767530244179 0 0.20539009081672979 -0.44052811493967381 0 0.20570137835005209 -0.46076033295649232 0 0.22014413388641679 -0.45183767530244179 0 0.2215018063572394 -0.43756147612299612 0 0.20539009081672979 -0.44052811493967381 0 0.21935477369884451 -0.4738211708127838 0 0.22014413388641679 -0.45183767530244179 0 0.20570137835005209 -0.46076033295649232 0 0.20570137835005209 -0.46076033295649232 0 0.18455113115686969 -0.44571606751776133 0 0.1868186143285987 -0.46613018820261132 0 0.20539009081672979 -0.44052811493967381 0 0.20570137835005209 -0.46076033295649232 0 0.18455113115686969 -0.44571606751776133 0 0.20539009081672979 -0.44052811493967381 0 0.1912054511972808 -0.42639814596127051 0 0.18455113115686969 -0.44571606751776133 0 0.1912054511972808 -0.42639814596127051 0 0.2107740210963007 -0.42447923593245579 0 0.1912054511972808 -0.42639814596127051 0 0.19419794612697311 -0.42121939532820762 0 0.2107740210963007 -0.42447923593245579 0 0.20539009081672979 -0.44052811493967381 0 0.1912054511972808 -0.42639814596127051 0 0.2107740210963007 -0.42447923593245579 0 0.19419794612697311 -0.42121939532820762 0 0.2107740210963007 -0.42447923593245579 0 0.19419794612697311 -0.42121939532820762 0 0.2037759855817606 -0.41195349406997528 0 0.2107740210963007 -0.42447923593245579 0 0.1912054511972808 -0.42639814596127051 0 0.19419794612697311 -0.42121939532820762 0 0.1776218711576453 -0.41795955472396051 0 0.1905128901329691 -0.40931664649905869 0 0.19620190653906111 -0.40965489231799501 0 0.19461340289229981 -0.40108886194303012 0 0.19419794612697311 -0.42121939532820762 0 0.1905128901329691 -0.40931664649905869 0 0.19620190653906111 -0.40965489231799501 0 0.19620190653906111 -0.40965489231799501 0 0.2037759855817606 -0.41195349406997528 0 0.19461340289229981 -0.40108886194303012 0 0.19419794612697311 -0.42121939532820762 0 0.19620190653906111 -0.40965489231799501 0 0.2037759855817606 -0.41195349406997528 0 0.2037759855817606 -0.41195349406997528 0 0.2107740210963007 -0.42447923593245579 0 0.22309265125416811 -0.40332508482818807 0 0.2215018063572394 -0.43756147612299612 0 0.20539009081672979 -0.44052811493967381 0 0.2107740210963007 -0.42447923593245579 0 0.2107740210963007 -0.42447923593245579 0 0.2386900260102707 -0.429969180113773 0 0.23731646036861351 -0.42187646254780581 0 0.2107740210963007 -0.42447923593245579 0 0.23731646036861351 -0.42187646254780581 0 0.2215018063572394 -0.43756147612299612 0 0.2107740210963007 -0.42447923593245579 0 0.2386900260102707 -0.429969180113773 0 0.2107740210963007 -0.42447923593245579 0 0.2386900260102707 -0.429969180113773 0 0.23251075997647891 -0.44099317432663571 0 0.2215018063572394 -0.43756147612299612 0 0.2386900260102707 -0.429969180113773 0 0.23251075997647891 -0.44099317432663571 0 0.2386900260102707 -0.429969180113773 0 0.2458814731527304 -0.43245118805556382 0 0.2638588996409259 -0.419273689163152 0 0.23731646036861351 -0.42187646254780581 0 0.2458814731527304 -0.43245118805556382 0 0.2386900260102707 -0.429969180113773 0 0.23731646036861351 -0.42187646254780581 0 0.2458814731527304 -0.43245118805556382 0 0.23731646036861351 -0.42187646254780581 0 0.24978898330324689 -0.40916651161004941 0 0.22309265125416811 -0.40332508482818807 0 0.2107740210963007 -0.42447923593245579 0 0.23731646036861351 -0.42187646254780581 0 0.22309265125416811 -0.40332508482818807 0 0.22309265125416811 -0.40332508482818807 0 0.23670873457410921 -0.37862547682540998 0 0.20968882108116921 -0.39156278165976471 0 0.22309265125416811 -0.40332508482818807 0 0.241068985204971 -0.39759556978275301 0 0.23670873457410921 -0.37862547682540998 0 0.25157189961603621 -0.40556130771334759 0 0.22309265125416811 -0.40332508482818807 0 0.25157189961603621 -0.40556130771334759 0 0.24978898330324689 -0.40916651161004941 0 0.22309265125416811 -0.40332508482818807 0 0.25157189961603621 -0.40556130771334759 0 0.22309265125416811 -0.40332508482818807 0 0.241068985204971 -0.39759556978275301 0 0.25290265537557088 -0.40287040976406652 0 0.241068985204971 -0.39759556978275301 0 0.23670873457410921 -0.37862547682540998 0 0.25290265537557088 -0.40287040976406652 0 0.23670873457410921 -0.37862547682540998 0 0.25290265537557088 -0.40287040976406652 0 0.25157189961603621 -0.40556130771334759 0 0.241068985204971 -0.39759556978275301 0 0.26290172883027341 -0.38265145819369878 0 0.24170827130145911 -0.36851600104022741 0 0.23670873457410921 -0.37862547682540998 0 0.21671442970331559 -0.36952189520083739 0 0.23670873457410921 -0.37862547682540998 0 0.20968882108116921 -0.39156278165976471 0 0.21671442970331559 -0.36952189520083739 0 0.20968882108116921 -0.39156278165976471 0 0.20223677674008531 -0.37536150164024062 0 0.2037759855817606 -0.41195349406997528 0 0.22309265125416811 -0.40332508482818807 0 0.19461340289229981 -0.40108886194303012 0 0.22309265125416811 -0.40332508482818807 0 0.20968882108116921 -0.39156278165976471 0 0.19461340289229981 -0.40108886194303012 0 0.22309265125416811 -0.40332508482818807 0 0.19461340289229981 -0.40108886194303012 0 0.20968882108116921 -0.39156278165976471 0 0.19461340289229981 -0.40108886194303012 0 0.18992932394886619 -0.39666052818210112 0 0.1905128901329691 -0.40931664649905869 0 0.19461340289229981 -0.40108886194303012 0 0.18992932394886619 -0.39666052818210112 0 0.20968882108116921 -0.39156278165976471 0 0.18992932394886619 -0.39666052818210112 0 0.20223677674008531 -0.37536150164024062 0 0.18992932394886619 -0.39666052818210112 0 0.20223677674008531 -0.37536150164024062 0 0.18992932394886619 -0.39666052818210112 0 0.20223677674008531 -0.37536150164024062 0 0.18681270099920699 -0.38292925290765389 0 0.18850222486442261 -0.37083334481065872 0 0.20223677674008531 -0.37536150164024062 0 0.18681270099920699 -0.38292925290765389 0 0.17566325228533769 -0.37771211281408068 0 0.1782493912946515 -0.3917726910587877 0 0.17012614292664549 -0.38687820672220707 0 0.18850222486442261 -0.37083334481065872 0 0.17566325228533769 -0.37771211281408068 0 0.18681270099920699 -0.38292925290765389 0 0.18992932394886619 -0.39666052818210112 0 0.18681270099920699 -0.38292925290765389 0 0.1782493912946515 -0.3917726910587877 0 0.17566325228533769 -0.37771211281408068 0 0.18681270099920699 -0.38292925290765389 0 0.1782493912946515 -0.3917726910587877 0 0.18992932394886619 -0.39666052818210112 0 0.17585869821371461 -0.40262021010515608 0 0.1782493912946515 -0.3917726910587877 0 0.18992932394886619 -0.39666052818210112 0 0.17585869821371461 -0.40262021010515608 0 0.1776218711576453 -0.41795955472396051 0 0.17585869821371461 -0.40262021010515608 0 0.1782493912946515 -0.3917726910587877 0 0.16594371311414291 -0.39642779341276491 0 0.16594371311414291 -0.39642779341276491 0 0.16064821501244969 -0.38160022960319528 0 0.14963988802522121 -0.39513145996045912 0 0.1782493912946515 -0.3917726910587877 0 0.16594371311414291 -0.39642779341276491 0 0.17012614292664549 -0.38687820672220707 0 0.16594371311414291 -0.39642779341276491 0 0.15776078216829489 -0.40293835279402729 0 0.14963988802522121 -0.39513145996045912 0 0.17585869821371461 -0.40262021010515608 0 0.16594371311414291 -0.39642779341276491 0 0.1659592332838444 -0.40776497492079672 0 0.16594371311414291 -0.39642779341276491 0 0.15776078216829489 -0.40293835279402729 0 0.1659592332838444 -0.40776497492079672 0 0.16594371311414291 -0.39642779341276491 0 0.17012614292664549 -0.38687820672220707 0 0.16064821501244969 -0.38160022960319528 0 0.17566325228533769 -0.37771211281408068 0 0.17012614292664549 -0.38687820672220707 0 0.16064821501244969 -0.38160022960319528 0 0.14708381304481141 -0.36811750004093857 0 0.16064821501244969 -0.38160022960319528 0 0.1463829152961347 -0.38150174324215208 0 0.1463829152961347 -0.38150174324215208 0 0.1281597451020563 -0.38115778336401568 0 0.14963988802522121 -0.39513145996045912 0 0.16064821501244969 -0.38160022960319528 0 0.1463829152961347 -0.38150174324215208 0 0.14963988802522121 -0.39513145996045912 0 0.14708381304481141 -0.36811750004093857 0 0.1463829152961347 -0.38150174324215208 0 0.1281597451020563 -0.38115778336401568 0 0.1281597451020563 -0.38115778336401568 0 0.13844776812816589 -0.4082699826359002 0 0.1213787173422964 -0.40689881104021719 0 0.1281597451020563 -0.38115778336401568 0 0.14963988802522121 -0.39513145996045912 0 0.13844776812816589 -0.4082699826359002 0 0.1281597451020563 -0.38115778336401568 0 0.13844776812816589 -0.4082699826359002 0 0.14963988802522121 -0.39513145996045912 0 0.14950029424997099 -0.41242918288208852 0 0.13844776812816589 -0.4082699826359002 0 0.15776078216829489 -0.40293835279402729 0 0.14963988802522121 -0.39513145996045912 0 0.14950029424997099 -0.41242918288208852 0 0.14950029424997099 -0.41242918288208852 0 0.15120007909530961 -0.42300577268584588 0 0.15718442722000359 -0.42800128466806059 0 0.14950029424997099 -0.41242918288208852 0 0.14145616510733119 -0.421806866014108 0 0.15120007909530961 -0.42300577268584588 0 0.14950029424997099 -0.41242918288208852 0 0.13844776812816589 -0.4082699826359002 0 0.1213787173422964 -0.40689881104021719 0 0.14950029424997099 -0.41242918288208852 0 0.1307011521678621 -0.41761428033347592 0 0.1213787173422964 -0.40689881104021719 0 0.14950029424997099 -0.41242918288208852 0 0.1213787173422964 -0.40689881104021719 0 0.14950029424997099 -0.41242918288208852 0 0.14145616510733119 -0.421806866014108 0 0.1307011521678621 -0.41761428033347592 0 0.14145616510733119 -0.421806866014108 0 0.1307011521678621 -0.41761428033347592 0 0.12240586545517421 -0.42840982192807592 0 0.14145616510733119 -0.421806866014108 0 0.13000749780347531 -0.43239926751058583 0 0.12240586545517421 -0.42840982192807592 0 0.14145616510733119 -0.421806866014108 0 0.12240586545517421 -0.42840982192807592 0 0.13000749780347531 -0.43239926751058583 0 0.15665942980393291 -0.42978575717912659 0 0.13000749780347531 -0.43239926751058583 0 0.15665942980393291 -0.42978575717912659 0 0.14212561689627659 -0.44048565231620218 0 0.14145616510733119 -0.421806866014108 0 0.13000749780347531 -0.43239926751058583 0 0.15665942980393291 -0.42978575717912659 0 0.14145616510733119 -0.421806866014108 0 0.15120007909530961 -0.42300577268584588 0 0.15665942980393291 -0.42978575717912659 0 0.15120007909530961 -0.42300577268584588 0 0.15665942980393291 -0.42978575717912659 0 0.15718442722000359 -0.42800128466806059 0 0.17163688129826099 -0.42831705599008579 0 0.15718442722000359 -0.42800128466806059 0 0.1776218711576453 -0.41795955472396051 0 0.15665942980393291 -0.42978575717912659 0 0.17163688129826099 -0.42831705599008579 0 0.16336205815939719 -0.44263729598236251 0 0.17163688129826099 -0.42831705599008579 0 0.16336205815939719 -0.44263729598236251 0 0.15665942980393291 -0.42978575717912659 0 0.17163688129826099 -0.42831705599008579 0 0.15665942980393291 -0.42978575717912659 0 0.17163688129826099 -0.42831705599008579 0 0.15718442722000359 -0.42800128466806059 0 0.15665942980393291 -0.42978575717912659 0 0.15718442722000359 -0.42800128466806059 0 0.14950029424997099 -0.41242918288208852 0 0.15718442722000359 -0.42800128466806059 0 0.1776218711576453 -0.41795955472396051 0 0.14950029424997099 -0.41242918288208852 0 0.1776218711576453 -0.41795955472396051 0 0.14950029424997099 -0.41242918288208852 0 0.1659592332838444 -0.40776497492079672 0 0.1776218711576453 -0.41795955472396051 0 0.15776078216829489 -0.40293835279402729 0 0.14950029424997099 -0.41242918288208852 0 0.1659592332838444 -0.40776497492079672 0 0.19419794612697311 -0.42121939532820762 0 0.1776218711576453 -0.41795955472396051 0 0.1905128901329691 -0.40931664649905869 0 0.18992932394886619 -0.39666052818210112 0 0.1776218711576453 -0.41795955472396051 0 0.18992932394886619 -0.39666052818210112 0 0.1776218711576453 -0.41795955472396051 0 0.19419794612697311 -0.42121939532820762 0 0.1905128901329691 -0.40931664649905869 0 0.1776218711576453 -0.41795955472396051 0 0.17585869821371461 -0.40262021010515608 0 0.1659592332838444 -0.40776497492079672 0 0.1776218711576453 -0.41795955472396051 0 0.1912054511972808 -0.42639814596127051 0 0.17163688129826099 -0.42831705599008579 0 0.1776218711576453 -0.41795955472396051 0 0.1912054511972808 -0.42639814596127051 0 0.17163688129826099 -0.42831705599008579 0 0.18455113115686969 -0.44571606751776133 0 0.1912054511972808 -0.42639814596127051 0 0.17163688129826099 -0.42831705599008579 0 0.17163688129826099 -0.42831705599008579 0 0.1776218711576453 -0.41795955472396051 0 0.17163688129826099 -0.42831705599008579 0 0.17206908862532791 -0.44728440026772959 0 0.18455113115686969 -0.44571606751776133 0 0.17206908862532791 -0.44728440026772959 0 0.18455113115686969 -0.44571606751776133 0 0.1741918851623763 -0.45758911975649758 0 0.18455113115686969 -0.44571606751776133 0 0.1868186143285987 -0.46613018820261132 0 0.1741918851623763 -0.45758911975649758 0 0.1868186143285987 -0.46613018820261132 0 0.1741918851623763 -0.45758911975649758 0 0.17447668822239371 -0.4696823882969422 0 0.1741918851623763 -0.45758911975649758 0 0.16562634220448089 -0.45401871040729341 0 0.1634214440547701 -0.46562520005523828 0 0.1741918851623763 -0.45758911975649758 0 0.1634214440547701 -0.46562520005523828 0 0.17447668822239371 -0.4696823882969422 0 0.16562634220448089 -0.45401871040729341 0 0.1634214440547701 -0.46562520005523828 0 0.15508723502053301 -0.45695753597463901 0 0.17163688129826099 -0.42831705599008579 0 0.17206908862532791 -0.44728440026772959 0 0.16336205815939719 -0.44263729598236251 0 0.16562634220448089 -0.45401871040729341 0 0.16336205815939719 -0.44263729598236251 0 0.15508723502053301 -0.45695753597463901 0 0.16336205815939719 -0.44263729598236251 0 0.15508723502053301 -0.45695753597463901 0 0.15665942980393291 -0.42978575717912659 0 0.16336205815939719 -0.44263729598236251 0 0.14977367956611831 -0.45319050478608452 0 0.17206908862532791 -0.44728440026772959 0 0.16562634220448089 -0.45401871040729341 0 0.16336205815939719 -0.44263729598236251 0 0.17206908862532791 -0.44728440026772959 0 0.1741918851623763 -0.45758911975649758 0 0.16562634220448089 -0.45401871040729341 0 0.14212561689627659 -0.44048565231620218 0 0.13206186041158 -0.44656707978901222 0 0.14977367956611831 -0.45319050478608452 0 0.15665942980393291 -0.42978575717912659 0 0.14212561689627659 -0.44048565231620218 0 0.14977367956611831 -0.45319050478608452 0 0.15665942980393291 -0.42978575717912659 0 0.14977367956611831 -0.45319050478608452 0 0.16336205815939719 -0.44263729598236251 0 0.14977367956611831 -0.45319050478608452 0 0.15508723502053301 -0.45695753597463901 0 0.13000749780347531 -0.43239926751058583 0 0.14212561689627659 -0.44048565231620218 0 0.13206186041158 -0.44656707978901222 0 0.13000749780347531 -0.43239926751058583 0 0.13206186041158 -0.44656707978901222 0 0.1207788002162412 -0.44175673465770321 0 0.13493618354559911 -0.46013899705815031 0 0.1231504629112728 -0.46814422870400291 0 0.1176902768468923 -0.45304781348917073 0 0.13493618354559911 -0.46013899705815031 0 0.14288792932830391 -0.47659525239304218 0 0.1231504629112728 -0.46814422870400291 0 0.13206186041158 -0.44656707978901222 0 0.13493618354559911 -0.46013899705815031 0 0.14977367956611831 -0.45319050478608452 0 0.13206186041158 -0.44656707978901222 0 0.13493618354559911 -0.46013899705815031 0 0.1176902768468923 -0.45304781348917073 0 0.1634214440547701 -0.46562520005523828 0 0.15508723502053301 -0.45695753597463901 0 0.14288792932830391 -0.47659525239304218 0 0.13493618354559911 -0.46013899705815031 0 0.14977367956611831 -0.45319050478608452 0 0.14288792932830391 -0.47659525239304218 0 0.14977367956611831 -0.45319050478608452 0 0.15508723502053301 -0.45695753597463901 0 0.14288792932830391 -0.47659525239304218 0 0.14977367956611831 -0.45319050478608452 0 0.14288792932830391 -0.47659525239304218 0 0.14288792932830391 -0.47659525239304218 0 0.1184084192877506 -0.48240790924173738 0 0.1231504629112728 -0.46814422870400291 0 0.14288792932830391 -0.47659525239304218 0 0.13600217909048939 -0.50000000000000011 0 0.14288792932830391 -0.47659525239304218 0 0.13600217909048939 -0.50000000000000011 0 0.1184084192877506 -0.48240790924173738 0 0.14288792932830391 -0.47659525239304218 0 0.13600217909048939 -0.50000000000000011 0 0.16204627859513959 -0.5 0 0.14288792932830391 -0.47659525239304218 0 0.16204627859513959 -0.5 0 0.16524791953451781 -0.47870298167254499 0 0.16204627859513959 -0.5 0 0.16524791953451781 -0.47870298167254499 0 0.18222678381117521 -0.48279505628326641 0 0.1634214440547701 -0.46562520005523828 0 0.14288792932830391 -0.47659525239304218 0 0.16524791953451781 -0.47870298167254499 0 0.1634214440547701 -0.46562520005523828 0 0.16524791953451781 -0.47870298167254499 0 0.17447668822239371 -0.4696823882969422 0 0.16524791953451781 -0.47870298167254499 0 0.18222678381117521 -0.48279505628326641 0 0.17447668822239371 -0.4696823882969422 0 0.1868186143285987 -0.46613018820261132 0 0.18222678381117521 -0.48279505628326641 0 0.17447668822239371 -0.4696823882969422 0 0.18809037809979001 -0.5 0 0.16204627859513959 -0.5 0 0.18222678381117521 -0.48279505628326641 0 0.067898745638923785 -0.48049136652368418 0 0.08290382813878705 -0.5 0 0.056354652662935822 -0.5 0 0.067898745638923785 -0.48049136652368418 0 0.094050710837207563 -0.4823657949190901 0 0.085710077100291812 -0.46342059452150491 0 0.067898745638923785 -0.48049136652368418 0 0.08290382813878705 -0.5 0 0.094050710837207563 -0.4823657949190901 0 0.08290382813878705 -0.5 0 0.10945300361463819 -0.5 0 0.094050710837207563 -0.4823657949190901 0 0.10945300361463819 -0.5 0 0.1184084192877506 -0.48240790924173738 0 0.094050710837207563 -0.4823657949190901 0 0.13600217909048939 -0.50000000000000011 0 0.10945300361463819 -0.5 0 0.1184084192877506 -0.48240790924173738 0 0.1184084192877506 -0.48240790924173738 0 0.10490622994459201 -0.46734217943428957 0 0.1231504629112728 -0.46814422870400291 0 0.094050710837207563 -0.4823657949190901 0 0.10490622994459201 -0.46734217943428957 0 0.085710077100291812 -0.46342059452150491 0 0.1184084192877506 -0.48240790924173738 0 0.094050710837207563 -0.4823657949190901 0 0.10490622994459201 -0.46734217943428957 0 0.10490622994459201 -0.46734217943428957 0 0.1176902768468923 -0.45304781348917073 0 0.099309908031927741 -0.45155660189971752 0 0.10490622994459201 -0.46734217943428957 0 0.099309908031927741 -0.45155660189971752 0 0.085710077100291812 -0.46342059452150491 0 0.10490622994459201 -0.46734217943428957 0 0.1231504629112728 -0.46814422870400291 0 0.1176902768468923 -0.45304781348917073 0 0.1207788002162412 -0.44175673465770321 0 0.1176902768468923 -0.45304781348917073 0 0.1033555658030174 -0.43501277784204412 0 0.13206186041158 -0.44656707978901222 0 0.1207788002162412 -0.44175673465770321 0 0.1176902768468923 -0.45304781348917073 0 0.1176902768468923 -0.45304781348917073 0 0.099309908031927741 -0.45155660189971752 0 0.1033555658030174 -0.43501277784204412 0 0.085893662653112685 -0.44106518535153649 0 0.1033555658030174 -0.43501277784204412 0 0.099309908031927741 -0.45155660189971752 0 0.085893662653112685 -0.44106518535153649 0 0.1033555658030174 -0.43501277784204412 0 0.085893662653112685 -0.44106518535153649 0 0.079625305612804148 -0.43733978663728879 0 0.1033555658030174 -0.43501277784204412 0 0.085893662653112685 -0.44106518535153649 0 0.079605480680394747 -0.45282874724441469 0 0.088167163498292012 -0.45165950940630523 0 0.099309908031927741 -0.45155660189971752 0 0.085893662653112685 -0.44106518535153649 0 0.088167163498292012 -0.45165950940630523 0 0.099309908031927741 -0.45155660189971752 0 0.088167163498292012 -0.45165950940630523 0 0.085710077100291812 -0.46342059452150491 0 0.079605480680394747 -0.45282874724441469 0 0.088167163498292012 -0.45165950940630523 0 0.085710077100291812 -0.46342059452150491 0 0.079605480680394747 -0.45282874724441469 0 0.068481287192418555 -0.46227653620166798 0 0.068431759503208012 -0.44711759286102898 0 0.067898745638923785 -0.48049136652368418 0 0.085710077100291812 -0.46342059452150491 0 0.068481287192418555 -0.46227653620166798 0 0.079605480680394747 -0.45282874724441469 0 0.085710077100291812 -0.46342059452150491 0 0.068481287192418555 -0.46227653620166798 0 0.068481287192418555 -0.46227653620166798 0 0.068431759503208012 -0.44711759286102898 0 0.056977746870917001 -0.45290899183861438 0 0.085893662653112685 -0.44106518535153649 0 0.068431759503208012 -0.44711759286102898 0 0.079625305612804148 -0.43733978663728879 0 0.085893662653112685 -0.44106518535153649 0 0.068431759503208012 -0.44711759286102898 0 0.085893662653112685 -0.44106518535153649 0 0.079605480680394747 -0.45282874724441469 0 0.068431759503208012 -0.44711759286102898 0 0.079625305612804148 -0.43733978663728879 0 0.055895045422590918 -0.43966679543253329 0 0.068431759503208012 -0.44711759286102898 0 0.079625305612804148 -0.43733978663728879 0 0.055895045422590918 -0.43966679543253329 0 0.069634147641787103 -0.43137516427331463 0 0.064608537141081168 -0.4236178432623664 0 0.055895045422590918 -0.43966679543253329 0 0.069634147641787103 -0.43137516427331463 0 0.079625305612804148 -0.43733978663728879 0 0.055895045422590918 -0.43966679543253329 0 0.069634147641787103 -0.43137516427331463 0 0.064608537141081168 -0.4236178432623664 0 0.078407702390672199 -0.4248762317610697 0 0.069634147641787103 -0.43137516427331463 0 0.078407702390672199 -0.4248762317610697 0 0.079625305612804148 -0.43733978663728879 0 0.064608537141081168 -0.4236178432623664 0 0.075464859328515155 -0.4059559435455854 0 0.056369794641065729 -0.41269887955685292 0 0.064608537141081168 -0.4236178432623664 0 0.078407702390672199 -0.4248762317610697 0 0.075464859328515155 -0.4059559435455854 0 0.091848927109479866 -0.4200936481411216 0 0.097839349364797101 -0.40591346807229622 0 0.075464859328515155 -0.4059559435455854 0 0.091848927109479866 -0.4200936481411216 0 0.078407702390672199 -0.4248762317610697 0 0.075464859328515155 -0.4059559435455854 0 0.091848927109479866 -0.4200936481411216 0 0.088309375228993403 -0.42933061109538112 0 0.078407702390672199 -0.4248762317610697 0 0.088309375228993403 -0.42933061109538112 0 0.079625305612804148 -0.43733978663728879 0 0.1033555658030174 -0.43501277784204412 0 0.079625305612804148 -0.43733978663728879 0 0.1033555658030174 -0.43501277784204412 0 0.088309375228993403 -0.42933061109538112 0 0.078407702390672199 -0.4248762317610697 0 0.079625305612804148 -0.43733978663728879 0 0.091848927109479866 -0.4200936481411216 0 0.1033555658030174 -0.43501277784204412 0 0.1086102483546028 -0.41861116289019829 0 0.091848927109479866 -0.4200936481411216 0 0.088309375228993403 -0.42933061109538112 0 0.1033555658030174 -0.43501277784204412 0 0.1033555658030174 -0.43501277784204412 0 0.12240586545517421 -0.42840982192807592 0 0.13000749780347531 -0.43239926751058583 0 0.1207788002162412 -0.44175673465770321 0 0.1033555658030174 -0.43501277784204412 0 0.13000749780347531 -0.43239926751058583 0 0.1033555658030174 -0.43501277784204412 0 0.12240586545517421 -0.42840982192807592 0 0.1033555658030174 -0.43501277784204412 0 0.12240586545517421 -0.42840982192807592 0 0.1086102483546028 -0.41861116289019829 0 0.13000749780347531 -0.43239926751058583 0 0.1033555658030174 -0.43501277784204412 0 0.1307011521678621 -0.41761428033347592 0 0.12240586545517421 -0.42840982192807592 0 0.1207739958299839 -0.41788351904799181 0 0.12240586545517421 -0.42840982192807592 0 0.1207739958299839 -0.41788351904799181 0 0.1086102483546028 -0.41861116289019829 0 0.1307011521678621 -0.41761428033347592 0 0.1213787173422964 -0.40689881104021719 0 0.1207739958299839 -0.41788351904799181 0 0.1213787173422964 -0.40689881104021719 0 0.1207739958299839 -0.41788351904799181 0 0.1086102483546028 -0.41861116289019829 0 0.1213787173422964 -0.40689881104021719 0 0.1086102483546028 -0.41861116289019829 0 0.097839349364797101 -0.40591346807229622 0 0.091848927109479866 -0.4200936481411216 0 0.1086102483546028 -0.41861116289019829 0 0.097839349364797101 -0.40591346807229622 0 0.097839349364797101 -0.40591346807229622 0 0.098763971378861379 -0.38976443816158501 0 0.085862436294045039 -0.39389399616190279 0 0.097839349364797101 -0.40591346807229622 0 0.1133574384188218 -0.39129471479617839 0 0.098763971378861379 -0.38976443816158501 0 0.1213787173422964 -0.40689881104021719 0 0.097839349364797101 -0.40591346807229622 0 0.1133574384188218 -0.39129471479617839 0 0.1281597451020563 -0.38115778336401568 0 0.1213787173422964 -0.40689881104021719 0 0.1133574384188218 -0.39129471479617839 0 0.1281597451020563 -0.38115778336401568 0 0.1133574384188218 -0.39129471479617839 0 0.10427460614818621 -0.37080403533498091 0 0.1133574384188218 -0.39129471479617839 0 0.098763971378861379 -0.38976443816158501 0 0.10427460614818621 -0.37080403533498091 0 0.098763971378861379 -0.38976443816158501 0 0.086807940835058189 -0.37966635199909982 0 0.10427460614818621 -0.37080403533498091 0 0.086807940835058189 -0.37966635199909982 0 0.085862436294045039 -0.39389399616190279 0 0.070436060562993341 -0.38816977903094779 0 0.098763971378861379 -0.38976443816158501 0 0.086807940835058189 -0.37966635199909982 0 0.085862436294045039 -0.39389399616190279 0 0.097839349364797101 -0.40591346807229622 0 0.085862436294045039 -0.39389399616190279 0 0.075464859328515155 -0.4059559435455854 0 0.075464859328515155 -0.4059559435455854 0 0.070436060562993341 -0.38816977903094779 0 0.057356190462530952 -0.39688665176014348 0 0.075464859328515155 -0.4059559435455854 0 0.057356190462530952 -0.39688665176014348 0 0.056369794641065729 -0.41269887955685292 0 0.075464859328515155 -0.4059559435455854 0 0.057356190462530952 -0.39688665176014348 0 0.085862436294045039 -0.39389399616190279 0 0.075464859328515155 -0.4059559435455854 0 0.070436060562993341 -0.38816977903094779 0 0.070436060562993341 -0.38816977903094779 0 0.057356190462530952 -0.39688665176014348 0 0.070436060562993341 -0.38816977903094779 0 0.062764569392891378 -0.37124251162150212 0 0.074591093027164365 -0.37200829716783818 0 0.086807940835058189 -0.37966635199909982 0 0.070436060562993341 -0.38816977903094779 0 0.074591093027164365 -0.37200829716783818 0 0.070436060562993341 -0.38816977903094779 0 0.053538507748874947 -0.3799221680167808 0 0.062764569392891378 -0.37124251162150212 0 0.070436060562993341 -0.38816977903094779 0 0.053538507748874947 -0.3799221680167808 0 0.057356190462530952 -0.39688665176014348 0 0.053538507748874947 -0.3799221680167808 0 0.057356190462530952 -0.39688665176014348 0 0.036165882507228388 -0.38627399506559362 0 0.057356190462530952 -0.39688665176014348 0 0.037191662475882743 -0.41032498277977952 0 0.036165882507228388 -0.38627399506559362 0 0.022746965291575501 -0.39889368359455307 0 0.037191662475882743 -0.41032498277977952 0 0.057356190462530952 -0.39688665176014348 0 0.036165882507228388 -0.38627399506559362 0 0.057356190462530952 -0.39688665176014348 0 0.036165882507228388 -0.38627399506559362 0 0.037191662475882743 -0.41032498277977952 0 0.036165882507228388 -0.38627399506559362 0 0.04195676848564947 -0.3727024963903206 0 0.02873354650264837 -0.36629896187161981 0 0.053538507748874947 -0.3799221680167808 0 0.036165882507228388 -0.38627399506559362 0 0.04195676848564947 -0.3727024963903206 0 0.036165882507228388 -0.38627399506559362 0 0.014975574551926231 -0.37566133837104287 0 0.036165882507228388 -0.38627399506559362 0 0.014975574551926231 -0.37566133837104287 0 0.02873354650264837 -0.36629896187161981 0 0.036165882507228388 -0.38627399506559362 0 0.014975574551926231 -0.37566133837104287 0 0.022746965291575501 -0.39889368359455307 0 -0.003054764863230162 -0.38327110372534579 0 0.014975574551926231 -0.37566133837104287 0 0.0043376777961855089 -0.39967183539507678 0 0.014975574551926231 -0.37566133837104287 0 0.0043376777961855089 -0.39967183539507678 0 0.022746965291575501 -0.39889368359455307 0 0.01702713448923545 -0.42376331379941679 0 0.038421678477129809 -0.43017289736809988 0 0.037191662475882743 -0.41032498277977952 0 0.022746965291575501 -0.39889368359455307 0 0.01702713448923545 -0.42376331379941679 0 0.037191662475882743 -0.41032498277977952 0 0.01702713448923545 -0.42376331379941679 0 0.037191662475882743 -0.41032498277977952 0 -0.0072811505478054747 -0.41683981000625953 0 0.0043376777961855089 -0.39967183539507678 0 0.01702713448923545 -0.42376331379941679 0 0.0043376777961855089 -0.39967183539507678 0 0.022746965291575501 -0.39889368359455307 0 0.01702713448923545 -0.42376331379941679 0 -0.0031373934974118531 -0.4372016448190541 0 0.01702713448923545 -0.42376331379941679 0 -0.0072811505478054747 -0.41683981000625953 0 -0.0031373934974118531 -0.4372016448190541 0 0.01702713448923545 -0.42376331379941679 0 0.01702713448923545 -0.42376331379941679 0 0.038421678477129809 -0.43017289736809988 0 0.027972303983064509 -0.44394256472583898 0 0.038421678477129809 -0.43017289736809988 0 0.037191662475882743 -0.41032498277977952 0 0.05309584143651222 -0.42640322475700532 0 0.057356190462530952 -0.39688665176014348 0 0.037191662475882743 -0.41032498277977952 0 0.056369794641065729 -0.41269887955685292 0 0.037191662475882743 -0.41032498277977952 0 0.056369794641065729 -0.41269887955685292 0 0.05309584143651222 -0.42640322475700532 0 0.064608537141081168 -0.4236178432623664 0 0.056369794641065729 -0.41269887955685292 0 0.05309584143651222 -0.42640322475700532 0 0.038421678477129809 -0.43017289736809988 0 0.05309584143651222 -0.42640322475700532 0 0.055895045422590918 -0.43966679543253329 0 0.064608537141081168 -0.4236178432623664 0 0.05309584143651222 -0.42640322475700532 0 0.055895045422590918 -0.43966679543253329 0 0.055895045422590918 -0.43966679543253329 0 0.056977746870917001 -0.45290899183861438 0 0.043124599130093803 -0.44990600242985612 0 0.068431759503208012 -0.44711759286102898 0 0.055895045422590918 -0.43966679543253329 0 0.056977746870917001 -0.45290899183861438 0 0.056977746870917001 -0.45290899183861438 0 0.048255812076070867 -0.46852389594969868 0 0.043124599130093803 -0.44990600242985612 0 0.068481287192418555 -0.46227653620166798 0 0.056977746870917001 -0.45290899183861438 0 0.048255812076070867 -0.46852389594969868 0 0.048255812076070867 -0.46852389594969868 0 0.043124599130093803 -0.44990600242985612 0 0.031225007950789679 -0.46422086926435152 0 0.038421678477129809 -0.43017289736809988 0 0.043124599130093803 -0.44990600242985612 0 0.027972303983064509 -0.44394256472583898 0 0.043124599130093803 -0.44990600242985612 0 0.027972303983064509 -0.44394256472583898 0 0.031225007950789679 -0.46422086926435152 0 0.038421678477129809 -0.43017289736809988 0 0.055895045422590918 -0.43966679543253329 0 0.043124599130093803 -0.44990600242985612 0 0.01702713448923545 -0.42376331379941679 0 0.027972303983064509 -0.44394256472583898 0 0.0093628688378709132 -0.45459560444918412 0 -0.0031373934974118531 -0.4372016448190541 0 0.01702713448923545 -0.42376331379941679 0 0.0093628688378709132 -0.45459560444918412 0 0.027972303983064509 -0.44394256472583898 0 0.0093628688378709132 -0.45459560444918412 0 0.031225007950789679 -0.46422086926435152 0 0.0093628688378709132 -0.45459560444918412 0 0.031225007950789679 -0.46422086926435152 0 0.01778448512092913 -0.48030573077325989 0 0.031225007950789679 -0.46422086926435152 0 0.01778448512092913 -0.48030573077325989 0 0.042769594942306498 -0.48628160014081218 0 -0.010022809886413971 -0.47531998791934532 0 0.0093628688378709132 -0.45459560444918412 0 0.01778448512092913 -0.48030573077325989 0 -0.010022809886413971 -0.47531998791934532 0 0.01778448512092913 -0.48030573077325989 0 0.003256301711233377 -0.50000000000000111 0 0.01778448512092913 -0.48030573077325989 0 0.029805477187084591 -0.5 0 0.042769594942306498 -0.48628160014081218 0 0.01778448512092913 -0.48030573077325989 0 0.003256301711233377 -0.50000000000000111 0 0.029805477187084591 -0.5 0 0.029805477187084591 -0.5 0 0.042769594942306498 -0.48628160014081218 0 0.056354652662935822 -0.5 0 0.048255812076070867 -0.46852389594969868 0 0.031225007950789679 -0.46422086926435152 0 0.042769594942306498 -0.48628160014081218 0 0.067898745638923785 -0.48049136652368418 0 0.068481287192418555 -0.46227653620166798 0 0.048255812076070867 -0.46852389594969868 0 0.067898745638923785 -0.48049136652368418 0 0.048255812076070867 -0.46852389594969868 0 0.042769594942306498 -0.48628160014081218 0 0.067898745638923785 -0.48049136652368418 0 0.042769594942306498 -0.48628160014081218 0 0.056354652662935822 -0.5 0 0.088065462753907753 -0.29385926794461431 0 0.071177670665117584 -0.28429695378540287 0 0.090889953518468569 -0.27927851446470292 0 0.088065462753907753 -0.29385926794461431 0 0.075146119388156948 -0.29975625129230038 0 0.071177670665117584 -0.28429695378540287 0 0.088065462753907753 -0.29385926794461431 0 0.075146119388156948 -0.29975625129230038 0 0.094249151965831446 -0.30659117736973918 0 0.075146119388156948 -0.29975625129230038 0 0.094249151965831446 -0.30659117736973918 0 0.076158151505467273 -0.31528500416429062 0 0.075146119388156948 -0.29975625129230038 0 0.076158151505467273 -0.31528500416429062 0 0.057316096250853203 -0.30364945300113771 0 0.075146119388156948 -0.29975625129230038 0 0.071177670665117584 -0.28429695378540287 0 0.057316096250853203 -0.30364945300113771 0 0.071177670665117584 -0.28429695378540287 0 0.083579964997909553 -0.25777621200198281 0 0.057949317946716872 -0.26907751766107751 0 0.083579964997909553 -0.25777621200198281 0 0.055945778335013123 -0.25070505853966041 0 0.057949317946716872 -0.26907751766107751 0 0.071177670665117584 -0.28429695378540287 0 0.083579964997909553 -0.25777621200198281 0 0.090889953518468569 -0.27927851446470292 0 0.083579964997909553 -0.25777621200198281 0 0.090889953518468569 -0.27927851446470292 0 0.10460508263913321 -0.26933270524925979 0 0.090889953518468569 -0.27927851446470292 0 0.10460508263913321 -0.26933270524925979 0 0.1085057463161767 -0.29262847490679239 0 0.10460508263913321 -0.26933270524925979 0 0.1162321014502215 -0.25452752110021859 0 0.097500371512230927 -0.24251523744947309 0 0.083579964997909553 -0.25777621200198281 0 0.10460508263913321 -0.26933270524925979 0 0.097500371512230927 -0.24251523744947309 0 0.12936800559182801 -0.27235718855874019 0 0.10460508263913321 -0.26933270524925979 0 0.1162321014502215 -0.25452752110021859 0 0.12936800559182801 -0.27235718855874019 0 0.10460508263913321 -0.26933270524925979 0 0.1085057463161767 -0.29262847490679239 0 0.13508701183200689 -0.29197957117870571 0 0.12936800559182801 -0.27235718855874019 0 0.1085057463161767 -0.29262847490679239 0 0.088065462753907753 -0.29385926794461431 0 0.090889953518468569 -0.27927851446470292 0 0.1085057463161767 -0.29262847490679239 0 0.1085057463161767 -0.29262847490679239 0 0.094249151965831446 -0.30659117736973918 0 0.10893169572998811 -0.31290821652593759 0 0.088065462753907753 -0.29385926794461431 0 0.1085057463161767 -0.29262847490679239 0 0.094249151965831446 -0.30659117736973918 0 0.12642119591326259 -0.30901513411978632 0 0.13508701183200689 -0.29197957117870571 0 0.1085057463161767 -0.29262847490679239 0 0.12642119591326259 -0.30901513411978632 0 0.1085057463161767 -0.29262847490679239 0 0.10893169572998811 -0.31290821652593759 0 0.1243262116942427 -0.33205795057380549 0 0.10893169572998811 -0.31290821652593759 0 0.10758369904983719 -0.3269333848202467 0 0.12642119591326259 -0.30901513411978632 0 0.1243262116942427 -0.33205795057380549 0 0.10893169572998811 -0.31290821652593759 0 0.1243262116942427 -0.33205795057380549 0 0.10758369904983719 -0.3269333848202467 0 0.11787172207594671 -0.35404558409213099 0 0.10758369904983719 -0.3269333848202467 0 0.11787172207594671 -0.35404558409213099 0 0.094158147899250005 -0.33083246569532898 0 0.10758369904983719 -0.3269333848202467 0 0.098131911527981952 -0.34423610169420787 0 0.10758369904983719 -0.3269333848202467 0 0.11787172207594671 -0.35404558409213099 0 0.098131911527981952 -0.34423610169420787 0 0.094158147899250005 -0.33083246569532898 0 0.093783316894622964 -0.31969120462027029 0 0.10758369904983719 -0.3269333848202467 0 0.094249151965831446 -0.30659117736973918 0 0.093783316894622964 -0.31969120462027029 0 0.10893169572998811 -0.31290821652593759 0 0.093783316894622964 -0.31969120462027029 0 0.10893169572998811 -0.31290821652593759 0 0.10758369904983719 -0.3269333848202467 0 0.1281597451020563 -0.38115778336401568 0 0.11787172207594671 -0.35404558409213099 0 0.1281597451020563 -0.38115778336401568 0 0.11787172207594671 -0.35404558409213099 0 0.10427460614818621 -0.37080403533498091 0 0.11787172207594671 -0.35404558409213099 0 0.098131911527981952 -0.34423610169420787 0 0.1016694048852716 -0.35738256217564929 0 0.098131911527981952 -0.34423610169420787 0 0.1016694048852716 -0.35738256217564929 0 0.08639937978897165 -0.36044452758127737 0 0.11787172207594671 -0.35404558409213099 0 0.1016694048852716 -0.35738256217564929 0 0.10427460614818621 -0.37080403533498091 0 0.1016694048852716 -0.35738256217564929 0 0.10427460614818621 -0.37080403533498091 0 0.08639937978897165 -0.36044452758127737 0 0.086807940835058189 -0.37966635199909982 0 0.10427460614818621 -0.37080403533498091 0 0.08639937978897165 -0.36044452758127737 0 0.086807940835058189 -0.37966635199909982 0 0.08639937978897165 -0.36044452758127737 0 0.074591093027164365 -0.37200829716783818 0 0.098131911527981952 -0.34423610169420787 0 0.08639937978897165 -0.36044452758127737 0 0.078454337424435874 -0.34300590822234373 0 0.08639937978897165 -0.36044452758127737 0 0.068874190034892993 -0.35790796680157277 0 0.078454337424435874 -0.34300590822234373 0 0.067635086456119514 -0.34430005953131088 0 0.068874190034892993 -0.35790796680157277 0 0.078454337424435874 -0.34300590822234373 0 0.067635086456119514 -0.34430005953131088 0 0.068874190034892993 -0.35790796680157277 0 0.059002875194557547 -0.34943156079448268 0 0.067635086456119514 -0.34430005953131088 0 0.061495040822218197 -0.33910827047675662 0 0.059002875194557547 -0.34943156079448268 0 0.08639937978897165 -0.36044452758127737 0 0.068874190034892993 -0.35790796680157277 0 0.074591093027164365 -0.37200829716783818 0 0.068874190034892993 -0.35790796680157277 0 0.062764569392891378 -0.37124251162150212 0 0.074591093027164365 -0.37200829716783818 0 0.094249151965831446 -0.30659117736973918 0 0.093783316894622964 -0.31969120462027029 0 0.076158151505467273 -0.31528500416429062 0 0.093783316894622964 -0.31969120462027029 0 0.081619055217363748 -0.32559697914607882 0 0.076158151505467273 -0.31528500416429062 0 0.094158147899250005 -0.33083246569532898 0 0.093783316894622964 -0.31969120462027029 0 0.081619055217363748 -0.32559697914607882 0 0.094158147899250005 -0.33083246569532898 0 0.081619055217363748 -0.32559697914607882 0 0.078454337424435874 -0.34300590822234373 0 0.094158147899250005 -0.33083246569532898 0 0.098131911527981952 -0.34423610169420787 0 0.078454337424435874 -0.34300590822234373 0 0.081619055217363748 -0.32559697914607882 0 0.078454337424435874 -0.34300590822234373 0 0.070348988804492946 -0.33204659136139891 0 0.067635086456119514 -0.34430005953131088 0 0.078454337424435874 -0.34300590822234373 0 0.070348988804492946 -0.33204659136139891 0 0.067635086456119514 -0.34430005953131088 0 0.070348988804492946 -0.33204659136139891 0 0.061495040822218197 -0.33910827047675662 0 0.070348988804492946 -0.33204659136139891 0 0.056881458686524257 -0.3300970897642122 0 0.061495040822218197 -0.33910827047675662 0 0.070348988804492946 -0.33204659136139891 0 0.076158151505467273 -0.31528500416429062 0 0.062318235292702903 -0.32055459237570538 0 0.070348988804492946 -0.33204659136139891 0 0.062318235292702903 -0.32055459237570538 0 0.056881458686524257 -0.3300970897642122 0 0.081619055217363748 -0.32559697914607882 0 0.070348988804492946 -0.33204659136139891 0 0.076158151505467273 -0.31528500416429062 0 0.076158151505467273 -0.31528500416429062 0 0.062318235292702903 -0.32055459237570538 0 0.057316096250853203 -0.30364945300113771 0 0.050528198753783289 -0.3204495476484267 0 0.062318235292702903 -0.32055459237570538 0 0.057316096250853203 -0.30364945300113771 0 0.050528198753783289 -0.3204495476484267 0 0.056881458686524257 -0.3300970897642122 0 0.045710030770160143 -0.33187145076006158 0 0.050528198753783289 -0.3204495476484267 0 0.062318235292702903 -0.32055459237570538 0 0.056881458686524257 -0.3300970897642122 0 0.056881458686524257 -0.3300970897642122 0 0.061495040822218197 -0.33910827047675662 0 0.052625506341312731 -0.34011927873766268 0 0.061495040822218197 -0.33910827047675662 0 0.052625506341312731 -0.34011927873766268 0 0.059002875194557547 -0.34943156079448268 0 0.052625506341312731 -0.34011927873766268 0 0.044347453619621523 -0.34072709291825221 0 0.048316178954794738 -0.34948020771221111 0 0.052625506341312731 -0.34011927873766268 0 0.045710030770160143 -0.33187145076006158 0 0.044347453619621523 -0.34072709291825221 0 0.056881458686524257 -0.3300970897642122 0 0.052625506341312731 -0.34011927873766268 0 0.045710030770160143 -0.33187145076006158 0 0.045710030770160143 -0.33187145076006158 0 0.033218744297860467 -0.33523840555825712 0 0.038918259234970831 -0.32410079876065789 0 0.045710030770160143 -0.33187145076006158 0 0.044347453619621523 -0.34072709291825221 0 0.033218744297860467 -0.33523840555825712 0 0.044347453619621523 -0.34072709291825221 0 0.033218744297860467 -0.33523840555825712 0 0.035858166470003797 -0.34475241645472149 0 0.033218744297860467 -0.33523840555825712 0 0.035858166470003797 -0.34475241645472149 0 0.025616822757234141 -0.33939088772608672 0 0.033218744297860467 -0.33523840555825712 0 0.038918259234970831 -0.32410079876065789 0 0.028572907014037339 -0.32654769115698101 0 0.038918259234970831 -0.32410079876065789 0 0.031828078674337477 -0.31773895852871209 0 0.028572907014037339 -0.32654769115698101 0 0.038918259234970831 -0.32410079876065789 0 0.031828078674337477 -0.31773895852871209 0 0.042025112287488418 -0.31242390122878588 0 0.050528198753783289 -0.3204495476484267 0 0.038918259234970831 -0.32410079876065789 0 0.042025112287488418 -0.31242390122878588 0 0.050528198753783289 -0.3204495476484267 0 0.045710030770160143 -0.33187145076006158 0 0.038918259234970831 -0.32410079876065789 0 0.053538507748874947 -0.3799221680167808 0 0.062764569392891378 -0.37124251162150212 0 0.05313519017349002 -0.36328602633510221 0 0.053538507748874947 -0.3799221680167808 0 0.05313519017349002 -0.36328602633510221 0 0.04195676848564947 -0.3727024963903206 0 0.068874190034892993 -0.35790796680157277 0 0.062764569392891378 -0.37124251162150212 0 0.05313519017349002 -0.36328602633510221 0 0.068874190034892993 -0.35790796680157277 0 0.05313519017349002 -0.36328602633510221 0 0.059002875194557547 -0.34943156079448268 0 0.05313519017349002 -0.36328602633510221 0 0.059002875194557547 -0.34943156079448268 0 0.048316178954794738 -0.34948020771221111 0 0.052625506341312731 -0.34011927873766268 0 0.059002875194557547 -0.34943156079448268 0 0.048316178954794738 -0.34948020771221111 0 0.039155755707113361 -0.35614060958967969 0 0.02873354650264837 -0.36629896187161981 0 0.02611833628908198 -0.34839143607377382 0 0.048316178954794738 -0.34948020771221111 0 0.035858166470003797 -0.34475241645472149 0 0.039155755707113361 -0.35614060958967969 0 0.044347453619621523 -0.34072709291825221 0 0.048316178954794738 -0.34948020771221111 0 0.035858166470003797 -0.34475241645472149 0 0.035858166470003797 -0.34475241645472149 0 0.039155755707113361 -0.35614060958967969 0 0.02611833628908198 -0.34839143607377382 0 0.05313519017349002 -0.36328602633510221 0 0.048316178954794738 -0.34948020771221111 0 0.039155755707113361 -0.35614060958967969 0 0.039155755707113361 -0.35614060958967969 0 0.04195676848564947 -0.3727024963903206 0 0.02873354650264837 -0.36629896187161981 0 0.05313519017349002 -0.36328602633510221 0 0.039155755707113361 -0.35614060958967969 0 0.04195676848564947 -0.3727024963903206 0 0.014975574551926231 -0.37566133837104287 0 0.02873354650264837 -0.36629896187161981 0 0.0138937202026995 -0.35894591570928952 0 0.02873354650264837 -0.36629896187161981 0 0.02611833628908198 -0.34839143607377382 0 0.0138937202026995 -0.35894591570928952 0 0.035858166470003797 -0.34475241645472149 0 0.02611833628908198 -0.34839143607377382 0 0.025616822757234141 -0.33939088772608672 0 0.02611833628908198 -0.34839143607377382 0 0.017302076260758401 -0.34693526920627737 0 0.0138937202026995 -0.35894591570928952 0 0.02611833628908198 -0.34839143607377382 0 0.017302076260758401 -0.34693526920627737 0 0.020098463854754479 -0.34119008784940807 0 0.0138937202026995 -0.35894591570928952 0 0.01137152806108825 -0.33574311560460102 0 0.0041026344107457603 -0.34763671413703978 0 0.0138937202026995 -0.35894591570928952 0 0.01137152806108825 -0.33574311560460102 0 -0.0062147334033759091 -0.36504868167649229 0 0.0041026344107457603 -0.34763671413703978 0 0.0138937202026995 -0.35894591570928952 0 0.017302076260758401 -0.34693526920627737 0 0.0138937202026995 -0.35894591570928952 0 0.01137152806108825 -0.33574311560460102 0 -0.0062147334033759091 -0.36504868167649229 0 -0.003054764863230162 -0.38327110372534579 0 0.014975574551926231 -0.37566133837104287 0 -0.0062147334033759091 -0.36504868167649229 0 0.014975574551926231 -0.37566133837104287 0 -0.0062147334033759091 -0.36504868167649229 0 0.014975574551926231 -0.37566133837104287 0 0.0138937202026995 -0.35894591570928952 0 0.023310218079132351 -0.31845954877869359 0 0.0088493359194770065 -0.31254031549991262 0 0.026313896756058469 -0.30716285271844229 0 0.01894890584257708 -0.32792591579476832 0 0.023310218079132351 -0.31845954877869359 0 0.0088493359194770065 -0.31254031549991262 0 0.031828078674337477 -0.31773895852871209 0 0.023310218079132351 -0.31845954877869359 0 0.026313896756058469 -0.30716285271844229 0 0.031828078674337477 -0.31773895852871209 0 0.023310218079132351 -0.31845954877869359 0 0.028572907014037339 -0.32654769115698101 0 0.01894890584257708 -0.32792591579476832 0 0.023310218079132351 -0.31845954877869359 0 0.028572907014037339 -0.32654769115698101 0 0.033218744297860467 -0.33523840555825712 0 0.025316890498279419 -0.33272261625520122 0 0.025616822757234141 -0.33939088772608672 0 0.01894890584257708 -0.32792591579476832 0 0.028572907014037339 -0.32654769115698101 0 0.025316890498279419 -0.33272261625520122 0 0.033218744297860467 -0.33523840555825712 0 0.028572907014037339 -0.32654769115698101 0 0.025316890498279419 -0.33272261625520122 0 0.025316890498279419 -0.33272261625520122 0 0.025616822757234141 -0.33939088772608672 0 0.020083555905609611 -0.33548973063630161 0 0.02611833628908198 -0.34839143607377382 0 0.025616822757234141 -0.33939088772608672 0 0.020098463854754479 -0.34119008784940807 0 0.020098463854754479 -0.34119008784940807 0 0.020083555905609611 -0.33548973063630161 0 0.01137152806108825 -0.33574311560460102 0 0.017302076260758401 -0.34693526920627737 0 0.020098463854754479 -0.34119008784940807 0 0.01137152806108825 -0.33574311560460102 0 0.025616822757234141 -0.33939088772608672 0 0.020098463854754479 -0.34119008784940807 0 0.020083555905609611 -0.33548973063630161 0 0.01894890584257708 -0.32792591579476832 0 0.020083555905609611 -0.33548973063630161 0 0.01137152806108825 -0.33574311560460102 0 0.01894890584257708 -0.32792591579476832 0 0.025316890498279419 -0.33272261625520122 0 0.020083555905609611 -0.33548973063630161 0 -0.0086474613884536759 -0.3442939608922525 0 0.0041026344107457603 -0.34763671413703978 0 0.010110118581770629 -0.33415189680256352 0 -0.0086474613884536759 -0.3442939608922525 0 0.010110118581770629 -0.33415189680256352 0 0.0041026344107457603 -0.34763671413703978 0 0.01137152806108825 -0.33574311560460102 0 0.010110118581770629 -0.33415189680256352 0 0.01894890584257708 -0.32792591579476832 0 0.01137152806108825 -0.33574311560460102 0 0.0088493359194770065 -0.31254031549991262 0 0.01137152806108825 -0.33574311560460102 0 0.010110118581770629 -0.33415189680256352 0 0.0088493359194770065 -0.31254031549991262 0 0.01137152806108825 -0.33574311560460102 0 0.0088493359194770065 -0.31254031549991262 0 -0.007323121960877416 -0.32432635561407591 0 0.010110118581770629 -0.33415189680256352 0 0.0088493359194770065 -0.31254031549991262 0 0.0088493359194770065 -0.31254031549991262 0 0.00632714377786576 -0.28933751539522412 0 -0.010380234539267411 -0.30297895412728532 0 0.0088493359194770065 -0.31254031549991262 0 0.00632714377786576 -0.28933751539522412 0 0.0088493359194770065 -0.31254031549991262 0 0.00632714377786576 -0.28933751539522412 0 0.026313896756058469 -0.30716285271844229 0 0.00632714377786576 -0.28933751539522412 0 0.030405888420319709 -0.29117863606028571 0 0.026313896756058469 -0.30716285271844229 0 0.00632714377786576 -0.28933751539522412 0 0.030405888420319709 -0.29117863606028571 0 0.031260066928466633 -0.26716864051914369 0 0.026313896756058469 -0.30716285271844229 0 0.042025112287488418 -0.31242390122878588 0 0.041801264131990562 -0.29964251683070048 0 0.031828078674337477 -0.31773895852871209 0 0.026313896756058469 -0.30716285271844229 0 0.042025112287488418 -0.31242390122878588 0 0.030405888420319709 -0.29117863606028571 0 0.026313896756058469 -0.30716285271844229 0 0.041801264131990562 -0.29964251683070048 0 0.030405888420319709 -0.29117863606028571 0 0.047783108807077472 -0.28544072345919808 0 0.031260066928466633 -0.26716864051914369 0 0.030405888420319709 -0.29117863606028571 0 0.041801264131990562 -0.29964251683070048 0 0.047783108807077472 -0.28544072345919808 0 0.071177670665117584 -0.28429695378540287 0 0.047783108807077472 -0.28544072345919808 0 0.057316096250853203 -0.30364945300113771 0 0.041801264131990562 -0.29964251683070048 0 0.047783108807077472 -0.28544072345919808 0 0.057316096250853203 -0.30364945300113771 0 0.050528198753783289 -0.3204495476484267 0 0.042025112287488418 -0.31242390122878588 0 0.057316096250853203 -0.30364945300113771 0 0.042025112287488418 -0.31242390122878588 0 0.041801264131990562 -0.29964251683070048 0 0.057316096250853203 -0.30364945300113771 0 0.055945778335013123 -0.25070505853966041 0 0.057949317946716872 -0.26907751766107751 0 0.031260066928466633 -0.26716864051914369 0 0.071177670665117584 -0.28429695378540287 0 0.047783108807077472 -0.28544072345919808 0 0.057949317946716872 -0.26907751766107751 0 0.047783108807077472 -0.28544072345919808 0 0.057949317946716872 -0.26907751766107751 0 0.031260066928466633 -0.26716864051914369 0 0.055945778335013123 -0.25070505853966041 0 0.031260066928466633 -0.26716864051914369 0 0.055945778335013123 -0.25070505853966041 0 0.031260066928466633 -0.26716864051914369 0 0.031646987544794752 -0.2367285054650588 0 0.031260066928466633 -0.26716864051914369 0 0.015072930435663731 -0.25018781192836409 0 0.031646987544794752 -0.2367285054650588 0 0.031260066928466633 -0.26716864051914369 0 0.0038049516362545122 -0.26613471529053567 0 0.015072930435663731 -0.25018781192836409 0 0.00632714377786576 -0.28933751539522412 0 0.031260066928466633 -0.26716864051914369 0 0.0038049516362545122 -0.26613471529053567 0 0.00632714377786576 -0.28933751539522412 0 0.0038049516362545122 -0.26613471529053567 0 -0.00049652130699871766 -0.2473016026161601 0 0.0038049516362545122 -0.26613471529053567 0 0.015072930435663731 -0.25018781192836409 0 -0.00049652130699871766 -0.2473016026161601 0 0.015072930435663731 -0.25018781192836409 0 0.0091491673758014591 -0.2336055957509223 0 -0.0092359492843370593 -0.21119307813957131 0 0.0091491673758014591 -0.2336055957509223 0 0.01381951473359929 -0.2124175085057759 0 0.0091491673758014591 -0.2336055957509223 0 0.01381951473359929 -0.2124175085057759 0 0.031646987544794752 -0.2367285054650588 0 0.01381951473359929 -0.2124175085057759 0 0.036371631613381958 -0.21036779493664581 0 0.031646987544794752 -0.2367285054650588 0 0.015072930435663731 -0.25018781192836409 0 0.0091491673758014591 -0.2336055957509223 0 0.031646987544794752 -0.2367285054650588 0 -0.00135817117020914 -0.18493631818518841 0 -0.0092359492843370593 -0.21119307813957131 0 0.01381951473359929 -0.2124175085057759 0 -0.00135817117020914 -0.18493631818518841 0 0.01381951473359929 -0.2124175085057759 0 0.02252960124566766 -0.18914355546625619 0 0.01381951473359929 -0.2124175085057759 0 0.02252960124566766 -0.18914355546625619 0 0.036371631613381958 -0.21036779493664581 0 0.02252960124566766 -0.18914355546625619 0 0.04112560050362303 -0.19321540750894911 0 0.036371631613381958 -0.21036779493664581 0 0.04112560050362303 -0.19321540750894911 0 0.036371631613381958 -0.21036779493664581 0 0.057070339662875183 -0.2047492068265932 0 0.036371631613381958 -0.21036779493664581 0 0.057070339662875183 -0.2047492068265932 0 0.058056199852320557 -0.22713062111878141 0 0.04112560050362303 -0.19321540750894911 0 0.057070339662875183 -0.2047492068265932 0 0.055683872965910028 -0.1871965925253978 0 0.036371631613381958 -0.21036779493664581 0 0.031646987544794752 -0.2367285054650588 0 0.058056199852320557 -0.22713062111878141 0 0.055945778335013123 -0.25070505853966041 0 0.031646987544794752 -0.2367285054650588 0 0.058056199852320557 -0.22713062111878141 0 0.055945778335013123 -0.25070505853966041 0 0.058056199852320557 -0.22713062111878141 0 0.080631489741560008 -0.23424147656017791 0 0.083579964997909553 -0.25777621200198281 0 0.055945778335013123 -0.25070505853966041 0 0.080631489741560008 -0.23424147656017791 0 0.055945778335013123 -0.25070505853966041 0 0.080631489741560008 -0.23424147656017791 0 0.083579964997909553 -0.25777621200198281 0 0.080631489741560008 -0.23424147656017791 0 0.097500371512230927 -0.24251523744947309 0 0.083579964997909553 -0.25777621200198281 0 0.080631489741560008 -0.23424147656017791 0 0.080631489741560008 -0.23424147656017791 0 0.078179588527308941 -0.21467039612374211 0 0.095215741274730245 -0.2245148368546635 0 0.080631489741560008 -0.23424147656017791 0 0.097500371512230927 -0.24251523744947309 0 0.095215741274730245 -0.2245148368546635 0 0.080631489741560008 -0.23424147656017791 0 0.078179588527308941 -0.21467039612374211 0 0.080631489741560008 -0.23424147656017791 0 0.095215741274730245 -0.2245148368546635 0 0.058056199852320557 -0.22713062111878141 0 0.080631489741560008 -0.23424147656017791 0 0.078179588527308941 -0.21467039612374211 0 0.075746755580258451 -0.1950969267794658 0 0.078179588527308941 -0.21467039612374211 0 0.057070339662875183 -0.2047492068265932 0 0.075746755580258451 -0.1950969267794658 0 0.078179588527308941 -0.21467039612374211 0 0.057070339662875183 -0.2047492068265932 0 0.058056199852320557 -0.22713062111878141 0 0.078179588527308941 -0.21467039612374211 0 0.057070339662875183 -0.2047492068265932 0 0.075746755580258451 -0.1950969267794658 0 0.055683872965910028 -0.1871965925253978 0 0.075746755580258451 -0.1950969267794658 0 0.092773374194079494 -0.20494256196430929 0 0.08799775421150359 -0.18633891464643829 0 0.075746755580258451 -0.1950969267794658 0 0.092773374194079494 -0.20494256196430929 0 0.078179588527308941 -0.21467039612374211 0 0.092773374194079494 -0.20494256196430929 0 0.095215741274730245 -0.2245148368546635 0 0.075746755580258451 -0.1950969267794658 0 0.078179588527308941 -0.21467039612374211 0 0.092773374194079494 -0.20494256196430929 0 0.092773374194079494 -0.20494256196430929 0 0.1075006573928676 -0.20264948808968331 0 0.10979999280790161 -0.21478819714915079 0 0.092773374194079494 -0.20494256196430929 0 0.10979999280790161 -0.21478819714915079 0 0.092773374194079494 -0.20494256196430929 0 0.10979999280790161 -0.21478819714915079 0 0.095215741274730245 -0.2245148368546635 0 0.092773374194079494 -0.20494256196430929 0 0.1025444234661291 -0.189676276730778 0 0.08799775421150359 -0.18633891464643829 0 0.092773374194079494 -0.20494256196430929 0 0.1075006573928676 -0.20264948808968331 0 0.1025444234661291 -0.189676276730778 0 0.1075006573928676 -0.20264948808968331 0 0.1025444234661291 -0.189676276730778 0 0.11785070636119339 -0.19590325304082329 0 0.1025444234661291 -0.189676276730778 0 0.11785070636119339 -0.19590325304082329 0 0.1153313103540235 -0.18260294008382619 0 0.1075006573928676 -0.20264948808968331 0 0.11785070636119339 -0.19590325304082329 0 0.12020800943974461 -0.20784680371550801 0 0.11785070636119339 -0.19590325304082329 0 0.1153313103540235 -0.18260294008382619 0 0.12988750288688269 -0.18741504762509861 0 0.10979999280790161 -0.21478819714915079 0 0.12020800943974461 -0.20784680371550801 0 0.13275127296145109 -0.22805976542364101 0 0.10979999280790161 -0.21478819714915079 0 0.12020800943974461 -0.20784680371550801 0 0.1075006573928676 -0.20264948808968331 0 0.10979999280790161 -0.21478819714915079 0 0.12020800943974461 -0.20784680371550801 0 0.10979999280790161 -0.21478819714915079 0 0.1154050387073919 -0.2358942627654679 0 0.13275127296145109 -0.22805976542364101 0 0.10979999280790161 -0.21478819714915079 0 0.1154050387073919 -0.2358942627654679 0 0.10448028607556351 -0.22942813355468861 0 0.10979999280790161 -0.21478819714915079 0 0.13275127296145109 -0.22805976542364101 0 0.1162321014502215 -0.25452752110021859 0 0.1154050387073919 -0.2358942627654679 0 0.097500371512230927 -0.24251523744947309 0 0.1162321014502215 -0.25452752110021859 0 0.1154050387073919 -0.2358942627654679 0 0.13475341233392191 -0.24985250807845871 0 0.1154050387073919 -0.2358942627654679 0 0.097500371512230927 -0.24251523744947309 0 0.10448028607556351 -0.22942813355468861 0 0.097500371512230927 -0.24251523744947309 0 0.095215741274730245 -0.2245148368546635 0 0.10448028607556351 -0.22942813355468861 0 0.10979999280790161 -0.21478819714915079 0 0.095215741274730245 -0.2245148368546635 0 0.10448028607556351 -0.22942813355468861 0 0.10979999280790161 -0.21478819714915079 0 0.095215741274730245 -0.2245148368546635 0 0.1069484000070987 -0.14093525902907719 0 0.10955233121650081 -0.1512098661039209 0 0.093713799804063719 -0.1458447579242371 0 0.1013970669273392 -0.1620485836768959 0 0.093713799804063719 -0.1458447579242371 0 0.089587183877266982 -0.1553767925683249 0 0.10955233121650081 -0.1512098661039209 0 0.1013970669273392 -0.1620485836768959 0 0.093713799804063719 -0.1458447579242371 0 0.10955233121650081 -0.1512098661039209 0 0.093713799804063719 -0.1458447579242371 0 0.1010445581553322 -0.1289115022466312 0 0.093713799804063719 -0.1458447579242371 0 0.1069484000070987 -0.14093525902907719 0 0.1010445581553322 -0.1289115022466312 0 0.093713799804063719 -0.1458447579242371 0 0.123482910852498 -0.13777490984151949 0 0.1166627140844461 -0.12317840718842921 0 0.133017444566952 -0.1192180105834534 0 0.1069484000070987 -0.14093525902907719 0 0.1010445581553322 -0.1289115022466312 0 0.123482910852498 -0.13777490984151949 0 0.1010445581553322 -0.1289115022466312 0 0.123482910852498 -0.13777490984151949 0 0.1010445581553322 -0.1289115022466312 0 0.123482910852498 -0.13777490984151949 0 0.1166627140844461 -0.12317840718842921 0 0.10955233121650081 -0.1512098661039209 0 0.125390862628938 -0.15657497428360451 0 0.1069484000070987 -0.14093525902907719 0 0.123482910852498 -0.13777490984151949 0 0.10955233121650081 -0.1512098661039209 0 0.123482910852498 -0.13777490984151949 0 0.10955233121650081 -0.1512098661039209 0 0.125390862628938 -0.15657497428360451 0 0.10955233121650081 -0.1512098661039209 0 0.1140997441942838 -0.16675773657833109 0 0.125390862628938 -0.15657497428360451 0 0.1140997441942838 -0.16675773657833109 0 0.126570689701412 -0.17556766332277421 0 0.125390862628938 -0.15657497428360451 0 0.1140997441942838 -0.16675773657833109 0 0.1153313103540235 -0.18260294008382619 0 0.1030873631314652 -0.1748291280649448 0 0.1140997441942838 -0.16675773657833109 0 0.1153313103540235 -0.18260294008382619 0 0.126570689701412 -0.17556766332277421 0 0.1153313103540235 -0.18260294008382619 0 0.12988750288688269 -0.18741504762509861 0 0.126570689701412 -0.17556766332277421 0 0.1025444234661291 -0.189676276730778 0 0.1153313103540235 -0.18260294008382619 0 0.1030873631314652 -0.1748291280649448 0 0.1030873631314652 -0.1748291280649448 0 0.095394886017323516 -0.18032674352134631 0 0.088710485994322269 -0.17230366351728929 0 0.1025444234661291 -0.189676276730778 0 0.095394886017323516 -0.18032674352134631 0 0.08799775421150359 -0.18633891464643829 0 0.1025444234661291 -0.189676276730778 0 0.1030873631314652 -0.1748291280649448 0 0.095394886017323516 -0.18032674352134631 0 0.10955233121650081 -0.1512098661039209 0 0.1140997441942838 -0.16675773657833109 0 0.1013970669273392 -0.1620485836768959 0 0.1140997441942838 -0.16675773657833109 0 0.1030873631314652 -0.1748291280649448 0 0.1013970669273392 -0.1620485836768959 0 0.1030873631314652 -0.1748291280649448 0 0.092816145306354444 -0.1641777209134731 0 0.088710485994322269 -0.17230366351728929 0 0.1030873631314652 -0.1748291280649448 0 0.1013970669273392 -0.1620485836768959 0 0.092816145306354444 -0.1641777209134731 0 0.1013970669273392 -0.1620485836768959 0 0.092816145306354444 -0.1641777209134731 0 0.089587183877266982 -0.1553767925683249 0 0.092816145306354444 -0.1641777209134731 0 0.082539812120706685 -0.164479965637954 0 0.089587183877266982 -0.1553767925683249 0 0.082539812120706685 -0.164479965637954 0 0.071056684857166194 -0.15781536466526469 0 0.089587183877266982 -0.1553767925683249 0 0.092816145306354444 -0.1641777209134731 0 0.082539812120706685 -0.164479965637954 0 0.088710485994322269 -0.17230366351728929 0 0.082539812120706685 -0.164479965637954 0 0.088710485994322269 -0.17230366351728929 0 0.073392186085111832 -0.17645734017628559 0 0.075746755580258451 -0.1950969267794658 0 0.08799775421150359 -0.18633891464643829 0 0.073392186085111832 -0.17645734017628559 0 0.095394886017323516 -0.18032674352134631 0 0.08799775421150359 -0.18633891464643829 0 0.088710485994322269 -0.17230366351728929 0 0.08799775421150359 -0.18633891464643829 0 0.088710485994322269 -0.17230366351728929 0 0.073392186085111832 -0.17645734017628559 0 0.075746755580258451 -0.1950969267794658 0 0.073392186085111832 -0.17645734017628559 0 0.055683872965910028 -0.1871965925253978 0 0.075746755580258451 -0.1950969267794658 0 0.073392186085111832 -0.17645734017628559 0 0.073392186085111832 -0.17645734017628559 0 0.071056684857166194 -0.15781536466526469 0 0.082539812120706685 -0.164479965637954 0 0.073392186085111832 -0.17645734017628559 0 0.071056684857166194 -0.15781536466526469 0 0.073392186085111832 -0.17645734017628559 0 0.071056684857166194 -0.15781536466526469 0 0.057420332173000632 -0.1703757852835481 0 0.071056684857166194 -0.15781536466526469 0 0.093713799804063719 -0.1458447579242371 0 0.06539429975814362 -0.1362518747594757 0 0.071056684857166194 -0.15781536466526469 0 0.06539429975814362 -0.1362518747594757 0 0.051146932799786417 -0.15466172161657141 0 0.071056684857166194 -0.15781536466526469 0 0.093713799804063719 -0.1458447579242371 0 0.089587183877266982 -0.1553767925683249 0 0.093713799804063719 -0.1458447579242371 0 0.06539429975814362 -0.1362518747594757 0 0.093713799804063719 -0.1458447579242371 0 0.089587183877266982 -0.1553767925683249 0 0.1010445581553322 -0.1289115022466312 0 0.093713799804063719 -0.1458447579242371 0 0.084819913414731163 -0.13194096297007879 0 0.093713799804063719 -0.1458447579242371 0 0.084819913414731163 -0.13194096297007879 0 0.06539429975814362 -0.1362518747594757 0 0.1010445581553322 -0.1289115022466312 0 0.084819913414731163 -0.13194096297007879 0 0.075045371854549542 -0.11864152439087899 0 0.084819913414731163 -0.13194096297007879 0 0.06539429975814362 -0.1362518747594757 0 0.075045371854549542 -0.11864152439087899 0 0.06539429975814362 -0.1362518747594757 0 0.046092813141916232 -0.14171524886792081 0 0.037074799712223577 -0.12665899159471419 0 0.06539429975814362 -0.1362518747594757 0 0.037074799712223577 -0.12665899159471419 0 0.06539429975814362 -0.1362518747594757 0 0.051146932799786417 -0.15466172161657141 0 0.046092813141916232 -0.14171524886792081 0 0.051146932799786417 -0.15466172161657141 0 0.046092813141916232 -0.14171524886792081 0 0.030755220297511331 -0.14928840750092179 0 0.046092813141916232 -0.14171524886792081 0 0.037074799712223577 -0.12665899159471419 0 0.030755220297511331 -0.14928840750092179 0 0.055683872965910028 -0.1871965925253978 0 0.057420332173000632 -0.1703757852835481 0 0.039417642626982073 -0.17298966167237881 0 0.073392186085111832 -0.17645734017628559 0 0.055683872965910028 -0.1871965925253978 0 0.057420332173000632 -0.1703757852835481 0 0.071056684857166194 -0.15781536466526469 0 0.051146932799786417 -0.15466172161657141 0 0.057420332173000632 -0.1703757852835481 0 0.051146932799786417 -0.15466172161657141 0 0.057420332173000632 -0.1703757852835481 0 0.039417642626982073 -0.17298966167237881 0 0.051146932799786417 -0.15466172161657141 0 0.039417642626982073 -0.17298966167237881 0 0.030755220297511331 -0.14928840750092179 0 0.04112560050362303 -0.19321540750894911 0 0.055683872965910028 -0.1871965925253978 0 0.039417642626982073 -0.17298966167237881 0 0.02252960124566766 -0.18914355546625619 0 0.04112560050362303 -0.19321540750894911 0 0.039417642626982073 -0.17298966167237881 0 0.02252960124566766 -0.18914355546625619 0 0.039417642626982073 -0.17298966167237881 0 0.019572779988774141 -0.17100750021111019 0 0.019572779988774141 -0.17100750021111019 0 0.0065196069439187616 -0.1586795582308056 0 0.030755220297511331 -0.14928840750092179 0 0.039417642626982073 -0.17298966167237881 0 0.019572779988774141 -0.17100750021111019 0 0.030755220297511331 -0.14928840750092179 0 -0.00135817117020914 -0.18493631818518841 0 0.0065196069439187616 -0.1586795582308056 0 -0.00135817117020914 -0.18493631818518841 0 0.019572779988774141 -0.17100750021111019 0 0.0065196069439187616 -0.1586795582308056 0 -0.00135817117020914 -0.18493631818518841 0 0.02252960124566766 -0.18914355546625619 0 0.019572779988774141 -0.17100750021111019 0 0.037074799712223577 -0.12665899159471419 0 0.030755220297511331 -0.14928840750092179 0 0.01439738505804666 -0.13242279827642281 0 0.037074799712223577 -0.12665899159471419 0 0.01439738505804666 -0.13242279827642281 0 0.008755299666303458 -0.11706610842995251 0 0.0065196069439187616 -0.1586795582308056 0 0.030755220297511331 -0.14928840750092179 0 0.01439738505804666 -0.13242279827642281 0 0.0065196069439187616 -0.1586795582308056 0 0.01439738505804666 -0.13242279827642281 0 -0.0061755514744574747 -0.13939955945566099 0 0.0065196069439187616 -0.1586795582308056 0 0.01439738505804666 -0.13242279827642281 0 -0.0061755514744574747 -0.13939955945566099 0 0.01439738505804666 -0.13242279827642281 0 0.0016256503768235129 -0.1281843828229571 0 0.01439738505804666 -0.13242279827642281 0 0.0016256503768235129 -0.1281843828229571 0 0.008755299666303458 -0.11706610842995251 0 -0.0055829579384821266 -0.089872009817903206 0 0.008755299666303458 -0.11706610842995251 0 0.016212496612642398 -0.084060759113546185 0 0.008755299666303458 -0.11706610842995251 0 0.02836019599530519 -0.1070919994238364 0 0.016212496612642398 -0.084060759113546185 0 0.037074799712223577 -0.12665899159471419 0 0.008755299666303458 -0.11706610842995251 0 0.037074799712223577 -0.12665899159471419 0 0.008755299666303458 -0.11706610842995251 0 0.02836019599530519 -0.1070919994238364 0 0.02836019599530519 -0.1070919994238364 0 0.016212496612642398 -0.084060759113546185 0 0.038899403745220808 -0.092096605735679252 0 0.016212496612642398 -0.084060759113546185 0 0.043650520356827871 -0.071783524763296302 0 0.023836074087011438 -0.051820298518144438 0 -0.0058232936852503636 -0.056471612802719749 0 -0.0055829579384821266 -0.089872009817903206 0 0.016212496612642398 -0.084060759113546185 0 -0.0058232936852503636 -0.056471612802719749 0 0.016212496612642398 -0.084060759113546185 0 0.023836074087011438 -0.051820298518144438 0 0.038899403745220808 -0.092096605735679252 0 0.043650520356827871 -0.071783524763296302 0 0.057227620207562793 -0.089175198842587372 0 0.016212496612642398 -0.084060759113546185 0 0.038899403745220808 -0.092096605735679252 0 0.043650520356827871 -0.071783524763296302 0 0.043650520356827871 -0.071783524763296302 0 0.053495441859273407 -0.047168984233569092 0 0.06801370483239344 -0.068964613370199296 0 0.043650520356827871 -0.071783524763296302 0 0.057227620207562793 -0.089175198842587372 0 0.06801370483239344 -0.068964613370199296 0 0.038899403745220808 -0.092096605735679252 0 0.057227620207562793 -0.089175198842587372 0 0.049046185553765803 -0.10837154653513 0 0.057227620207562793 -0.089175198842587372 0 0.049046185553765803 -0.10837154653513 0 0.067864589001429942 -0.1022978030337927 0 0.049046185553765803 -0.10837154653513 0 0.075045371854549542 -0.11864152439087899 0 0.06539429975814362 -0.1362518747594757 0 0.037074799712223577 -0.12665899159471419 0 0.049046185553765803 -0.10837154653513 0 0.037074799712223577 -0.12665899159471419 0 0.02836019599530519 -0.1070919994238364 0 0.049046185553765803 -0.10837154653513 0 0.02836019599530519 -0.1070919994238364 0 0.038899403745220808 -0.092096605735679252 0 0.049046185553765803 -0.10837154653513 0 0.021366706330957049 0.005356196585448475 0 0.01242755905656337 -0.015740938746889348 0 0.03083982702243088 -0.027363622828163962 0 0.021366706330957049 0.005356196585448475 0 9.2994626588645875e-05 -0.0066853786883017728 0 0.01242755905656337 -0.015740938746889348 0 -0.000196678936145564 -0.020618198175398689 0 9.2994626588645875e-05 -0.0066853786883017728 0 0.01242755905656337 -0.015740938746889348 0 -0.000196678936145564 -0.020618198175398689 0 0.01242755905656337 -0.015740938746889348 0 0.01461041445206694 -0.032040568890790148 0 -0.000196678936145564 -0.020618198175398689 0 -0.0029404273112356889 -0.033348019466363163 0 0.01461041445206694 -0.032040568890790148 0 0.01242755905656337 -0.015740938746889348 0 0.03083982702243088 -0.027363622828163962 0 0.01461041445206694 -0.032040568890790148 0 0.03083982702243088 -0.027363622828163962 0 0.01461041445206694 -0.032040568890790148 0 0.023836074087011438 -0.051820298518144438 0 -0.0058232936852503636 -0.056471612802719749 0 0.01461041445206694 -0.032040568890790148 0 0.023836074087011438 -0.051820298518144438 0 -0.0029404273112356889 -0.033348019466363163 0 -0.0058232936852503636 -0.056471612802719749 0 0.01461041445206694 -0.032040568890790148 0 -0.0058232936852503636 -0.056471612802719749 0 0.023836074087011438 -0.051820298518144438 0 0.023836074087011438 -0.051820298518144438 0 0.053495441859273407 -0.047168984233569092 0 0.043650520356827871 -0.071783524763296302 0 0.023836074087011438 -0.051820298518144438 0 0.053495441859273407 -0.047168984233569092 0 0.03083982702243088 -0.027363622828163962 0 0.023836074087011438 -0.051820298518144438 0 0.053495441859273407 -0.047168984233569092 0 0.03083982702243088 -0.027363622828163962 0 0.053495441859273407 -0.047168984233569092 0 0.049491405824600751 -0.014400546848704451 0 0.053495441859273407 -0.047168984233569092 0 0.049491405824600751 -0.014400546848704451 0 0.07057872529544322 -0.02462674390758245 0 0.021366706330957049 0.005356196585448475 0 0.03083982702243088 -0.027363622828163962 0 0.049491405824600751 -0.014400546848704451 0 0.048574898960063582 0.01105422245065607 0 0.049491405824600751 -0.014400546848704451 0 0.067215553891882635 -0.0011799380945436829 0 0.049491405824600751 -0.014400546848704451 0 0.067215553891882635 -0.0011799380945436829 0 0.07057872529544322 -0.02462674390758245 0 0.085378979920521222 -0.0085271912777543524 0 0.067215553891882635 -0.0011799380945436829 0 0.07057872529544322 -0.02462674390758245 0 0.07057872529544322 -0.02462674390758245 0 0.083154809631535181 -0.04251766994899378 0 0.094787071098584585 -0.0247478980194679 0 0.085378979920521222 -0.0085271912777543524 0 0.07057872529544322 -0.02462674390758245 0 0.094787071098584585 -0.0247478980194679 0 0.053495441859273407 -0.047168984233569092 0 0.083154809631535181 -0.04251766994899378 0 0.053495441859273407 -0.047168984233569092 0 0.07057872529544322 -0.02462674390758245 0 0.083154809631535181 -0.04251766994899378 0 0.053495441859273407 -0.047168984233569092 0 0.083154809631535181 -0.04251766994899378 0 0.06801370483239344 -0.068964613370199296 0 0.083154809631535181 -0.04251766994899378 0 0.06801370483239344 -0.068964613370199296 0 0.092601273338419235 -0.073020043929193243 0 0.083154809631535181 -0.04251766994899378 0 0.1091210111153499 -0.058687350791905853 0 0.092601273338419235 -0.073020043929193243 0 0.1091210111153499 -0.058687350791905853 0 0.11281417740379721 -0.037866355664418441 0 0.13172589994884221 -0.058040934670003222 0 0.083154809631535181 -0.04251766994899378 0 0.11281417740379721 -0.037866355664418441 0 0.083154809631535181 -0.04251766994899378 0 0.11281417740379721 -0.037866355664418441 0 0.094787071098584585 -0.0247478980194679 0 0.083154809631535181 -0.04251766994899378 0 0.1091210111153499 -0.058687350791905853 0 0.11281417740379721 -0.037866355664418441 0 0.11281417740379721 -0.037866355664418441 0 0.094787071098584585 -0.0247478980194679 0 0.10827385914977759 -0.011147169607668071 0 0.11281417740379721 -0.037866355664418441 0 0.10827385914977759 -0.011147169607668071 0 0.1253515901131961 -0.01406323671609276 0 0.1165810207984305 0.0016467845144158069 0 0.10827385914977759 -0.011147169607668071 0 0.1253515901131961 -0.01406323671609276 0 0.099114727496955629 0.0053277131660113639 0 0.085378979920521222 -0.0085271912777543524 0 0.10827385914977759 -0.011147169607668071 0 0.085378979920521222 -0.0085271912777543524 0 0.094787071098584585 -0.0247478980194679 0 0.10827385914977759 -0.011147169607668071 0 0.1165810207984305 0.0016467845144158069 0 0.099114727496955629 0.0053277131660113639 0 0.10827385914977759 -0.011147169607668071 0 0.08052673921532183 -0.1046332541507224 0 0.093009708408021224 -0.098982610040675739 0 0.075788807321622992 -0.090272498831020731 0 0.093009708408021224 -0.098982610040675739 0 0.075788807321622992 -0.090272498831020731 0 0.08052673921532183 -0.1046332541507224 0 0.093009708408021224 -0.098982610040675739 0 0.091876290340570169 -0.11188136896506599 0 0.1010445581553322 -0.1289115022466312 0 0.075045371854549542 -0.11864152439087899 0 0.08052673921532183 -0.1046332541507224 0 0.091876290340570169 -0.11188136896506599 0 0.075045371854549542 -0.11864152439087899 0 0.1010445581553322 -0.1289115022466312 0 0.091876290340570169 -0.11188136896506599 0 0.075045371854549542 -0.11864152439087899 0 0.06539429975814362 -0.1362518747594757 0 0.049046185553765803 -0.10837154653513 0 0.075045371854549542 -0.11864152439087899 0 0.049046185553765803 -0.10837154653513 0 0.075045371854549542 -0.11864152439087899 0 0.067864589001429942 -0.1022978030337927 0 0.08052673921532183 -0.1046332541507224 0 0.075045371854549542 -0.11864152439087899 0 0.067864589001429942 -0.1022978030337927 0 0.057227620207562793 -0.089175198842587372 0 0.067864589001429942 -0.1022978030337927 0 0.075788807321622992 -0.090272498831020731 0 0.08052673921532183 -0.1046332541507224 0 0.067864589001429942 -0.1022978030337927 0 0.075788807321622992 -0.090272498831020731 0 0.057227620207562793 -0.089175198842587372 0 0.075788807321622992 -0.090272498831020731 0 0.06801370483239344 -0.068964613370199296 0 0.075788807321622992 -0.090272498831020731 0 0.06801370483239344 -0.068964613370199296 0 0.092601273338419235 -0.073020043929193243 0 0.093009708408021224 -0.098982610040675739 0 0.075788807321622992 -0.090272498831020731 0 0.092601273338419235 -0.073020043929193243 0 0.093009708408021224 -0.098982610040675739 0 0.092601273338419235 -0.073020043929193243 0 0.12097825472163019 -0.082866827960167977 0 0.1091210111153499 -0.058687350791905853 0 0.092601273338419235 -0.073020043929193243 0 0.12097825472163019 -0.082866827960167977 0 0.1091210111153499 -0.058687350791905853 0 0.12097825472163019 -0.082866827960167977 0 0.13172589994884221 -0.058040934670003222 0 0.12097825472163019 -0.082866827960167977 0 0.1102306094944184 -0.1076927212503327 0 0.12097825472163019 -0.082866827960167977 0 0.1102306094944184 -0.1076927212503327 0 0.1271178087547086 -0.1045219999468068 0 0.093009708408021224 -0.098982610040675739 0 0.091876290340570169 -0.11188136896506599 0 0.1102306094944184 -0.1076927212503327 0 0.093009708408021224 -0.098982610040675739 0 0.12097825472163019 -0.082866827960167977 0 0.1102306094944184 -0.1076927212503327 0 0.093009708408021224 -0.098982610040675739 0 0.1102306094944184 -0.1076927212503327 0 0.1010445581553322 -0.1289115022466312 0 0.1102306094944184 -0.1076927212503327 0 0.1166627140844461 -0.12317840718842921 0 0.1010445581553322 -0.1289115022466312 0 0.1102306094944184 -0.1076927212503327 0 0.1010445581553322 -0.1289115022466312 0 0.091876290340570169 -0.11188136896506599 0 0.1102306094944184 -0.1076927212503327 0 0.1102306094944184 -0.1076927212503327 0 0.133017444566952 -0.1192180105834534 0 0.1271178087547086 -0.1045219999468068 0 0.1102306094944184 -0.1076927212503327 0 0.1166627140844461 -0.12317840718842921 0 0.133017444566952 -0.1192180105834534 0 0.1102306094944184 -0.1076927212503327 0 0.133017444566952 -0.1192180105834534 0 0.133017444566952 -0.1192180105834534 0 0.14623067558927011 -0.111872282789342 0 0.1271178087547086 -0.1045219999468068 0 0.133017444566952 -0.1192180105834534 0 0.15580427963948459 -0.13074329991657599 0 0.133017444566952 -0.1192180105834534 0 0.14623067558927011 -0.111872282789342 0 0.15580427963948459 -0.13074329991657599 0 0.14623067558927011 -0.111872282789342 0 0.16083371385183221 -0.1079607019865878 0 0.15580427963948459 -0.13074329991657599 0 0.14623067558927011 -0.111872282789342 0 0.14055928772980181 -0.097858555568441724 0 0.16083371385183221 -0.1079607019865878 0 0.14055928772980181 -0.097858555568441724 0 0.15312601329342729 -0.089083029737095004 0 0.16083371385183221 -0.1079607019865878 0 0.14623067558927011 -0.111872282789342 0 0.1271178087547086 -0.1045219999468068 0 0.14055928772980181 -0.097858555568441724 0 0.12097825472163019 -0.082866827960167977 0 0.1271178087547086 -0.1045219999468068 0 0.14055928772980181 -0.097858555568441724 0 0.12097825472163019 -0.082866827960167977 0 0.14055928772980181 -0.097858555568441724 0 0.1427415809892903 -0.080563895116889217 0 0.12097825472163019 -0.082866827960167977 0 0.13983341075789141 -0.068785326075662498 0 0.1427415809892903 -0.080563895116889217 0 0.12097825472163019 -0.082866827960167977 0 0.13983341075789141 -0.068785326075662498 0 0.13172589994884221 -0.058040934670003222 0 0.12097825472163019 -0.082866827960167977 0 0.13172589994884221 -0.058040934670003222 0 0.13983341075789141 -0.068785326075662498 0 0.1427415809892903 -0.080563895116889217 0 0.1580912292930067 -0.069220958501148788 0 0.13983341075789141 -0.068785326075662498 0 0.1580912292930067 -0.069220958501148788 0 0.14563008883668771 -0.053234014130103272 0 0.14055928772980181 -0.097858555568441724 0 0.15312601329342729 -0.089083029737095004 0 0.1427415809892903 -0.080563895116889217 0 0.15312601329342729 -0.089083029737095004 0 0.1427415809892903 -0.080563895116889217 0 0.1580912292930067 -0.069220958501148788 0 0.15312601329342729 -0.089083029737095004 0 0.16611768317809661 -0.085235789553424701 0 0.1580912292930067 -0.069220958501148788 0 0.15312601329342729 -0.089083029737095004 0 0.16611768317809661 -0.085235789553424701 0 0.1692871414173982 -0.097197478018371586 0 0.16611768317809661 -0.085235789553424701 0 0.17801554475282419 -0.088913047863099615 0 0.1692871414173982 -0.097197478018371586 0 0.1580912292930067 -0.069220958501148788 0 0.17429076779252869 -0.075574739804748187 0 0.1716897414112411 -0.061723287548456109 0 0.16611768317809661 -0.085235789553424701 0 0.1580912292930067 -0.069220958501148788 0 0.17429076779252869 -0.075574739804748187 0 0.17429076779252869 -0.075574739804748187 0 0.18481170982967171 -0.067676730807396973 0 0.1716897414112411 -0.061723287548456109 0 0.17429076779252869 -0.075574739804748187 0 0.18481170982967171 -0.067676730807396973 0 0.1870186982903321 -0.080678624554962997 0 0.16611768317809661 -0.085235789553424701 0 0.17429076779252869 -0.075574739804748187 0 0.17801554475282419 -0.088913047863099615 0 0.17429076779252869 -0.075574739804748187 0 0.17801554475282419 -0.088913047863099615 0 0.1870186982903321 -0.080678624554962997 0 0.17801554475282419 -0.088913047863099615 0 0.18708874051528279 -0.091313536493609834 0 0.1823941263112423 -0.099771960353851274 0 0.17801554475282419 -0.088913047863099615 0 0.1870186982903321 -0.080678624554962997 0 0.18708874051528279 -0.091313536493609834 0 0.18708874051528279 -0.091313536493609834 0 0.1823941263112423 -0.099771960353851274 0 0.19288381683700581 -0.099013186369109427 0 0.17801554475282419 -0.088913047863099615 0 0.1823941263112423 -0.099771960353851274 0 0.1692871414173982 -0.097197478018371586 0 0.1823941263112423 -0.099771960353851274 0 0.1763428052116352 -0.112427921217657 0 0.1692871414173982 -0.097197478018371586 0 0.1823941263112423 -0.099771960353851274 0 0.1763428052116352 -0.112427921217657 0 0.18826566950959309 -0.1072515470169968 0 0.1763428052116352 -0.112427921217657 0 0.19219412566717939 -0.1176653685476937 0 0.18826566950959309 -0.1072515470169968 0 0.1763428052116352 -0.112427921217657 0 0.19219412566717939 -0.1176653685476937 0 0.182022956505311 -0.1273449289036277 0 0.1763428052116352 -0.112427921217657 0 0.15580427963948459 -0.13074329991657599 0 0.182022956505311 -0.1273449289036277 0 0.1763428052116352 -0.112427921217657 0 0.16083371385183221 -0.1079607019865878 0 0.15580427963948459 -0.13074329991657599 0 0.15312601329342729 -0.089083029737095004 0 0.16083371385183221 -0.1079607019865878 0 0.1692871414173982 -0.097197478018371586 0 0.1763428052116352 -0.112427921217657 0 0.16083371385183221 -0.1079607019865878 0 0.1692871414173982 -0.097197478018371586 0 0.1579507192313461 0.0025355498805747921 0 0.1482479430989522 -0.019876809272412071 0 0.1579507192313461 0.0025355498805747921 0 0.1454750608441174 -0.0051677832411170417 0 0.1482479430989522 -0.019876809272412071 0 0.1454750608441174 -0.0051677832411170417 0 0.1378535172181547 -0.012522851114620179 0 0.1482479430989522 -0.019876809272412071 0 0.1487119162446438 0.0039635729940632582 0 0.135234418882348 0.001091121526172267 0 0.1454750608441174 -0.0051677832411170417 0 0.135234418882348 0.001091121526172267 0 0.1454750608441174 -0.0051677832411170417 0 0.1378535172181547 -0.012522851114620179 0 0.1165810207984305 0.0016467845144158069 0 0.135234418882348 0.001091121526172267 0 0.1253515901131961 -0.01406323671609276 0 0.135234418882348 0.001091121526172267 0 0.1253515901131961 -0.01406323671609276 0 0.1378535172181547 -0.012522851114620179 0 0.1253515901131961 -0.01406323671609276 0 0.1378535172181547 -0.012522851114620179 0 0.13839874016969389 -0.024205398177381911 0 0.11281417740379721 -0.037866355664418441 0 0.1253515901131961 -0.01406323671609276 0 0.13839874016969389 -0.024205398177381911 0 0.1482479430989522 -0.019876809272412071 0 0.14247354517605859 -0.033215041379840479 0 0.1482479430989522 -0.019876809272412071 0 0.14247354517605859 -0.033215041379840479 0 0.1673217154536728 -0.029318240536167849 0 0.13839874016969389 -0.024205398177381911 0 0.1482479430989522 -0.019876809272412071 0 0.14247354517605859 -0.033215041379840479 0 0.13839874016969389 -0.024205398177381911 0 0.1482479430989522 -0.019876809272412071 0 0.1378535172181547 -0.012522851114620179 0 0.13839874016969389 -0.024205398177381911 0 0.1482479430989522 -0.019876809272412071 0 0.1561550467802324 -0.039423528755743231 0 0.14247354517605859 -0.033215041379840479 0 0.1673217154536728 -0.029318240536167849 0 0.14247354517605859 -0.033215041379840479 0 0.1673217154536728 -0.029318240536167849 0 0.1561550467802324 -0.039423528755743231 0 0.14247354517605859 -0.033215041379840479 0 0.14563008883668771 -0.053234014130103272 0 0.11281417740379721 -0.037866355664418441 0 0.14247354517605859 -0.033215041379840479 0 0.11281417740379721 -0.037866355664418441 0 0.14247354517605859 -0.033215041379840479 0 0.13172589994884221 -0.058040934670003222 0 0.11281417740379721 -0.037866355664418441 0 0.13839874016969389 -0.024205398177381911 0 0.14247354517605859 -0.033215041379840479 0 0.14247354517605859 -0.033215041379840479 0 0.13172589994884221 -0.058040934670003222 0 0.14247354517605859 -0.033215041379840479 0 0.13172589994884221 -0.058040934670003222 0 0.14563008883668771 -0.053234014130103272 0 0.13983341075789141 -0.068785326075662498 0 0.13172589994884221 -0.058040934670003222 0 0.14563008883668771 -0.053234014130103272 0 0.1580912292930067 -0.069220958501148788 0 0.14563008883668771 -0.053234014130103272 0 0.1623774474297156 -0.05515902740787778 0 0.14563008883668771 -0.053234014130103272 0 0.16919483765451021 -0.04192681897685871 0 0.14563008883668771 -0.053234014130103272 0 0.1623774474297156 -0.05515902740787778 0 0.16919483765451021 -0.04192681897685871 0 0.1580912292930067 -0.069220958501148788 0 0.1623774474297156 -0.05515902740787778 0 0.1716897414112411 -0.061723287548456109 0 0.1623774474297156 -0.05515902740787778 0 0.17110390253770871 -0.052609278838107697 0 0.16919483765451021 -0.04192681897685871 0 0.1623774474297156 -0.05515902740787778 0 0.17110390253770871 -0.052609278838107697 0 0.1716897414112411 -0.061723287548456109 0 0.17110390253770871 -0.052609278838107697 0 0.1716897414112411 -0.061723287548456109 0 0.18115358365536791 -0.051627981419238252 0 0.18481170982967171 -0.067676730807396973 0 0.1716897414112411 -0.061723287548456109 0 0.18115358365536791 -0.051627981419238252 0 0.18481170982967171 -0.067676730807396973 0 0.18115358365536791 -0.051627981419238252 0 0.19634308251299201 -0.062207971871565688 0 0.17110390253770871 -0.052609278838107697 0 0.18115358365536791 -0.051627981419238252 0 0.16919483765451021 -0.04192681897685871 0 0.18115358365536791 -0.051627981419238252 0 0.16919483765451021 -0.04192681897685871 0 0.19275958647233299 -0.03061962382361447 0 0.16919483765451021 -0.04192681897685871 0 0.1673217154536728 -0.029318240536167849 0 0.19275958647233299 -0.03061962382361447 0 0.16919483765451021 -0.04192681897685871 0 0.19275958647233299 -0.03061962382361447 0 0.1561550467802324 -0.039423528755743231 0 0.16919483765451021 -0.04192681897685871 0 0.1673217154536728 -0.029318240536167849 0 0.1561550467802324 -0.039423528755743231 0 0.14563008883668771 -0.053234014130103272 0 0.16919483765451021 -0.04192681897685871 0 0.1482479430989522 -0.019876809272412071 0 0.1673217154536728 -0.029318240536167849 0 0.168866438714389 -0.01081526469878645 0 0.1673217154536728 -0.029318240536167849 0 0.168866438714389 -0.01081526469878645 0 0.19216988573128629 -0.025421439692492449 0 0.1673217154536728 -0.029318240536167849 0 0.19216988573128629 -0.025421439692492449 0 0.19275958647233299 -0.03061962382361447 0 0.1673217154536728 -0.029318240536167849 0 0.19216988573128629 -0.025421439692492449 0 0.168866438714389 -0.01081526469878645 0 0.1894849343298263 -0.0017537201251617909 0 0.19216988573128629 -0.025421439692492449 0 0.168866438714389 -0.01081526469878645 0 0.1894849343298263 -0.0017537201251617909 0 0.17427265032816189 0.0062943587249405077 0 0.168866438714389 -0.01081526469878645 0 0.1894849343298263 -0.0017537201251617909 0 0.1482479430989522 -0.019876809272412071 0 0.168866438714389 -0.01081526469878645 0 0.17427265032816189 0.0062943587249405077 0 0.1579507192313461 0.0025355498805747921 0 0.168866438714389 -0.01081526469878645 0 0.1579507192313461 0.0025355498805747921 0 0.1482479430989522 -0.019876809272412071 0 0.168866438714389 -0.01081526469878645 0 0.21638436253333779 0.010068207731140181 0 0.2083029964389638 -0.0070788741920749356 0 0.2272738753587025 -0.0034298001956333431 0 0.2083029964389638 -0.0070788741920749356 0 0.21838690647803219 -0.018322734482704651 0 0.2272738753587025 -0.0034298001956333431 0 0.2083029964389638 -0.0070788741920749356 0 0.19977415589163469 -0.014253582951450071 0 0.20913880706646509 -0.02276029779608138 0 0.1894849343298263 -0.0017537201251617909 0 0.19977415589163469 -0.014253582951450071 0 0.19216988573128629 -0.025421439692492449 0 0.2083029964389638 -0.0070788741920749356 0 0.1894849343298263 -0.0017537201251617909 0 0.19977415589163469 -0.014253582951450071 0 0.1894849343298263 -0.0017537201251617909 0 0.19216988573128629 -0.025421439692492449 0 0.19216988573128629 -0.025421439692492449 0 0.20913880706646509 -0.02276029779608138 0 0.19275958647233299 -0.03061962382361447 0 0.20913880706646509 -0.02276029779608138 0 0.20595459348747791 -0.03712145286389805 0 0.19216988573128629 -0.025421439692492449 0 0.19275958647233299 -0.03061962382361447 0 0.20913880706646509 -0.02276029779608138 0 0.19977415589163469 -0.014253582951450071 0 0.19216988573128629 -0.025421439692492449 0 0.20913880706646509 -0.02276029779608138 0 0.19275958647233299 -0.03061962382361447 0 0.20913880706646509 -0.02276029779608138 0 0.19216988573128629 -0.025421439692492449 0 0.19275958647233299 -0.03061962382361447 0 0.2083029964389638 -0.0070788741920749356 0 0.20913880706646509 -0.02276029779608138 0 0.21838690647803219 -0.018322734482704651 0 0.20913880706646509 -0.02276029779608138 0 0.21838690647803219 -0.018322734482704651 0 0.20913880706646509 -0.02276029779608138 0 0.20595459348747791 -0.03712145286389805 0 0.2218984106255398 -0.03674520791791587 0 0.20595459348747791 -0.03712145286389805 0 0.2092026749394417 -0.052750415175054119 0 0.2218984106255398 -0.03674520791791587 0 0.20595459348747791 -0.03712145286389805 0 0.1945513344926631 -0.046413797847590012 0 0.2092026749394417 -0.052750415175054119 0 0.19275958647233299 -0.03061962382361447 0 0.20595459348747791 -0.03712145286389805 0 0.1945513344926631 -0.046413797847590012 0 0.18115358365536791 -0.051627981419238252 0 0.19275958647233299 -0.03061962382361447 0 0.1945513344926631 -0.046413797847590012 0 0.19275958647233299 -0.03061962382361447 0 0.1945513344926631 -0.046413797847590012 0 0.18115358365536791 -0.051627981419238252 0 0.1945513344926631 -0.046413797847590012 0 0.19634308251299201 -0.062207971871565688 0 0.1945513344926631 -0.046413797847590012 0 0.19634308251299201 -0.062207971871565688 0 0.2092026749394417 -0.052750415175054119 0 0.1945513344926631 -0.046413797847590012 0 0.19634308251299201 -0.062207971871565688 0 0.2092026749394417 -0.052750415175054119 0 0.2281935913887615 -0.051438326942707967 0 0.21552096976519991 -0.069375333037005743 0 0.19634308251299201 -0.062207971871565688 0 0.2092026749394417 -0.052750415175054119 0 0.21552096976519991 -0.069375333037005743 0 0.2092026749394417 -0.052750415175054119 0 0.2281935913887615 -0.051438326942707967 0 0.2218984106255398 -0.03674520791791587 0 0.25614171351425058 -0.057605891013993667 0 0.2281935913887615 -0.051438326942707967 0 0.24403893135934571 -0.037256147821468667 0 0.25614171351425058 -0.057605891013993667 0 0.2281935913887615 -0.051438326942707967 0 0.23627725293254651 -0.070464987920239364 0 0.2281935913887615 -0.051438326942707967 0 0.24403893135934571 -0.037256147821468667 0 0.2218984106255398 -0.03674520791791587 0 0.20913880706646509 -0.02276029779608138 0 0.23568338412272111 -0.018597458878268708 0 0.24403893135934571 -0.037256147821468667 0 0.2218984106255398 -0.03674520791791587 0 0.23568338412272111 -0.018597458878268708 0 0.20913880706646509 -0.02276029779608138 0 0.21838690647803219 -0.018322734482704651 0 0.23568338412272111 -0.018597458878268708 0 0.20913880706646509 -0.02276029779608138 0 0.2218984106255398 -0.03674520791791587 0 0.23568338412272111 -0.018597458878268708 0 0.26222796117897867 -0.01443461996046645 0 0.23568338412272111 -0.018597458878268708 0 0.26222796117897867 -0.01443461996046645 0 0.24403893135934571 -0.037256147821468667 0 0.23568338412272111 -0.018597458878268708 0 0.24502883806765671 0.008523642691556723 0 0.26222796117897867 -0.01443461996046645 0 0.23568338412272111 -0.018597458878268708 0 0.24502883806765671 0.008523642691556723 0 0.23568338412272111 -0.018597458878268708 0 0.2272738753587025 -0.0034298001956333431 0 0.21838690647803219 -0.018322734482704651 0 0.23568338412272111 -0.018597458878268708 0 0.2272738753587025 -0.0034298001956333431 0 0.20540889828322151 -0.10142466887451269 0 0.20347837142517819 -0.09216645516700113 0 0.22897962942591391 -0.091776685827334115 0 0.20540889828322151 -0.10142466887451269 0 0.22897962942591391 -0.091776685827334115 0 0.20540889828322151 -0.10142466887451269 0 0.20242655532676829 -0.09879575750060697 0 0.20347837142517819 -0.09216645516700113 0 0.20540889828322151 -0.10142466887451269 0 0.20347837142517819 -0.09216645516700113 0 0.20540889828322151 -0.10142466887451269 0 0.20960941033162209 -0.1215690341616736 0 0.19751347352090301 -0.1073792985966727 0 0.20540889828322151 -0.10142466887451269 0 0.20960941033162209 -0.1215690341616736 0 0.20540889828322151 -0.10142466887451269 0 0.20960941033162209 -0.1215690341616736 0 0.2245211551662093 -0.111110891200297 0 0.20960941033162209 -0.1215690341616736 0 0.19219412566717939 -0.1176653685476937 0 0.19663385095045691 -0.1340444436335366 0 0.20960941033162209 -0.1215690341616736 0 0.19219412566717939 -0.1176653685476937 0 0.19751347352090301 -0.1073792985966727 0 0.19219412566717939 -0.1176653685476937 0 0.18826566950959309 -0.1072515470169968 0 0.19751347352090301 -0.1073792985966727 0 0.18826566950959309 -0.1072515470169968 0 0.19751347352090301 -0.1073792985966727 0 0.19288381683700581 -0.099013186369109427 0 0.1823941263112423 -0.099771960353851274 0 0.18826566950959309 -0.1072515470169968 0 0.19288381683700581 -0.099013186369109427 0 0.19751347352090301 -0.1073792985966727 0 0.19954311593638749 -0.1020108342101758 0 0.19288381683700581 -0.099013186369109427 0 0.20540889828322151 -0.10142466887451269 0 0.19751347352090301 -0.1073792985966727 0 0.19954311593638749 -0.1020108342101758 0 0.19890727225034921 -0.096700927837444647 0 0.19288381683700581 -0.099013186369109427 0 0.1951315163850097 -0.088190863327025804 0 0.20242655532676829 -0.09879575750060697 0 0.19890727225034921 -0.096700927837444647 0 0.20347837142517819 -0.09216645516700113 0 0.19954311593638749 -0.1020108342101758 0 0.20242655532676829 -0.09879575750060697 0 0.19890727225034921 -0.096700927837444647 0 0.20540889828322151 -0.10142466887451269 0 0.19954311593638749 -0.1020108342101758 0 0.20242655532676829 -0.09879575750060697 0 0.19954311593638749 -0.1020108342101758 0 0.19890727225034921 -0.096700927837444647 0 0.19288381683700581 -0.099013186369109427 0 0.1870186982903321 -0.080678624554962997 0 0.18708874051528279 -0.091313536493609834 0 0.1951315163850097 -0.088190863327025804 0 0.18708874051528279 -0.091313536493609834 0 0.19288381683700581 -0.099013186369109427 0 0.1951315163850097 -0.088190863327025804 0 0.1870186982903321 -0.080678624554962997 0 0.1951315163850097 -0.088190863327025804 0 0.20038214361396001 -0.07556911874832746 0 0.1951315163850097 -0.088190863327025804 0 0.20038214361396001 -0.07556911874832746 0 0.2092981835950469 -0.082493302700044152 0 0.19890727225034921 -0.096700927837444647 0 0.1951315163850097 -0.088190863327025804 0 0.20347837142517819 -0.09216645516700113 0 0.1951315163850097 -0.088190863327025804 0 0.20347837142517819 -0.09216645516700113 0 0.2092981835950469 -0.082493302700044152 0 0.18481170982967171 -0.067676730807396973 0 0.19634308251299201 -0.062207971871565688 0 0.20038214361396001 -0.07556911874832746 0 0.18481170982967171 -0.067676730807396973 0 0.1870186982903321 -0.080678624554962997 0 0.20038214361396001 -0.07556911874832746 0 0.19634308251299201 -0.062207971871565688 0 0.20038214361396001 -0.07556911874832746 0 0.21552096976519991 -0.069375333037005743 0 0.20038214361396001 -0.07556911874832746 0 0.21552096976519991 -0.069375333037005743 0 0.2092981835950469 -0.082493302700044152 0 0.20347837142517819 -0.09216645516700113 0 0.2092981835950469 -0.082493302700044152 0 0.22897962942591391 -0.091776685827334115 0 0.21552096976519991 -0.069375333037005743 0 0.2092981835950469 -0.082493302700044152 0 0.22897962942591391 -0.091776685827334115 0 0.2281935913887615 -0.051438326942707967 0 0.21552096976519991 -0.069375333037005743 0 0.23627725293254651 -0.070464987920239364 0 0.21552096976519991 -0.069375333037005743 0 0.22897962942591391 -0.091776685827334115 0 0.23627725293254651 -0.070464987920239364 0 0.25255036056860641 -0.082128702780155355 0 0.25614171351425058 -0.057605891013993667 0 0.23627725293254651 -0.070464987920239364 0 0.25255036056860641 -0.082128702780155355 0 0.22897962942591391 -0.091776685827334115 0 0.23627725293254651 -0.070464987920239364 0 0.25255036056860641 -0.082128702780155355 0 0.22897962942591391 -0.091776685827334115 0 0.25255036056860641 -0.082128702780155355 0 0.22897962942591391 -0.091776685827334115 0 0.24916261720829391 -0.1128410760226309 0 0.22897962942591391 -0.091776685827334115 0 0.2245211551662093 -0.111110891200297 0 0.24916261720829391 -0.1128410760226309 0 0.20540889828322151 -0.10142466887451269 0 0.22897962942591391 -0.091776685827334115 0 0.2245211551662093 -0.111110891200297 0 0.20960941033162209 -0.1215690341616736 0 0.2245211551662093 -0.111110891200297 0 0.2294452205819951 -0.12794299111533369 0 0.2245211551662093 -0.111110891200297 0 0.24916261720829391 -0.1128410760226309 0 0.2294452205819951 -0.12794299111533369 0 0.24916261720829391 -0.1128410760226309 0 0.24384523969761221 -0.14863354701755199 0 0.2294452205819951 -0.12794299111533369 0 0.24384523969761221 -0.14863354701755199 0 0.21380992238002369 -0.1417133994488344 0 0.2180104344284243 -0.16185776473599539 0 0.24384523969761221 -0.14863354701755199 0 0.2180104344284243 -0.16185776473599539 0 0.24384523969761221 -0.14863354701755199 0 0.2294452205819951 -0.12794299111533369 0 0.21380992238002369 -0.1417133994488344 0 0.20960941033162209 -0.1215690341616736 0 0.21380992238002369 -0.1417133994488344 0 0.19663385095045691 -0.1340444436335366 0 0.20960941033162209 -0.1215690341616736 0 0.2294452205819951 -0.12794299111533369 0 0.21380992238002369 -0.1417133994488344 0 0.20960941033162209 -0.1215690341616736 0 0.21380992238002369 -0.1417133994488344 0 0.21380992238002369 -0.1417133994488344 0 0.2013779497845499 -0.15379387858282129 0 0.2180104344284243 -0.16185776473599539 0 0.21380992238002369 -0.1417133994488344 0 0.2180104344284243 -0.16185776473599539 0 0.21380992238002369 -0.1417133994488344 0 0.2013779497845499 -0.15379387858282129 0 0.19663385095045691 -0.1340444436335366 0 0.2013779497845499 -0.15379387858282129 0 0.19663385095045691 -0.1340444436335366 0 0.17859111471201719 -0.14226858924969871 0 0.2013779497845499 -0.15379387858282129 0 0.17859111471201719 -0.14226858924969871 0 0.19219412566717939 -0.1176653685476937 0 0.19663385095045691 -0.1340444436335366 0 0.182022956505311 -0.1273449289036277 0 0.19958609295615001 -0.1712887436193041 0 0.2006224909986751 -0.18986371226117729 0 0.17918744399911579 -0.18386343756749071 0 0.2013779497845499 -0.15379387858282129 0 0.19958609295615001 -0.1712887436193041 0 0.18048734692316329 -0.16221665802066121 0 0.19958609295615001 -0.1712887436193041 0 0.2180104344284243 -0.16185776473599539 0 0.2013779497845499 -0.15379387858282129 0 0.19958609295615001 -0.1712887436193041 0 0.2180104344284243 -0.16185776473599539 0 0.19958609295615001 -0.1712887436193041 0 0.2180104344284243 -0.16185776473599539 0 0.22281003446497841 -0.18487517196028511 0 0.19958609295615001 -0.1712887436193041 0 0.22281003446497841 -0.18487517196028511 0 0.2006224909986751 -0.18986371226117729 0 0.22281003446497841 -0.18487517196028511 0 0.23570096642844829 -0.1722258792539898 0 0.24002367982415451 -0.19374267904470141 0 0.2180104344284243 -0.16185776473599539 0 0.22281003446497841 -0.18487517196028511 0 0.2180104344284243 -0.16185776473599539 0 0.22281003446497841 -0.18487517196028511 0 0.23570096642844829 -0.1722258792539898 0 0.24384523969761221 -0.14863354701755199 0 0.2180104344284243 -0.16185776473599539 0 0.23570096642844829 -0.1722258792539898 0 0.25706624972303532 -0.17543805633142839 0 0.24384523969761221 -0.14863354701755199 0 0.23570096642844829 -0.1722258792539898 0 0.25706624972303532 -0.17543805633142839 0 0.23570096642844829 -0.1722258792539898 0 0.24002367982415451 -0.19374267904470141 0 0.25071911215742437 -0.20927805116274709 0 0.25474998502698032 -0.19691874005317461 0 0.24002367982415451 -0.19374267904470141 0 0.24002367982415451 -0.19374267904470141 0 0.23964594955867069 -0.21305705247066661 0 0.22760963450153149 -0.20789257918457499 0 0.25071911215742437 -0.20927805116274709 0 0.24002367982415451 -0.19374267904470141 0 0.23964594955867069 -0.21305705247066661 0 0.25071911215742437 -0.20927805116274709 0 0.23964594955867069 -0.21305705247066661 0 0.2474680867721589 -0.22346196655244499 0 0.22760963450153149 -0.20789257918457499 0 0.2324092345380846 -0.2309099864088649 0 0.2172926040389781 -0.21383878327938241 0 0.23964594955867069 -0.21305705247066661 0 0.22760963450153149 -0.20789257918457499 0 0.2324092345380846 -0.2309099864088649 0 0.22760963450153149 -0.20789257918457499 0 0.2152960022182086 -0.19845111230496201 0 0.2172926040389781 -0.21383878327938241 0 0.22281003446497841 -0.18487517196028511 0 0.22760963450153149 -0.20789257918457499 0 0.2152960022182086 -0.19845111230496201 0 0.22281003446497841 -0.18487517196028511 0 0.24002367982415451 -0.19374267904470141 0 0.22760963450153149 -0.20789257918457499 0 0.22281003446497841 -0.18487517196028511 0 0.22760963450153149 -0.20789257918457499 0 0.2538276387990735 -0.243986156319283 0 0.2448903888819314 -0.25274008289494182 0 0.24490165686425211 -0.23528228860034259 0 0.2448903888819314 -0.25274008289494182 0 0.2355561727938057 -0.24422168856868201 0 0.24490165686425211 -0.23528228860034259 0 0.2355561727938057 -0.24422168856868201 0 0.24490165686425211 -0.23528228860034259 0 0.2324092345380846 -0.2309099864088649 0 0.23964594955867069 -0.21305705247066661 0 0.2474680867721589 -0.22346196655244499 0 0.2324092345380846 -0.2309099864088649 0 0.24490165686425211 -0.23528228860034259 0 0.2474680867721589 -0.22346196655244499 0 0.2324092345380846 -0.2309099864088649 0 0.25700636866691529 -0.23229792619875059 0 0.24490165686425211 -0.23528228860034259 0 0.2474680867721589 -0.22346196655244499 0 0.22760963450153149 -0.20789257918457499 0 0.2324092345380846 -0.2309099864088649 0 0.2324092345380846 -0.2309099864088649 0 0.21494616059445251 -0.23041102710637271 0 0.2172926040389781 -0.21383878327938241 0 0.2324092345380846 -0.2309099864088649 0 0.22036553595057129 -0.24563164019566869 0 0.21494616059445251 -0.23041102710637271 0 0.2355561727938057 -0.24422168856868201 0 0.2324092345380846 -0.2309099864088649 0 0.22036553595057129 -0.24563164019566869 0 0.23102541472123911 -0.25599355796250051 0 0.2355561727938057 -0.24422168856868201 0 0.22036553595057129 -0.24563164019566869 0 0.22036553595057129 -0.24563164019566869 0 0.21494616059445251 -0.23041102710637271 0 0.20176664847045861 -0.23953523052850459 0 0.20456781783476069 -0.25396670583710529 0 0.22036553595057129 -0.24563164019566869 0 0.20176664847045861 -0.23953523052850459 0 0.21494616059445251 -0.23041102710637271 0 0.2028374203940165 -0.22282397125293019 0 0.20176664847045861 -0.23953523052850459 0 0.21494616059445251 -0.23041102710637271 0 0.2028374203940165 -0.22282397125293019 0 0.2172926040389781 -0.21383878327938241 0 0.2028374203940165 -0.22282397125293019 0 0.20176664847045861 -0.23953523052850459 0 0.180860691138753 -0.229284827934296 0 0.2028374203940165 -0.22282397125293019 0 0.19243212961953191 -0.20935490071974269 0 0.180860691138753 -0.229284827934296 0 0.20456781783476069 -0.25396670583710529 0 0.1786538332685523 -0.25460290197261742 0 0.20176664847045861 -0.23953523052850459 0 0.22281003446497841 -0.18487517196028511 0 0.2152960022182086 -0.19845111230496201 0 0.2006224909986751 -0.18986371226117729 0 0.2172926040389781 -0.21383878327938241 0 0.19243212961953191 -0.20935490071974269 0 0.2152960022182086 -0.19845111230496201 0 0.2172926040389781 -0.21383878327938241 0 0.19243212961953191 -0.20935490071974269 0 0.2028374203940165 -0.22282397125293019 0 0.2172926040389781 -0.21383878327938241 0 0.19243212961953191 -0.20935490071974269 0 0.19243212961953191 -0.20935490071974269 0 0.2006224909986751 -0.18986371226117729 0 0.17918744399911579 -0.18386343756749071 0 0.2152960022182086 -0.19845111230496201 0 0.19243212961953191 -0.20935490071974269 0 0.2006224909986751 -0.18986371226117729 0 0.19243212961953191 -0.20935490071974269 0 0.1675716552000856 -0.20487101816010289 0 0.17918744399911579 -0.18386343756749071 0 0.19243212961953191 -0.20935490071974269 0 0.1675716552000856 -0.20487101816010289 0 0.180860691138753 -0.229284827934296 0 0.19243212961953191 -0.20935490071974269 0 0.1675716552000856 -0.20487101816010289 0 0.1675716552000856 -0.20487101816010289 0 0.180860691138753 -0.229284827934296 0 0.15233523535079951 -0.21949393654088839 0 0.1675716552000856 -0.20487101816010289 0 0.15865281233934739 -0.1879987783120862 0 0.14271118078063949 -0.20038713560046309 0 0.1675716552000856 -0.20487101816010289 0 0.15865281233934739 -0.1879987783120862 0 0.17918744399911579 -0.18386343756749071 0 0.1786538332685523 -0.25460290197261742 0 0.20176664847045861 -0.23953523052850459 0 0.180860691138753 -0.229284827934296 0 0.180860691138753 -0.229284827934296 0 0.1557025531150017 -0.2413313336981292 0 0.15233523535079951 -0.21949393654088839 0 0.1786538332685523 -0.25460290197261742 0 0.180860691138753 -0.229284827934296 0 0.1557025531150017 -0.2413313336981292 0 0.1786538332685523 -0.25460290197261742 0 0.1557025531150017 -0.2413313336981292 0 0.1557025531150017 -0.2413313336981292 0 0.13275127296145109 -0.22805976542364101 0 0.13475341233392191 -0.24985250807845871 0 0.1557025531150017 -0.2413313336981292 0 0.13275127296145109 -0.22805976542364101 0 0.1557025531150017 -0.2413313336981292 0 0.15233523535079951 -0.21949393654088839 0 0.13275127296145109 -0.22805976542364101 0 0.15233523535079951 -0.21949393654088839 0 0.13275127296145109 -0.22805976542364101 0 0.1370014246331587 -0.21394691032012511 0 0.1154050387073919 -0.2358942627654679 0 0.13275127296145109 -0.22805976542364101 0 0.13475341233392191 -0.24985250807845871 0 0.1675716552000856 -0.20487101816010289 0 0.14271118078063949 -0.20038713560046309 0 0.15865281233934739 -0.1879987783120862 0 0.14271118078063949 -0.20038713560046309 0 0.1436852153571099 -0.18149983091375249 0 0.1675716552000856 -0.20487101816010289 0 0.15233523535079951 -0.21949393654088839 0 0.14271118078063949 -0.20038713560046309 0 0.15233523535079951 -0.21949393654088839 0 0.14271118078063949 -0.20038713560046309 0 0.1370014246331587 -0.21394691032012511 0 0.12020800943974461 -0.20784680371550801 0 0.14271118078063949 -0.20038713560046309 0 0.1370014246331587 -0.21394691032012511 0 0.12020800943974461 -0.20784680371550801 0 0.13275127296145109 -0.22805976542364101 0 0.1370014246331587 -0.21394691032012511 0 0.11785070636119339 -0.19590325304082329 0 0.12020800943974461 -0.20784680371550801 0 0.14271118078063949 -0.20038713560046309 0 0.11785070636119339 -0.19590325304082329 0 0.14271118078063949 -0.20038713560046309 0 0.11785070636119339 -0.19590325304082329 0 0.14271118078063949 -0.20038713560046309 0 0.12988750288688269 -0.18741504762509861 0 0.14271118078063949 -0.20038713560046309 0 0.12988750288688269 -0.18741504762509861 0 0.1436852153571099 -0.18149983091375249 0 0.12988750288688269 -0.18741504762509861 0 0.126570689701412 -0.17556766332277421 0 0.1436852153571099 -0.18149983091375249 0 0.126570689701412 -0.17556766332277421 0 0.1436852153571099 -0.18149983091375249 0 0.14041619973235189 -0.16727514079493491 0 0.1436852153571099 -0.18149983091375249 0 0.14041619973235189 -0.16727514079493491 0 0.16010856635978629 -0.16937246931862179 0 0.15865281233934739 -0.1879987783120862 0 0.1436852153571099 -0.18149983091375249 0 0.16010856635978629 -0.16937246931862179 0 0.14041619973235189 -0.16727514079493491 0 0.1471208766721411 -0.15145285098596889 0 0.16010856635978629 -0.16937246931862179 0 0.126570689701412 -0.17556766332277421 0 0.125390862628938 -0.15657497428360451 0 0.14041619973235189 -0.16727514079493491 0 0.125390862628938 -0.15657497428360451 0 0.14041619973235189 -0.16727514079493491 0 0.1471208766721411 -0.15145285098596889 0 0.123482910852498 -0.13777490984151949 0 0.125390862628938 -0.15657497428360451 0 0.13773546937481559 -0.13778397400650461 0 0.125390862628938 -0.15657497428360451 0 0.13773546937481559 -0.13778397400650461 0 0.1471208766721411 -0.15145285098596889 0 0.123482910852498 -0.13777490984151949 0 0.133017444566952 -0.1192180105834534 0 0.13773546937481559 -0.13778397400650461 0 0.133017444566952 -0.1192180105834534 0 0.13773546937481559 -0.13778397400650461 0 0.15580427963948459 -0.13074329991657599 0 0.13773546937481559 -0.13778397400650461 0 0.15580427963948459 -0.13074329991657599 0 0.1471208766721411 -0.15145285098596889 0 0.15580427963948459 -0.13074329991657599 0 0.1471208766721411 -0.15145285098596889 0 0.16407291372736091 -0.1527128297860304 0 0.15580427963948459 -0.13074329991657599 0 0.16407291372736091 -0.1527128297860304 0 0.17859111471201719 -0.14226858924969871 0 0.15580427963948459 -0.13074329991657599 0 0.17859111471201719 -0.14226858924969871 0 0.15580427963948459 -0.13074329991657599 0 0.182022956505311 -0.1273449289036277 0 0.17859111471201719 -0.14226858924969871 0 0.19663385095045691 -0.1340444436335366 0 0.182022956505311 -0.1273449289036277 0 0.17859111471201719 -0.14226858924969871 0 0.2013779497845499 -0.15379387858282129 0 0.17859111471201719 -0.14226858924969871 0 0.18048734692316329 -0.16221665802066121 0 0.16407291372736091 -0.1527128297860304 0 0.17859111471201719 -0.14226858924969871 0 0.18048734692316329 -0.16221665802066121 0 0.18048734692316329 -0.16221665802066121 0 0.17918744399911579 -0.18386343756749071 0 0.16010856635978629 -0.16937246931862179 0 0.19958609295615001 -0.1712887436193041 0 0.18048734692316329 -0.16221665802066121 0 0.17918744399911579 -0.18386343756749071 0 0.15865281233934739 -0.1879987783120862 0 0.17918744399911579 -0.18386343756749071 0 0.16010856635978629 -0.16937246931862179 0 0.1471208766721411 -0.15145285098596889 0 0.16407291372736091 -0.1527128297860304 0 0.16010856635978629 -0.16937246931862179 0 0.16407291372736091 -0.1527128297860304 0 0.18048734692316329 -0.16221665802066121 0 0.16010856635978629 -0.16937246931862179 0 
</DataArray>
</Points>
<Cells>
<DataArray type="UInt32" Name="connectivity" format="ascii">
0 1 2 3 4 5 6 7 8 9 10 11 12 13 14 15 16 17 18 19 20 21 22 23 24 25 26 27 28 29 30 31 32 33 34 35 36 37 38 39 40 41 42 43 44 45 46 47 48 49 50 51 52 53 54 55 56 57 58 59 60 61 62 63 64 65 66 67 68 69 70 71 72 73 74 75 76 77 78 79 80 81 82 83 84 85 86 87 88 89 90 91 92 93 94 95 96 97 98 99 100 101 102 103 104 105 106 107 108 109 110 111 112 113 114 115 116 117 118 119 120 121 122 123 124 125 126 127 128 129 130 131 132 133 134 135 136 137 138 139 140 141 142 143 144 145 146 147 148 149 150 151 152 153 154 155 156 157 158 159 160 161 162 163 164 165 166 167 168 169 170 171 172 173 174 175 176 177 178 179 180 181 182 183 184 185 186 187 188 189 190 191 192 193 194 195 196 197 198 199 200 201 202 203 204 205 206 207 208 209 210 211 212 213 214 215 216 217 218 219 220 221 222 223 224 225 226 227 228 229 230 231 232 233 234 235 236 237 238 239 240 241 242 243 244 245 246 247 248 249 250 251 252 253 254 255 256 257 258 259 260 261 262 263 264 265 266 267 268 269 270 271 272 273 274 275 276 277 278 279 280 281 282 283 284 285 286 287 288 289 290 291 292 293 294 295 296 297 298 299 300 301 302 303 304 305 306 307 308 309 310 311 312 313 314 315 316 317 318 319 320 321 322 323 324 325 326 327 328 329 330 331 332 333 334 335 336 337 338 339 340 341 342 343 344 345 346 347 348 349 350 351 352 353 354 355 356 357 358 359 360 361 362 363 364 365 366 367 368 369 370 371 372 373 374 375 376 377 378 379 380 381 382 383 384 385 386 387 388 389 390 391 392 393 394 395 396 397 398 399 400 401 402 403 404 405 406 407 408 409 410 411 412 413 414 415 416 417 418 419 420 421 422 423 424 425 426 427 428 429 430 431 432 433 434 435 436 437 438 439 440 441 442 443 444 445 446 447 448 449 450 451 452 453 454 455 456 457 458 459 460 461 462 463 464 465 466 467 468 469 470 471 472 473 474 475 476 477 478 479 480 481 482 483 484 485 486 487 488 489 490 491 492 493 494 495 496 497 498 499 500 501 502 503 504 505 506 507 508 509 510 511 512 513 514 515 516 517 518 519 520 521 522 523 524 525 526 527 528 529 530 531 532 533 534 535 536 537 538 539 540 541 542 543 544 545 546 547 548 549 550 551 552 553 554 555 556 557 558 559 560 561 562 563 564 565 566 567 568 569 570 571 572 573 574 575 576 577 578 579 580 581 582 583 584 585 586 587 588 589 590 591 592 593 594 595 596 597 598 599 600 601 602 603 604 605 606 607 608 609 610 611 612 613 614 615 616 617 618 619 620 621 622 623 624 625 626 627 628 629 630 631 632 633 634 635 636 637 638 639 640 641 642 643 644 645 646 647 648 649 650 651 652 653 654 655 656 657 658 659 660 661 662 663 664 665 666 667 668 669 670 671 672 673 674 675 676 677 678 679 680 681 682 683 684 685 686 687 688 689 690 691 692 693 694 695 696 697 698 699 700 701 702 703 704 705 706 707 708 709 710 711 712 713 714 715 716 717 718 719 720 721 722 723 724 725 726 727 728 729 730 731 732 733 734 735 736 737 738 739 740 741 742 743 744 745 746 747 748 749 750 751 752 753 754 755 756 757 758 759 760 761 762 763 764 765 766 767 768 769 770 771 772 773 774 775 776 777 778 779 780 781 782 783 784 785 786 787 788 789 790 791 792 793 794 795 796 797 798 799 800 801 802 803 804 805 806 807 808 809 810 811 812 813 814 815 816 817 818 819 820 821 822 823 824 825 826 827 828 829 830 831 832 833 834 835 836 837 838 839 840 841 842 843 844 845 846 847 848 849 850 851 852 853 854 855 856 857 858 859 860 861 862 863 864 865 866 867 868 869 870 871 872 873 874 875 876 877 878 879 880 881 882 883 884 885 886 887 888 889 890 891 892 893 894 895 896 897 898 899 900 901 902 903 904 905 906 907 908 909 910 911 912 913 914 915 916 917 918 919 920 921 922 923 924 925 926 927 928 929 930 931 932 933 934 935 936 937 938 939 940 941 942 943 944 945 946 947 948 949 950 951 952 953 954 955 956 957 958 959 960 961 962 963 964 965 966 967 968 969 970 971 972 973 974 975 976 977 978 979 980 981 982 983 984 985 986 987 988 989 990 991 992 993 994 995 996 997 998 999 1000 1001 1002 1003 1004 1005 1006 1007 1008 1009 1010 1011 1012 1013 1014 1015 1016 1017 1018 1019 1020 1021 1022 1023 1024 1025 1026 1027 1028 1029 1030 1031 1032 1033 1034 1035 1036 1037 1038 1039 1040 1041 1042 1043 1044 1045 1046 1047 1048 1049 1050 1051 1052 1053 1054 1055 1056 1057 1058 1059 1060 1061 1062 1063 1064 1065 1066 1067 1068 1069 1070 1071 1072 1073 1074 1075 1076 1077 1078 1079 1080 1081 1082 1083 1084 1085 1086 1087 1088 1089 1090 1091 1092 1093 1094 1095 1096 1097 1098 1099 1100 1101 1102 1103 1104 1105 1106 1107 1108 1109 1110 1111 1112 1113 1114 1115 1116 1117 1118 1119 1120 1121 1122 1123 1124 1125 1126 1127 1128 1129 1130 1131 1132 1133 1134 1135 1136 1137 1138 1139 1140 1141 1142 1143 1144 1145 1146 1147 1148 1149 1150 1151 1152 1153 1154 1155 1156 1157 1158 1159 1160 1161 1162 1163 1164 1165 1166 1167 1168 1169 1170 1171 1172 1173 1174 1175 1176 1177 1178 1179 1180 1181 1182 1183 1184 1185 1186 1187 1188 1189 1190 1191 1192 1193 1194 1195 1196 1197 1198 1199 1200 1201 1202 1203 1204 1205 1206 1207 1208 1209 1210 1211 1212 1213 1214 1215 1216 1217 1218 1219 1220 1221 1222 1223 1224 1225 1226 1227 1228 1229 1230 1231 1232 1233 1234 1235 1236 1237 1238 1239 1240 1241 1242 1243 1244 1245 1246 1247 1248 1249 1250 1251 1252 1253 1254 1255 1256 1257 1258 1259 1260 1261 1262 1263 1264 1265 1266 1267 1268 1269 1270 1271 1272 1273 1274 1275 1276 1277 1278 1279 1280 1281 1282 1283 1284 1285 1286 1287 1288 1289 1290 1291 1292 1293 1294 1295 1296 1297 1298 1299 1300 1301 1302 1303 1304 1305 1306 1307 1308 1309 1310 1311 1312 1313 1314 1315 1316 1317 1318 1319 1320 1321 1322 1323 1324 1325 1326 1327 1328 1329 1330 1331 1332 1333 1334 1335 1336 1337 1338 1339 1340 1341 1342 1343 1344 1345 1346 1347 1348 1349 1350 1351 1352 1353 1354 1355 1356 1357 1358 1359 1360 1361 1362 1363 1364 1365 1366 1367 1368 1369 1370 1371 1372 1373 1374 1375 1376 1377 1378 1379 1380 1381 1382 1383 1384 1385 1386 1387 1388 1389 1390 1391 1392 1393 1394 1395 1396 1397 1398 1399 1400 1401 1402 1403 1404 1405 1406 1407 1408 1409 1410 1411 1412 1413 1414 1415 1416 1417 1418 1419 1420 1421 1422 1423 1424 1425 1426 1427 1428 1429 1430 1431 1432 1433 1434 1435 1436 1437 1438 1439 1440 1441 1442 1443 1444 1445 1446 1447 1448 1449 1450 1451 1452 1453 1454 1455 1456 1457 1458 1459 1460 1461 1462 1463 1464 1465 1466 1467 1468 1469 1470 1471 1472 1473 1474 1475 1476 1477 1478 1479 1480 1481 1482 1483 1484 1485 1486 1487 1488 1489 1490 1491 1492 1493 1494 1495 1496 1497 1498 1499 1500 1501 1502 1503 1504 1505 1506 1507 1508 1509 1510 1511 1512 1513 1514 1515 1516 1517 1518 1519 1520 1521 1522 1523 1524 1525 1526 1527 1528 1529 1530 1531 1532 1533 1534 1535 1536 1537 1538 1539 1540 1541 1542 1543 1544 1545 1546 1547 1548 1549 1550 1551 1552 1553 1554 1555 1556 1557 1558 1559 1560 1561 1562 1563 1564 1565 1566 1567 1568 1569 1570 1571 1572 1573 1574 1575 1576 1577 1578 1579 1580 1581 1582 1583 1584 1585 1586 1587 1588 1589 1590 1591 1592 1593 1594 1595 1596 1597 1598 1599 1600 1601 1602 1603 1604 1605 1606 1607 1608 1609 1610 1611 1612 1613 1614 1615 1616 1617 1618 1619 1620 1621 1622 1623 1624 1625 1626 1627 1628 1629 1630 1631 1632 1633 1634 1635 1636 1637 1638 1639 1640 1641 1642 1643 1644 1645 1646 1647 1648 1649 1650 1651 1652 1653 1654 1655 1656 1657 1658 1659 1660 1661 1662 1663 1664 1665 1666 1667 1668 1669 1670 1671 1672 1673 1674 1675 1676 1677 1678 1679 1680 1681 1682 1683 1684 1685 1686 1687 1688 1689 1690 1691 1692 1693 1694 1695 1696 1697 1698 1699 1700 1701 1702 1703 1704 1705 1706 1707 1708 1709 1710 1711 1712 1713 1714 1715 1716 1717 1718 1719 1720 1721 1722 1723 1724 1725 1726 1727 1728 1729 1730 1731 1732 1733 1734 1735 1736 1737 1738 1739 1740 1741 1742 1743 1744 1745 1746 1747 1748 1749 1750 1751 1752 1753 1754 1755 1756 1757 1758 1759 1760 1761 1762 1763 1764 1765 1766 1767 1768 1769 1770 1771 1772 1773 1774 1775 1776 1777 1778 1779 1780 1781 1782 1783 1784 1785 1786 1787 1788 1789 1790 1791 1792 1793 1794 1795 1796 1797 1798 1799 1800 1801 1802 1803 1804 1805 1806 1807 1808 1809 1810 1811 1812 1813 1814 1815 1816 1817 1818 1819 1820 1821 1822 1823 1824 1825 1826 1827 1828 1829 1830 1831 1832 1833 1834 1835 1836 1837 1838 1839 1840 1841 1842 1843 1844 1845 1846 1847 1848 1849 1850 1851 1852 1853 1854 1855 1856 1857 1858 1859 1860 1861 1862 1863 1864 1865 1866 1867 1868 1869 1870 1871 1872 1873 1874 1875 1876 1877 1878 1879 1880 1881 1882 1883 1884 1885 1886 1887 1888 1889 1890 1891 1892 1893 1894 1895 1896 1897 1898 1899 1900 1901 1902 1903 1904 1905 1906 1907 1908 1909 1910 1911 1912 1913 1914 1915 1916 1917 1918 1919 1920 1921 1922 1923 1924 1925 1926 1927 1928 1929 1930 1931 1932 1933 1934 1935 1936 1937 1938 1939 1940 1941 1942 1943 1944 1945 1946 1947 1948 1949 1950 1951 1952 1953 1954 1955 1956 1957 1958 1959 1960 1961 1962 1963 1964 1965 1966 1967 1968 1969 1970 1971 1972 1973 1974 1975 1976 1977 1978 1979 1980 1981 1982 1983 1984 1985 1986 1987 1988 1989 1990 1991 1992 1993 1994 1995 1996 1997 1998 1999 2000 2001 2002 2003 2004 2005 2006 2007 2008 2009 2010 2011 2012 2013 2014 2015 2016 2017 2018 2019 2020 2021 2022 2023 2024 2025 2026 2027 2028 2029 2030 2031 2032 2033 2034 2035 2036 2037 2038 2039 2040 2041 2042 2043 2044 2045 2046 2047 2048 2049 2050 2051 2052 2053 2054 2055 2056 2057 2058 2059 2060 2061 2062 2063 2064 2065 2066 2067 2068 2069 2070 2071 2072 2073 2074 2075 2076 2077 2078 2079 2080 2081 2082 2083 2084 2085 2086 2087 2088 2089 2090 2091 2092 2093 2094 2095 2096 2097 2098 2099 2100 2101 2102 2103 2104 2105 2106 2107 2108 2109 2110 2111 2112 2113 2114 2115 2116 2117 2118 2119 2120 2121 2122 2123 2124 2125 2126 2127 2128 2129 2130 2131 2132 2133 2134 2135 2136 2137 2138 2139 2140 2141 2142 2143 2144 2145 2146 2147 2148 2149 2150 2151 2152 2153 2154 2155 2156 2157 2158 2159 2160 2161 2162 2163 2164 2165 2166 2167 2168 2169 2170 2171 2172 2173 2174 2175 2176 2177 2178 2179 2180 2181 2182 2183 2184 2185 2186 2187 2188 2189 2190 2191 2192 2193 2194 2195 2196 2197 2198 2199 2200 2201 2202 2203 2204 2205 2206 2207 2208 2209 2210 2211 2212 2213 2214 2215 2216 2217 2218 2219 2220 2221 2222 2223 2224 2225 2226 2227 2228 2229 2230 2231 2232 2233 2234 2235 2236 2237 2238 2239 2240 2241 2242 2243 2244 2245 2246 2247 2248 2249 2250 2251 2252 2253 2254 2255 2256 2257 2258 2259 2260 2261 2262 2263 2264 2265 2266 2267 2268 2269 2270 2271 2272 2273 2274 2275 2276 2277 2278 2279 2280 2281 2282 2283 2284 2285 2286 2287 2288 2289 2290 2291 2292 2293 2294 2295 2296 2297 2298 2299 2300 2301 2302 2303 2304 2305 2306 2307 2308 2309 2310 2311 2312 2313 2314 2315 2316 2317 2318 2319 2320 2321 2322 2323 2324 2325 2326 2327 2328 2329 2330 2331 2332 2333 2334 2335 2336 2337 2338 2339 2340 2341 2342 2343 2344 2345 2346 2347 2348 2349 2350 2351 2352 2353 2354 2355 2356 2357 2358 2359 2360 2361 2362 2363 2364 2365 2366 2367 2368 2369 2370 2371 2372 2373 2374 2375 2376 2377 2378 2379 2380 2381 2382 2383 2384 2385 2386 2387 2388 2389 2390 2391 2392 2393 2394 2395 2396 2397 2398 2399 2400 2401 2402 2403 2404 2405 2406 2407 2408 2409 2410 2411 2412 2413 2414 2415 2416 2417 2418 2419 2420 2421 2422 2423 2424 2425 2426 2427 2428 2429 2430 2431 2432 2433 2434 2435 2436 2437 2438 2439 2440 2441 2442 2443 2444 2445 2446 2447 2448 2449 2450 2451 2452 2453 2454 2455 2456 2457 2458 2459 2460 2461 2462 2463 2464 2465 2466 2467 2468 2469 2470 2471 2472 2473 2474 2475 2476 2477 2478 2479 2480 2481 2482 2483 2484 2485 2486 2487 2488 2489 2490 2491 2492 2493 2494 2495 2496 2497 2498 2499 2500 2501 2502 2503 2504 2505 2506 2507 2508 2509 2510 2511 2512 2513 2514 2515 2516 2517 2518 2519 2520 2521 2522 2523 2524 2525 2526 2527 2528 2529 2530 2531 2532 2533 2534 2535 2536 2537 2538 2539 2540 2541 2542 2543 2544 2545 2546 2547 2548 2549 2550 2551 2552 2553 2554 2555 2556 2557 2558 2559 2560 2561 2562 2563 2564 2565 2566 2567 2568 2569 2570 2571 2572 2573 2574 2575 2576 2577 2578 2579 2580 2581 2582 2583 2584 2585 2586 2587 2588 2589 2590 2591 2592 2593 2594 2595 2596 2597 2598 2599 2600 2601 2602 2603 2604 2605 2606 2607 2608 2609 2610 2611 2612 2613 2614 2615 2616 2617 2618 2619 2620 2621 2622 2623 2624 2625 2626 2627 2628 2629 2630 2631 2632 2633 2634 2635 2636 2637 2638 2639 2640 2641 2642 2643 2644 2645 2646 2647 2648 2649 2650 2651 2652 2653 2654 2655 2656 2657 2658 2659 2660 2661 2662 2663 2664 2665 2666 2667 2668 2669 2670 2671 2672 2673 2674 2675 2676 2677 2678 2679 2680 2681 2682 2683 2684 2685 2686 2687 2688 2689 2690 2691 2692 2693 2694 2695 2696 2697 2698 2699 2700 2701 2702 2703 2704 2705 2706 2707 2708 2709 2710 2711 2712 2713 2714 2715 2716 2717 2718 2719 2720 2721 2722 2723 2724 2725 2726 2727 2728 2729 2730 2731 2732 2733 2734 2735 2736 2737 2738 2739 2740 2741 2742 2743 2744 2745 2746 2747 2748 2749 2750 2751 2752 2753 2754 2755 2756 2757 2758 2759 2760 2761 2762 2763 2764 2765 2766 2767 2768 2769 2770 2771 2772 2773 2774 2775 2776 2777 2778 2779 2780 2781 2782 2783 2784 2785 2786 2787 2788 2789 2790 2791 2792 2793 2794 2795 2796 2797 2798 2799 2800 2801 2802 2803 2804 2805 2806 2807 2808 2809 2810 2811 2812 2813 2814 2815 2816 2817 2818 2819 2820 2821 2822 2823 2824 2825 2826 2827 2828 2829 2830 2831 2832 2833 2834 2835 2836 2837 2838 2839 2840 2841 2842 2843 2844 2845 2846 2847 2848 2849 2850 2851 2852 2853 2854 2855 2856 2857 2858 2859 2860 2861 2862 2863 2864 2865 2866 2867 2868 2869 2870 2871 2872 2873 2874 2875 2876 2877 2878 2879 2880 2881 2882 2883 2884 2885 2886 2887 2888 2889 2890 2891 2892 2893 2894 2895 2896 2897 2898 2899 2900 2901 2902 2903 2904 2905 2906 2907 2908 2909 2910 2911 2912 2913 2914 2915 2916 2917 2918 2919 2920 2921 2922 2923 2924 2925 2926 2927 2928 2929 2930 2931 2932 2933 2934 2935 2936 2937 2938 2939 2940 2941 2942 2943 2944 2945 2946 2947 2948 2949 2950 2951 2952 2953 2954 2955 2956 2957 2958 2959 2960 2961 2962 2963 2964 2965 2966 2967 2968 2969 2970 2971 2972 2973 2974 2975 2976 2977 2978 2979 2980 2981 2982 2983 2984 2985 2986 2987 2988 2989 2990 2991 2992 2993 2994 2995 2996 2997 2998 2999 3000 3001 3002 3003 3004 3005 3006 3007 3008 3009 3010 3011 3012 3013 3014 3015 3016 3017 3018 3019 3020 3021 3022 3023 3024 3025 3026 3027 3028 3029 3030 3031 3032 3033 3034 3035 3036 3037 3038 3039 3040 3041 3042 3043 3044 3045 3046 3047 3048 3049 3050 3051 3052 3053 3054 3055 3056 3057 3058 3059 3060 3061 3062 3063 3064 3065 3066 3067 3068 3069 3070 3071 3072 3073 3074 3075 3076 3077 3078 3079 3080 3081 3082 3083 3084 3085 3086 3087 3088 3089 3090 3091 3092 3093 3094 3095 3096 3097 3098 3099 3100 3101 3102 3103 3104 3105 3106 3107 3108 3109 3110 3111 3112 3113 3114 3115 3116 3117 3118 3119 3120 3121 3122 3123 3124 3125 3126 3127 3128 3129 3130 3131 3132 3133 3134 3135 3136 3137 3138 3139 3140 3141 3142 3143 3144 3145 3146 3147 3148 3149 3150 3151 3152 3153 3154 3155 3156 3157 3158 3159 3160 3161 3162 3163 3164 3165 3166 3167 3168 3169 3170 3171 3172 3173 3174 3175 3176 3177 3178 3179 3180 3181 3182 3183 3184 3185 3186 3187 3188 3189 3190 3191 3192 3193 3194 3195 3196 3197 3198 3199 3200 3201 3202 3203 3204 3205 3206 3207 3208 3209 3210 3211 3212 3213 3214 3215 3216 3217 3218 3219 3220 3221 3222 3223 3224 3225 3226 3227 3228 3229 3230 3231 3232 3233 3234 3235 3236 3237 3238 3239 3240 3241 3242 3243 3244 3245 3246 3247 3248 3249 3250 3251 3252 3253 3254 3255 3256 3257 3258 3259 3260 3261 3262 3263 3264 3265 3266 3267 3268 3269 3270 3271 3272 3273 3274 3275 3276 3277 3278 3279 3280 3281 3282 3283 3284 3285 3286 3287 3288 3289 3290 3291 3292 3293 3294 3295 3296 3297 3298 3299 3300 3301 3302 3303 3304 3305 3306 3307 3308 3309 3310 3311 3312 3313 3314 3315 3316 3317 3318 3319 3320 3321 3322 3323 3324 3325 3326 3327 3328 3329 3330 3331 3332 3333 3334 3335 3336 3337 3338 3339 3340 3341 3342 3343 3344 3345 3346 3347 3348 3349 3350 3351 3352 3353 3354 3355 3356 3357 3358 3359 3360 3361 3362 3363 3364 3365 3366 3367 3368 3369 3370 3371 3372 3373 3374 3375 3376 3377 3378 3379 3380 3381 3382 3383 3384 3385 3386 3387 3388 3389 3390 3391 3392 3393 3394 3395 3396 3397 3398 3399 3400 3401 3402 3403 3404 3405 3406 3407 3408 3409 3410 3411 3412 3413 3414 3415 3416 3417 3418 3419 3420 3421 3422 3423 3424 3425 3426 3427 3428 3429 3430 3431 3432 3433 3434 3435 3436 3437 3438 3439 3440 3441 3442 3443 3444 3445 3446 3447 3448 3449 3450 3451 3452 3453 3454 3455 3456 3457 3458 3459 3460 3461 3462 3463 3464 3465 3466 3467 3468 3469 3470 3471 3472 3473 3474 3475 3476 3477 3478 3479 3480 3481 3482 3483 3484 3485 3486 3487 3488 3489 3490 3491 3492 3493 3494 3495 3496 3497 3498 3499 3500 3501 3502 3503 3504 3505 3506 3507 3508 3509 3510 3511 3512 3513 3514 3515 3516 3517 3518 3519 3520 3521 3522 3523 3524 3525 3526 3527 3528 3529 3530 3531 3532 3533 3534 3535 3536 3537 3538 3539 3540 3541 3542 3543 3544 3545 3546 3547 3548 3549 3550 3551 3552 3553 3554 3555 3556 3557 3558 3559 3560 3561 3562 3563 3564 3565 3566 3567 3568 3569 3570 3571 3572 3573 3574 3575 3576 3577 3578 3579 3580 3581 3582 3583 3584 3585 3586 3587 3588 3589 3590 3591 3592 3593 3594 3595 3596 3597 3598 3599 3600 3601 3602 3603 3604 3605 3606 3607 3608 3609 3610 3611 3612 3613 3614 3615 3616 3617 3618 3619 3620 3621 3622 3623 3624 3625 3626 3627 3628 3629 3630 3631 3632 3633 3634 3635 3636 3637 3638 3639 3640 3641 3642 3643 3644 3645 3646 3647 3648 3649 3650 3651 3652 3653 3654 3655 3656 3657 3658 3659 3660 3661 3662 3663 3664 3665 3666 3667 3668 3669 3670 3671 3672 3673 3674 3675 3676 3677 3678 3679 3680 3681 3682 3683 3684 3685 3686 3687 3688 3689 3690 3691 3692 3693 3694 3695 3696 3697 3698 3699 3700 3701 3702 3703 3704 3705 3706 3707 3708 3709 3710 3711 3712 3713 3714 3715 3716 3717 3718 3719 3720 3721 3722 3723 3724 3725 3726 3727 3728 3729 3730 3731 3732 3733 3734 3735 3736 3737 3738 3739 3740 3741 3742 3743 3744 3745 3746 3747 3748 3749 3750 3751 3752 3753 3754 3755 3756 3757 3758 3759 3760 3761 3762 3763 3764 3765 3766 3767 3768 3769 3770 3771 3772 3773 3774 3775 3776 3777 3778 3779 3780 3781 3782 3783 3784 3785 3786 3787 3788 3789 3790 3791 3792 3793 3794 3795 3796 3797 3798 3799 3800 3801 3802 3803 3804 3805 3806 3807 3808 3809 3810 3811 3812 3813 3814 3815 3816 3817 3818 3819 3820 3821 3822 3823 3824 3825 3826 3827 3828 3829 3830 3831 3832 3833 3834 3835 3836 3837 3838 3839 3840 3841 3842 3843 3844 3845 3846 3847 3848 3849 3850 3851 3852 3853 3854 3855 3856 3857 3858 3859 3860 3861 3862 3863 3864 3865 3866 3867 3868 3869 3870 3871 3872 3873 3874 3875 3876 3877 3878 3879 3880 3881 3882 3883 3884 3885 3886 3887 3888 3889 3890 3891 3892 3893 3894 3895 3896 3897 3898 3899 3900 3901 3902 3903 3904 3905 3906 3907 3908 3909 3910 3911 3912 3913 3914 3915 3916 3917 3918 3919 3920 3921 3922 3923 3924 3925 3926 3927 3928 3929 3930 3931 3932 3933 3934 3935 3936 3937 3938 3939 3940 3941 3942 3943 3944 3945 3946 3947 3948 3949 3950 3951 3952 3953 3954 3955 3956 3957 3958 3959 3960 3961 3962 3963 3964 3965 3966 3967 3968 3969 3970 3971 3972 3973 3974 3975 3976 3977 3978 3979 3980 3981 3982 3983 3984 3985 3986 3987 3988 3989 3990 3991 3992 3993 3994 3995 3996 3997 3998 3999 4000 4001 4002 4003 4004 4005 4006 4007 4008 4009 4010 4011 4012 4013 4014 4015 4016 4017 4018 4019 4020 4021 4022 4023 4024 4025 4026 4027 4028 4029 4030 4031 4032 4033 4034 4035 4036 4037 4038 4039 4040 4041 4042 4043 4044 4045 4046 4047 4048 4049 4050 4051 4052 4053 4054 4055 4056 4057 4058 4059 4060 4061 4062 4063 4064 4065 4066 4067 4068 4069 4070 4071 4072 4073 4074 4075 4076 4077 4078 4079 4080 4081 4082 4083 4084 4085 4086 4087 4088 4089 4090 4091 4092 4093 4094 4095 4096 4097 4098 4099 4100 4101 4102 4103 4104 4105 4106 4107 4108 4109 4110 4111 4112 4113 4114 4115 4116 4117 4118 4119 4120 4121 4122 4123 4124 4125 4126 4127 4128 4129 4130 4131 4132 4133 4134 4135 4136 4137 4138 4139 4140 4141 4142 4143 4144 4145 4146 4147 4148 4149 4150 4151 4152 4153 4154 4155 4156 4157 4158 4159 4160 4161 4162 4163 4164 4165 4166 4167 4168 4169 4170 4171 4172 4173 4174 4175 4176 4177 4178 4179 4180 4181 4182 4183 4184 4185 4186 4187 4188 4189 4190 4191 4192 4193 4194 4195 4196 4197 4198 4199 4200 4201 4202 4203 4204 4205 4206 4207 4208 4209 4210 4211 4212 4213 4214 4215 4216 4217 4218 4219 4220 4221 4222 4223 4224 4225 4226 4227 4228 4229 4230 4231 4232 4233 4234 4235 4236 4237 4238 4239 4240 4241 4242 4243 4244 4245 4246 4247 4248 4249 4250 4251 4252 4253 4254 4255 4256 4257 4258 4259 4260 4261 4262 4263 4264 4265 4266 4267 4268 4269 4270 4271 4272 4273 4274 4275 4276 4277 4278 4279 4280 4281 4282 4283 4284 4285 4286 4287 4288 4289 4290 4291 4292 4293 4294 4295 4296 4297 4298 4299 4300 4301 4302 4303 4304 4305 4306 4307 4308 4309 4310 4311 4312 4313 4314 4315 4316 4317 4318 4319 4320 4321 4322 4323 4324 4325 4326 4327 4328 4329 4330 4331 4332 4333 4334 4335 4336 4337 4338 4339 4340 4341 4342 4343 4344 4345 4346 4347 4348 4349 4350 4351 4352 4353 4354 4355 4356 4357 4358 4359 4360 4361 4362 4363 4364 4365 4366 4367 4368 4369 4370 4371 4372 4373 4374 4375 4376 4377 4378 4379 4380 4381 4382 4383 4384 4385 4386 4387 4388 4389 4390 4391 4392 4393 4394 4395 4396 4397 4398 4399 4400 4401 4402 4403 4404 4405 4406 4407 4408 4409 4410 4411 4412 4413 4414 4415 4416 4417 4418 4419 4420 4421 4422 4423 4424 4425 4426 4427 4428 4429 4430 4431 4432 4433 4434 4435 4436 4437 4438 4439 4440 4441 4442 4443 4444 4445 4446 4447 4448 4449 4450 4451 4452 4453 4454 4455 4456 4457 4458 4459 4460 4461 4462 4463 4464 4465 4466 4467 4468 4469 4470 4471 4472 4473 4474 4475 4476 4477 4478 4479 4480 4481 4482 4483 4484 4485 4486 4487 4488 4489 4490 4491 4492 4493 4494 4495 4496 4497 4498 4499 4500 4501 4502 4503 4504 4505 4506 4507 4508 4509 4510 4511 4512 4513 4514 4515 4516 4517 4518 4519 4520 4521 4522 4523 4524 4525 4526 4527 4528 4529 4530 4531 4532 4533 4534 4535 4536 4537 4538 4539 4540 4541 4542 4543 4544 4545 4546 4547 4548 4549 4550 4551 4552 4553 4554 4555 4556 4557 4558 4559 4560 4561 4562 4563 4564 4565 4566 4567 4568 4569 4570 4571 4572 4573 4574 4575 4576 4577 4578 4579 4580 4581 4582 4583 4584 4585 4586 4587 4588 4589 4590 4591 4592 4593 4594 4595 4596 4597 4598 4599 4600 4601 4602 4603 4604 4605 4606 4607 4608 4609 4610 4611 4612 4613 4614 4615 4616 4617 4618 4619 4620 4621 4622 4623 4624 4625 4626 4627 4628 4629 4630 4631 4632 4633 4634 4635 4636 4637 4638 4639 4640 4641 4642 4643 4644 4645 4646 4647 4648 4649 4650 4651 4652 4653 4654 4655 4656 4657 4658 4659 4660 4661 4662 4663 4664 4665 4666 4667 4668 4669 4670 4671 4672 4673 4674 4675 4676 4677 4678 4679 4680 4681 4682 4683 4684 4685 4686 4687 4688 4689 4690 4691 4692 4693 4694 4695 4696 4697 4698 4699 4700 4701 4702 4703 4704 4705 4706 4707 4708 4709 4710 4711 4712 4713 4714 4715 4716 4717 4718 4719 4720 4721 4722 4723 4724 4725 4726 4727 4728 4729 4730 4731 4732 4733 4734 4735 4736 4737 4738 4739 4740 4741 4742 4743 4744 4745 4746 4747 4748 4749 4750 4751 4752 4753 4754 4755 4756 4757 4758 4759 4760 4761 4762 4763 4764 4765 4766 4767 4768 4769 4770 4771 4772 4773 4774 4775 4776 4777 4778 4779 4780 4781 4782 4783 4784 4785 4786 4787 4788 4789 4790 4791 4792 4793 4794 4795 4796 4797 4798 4799 4800 4801 4802 4803 4804 4805 4806 4807 4808 4809 4810 4811 4812 4813 4814 4815 4816 4817 4818 4819 4820 4821 4822 4823 4824 4825 4826 4827 4828 4829 4830 4831 4832 4833 4834 4835 4836 4837 4838 4839 4840 4841 4842 4843 4844 4845 4846 4847 4848 4849 4850 4851 4852 4853 4854 4855 4856 4857 4858 4859 4860 4861 4862 4863 4864 4865 4866 4867 4868 4869 4870 4871 4872 4873 4874 4875 4876 4877 4878 4879 4880 4881 4882 4883 4884 4885 4886 4887 4888 4889 4890 4891 4892 4893 4894 4895 4896 4897 4898 4899 4900 4901 4902 4903 4904 4905 4906 4907 4908 4909 4910 4911 4912 4913 4914 4915 4916 4917 4918 4919 4920 4921 4922 4923 4924 4925 4926 4927 4928 4929 4930 4931 4932 4933 4934 4935 4936 4937 4938 4939 4940 4941 4942 4943 4944 4945 4946 4947 4948 4949 4950 4951 4952 4953 4954 4955 4956 4957 4958 4959 4960 4961 4962 4963 4964 4965 4966 4967 4968 4969 4970 4971 4972 4973 4974 4975 4976 4977 4978 4979 4980 4981 4982 4983 4984 4985 4986 4987 4988 4989 4990 4991 4992 4993 4994 4995 4996 4997 4998 4999 5000 5001 5002 5003 5004 5005 5006 5007 5008 5009 5010 5011 5012 5013 5014 5015 5016 5017 5018 5019 5020 5021 5022 5023 5024 5025 5026 5027 5028 5029 5030 5031 5032 5033 5034 5035 5036 5037 5038 5039 5040 5041 5042 5043 5044 5045 5046 5047 5048 5049 5050 5051 5052 5053 5054 5055 5056 5057 5058 5059 5060 5061 5062 5063 5064 5065 5066 5067 5068 5069 5070 5071 5072 5073 5074 5075 5076 5077 5078 5079 5080 5081 5082 5083 5084 5085 5086 5087 5088 5089 5090 5091 5092 5093 5094 5095 5096 5097 5098 5099 5100 5101 5102 5103 5104 5105 5106 5107 5108 5109 5110 5111 5112 5113 5114 5115 5116 5117 5118 5119 5120 5121 5122 5123 5124 5125 5126 5127 5128 5129 5130 5131 5132 5133 5134 5135 5136 5137 5138 5139 5140 5141 5142 5143 5144 5145 5146 5147 5148 5149 5150 5151 5152 5153 5154 5155 5156 5157 5158 5159 5160 5161 5162 5163 5164 5165 5166 5167 5168 5169 5170 5171 5172 5173 5174 5175 5176 5177 5178 5179 5180 5181 5182 5183 5184 5185 5186 5187 5188 5189 5190 5191 5192 5193 5194 5195 5196 5197 5198 5199 5200 5201 5202 5203 5204 5205 5206 5207 5208 5209 5210 5211 5212 5213 5214 5215 5216 5217 5218 5219 5220 5221 5222 5223 5224 5225 5226 5227 5228 5229 5230 5231 5232 5233 5234 5235 5236 5237 5238 5239 5240 5241 5242 5243 5244 5245 5246 5247 5248 5249 5250 5251 5252 5253 5254 5255 5256 5257 5258 5259 5260 5261 5262 5263 5264 5265 5266 5267 5268 5269 5270 5271 5272 5273 5274 5275 5276 5277 5278 5279 5280 5281 5282 5283 5284 5285 5286 5287 5288 5289 5290 5291 5292 5293 5294 5295 5296 5297 5298 5299 5300 5301 5302 5303 5304 5305 5306 5307 5308 5309 5310 5311 5312 5313 5314 5315 5316 5317 5318 5319 5320 5321 5322 5323 5324 5325 5326 5327 5328 5329 5330 5331 5332 5333 5334 5335 5336 5337 5338 5339 5340 5341 5342 5343 5344 5345 5346 5347 5348 5349 5350 5351 5352 5353 5354 5355 5356 5357 5358 5359 5360 5361 5362 5363 5364 5365 5366 5367 5368 5369 5370 5371 5372 5373 5374 5375 5376 5377 5378 5379 5380 5381 5382 5383 5384 5385 5386 5387 5388 5389 5390 5391 5392 5393 5394 5395 5396 5397 5398 5399 5400 5401 5402 5403 5404 5405 5406 5407 5408 5409 5410 5411 5412 5413 5414 5415 5416 5417 5418 5419 5420 5421 5422 5423 5424 5425 5426 5427 5428 5429 5430 5431 5432 5433 5434 5435 5436 5437 5438 5439 5440 5441 5442 5443 5444 5445 5446 5447 5448 5449 5450 5451 5452 5453 5454 5455 5456 5457 5458 5459 5460 5461 5462 5463 5464 5465 5466 5467 5468 5469 5470 5471 5472 5473 5474 5475 5476 5477 5478 5479 5480 5481 5482 5483 5484 5485 5486 5487 5488 5489 5490 5491 5492 5493 5494 5495 5496 5497 5498 5499 5500 5501 5502 5503 5504 5505 5506 5507 5508 5509 5510 5511 5512 5513 5514 5515 5516 5517 5518 5519 5520 5521 5522 5523 5524 5525 5526 5527 5528 5529 5530 5531 5532 5533 5534 5535 5536 5537 5538 5539 5540 5541 5542 5543 5544 5545 5546 5547 5548 5549 5550 5551 5552 5553 5554 5555 5556 5557 5558 5559 5560 5561 5562 5563 5564 5565 5566 5567 5568 5569 5570 5571 5572 5573 5574 5575 5576 5577 5578 5579 5580 5581 5582 5583 5584 5585 5586 5587 5588 5589 5590 5591 5592 5593 5594 5595 5596 5597 5598 5599 5600 5601 5602 5603 5604 5605 5606 5607 5608 5609 5610 5611 5612 5613 5614 5615 5616 5617 5618 5619 5620 5621 5622 5623 5624 5625 5626 5627 5628 5629 5630 5631 5632 5633 5634 5635 5636 5637 5638 5639 5640 5641 5642 5643 5644 5645 5646 5647 5648 5649 5650 5651 5652 5653 5654 5655 5656 5657 5658 5659 5660 5661 5662 5663 5664 5665 5666 5667 5668 5669 5670 5671 5672 5673 5674 5675 5676 5677 5678 5679 5680 5681 5682 5683 5684 5685 5686 5687 5688 5689 5690 5691 5692 5693 5694 5695 5696 5697 5698 5699 5700 5701 5702 5703 5704 5705 5706 5707 5708 5709 5710 5711 5712 5713 5714 5715 5716 5717 5718 5719 5720 5721 5722 5723 5724 5725 5726 5727 5728 5729 5730 5731 5732 5733 5734 5735 5736 5737 5738 5739 5740 5741 5742 5743 5744 5745 5746 5747 5748 5749 5750 5751 5752 5753 5754 5755 5756 5757 5758 5759 5760 5761 5762 5763 5764 5765 5766 5767 5768 5769 5770 5771 5772 5773 5774 5775 5776 5777 5778 5779 5780 5781 5782 5783 5784 5785 5786 5787 5788 5789 5790 5791 5792 5793 5794 5795 5796 5797 5798 5799 5800 5801 5802 5803 5804 5805 5806 5807 5808 5809 5810 5811 5812 5813 5814 5815 5816 5817 5818 5819 5820 5821 5822 5823 5824 5825 5826 5827 5828 5829 5830 5831 5832 5833 5834 5835 5836 5837 5838 5839 5840 5841 5842 5843 5844 5845 5846 5847 5848 5849 5850 5851 5852 5853 5854 5855 5856 5857 5858 5859 5860 5861 5862 5863 5864 5865 5866 5867 5868 5869 5870 5871 5872 5873 5874 5875 5876 5877 5878 5879 5880 5881 5882 5883 5884 5885 5886 5887 5888 5889 5890 5891 5892 5893 5894 5895 5896 5897 5898 5899 5900 5901 5902 5903 5904 5905 5906 5907 5908 5909 5910 5911 5912 5913 5914 5915 5916 5917 5918 5919 5920 5921 5922 5923 5924 5925 5926 5927 5928 5929 5930 5931 5932 5933 5934 5935 5936 5937 5938 5939 5940 5941 5942 5943 5944 5945 5946 5947 5948 5949 5950 5951 5952 5953 5954 5955 5956 5957 5958 5959 5960 5961 5962 5963 5964 5965 5966 5967 5968 5969 5970 5971 5972 5973 5974 5975 5976 5977 5978 5979 5980 5981 5982 5983 5984 5985 5986 5987 5988 5989 5990 5991 5992 5993 5994 5995 5996 5997 5998 5999 6000 6001 6002 6003 6004 6005 6006 6007 6008 6009 6010 6011 6012 6013 6014 6015 6016 6017 6018 6019 6020 6021 6022 6023 6024 6025 6026 6027 6028 6029 6030 6031 6032 6033 6034 6035 6036 6037 6038 6039 6040 6041 6042 6043 6044 6045 6046 6047 6048 6049 6050 6051 6052 6053 6054 6055 6056 6057 6058 6059 6060 6061 6062 6063 6064 6065 6066 6067 6068 6069 6070 6071 6072 6073 6074 6075 6076 6077 6078 6079 6080 6081 6082 6083 6084 6085 6086 6087 6088 6089 6090 6091 6092 6093 6094 6095 6096 6097 6098 6099 6100 6101 6102 6103 6104 6105 6106 6107 6108 6109 6110 6111 6112 6113 6114 6115 6116 6117 6118 6119 6120 6121 6122 6123 6124 6125 6126 6127 6128 6129 6130 6131 6132 6133 6134 6135 6136 6137 6138 6139 6140 6141 6142 6143 6144 6145 6146 6147 6148 6149 6150 6151 6152 6153 6154 6155 6156 6157 6158 6159 6160 6161 6162 6163 6164 6165 6166 6167 6168 6169 6170 6171 6172 6173 6174 6175 6176 6177 6178 6179 6180 6181 6182 6183 6184 6185 6186 6187 6188 6189 6190 6191 6192 6193 6194 6195 6196 6197 6198 6199 6200 6201 6202 6203 6204 6205 6206 6207 6208 6209 6210 6211 6212 6213 6214 6215 6216 6217 6218 6219 6220 6221 6222 6223 6224 6225 6226 6227 6228 6229 6230 6231 6232 6233 6234 6235 6236 6237 6238 6239 6240 6241 6242 6243 6244 6245 6246 6247 6248 6249 6250 6251 6252 6253 6254 6255 6256 6257 6258 6259 6260 6261 6262 6263 6264 6265 6266 6267 6268 6269 6270 6271 6272 6273 6274 6275 6276 6277 6278 6279 6280 6281 6282 6283 6284 6285 6286 6287 6288 6289 6290 6291 6292 6293 6294 6295 6296 6297 6298 6299 6300 6301 6302 6303 6304 6305 6306 6307 6308 6309 6310 6311 6312 6313 6314 6315 6316 6317 6318 6319 6320 6321 6322 6323 6324 6325 6326 6327 6328 6329 6330 6331 6332 6333 6334 6335 6336 6337 6338 6339 6340 6341 6342 6343 6344 6345 6346 6347 6348 6349 6350 6351 6352 6353 6354 6355 6356 6357 6358 6359 6360 6361 6362 6363 6364 6365 6366 6367 6368 6369 6370 6371 6372 6373 6374 6375 6376 6377 6378 6379 6380 6381 6382 6383 6384 6385 6386 6387 6388 6389 6390 6391 6392 6393 6394 6395 6396 6397 6398 6399 6400 6401 6402 6403 6404 6405 6406 6407 6408 6409 6410 6411 6412 6413 6414 6415 6416 6417 6418 6419 6420 6421 6422 6423 6424 6425 6426 6427 6428 6429 6430 6431 6432 6433 6434 6435 6436 6437 6438 6439 6440 6441 6442 6443 6444 6445 6446 6447 6448 6449 6450 6451 6452 6453 6454 6455 6456 6457 6458 6459 6460 6461 6462 6463 6464 6465 6466 6467 6468 6469 6470 6471 6472 6473 6474 6475 6476 6477 6478 6479 6480 6481 6482 6483 6484 6485 6486 6487 6488 6489 6490 6491 6492 6493 6494 6495 6496 6497 6498 6499 6500 6501 6502 6503 6504 6505 6506 6507 6508 6509 6510 6511 6512 6513 6514 6515 6516 6517 6518 6519 6520 6521 6522 6523 6524 6525 6526 6527 6528 6529 6530 6531 6532 6533 6534 6535 6536 6537 6538 6539 6540 6541 6542 6543 6544 6545 6546 6547 6548 6549 6550 6551 6552 6553 6554 6555 6556 6557 6558 6559 6560 6561 6562 6563 6564 6565 6566 6567 6568 6569 6570 6571 6572 6573 6574 6575 6576 6577 6578 6579 6580 6581 6582 6583 6584 6585 6586 6587 6588 6589 6590 6591 6592 6593 6594 6595 6596 6597 6598 6599 6600 6601 6602 6603 6604 6605 6606 6607 6608 6609 6610 6611 6612 6613 6614 6615 6616 6617 6618 6619 6620 6621 6622 6623 6624 6625 6626 6627 6628 6629 6630 6631 6632 6633 6634 6635 6636 6637 6638 6639 6640 6641 6642 6643 6644 6645 6646 6647 6648 6649 6650 6651 6652 6653 6654 6655 6656 6657 6658 6659 6660 6661 6662 6663 6664 6665 6666 6667 6668 6669 6670 6671 6672 6673 6674 6675 6676 6677 6678 6679 6680 6681 6682 6683 6684 6685 6686 6687 6688 6689 6690 6691 6692 6693 6694 6695 6696 6697 6698 6699 6700 6701 6702 6703 6704 6705 6706 6707 6708 6709 6710 6711 6712 6713 6714 6715 6716 6717 6718 6719 6720 6721 6722 6723 6724 6725 6726 6727 6728 6729 6730 6731 6732 6733 6734 6735 6736 6737 6738 6739 6740 6741 6742 6743 6744 6745 6746 6747 6748 6749 6750 6751 6752 6753 6754 6755 6756 6757 6758 6759 6760 6761 6762 6763 6764 6765 6766 6767 6768 6769 6770 6771 6772 6773 6774 6775 6776 6777 6778 6779 6780 6781 6782 6783 6784 6785 6786 6787 6788 6789 6790 6791 6792 6793 6794 6795 6796 6797 6798 6799 6800 6801 6802 6803 6804 6805 6806 6807 6808 6809 6810 6811 6812 6813 6814 6815 6816 6817 6818 6819 6820 6821 6822 6823 6824 6825 6826 6827 6828 6829 6830 6831 6832 6833 6834 6835 6836 6837 6838 6839 6840 6841 6842 6843 6844 6845 6846 6847 6848 6849 6850 6851 6852 6853 6854 6855 6856 6857 6858 6859 6860 6861 6862 6863 6864 6865 6866 6867 6868 6869 6870 6871 6872 6873 6874 6875 6876 6877 6878 6879 6880 6881 6882 6883 6884 6885 6886 6887 6888 6889 6890 6891 6892 6893 6894 6895 6896 6897 6898 6899 6900 6901 6902 6903 6904 6905 6906 6907 6908 6909 6910 6911 6912 6913 6914 6915 6916 6917 6918 6919 6920 6921 6922 6923 6924 6925 6926 6927 6928 6929 6930 6931 6932 6933 6934 6935 6936 6937 6938 6939 6940 6941 6942 6943 6944 6945 6946 6947 6948 6949 6950 6951 6952 6953 6954 6955 6956 6957 6958 6959 6960 6961 6962 6963 6964 6965 6966 6967 6968 6969 6970 6971 6972 6973 6974 6975 6976 6977 6978 6979 6980 6981 6982 6983 6984 6985 6986 6987 6988 6989 6990 6991 6992 6993 6994 6995 6996 6997 6998 6999 7000 7001 7002 7003 7004 7005 7006 7007 7008 7009 7010 7011 7012 7013 7014 7015 7016 7017 7018 7019 7020 7021 7022 7023 7024 7025 7026 7027 7028 7029 7030 7031 7032 7033 7034 7035 7036 7037 7038 7039 7040 7041 7042 7043 7044 7045 7046 7047 7048 7049 7050 7051 7052 7053 7054 7055 7056 7057 7058 7059 7060 7061 7062 7063 7064 7065 7066 7067 7068 7069 7070 7071 7072 7073 7074 7075 7076 7077 7078 7079 7080 7081 7082 7083 7084 7085 7086 7087 7088 7089 7090 7091 7092 7093 7094 7095 7096 7097 7098 7099 7100 7101 7102 7103 7104 7105 7106 7107 7108 7109 7110 7111 7112 7113 7114 7115 7116 7117 7118 7119 7120 7121 7122 7123 7124 7125 7126 7127 7128 7129 7130 7131 7132 7133 7134 7135 7136 7137 7138 7139 7140 7141 7142 7143 7144 7145 7146 7147 7148 7149 7150 7151 7152 7153 7154 7155 7156 7157 7158 7159 7160 7161 7162 7163 7164 7165 7166 7167 7168 7169 7170 7171 7172 7173 7174 7175 7176 7177 7178 7179 7180 7181 7182 7183 7184 7185 7186 7187 7188 7189 7190 7191 7192 7193 7194 7195 7196 7197 7198 7199 7200 7201 7202 7203 7204 7205 7206 7207 7208 7209 7210 7211 7212 7213 7214 7215 7216 7217 7218 7219 7220 7221 7222 7223 7224 7225 7226 7227 7228 7229 7230 7231 7232 7233 7234 7235 7236 7237 7238 7239 7240 7241 7242 7243 7244 7245 7246 7247 7248 7249 7250 7251 7252 7253 7254 7255 7256 7257 7258 7259 7260 7261 7262 7263 7264 7265 7266 7267 7268 7269 7270 7271 7272 7273 7274 7275 7276 7277 7278 7279 7280 7281 7282 7283 7284 7285 7286 7287 7288 7289 7290 7291 7292 7293 7294 7295 7296 7297 7298 7299 7300 7301 7302 7303 7304 7305 7306 7307 7308 7309 7310 7311 7312 7313 7314 7315 7316 7317 7318 7319 7320 7321 7322 7323 7324 7325 7326 7327 7328 7329 7330 7331 7332 7333 7334 7335 7336 7337 7338 7339 7340 7341 7342 7343 7344 7345 7346 7347 7348 7349 7350 7351 7352 7353 7354 7355 7356 7357 7358 7359 7360 7361 7362 7363 7364 7365 7366 7367 7368 7369 7370 7371 7372 7373 7374 7375 7376 7377 7378 7379 7380 7381 7382 7383 7384 7385 7386 7387 7388 7389 7390 7391 7392 7393 7394 7395 7396 7397 7398 7399 7400 7401 7402 7403 7404 7405 7406 7407 7408 7409 7410 7411 7412 7413 7414 7415 7416 7417 7418 7419 7420 7421 7422 7423 7424 7425 7426 7427 7428 7429 7430 7431 7432 7433 7434 7435 7436 7437 7438 7439 7440 7441 7442 7443 7444 7445 7446 7447 7448 7449 7450 7451 7452 7453 7454 7455 7456 7457 7458 7459 7460 7461 7462 7463 7464 7465 7466 7467 7468 7469 7470 7471 7472 7473 7474 7475 7476 7477 7478 7479 7480 7481 7482 7483 7484 7485 7486 7487 7488 7489 7490 7491 7492 7493 7494 7495 7496 7497 7498 7499 7500 7501 7502 7503 7504 7505 7506 7507 7508 7509 7510 7511 7512 7513 7514 7515 7516 7517 7518 7519 7520 7521 7522 7523 7524 7525 7526 7527 7528 7529 7530 7531 7532 7533 7534 7535 7536 7537 7538 7539 7540 7541 7542 7543 7544 7545 7546 7547 7548 7549 7550 7551 7552 7553 7554 7555 7556 7557 7558 7559 7560 7561 7562 7563 7564 7565 7566 7567 7568 7569 7570 7571 7572 7573 7574 7575 7576 7577 7578 7579 7580 7581 7582 7583 7584 7585 7586 7587 7588 7589 7590 7591 7592 7593 7594 7595 7596 7597 7598 7599 7600 7601 7602 7603 7604 7605 7606 7607 7608 7609 7610 7611 7612 7613 7614 7615 7616 7617 7618 7619 7620 7621 7622 7623 7624 7625 7626 7627 7628 7629 7630 7631 7632 7633 7634 7635 7636 7637 7638 7639 7640 7641 7642 7643 7644 7645 7646 7647 7648 7649 7650 7651 7652 7653 7654 7655 7656 7657 7658 7659 7660 7661 7662 7663 7664 7665 7666 7667 7668 7669 7670 7671 7672 7673 7674 7675 7676 7677 7678 7679 7680 7681 7682 7683 7684 7685 7686 7687 7688 7689 7690 7691 7692 7693 7694 7695 7696 7697 7698 7699 7700 7701 7702 7703 7704 7705 7706 7707 7708 7709 7710 7711 7712 7713 7714 7715 7716 7717 7718 7719 7720 7721 7722 7723 7724 7725 7726 7727 7728 7729 7730 7731 7732 7733 7734 7735 7736 7737 7738 7739 7740 7741 7742 7743 7744 7745 7746 7747 7748 7749 7750 7751 7752 7753 7754 7755 7756 7757 7758 7759 7760 7761 7762 7763 7764 7765 7766 7767 7768 7769 7770 7771 7772 7773 7774 7775 7776 7777 7778 7779 7780 7781 7782 7783 7784 7785 7786 7787 7788 7789 7790 7791 7792 7793 7794 7795 7796 7797 7798 7799 7800 7801 7802 7803 7804 7805 7806 7807 7808 7809 7810 7811 7812 7813 7814 7815 7816 7817 7818 7819 7820 7821 7822 7823 7824 7825 7826 7827 7828 7829 7830 7831 7832 7833 7834 7835 7836 7837 7838 7839 7840 7841 7842 7843 7844 7845 7846 7847 7848 7849 7850 7851 7852 7853 7854 7855 7856 7857 7858 7859 7860 7861 7862 7863 7864 7865 7866 7867 7868 7869 7870 7871 7872 7873 7874 7875 7876 7877 7878 7879 7880 7881 7882 7883 7884 7885 7886 7887 7888 7889 7890 7891 7892 7893 7894 7895 7896 7897 7898 7899 7900 7901 7902 7903 7904 7905 7906 7907 7908 7909 7910 7911 7912 7913 7914 7915 7916 7917 7918 7919 7920 7921 7922 7923 7924 7925 7926 7927 7928 7929 7930 7931 7932 7933 7934 7935 7936 7937 7938 7939 7940 7941 7942 7943 7944 7945 7946 7947 7948 7949 7950 7951 7952 7953 7954 7955 7956 7957 7958 7959 7960 7961 7962 7963 7964 7965 7966 7967 7968 7969 7970 7971 7972 7973 7974 7975 7976 7977 7978 7979 7980 7981 7982 7983 7984 7985 7986 7987 7988 7989 7990 7991 7992 7993 7994 7995 7996 7997 7998 7999 8000 8001 8002 8003 8004 8005 8006 8007 8008 8009 8010 8011 8012 8013 8014 8015 8016 8017 8018 8019 8020 8021 8022 8023 8024 8025 8026 8027 8028 8029 8030 8031 8032 8033 8034 8035 8036 8037 8038 8039 8040 8041 8042 8043 8044 8045 8046 8047 8048 8049 8050 8051 8052 8053 8054 8055 8056 8057 8058 8059 8060 8061 8062 8063 8064 8065 8066 8067 8068 8069 8070 8071 8072 8073 8074 8075 8076 8077 8078 8079 8080 8081 8082 8083 8084 8085 8086 8087 8088 8089 8090 8091 8092 8093 8094 8095 8096 8097 8098 8099 8100 8101 8102 8103 8104 8105 8106 8107 8108 8109 8110 8111 8112 8113 8114 8115 8116 8117 8118 8119 8120 8121 8122 8123 8124 8125 8126 8127 8128 8129 8130 8131 8132 8133 8134 8135 8136 8137 8138 8139 8140 8141 8142 8143 8144 8145 8146 8147 8148 8149 8150 8151 8152 8153 8154 8155 8156 8157 8158 8159 8160 8161 8162 8163 8164 8165 8166 8167 8168 8169 8170 8171 8172 8173 8174 8175 8176 8177 8178 8179 8180 8181 8182 8183 8184 8185 8186 8187 8188 8189 8190 8191 8192 8193 8194 8195 8196 8197 8198 8199 8200 8201 8202 8203 8204 8205 8206 8207 8208 8209 8210 8211 8212 8213 8214 8215 8216 8217 8218 8219 8220 8221 8222 8223 8224 8225 8226 8227 8228 8229 8230 8231 8232 8233 8234 8235 8236 8237 8238 8239 8240 8241 8242 8243 8244 8245 8246 8247 8248 8249 8250 8251 8252 8253 8254 8255 8256 8257 8258 8259 8260 8261 8262 8263 8264 8265 8266 8267 8268 8269 8270 8271 8272 8273 8274 8275 8276 8277 8278 8279 8280 8281 8282 8283 8284 8285 8286 8287 8288 8289 8290 8291 8292 8293 8294 8295 8296 8297 8298 8299 8300 8301 8302 8303 8304 8305 8306 8307 8308 8309 8310 8311 8312 8313 8314 8315 8316 8317 8318 8319 8320 8321 8322 8323 8324 8325 8326 8327 8328 8329 8330 8331 8332 8333 8334 8335 8336 8337 8338 8339 8340 8341 8342 8343 8344 8345 8346 8347 8348 8349 8350 8351 8352 8353 8354 8355 8356 8357 8358 8359 8360 8361 8362 8363 8364 8365 8366 8367 8368 8369 8370 8371 8372 8373 8374 8375 8376 8377 8378 8379 8380 8381 8382 8383 8384 8385 8386 8387 8388 8389 8390 8391 8392 8393 8394 8395 8396 8397 8398 8399 8400 8401 8402 8403 8404 8405 8406 8407 8408 8409 8410 8411 8412 8413 8414 8415 8416 8417 8418 8419 8420 8421 8422 8423 8424 8425 8426 8427 8428 8429 8430 8431 8432 8433 8434 8435 8436 8437 8438 8439 8440 8441 8442 8443 8444 8445 8446 8447 8448 8449 8450 8451 8452 8453 8454 8455 8456 8457 8458 8459 8460 8461 8462 8463 8464 8465 8466 8467 8468 8469 8470 8471 8472 8473 8474 8475 8476 8477 8478 8479 8480 8481 8482 8483 8484 8485 8486 8487 8488 8489 8490 8491 8492 8493 8494 8495 8496 8497 8498 8499 8500 8501 8502 8503 8504 8505 8506 8507 8508 8509 8510 8511 8512 8513 8514 8515 8516 8517 8518 8519 8520 8521 8522 8523 8524 8525 8526 8527 8528 8529 8530 8531 8532 8533 8534 8535 8536 8537 8538 8539 8540 8541 8542 8543 8544 8545 8546 8547 8548 8549 8550 8551 8552 8553 8554 8555 8556 8557 8558 8559 8560 8561 8562 8563 8564 8565 8566 8567 8568 8569 8570 8571 8572 8573 8574 8575 8576 8577 8578 8579 8580 8581 8582 8583 8584 8585 8586 8587 8588 8589 8590 8591 8592 8593 8594 8595 8596 8597 8598 8599 8600 8601 8602 8603 8604 8605 8606 8607 8608 8609 8610 8611 8612 8613 8614 8615 8616 8617 8618 8619 8620 8621 8622 8623 8624 8625 8626 8627 8628 8629 8630 8631 8632 8633 8634 8635 8636 8637 8638 8639 8640 8641 8642 8643 8644 8645 8646 8647 8648 8649 8650 8651 8652 8653 8654 8655 8656 8657 8658 8659 8660 8661 8662 8663 8664 8665 8666 8667 8668 8669 8670 8671 8672 8673 8674 8675 8676 8677 8678 8679 8680 8681 8682 8683 8684 8685 8686 8687 8688 8689 8690 8691 8692 8693 8694 8695 8696 8697 8698 8699 8700 8701 8702 8703 8704 8705 8706 8707 8708 8709 8710 8711 8712 8713 8714 8715 8716 8717 8718 8719 8720 8721 8722 8723 8724 8725 8726 8727 8728 8729 8730 8731 8732 8733 8734 8735 8736 8737 8738 8739 8740 8741 8742 8743 8744 8745 8746 8747 8748 8749 8750 8751 8752 8753 8754 8755 8756 8757 8758 8759 8760 8761 8762 8763 8764 8765 8766 8767 8768 8769 8770 8771 8772 8773 8774 8775 8776 8777 8778 8779 8780 8781 8782 8783 8784 8785 8786 8787 8788 8789 8790 8791 8792 8793 8794 8795 8796 8797 8798 8799 8800 8801 8802 8803 8804 8805 8806 8807 8808 8809 8810 8811 8812 8813 8814 8815 8816 8817 8818 8819 8820 8821 8822 8823 8824 8825 8826 8827 8828 8829 8830 8831 8832 8833 8834 8835 8836 8837 8838 8839 8840 8841 8842 8843 8844 8845 8846 8847 8848 8849 8850 8851 8852 8853 8854 8855 8856 8857 8858 8859 8860 8861 8862 8863 8864 8865 8866 8867 8868 8869 8870 8871 8872 8873 8874 8875 8876 8877 8878 8879 8880 8881 8882 8883 8884 8885 8886 8887 8888 8889 8890 8891 8892 8893 8894 8895 8896 8897 8898 8899 8900 8901 8902 8903 8904 8905 8906 8907 8908 8909 8910 8911 8912 8913 8914 8915 8916 8917 8918 8919 8920 8921 8922 8923 8924 8925 8926 8927 8928 8929 8930 8931 8932 8933 8934 8935 8936 8937 8938 8939 8940 8941 8942 8943 8944 8945 8946 8947 8948 8949 8950 8951 8952 8953 8954 8955 8956 8957 8958 8959 8960 8961 8962 8963 8964 8965 8966 8967 8968 8969 8970 8971 8972 8973 8974 8975 8976 8977 8978 8979 8980 8981 8982 8983 8984 8985 8986 8987 8988 8989 8990 8991 8992 8993 8994 8995 8996 8997 8998 8999 9000 9001 9002 9003 9004 9005 9006 9007 9008 9009 9010 9011 9012 9013 9014 9015 9016 9017 9018 9019 9020 9021 9022 9023 9024 9025 9026 9027 9028 9029 9030 9031 9032 9033 9034 9035 9036 9037 9038 9039 9040 9041 9042 9043 9044 9045 9046 9047 9048 9049 9050 9051 9052 9053 9054 9055 9056 9057 9058 9059 9060 9061 9062 9063 9064 9065 9066 9067 9068 9069 9070 9071 9072 9073 9074 9075 9076 9077 9078 9079 9080 9081 9082 9083 9084 9085 9086 9087 9088 9089 9090 9091 9092 9093 9094 9095 9096 9097 9098 9099 9100 9101 9102 9103 9104 9105 9106 9107 9108 9109 9110 9111 9112 9113 9114 9115 9116 9117 9118 9119 9120 9121 9122 9123 9124 9125 9126 9127 9128 9129 9130 9131 9132 9133 9134 9135 9136 9137 9138 9139 9140 9141 9142 9143 9144 9145 9146 9147 9148 9149 9150 9151 9152 9153 9154 9155 9156 9157 9158 9159 9160 9161 9162 9163 9164 9165 9166 9167 9168 9169 9170 9171 9172 9173 9174 9175 9176 9177 9178 9179 9180 9181 9182 9183 9184 9185 9186 9187 9188 9189 9190 9191 9192 9193 9194 9195 9196 9197 9198 9199 9200 9201 9202 9203 9204 9205 9206 9207 9208 9209 9210 9211 9212 9213 9214 9215 9216 9217 9218 9219 9220 9221 9222 9223 9224 9225 9226 9227 9228 9229 9230 9231 9232 9233 9234 9235 9236 9237 9238 9239 9240 9241 9242 9243 9244 9245 9246 9247 9248 9249 9250 9251 9252 9253 9254 9255 9256 9257 9258 9259 9260 9261 9262 9263 9264 9265 9266 9267 9268 9269 9270 9271 9272 9273 9274 9275 9276 9277 9278 9279 9280 9281 9282 9283 9284 9285 9286 9287 9288 9289 9290 9291 9292 9293 9294 9295 9296 9297 9298 9299 9300 9301 9302 9303 9304 9305 9306 9307 9308 9309 9310 9311 9312 9313 9314 9315 9316 9317 9318 9319 9320 9321 9322 9323 9324 9325 9326 9327 9328 9329 9330 9331 9332 9333 9334 9335 9336 9337 9338 9339 9340 9341 9342 9343 9344 9345 9346 9347 9348 9349 9350 9351 9352 9353 9354 9355 9356 9357 9358 9359 9360 9361 9362 9363 9364 9365 9366 9367 9368 9369 9370 9371 9372 9373 9374 9375 9376 9377 9378 9379 9380 9381 9382 9383 9384 9385 9386 9387 9388 9389 9390 9391 9392 9393 9394 9395 9396 9397 9398 9399 9400 9401 9402 9403 9404 9405 9406 9407 9408 9409 9410 9411 9412 9413 9414 9415 9416 9417 9418 9419 9420 9421 9422 9423 9424 9425 9426 9427 9428 9429 9430 9431 9432 9433 9434 9435 9436 9437 9438 9439 9440 9441 9442 9443 9444 9445 9446 9447 9448 9449 9450 9451 9452 9453 9454 9455 9456 9457 9458 9459 9460 9461 9462 9463 9464 9465 9466 9467 9468 9469 9470 9471 9472 9473 9474 9475 9476 9477 9478 9479 9480 9481 9482 9483 9484 9485 9486 9487 9488 9489 9490 9491 9492 9493 9494 9495 9496 9497 9498 9499 9500 9501 9502 9503 9504 9505 9506 9507 9508 9509 9510 9511 9512 9513 9514 9515 9516 9517 9518 9519 9520 9521 9522 9523 9524 9525 9526 9527 9528 9529 9530 9531 9532 9533 9534 9535 9536 9537 9538 9539 9540 9541 9542 9543 9544 9545 9546 9547 9548 9549 9550 9551 9552 9553 9554 9555 9556 9557 9558 9559 9560 9561 9562 9563 9564 9565 9566 9567 9568 9569 9570 9571 9572 9573 9574 9575 9576 9577 9578 9579 9580 9581 9582 9583 9584 9585 9586 9587 9588 9589 9590 9591 9592 9593 9594 9595 9596 9597 9598 9599 9600 9601 9602 9603 9604 9605 9606 9607 9608 9609 9610 9611 9612 9613 9614 9615 9616 9617 9618 9619 9620 9621 9622 9623 9624 9625 9626 9627 9628 9629 9630 9631 9632 9633 9634 9635 9636 9637 9638 9639 9640 9641 9642 9643 9644 9645 9646 9647 9648 9649 9650 9651 9652 9653 9654 9655 9656 9657 9658 9659 9660 9661 9662 9663 9664 9665 9666 9667 9668 9669 9670 9671 9672 9673 9674 9675 9676 9677 9678 9679 9680 9681 9682 9683 9684 9685 9686 9687 9688 9689 9690 9691 9692 9693 9694 9695 9696 9697 9698 9699 9700 9701 9702 9703 9704 9705 9706 9707 9708 9709 9710 9711 9712 9713 9714 9715 9716 9717 9718 9719 9720 9721 9722 9723 9724 9725 9726 9727 9728 9729 9730 9731 9732 9733 9734 9735 9736 9737 9738 9739 9740 9741 9742 9743 9744 9745 9746 9747 9748 9749 9750 9751 9752 9753 9754 9755 9756 9757 9758 9759 9760 9761 9762 9763 9764 9765 9766 9767 9768 9769 9770 9771 9772 9773 9774 9775 9776 9777 9778 9779 9780 9781 9782 9783 9784 9785 9786 9787 9788 9789 9790 9791 9792 9793 9794 9795 9796 9797 9798 9799 9800 9801 9802 9803 9804 9805 9806 9807 9808 9809 9810 9811 9812 9813 9814 9815 9816 9817 9818 9819 9820 9821 9822 9823 9824 9825 9826 9827 9828 9829 9830 9831 9832 9833 9834 9835 9836 9837 9838 9839 9840 9841 9842 9843 9844 9845 9846 9847 9848 9849 9850 9851 9852 9853 9854 9855 9856 9857 9858 9859 9860 9861 9862 9863 9864 9865 9866 9867 9868 9869 9870 9871 9872 9873 9874 9875 9876 9877 9878 9879 9880 9881 9882 9883 9884 9885 9886 9887 9888 9889 9890 9891 9892 9893 9894 9895 9896 9897 9898 9899 9900 9901 9902 9903 9904 9905 9906 9907 9908 9909 9910 9911 9912 9913 9914 9915 9916 9917 9918 9919 9920 9921 9922 9923 9924 9925 9926 9927 9928 9929 9930 9931 9932 9933 9934 9935 9936 9937 9938 9939 9940 9941 9942 9943 9944 9945 9946 9947 9948 9949 9950 9951 9952 9953 9954 9955 9956 9957 9958 9959 9960 9961 9962 9963 9964 9965 9966 9967 9968 9969 9970 9971 9972 9973 9974 9975 9976 9977 9978 9979 9980 9981 9982 9983 9984 9985 9986 9987 9988 9989 9990 9991 9992 9993 9994 9995 9996 9997 9998 9999 10000 10001 10002 10003 10004 10005 10006 10007 10008 10009 10010 10011 10012 10013 10014 10015 10016 10017 10018 10019 10020 10021 10022 10023 10024 10025 10026 10027 10028 10029 10030 10031 10032 10033 10034 10035 10036 10037 10038 10039 10040 10041 10042 10043 10044 10045 10046 10047 10048 10049 10050 10051 10052 10053 10054 10055 10056 10057 10058 10059 10060 10061 10062 10063 10064 10065 10066 10067 10068 10069 10070 10071 10072 10073 10074 10075 10076 10077 10078 10079 10080 10081 10082 10083 10084 10085 10086 10087 10088 10089 10090 10091 10092 10093 10094 10095 10096 10097 10098 10099 10100 10101 10102 10103 10104 10105 10106 10107 10108 10109 10110 10111 10112 10113 10114 10115 10116 10117 10118 10119 10120 10121 10122 10123 10124 10125 10126 10127 10128 10129 10130 10131 10132 10133 10134 10135 10136 10137 10138 10139 10140 10141 10142 10143 10144 10145 10146 10147 10148 10149 10150 10151 10152 10153 10154 10155 10156 10157 10158 10159 10160 10161 10162 10163 10164 10165 10166 10167 10168 10169 10170 10171 10172 10173 10174 10175 10176 10177 10178 10179 10180 10181 10182 10183 10184 10185 10186 10187 10188 10189 10190 10191 10192 10193 10194 10195 10196 10197 10198 10199 10200 10201 10202 10203 10204 10205 10206 10207 10208 10209 10210 10211 10212 10213 10214 10215 10216 10217 10218 10219 10220 10221 10222 10223 10224 10225 10226 10227 10228 10229 10230 10231 10232 10233 10234 10235 10236 10237 10238 10239 10240 10241 10242 10243 10244 10245 10246 10247 10248 10249 10250 10251 10252 10253 10254 10255 10256 10257 10258 10259 10260 10261 10262 10263 10264 10265 10266 10267 10268 10269 10270 10271 10272 10273 10274 10275 10276 10277 10278 10279 10280 10281 10282 10283 10284 10285 10286 10287 10288 10289 10290 10291 10292 10293 10294 10295 10296 10297 10298 10299 10300 10301 10302 10303 10304 10305 10306 10307 10308 10309 10310 10311 10312 10313 10314 10315 10316 10317 10318 10319 10320 10321 10322 10323 10324 10325 10326 10327 10328 10329 10330 10331 10332 10333 10334 10335 10336 10337 10338 10339 10340 10341 10342 10343 10344 10345 10346 10347 10348 10349 10350 10351 10352 10353 10354 10355 10356 10357 10358 10359 10360 10361 10362 10363 10364 10365 10366 10367 10368 10369 10370 10371 10372 10373 10374 10375 10376 10377 10378 10379 10380 10381 10382 10383 10384 10385 10386 10387 10388 10389 10390 10391 10392 10393 10394 10395 10396 10397 10398 10399 10400 10401 10402 10403 10404 10405 10406 10407 10408 10409 10410 10411 10412 10413 10414 10415 10416 10417 10418 10419 10420 10421 10422 10423 10424 10425 10426 10427 10428 10429 10430 10431 10432 10433 10434 10435 10436 10437 10438 10439 10440 10441 10442 10443 10444 10445 10446 10447 10448 10449 10450 10451 10452 10453 10454 10455 10456 10457 10458 10459 10460 10461 10462 10463 10464 10465 10466 10467 10468 10469 10470 10471 10472 10473 10474 10475 10476 10477 10478 10479 10480 10481 10482 10483 10484 10485 10486 10487 10488 10489 10490 10491 10492 10493 10494 10495 10496 10497 10498 10499 10500 10501 10502 10503 10504 10505 10506 10507 10508 10509 10510 10511 10512 10513 10514 10515 10516 10517 10518 10519 10520 10521 10522 10523 10524 10525 10526 10527 10528 10529 10530 10531 10532 10533 10534 10535 10536 10537 10538 10539 10540 10541 10542 10543 10544 10545 10546 10547 10548 10549 10550 10551 10552 10553 10554 10555 10556 10557 10558 10559 10560 10561 10562 10563 10564 10565 10566 10567 10568 10569 10570 10571 10572 10573 10574 10575 10576 10577 10578 10579 10580 10581 10582 10583 10584 10585 10586 10587 10588 10589 10590 10591 10592 10593 10594 10595 10596 10597 10598 10599 10600 10601 10602 10603 10604 10605 10606 10607 10608 10609 10610 10611 10612 10613 10614 10615 10616 10617 10618 10619 10620 10621 10622 10623 10624 10625 10626 10627 10628 10629 10630 10631 10632 10633 10634 10635 10636 10637 10638 10639 10640 10641 10642 10643 10644 10645 10646 10647 10648 10649 10650 10651 10652 10653 10654 10655 10656 10657 10658 10659 10660 10661 10662 10663 10664 10665 10666 10667 10668 10669 10670 10671 10672 10673 10674 10675 10676 10677 10678 10679 10680 10681 10682 10683 10684 10685 10686 10687 10688 10689 10690 10691 10692 10693 10694 10695 10696 10697 10698 10699 10700 10701 10702 10703 10704 10705 10706 10707 10708 10709 10710 10711 10712 10713 10714 10715 10716 10717 10718 10719 10720 10721 10722 10723 10724 10725 10726 10727 10728 10729 10730 10731 10732 10733 10734 10735 10736 10737 10738 10739 10740 10741 10742 10743 10744 10745 10746 10747 10748 10749 10750 10751 10752 10753 10754 10755 10756 10757 10758 10759 10760 10761 10762 10763 10764 10765 10766 10767 10768 10769 10770 10771 10772 10773 10774 10775 10776 10777 10778 10779 10780 10781 10782 10783 10784 10785 10786 10787 10788 10789 10790 10791 10792 10793 10794 10795 10796 10797 10798 10799 10800 10801 10802 10803 10804 10805 10806 10807 10808 10809 10810 10811 10812 10813 10814 10815 10816 10817 10818 10819 10820 10821 10822 10823 10824 10825 10826 10827 10828 10829 10830 10831 10832 10833 10834 10835 10836 10837 10838 10839 10840 10841 10842 10843 10844 10845 10846 10847 10848 10849 10850 10851 10852 10853 10854 10855 10856 10857 10858 10859 10860 10861 10862 10863 10864 10865 10866 10867 10868 10869 10870 10871 10872 10873 10874 10875 10876 10877 10878 10879 10880 10881 10882 10883 10884 10885 10886 10887 10888 10889 10890 10891 10892 10893 10894 10895 10896 10897 10898 10899 10900 10901 10902 10903 10904 10905 10906 10907 10908 10909 10910 10911 10912 10913 10914 10915 10916 10917 10918 10919 10920 10921 10922 10923 10924 10925 10926 10927 10928 10929 10930 10931 10932 10933 10934 10935 10936 10937 10938 10939 10940 10941 10942 10943 10944 10945 10946 10947 10948 10949 10950 10951 10952 10953 10954 10955 10956 10957 10958 10959 10960 10961 10962 10963 10964 10965 10966 10967 10968 10969 10970 10971 10972 10973 10974 10975 10976 10977 10978 10979 10980 10981 10982 10983 10984 10985 10986 10987 10988 10989 10990 10991 10992 10993 10994 10995 10996 10997 10998 10999 11000 11001 11002 11003 11004 11005 11006 11007 11008 11009 11010 11011 11012 11013 11014 11015 11016 11017 11018 11019 11020 11021 11022 11023 11024 11025 11026 11027 11028 11029 11030 11031 11032 11033 11034 11035 11036 11037 11038 11039 11040 11041 11042 11043 11044 11045 11046 11047 11048 11049 11050 11051 11052 11053 11054 11055 11056 11057 11058 11059 11060 11061 11062 11063 11064 11065 11066 11067 11068 11069 11070 11071 11072 11073 11074 11075 11076 11077 11078 11079 11080 11081 11082 11083 11084 11085 11086 11087 11088 11089 11090 11091 11092 11093 11094 11095 11096 11097 11098 11099 11100 11101 11102 11103 11104 11105 11106 11107 11108 11109 11110 11111 11112 11113 11114 11115 11116 11117 11118 11119 11120 11121 11122 11123 11124 11125 11126 11127 11128 11129 11130 11131 11132 11133 11134 11135 11136 11137 11138 11139 11140 11141 11142 11143 11144 11145 11146 11147 11148 11149 11150 11151 11152 11153 11154 11155 11156 11157 11158 11159 11160 11161 11162 11163 11164 11165 11166 11167 11168 11169 11170 11171 11172 11173 11174 11175 11176 11177 11178 11179 11180 11181 11182 11183 11184 11185 11186 11187 11188 11189 11190 11191 11192 11193 11194 11195 11196 11197 11198 11199 11200 11201 11202 11203 11204 11205 11206 11207 11208 11209 11210 11211 11212 11213 11214 11215 11216 11217 11218 11219 11220 11221 11222 11223 11224 11225 11226 11227 11228 11229 11230 11231 11232 11233 11234 11235 11236 11237 11238 11239 11240 11241 11242 11243 11244 11245 11246 11247 11248 11249 11250 11251 11252 11253 11254 11255 11256 11257 11258 11259 11260 11261 11262 11263 11264 11265 11266 11267 11268 11269 11270 11271 11272 11273 11274 11275 11276 11277 11278 11279 11280 11281 11282 11283 11284 11285 11286 11287 11288 11289 11290 11291 11292 11293 11294 11295 11296 11297 11298 11299 11300 11301 11302 11303 11304 11305 11306 11307 11308 11309 11310 11311 11312 11313 11314 11315 11316 11317 11318 11319 11320 11321 11322 11323 11324 11325 11326 11327 11328 11329 11330 11331 11332 11333 11334 11335 11336 11337 11338 11339 11340 11341 11342 11343 11344 11345 11346 11347 11348 11349 11350 11351 11352 11353 11354 11355 11356 11357 11358 11359 11360 11361 11362 11363 11364 11365 11366 11367 11368 11369 11370 11371 11372 11373 11374 11375 11376 11377 11378 11379 11380 11381 11382 11383 11384 11385 11386 11387 11388 11389 11390 11391 11392 11393 11394 11395 11396 11397 11398 11399 11400 11401 11402 11403 11404 11405 11406 11407 11408 11409 11410 11411 11412 11413 11414 11415 11416 11417 11418 11419 11420 11421 11422 11423 11424 11425 11426 11427 11428 11429 11430 11431 11432 11433 11434 11435 11436 11437 11438 11439 11440 11441 11442 11443 11444 11445 11446 11447 11448 11449 11450 11451 11452 11453 11454 11455 11456 11457 11458 11459 11460 11461 11462 11463 11464 11465 11466 11467 11468 11469 11470 11471 11472 11473 11474 11475 11476 11477 11478 11479 11480 11481 11482 11483 11484 11485 11486 11487 11488 11489 11490 11491 11492 11493 11494 11495 11496 11497 11498 11499 11500 11501 11502 11503 11504 11505 11506 11507 11508 11509 11510 11511 11512 11513 11514 11515 11516 11517 11518 11519 11520 11521 11522 11523 11524 11525 11526 11527 11528 11529 11530 11531 11532 11533 11534 11535 11536 11537 11538 11539 11540 11541 11542 11543 11544 11545 11546 11547 11548 11549 11550 11551 11552 11553 11554 11555 11556 11557 11558 11559 11560 11561 11562 11563 11564 11565 11566 11567 11568 11569 11570 11571 11572 11573 11574 11575 11576 11577 11578 11579 11580 11581 11582 11583 11584 11585 11586 11587 11588 11589 11590 11591 11592 11593 11594 11595 11596 11597 11598 11599 11600 11601 11602 11603 11604 11605 11606 11607 11608 11609 11610 11611 11612 11613 11614 11615 11616 11617 11618 11619 11620 11621 11622 11623 11624 11625 11626 11627 11628 11629 11630 11631 11632 11633 11634 11635 11636 11637 11638 11639 11640 11641 11642 11643 11644 11645 11646 11647 11648 11649 11650 11651 11652 11653 11654 11655 11656 11657 11658 11659 11660 11661 11662 11663 11664 11665 11666 11667 11668 11669 11670 11671 11672 11673 11674 11675 11676 11677 11678 11679 11680 11681 11682 11683 11684 11685 11686 11687 11688 11689 11690 11691 11692 11693 11694 11695 11696 11697 11698 11699 11700 11701 11702 11703 11704 11705 11706 11707 11708 11709 11710 11711 11712 11713 11714 11715 11716 11717 11718 11719 11720 11721 11722 11723 11724 11725 11726 11727 11728 11729 11730 11731 11732 11733 11734 11735 11736 11737 11738 11739 11740 11741 11742 11743 11744 11745 11746 11747 11748 11749 11750 11751 11752 11753 11754 11755 11756 11757 11758 11759 11760 11761 11762 11763 11764 11765 11766 11767 11768 11769 11770 11771 11772 11773 11774 11775 11776 11777 11778 11779 11780 11781 11782 11783 11784 11785 11786 11787 11788 11789 11790 11791 11792 11793 11794 11795 11796 11797 11798 11799 11800 11801 11802 11803 11804 11805 11806 11807 11808 11809 11810 11811 11812 11813 11814 11815 11816 11817 11818 11819 11820 11821 11822 11823 11824 11825 11826 11827 11828 11829 11830 11831 11832 11833 11834 11835 11836 11837 11838 11839 11840 11841 11842 11843 11844 11845 11846 11847 11848 11849 11850 11851 11852 11853 11854 11855 11856 11857 11858 11859 11860 11861 11862 11863 11864 11865 11866 11867 11868 11869 11870 11871 11872 11873 11874 11875 11876 11877 11878 11879 11880 11881 11882 11883 11884 11885 11886 11887 11888 11889 11890 11891 11892 11893 11894 11895 11896 11897 11898 11899 11900 11901 11902 11903 11904 11905 11906 11907 11908 11909 11910 11911 11912 11913 11914 11915 11916 11917 11918 11919 11920 11921 11922 11923 11924 11925 11926 11927 11928 11929 11930 11931 11932 11933 11934 11935 11936 11937 11938 11939 11940 11941 11942 11943 11944 11945 11946 11947 11948 11949 11950 11951 11952 11953 11954 11955 11956 11957 11958 11959 11960 11961 11962 11963 11964 11965 11966 11967 11968 11969 11970 11971 11972 11973 11974 11975 11976 11977 11978 11979 11980 11981 11982 11983 11984 11985 11986 11987 11988 11989 11990 11991 11992 11993 11994 11995 11996 11997 11998 11999 12000 12001 12002 12003 12004 12005 12006 12007 12008 12009 12010 12011 12012 12013 12014 12015 12016 12017 12018 12019 12020 12021 12022 12023 12024 12025 12026 12027 12028 12029 12030 12031 12032 12033 12034 12035 12036 12037 12038 12039 12040 12041 12042 12043 12044 12045 12046 12047 12048 12049 12050 12051 12052 12053 12054 12055 12056 12057 12058 12059 12060 12061 12062 12063 12064 12065 12066 12067 12068 12069 12070 12071 12072 12073 12074 12075 12076 12077 12078 12079 12080 12081 12082 12083 12084 12085 12086 12087 12088 12089 12090 12091 12092 12093 12094 12095 12096 12097 12098 12099 12100 12101 12102 12103 12104 12105 12106 12107 12108 12109 12110 12111 12112 12113 12114 12115 12116 12117 12118 12119 12120 12121 12122 12123 12124 12125 12126 12127 12128 12129 12130 12131 12132 12133 12134 12135 12136 12137 12138 12139 12140 12141 12142 12143 12144 12145 12146 12147 12148 12149 12150 12151 12152 12153 12154 12155 12156 12157 12158 12159 12160 12161 12162 12163 12164 12165 12166 12167 12168 12169 12170 12171 12172 12173 12174 12175 12176 12177 12178 12179 12180 12181 12182 12183 12184 12185 12186 12187 12188 12189 12190 12191 12192 12193 12194 12195 12196 12197 12198 12199 12200 12201 12202 12203 12204 12205 12206 12207 12208 12209 12210 12211 12212 12213 12214 12215 12216 12217 12218 12219 12220 12221 12222 12223 12224 12225 12226 12227 12228 12229 12230 12231 12232 12233 12234 12235 12236 12237 12238 12239 12240 12241 12242 12243 12244 12245 12246 12247 12248 12249 12250 12251 12252 12253 12254 12255 12256 12257 12258 12259 12260 12261 12262 12263 12264 12265 12266 12267 12268 12269 12270 12271 12272 12273 12274 12275 12276 12277 12278 12279 12280 12281 12282 12283 12284 12285 12286 12287 12288 12289 12290 12291 12292 12293 12294 12295 12296 12297 12298 12299 12300 12301 12302 12303 12304 12305 12306 12307 12308 12309 12310 12311 12312 12313 12314 12315 12316 12317 12318 12319 12320 12321 12322 12323 12324 12325 12326 12327 12328 12329 12330 12331 12332 12333 12334 12335 12336 12337 12338 12339 12340 12341 12342 12343 12344 12345 12346 12347 12348 12349 12350 12351 12352 12353 12354 12355 12356 12357 12358 12359 12360 12361 12362 12363 12364 12365 12366 12367 12368 12369 12370 12371 12372 12373 12374 12375 12376 12377 12378 12379 12380 12381 12382 12383 12384 12385 12386 12387 12388 12389 12390 12391 12392 12393 12394 12395 12396 12397 12398 12399 12400 12401 12402 12403 12404 12405 12406 12407 12408 12409 12410 12411 12412 12413 12414 12415 12416 12417 12418 12419 12420 12421 12422 12423 12424 12425 12426 12427 12428 12429 12430 12431 12432 12433 12434 12435 12436 12437 12438 12439 12440 12441 12442 12443 12444 12445 12446 12447 12448 12449 12450 12451 12452 12453 12454 12455 12456 12457 12458 12459 12460 12461 12462 12463 12464 12465 12466 12467 12468 12469 12470 12471 12472 12473 12474 12475 12476 12477 12478 12479 12480 12481 12482 12483 12484 12485 12486 12487 12488 12489 12490 12491 12492 12493 12494 12495 12496 12497 12498 12499 12500 12501 12502 12503 12504 12505 12506 12507 12508 12509 12510 12511 12512 12513 12514 12515 12516 12517 12518 12519 12520 12521 12522 12523 12524 12525 12526 12527 12528 12529 12530 12531 12532 12533 12534 12535 12536 12537 12538 12539 12540 12541 12542 12543 12544 12545 12546 12547 12548 12549 12550 12551 12552 12553 12554 12555 12556 12557 12558 12559 12560 12561 12562 12563 12564 12565 12566 12567 12568 12569 12570 12571 12572 12573 12574 12575 12576 12577 12578 12579 12580 12581 12582 12583 12584 12585 12586 12587 12588 12589 12590 12591 12592 12593 12594 12595 12596 12597 12598 12599 12600 12601 12602 12603 12604 12605 12606 12607 12608 12609 12610 12611 12612 12613 12614 12615 12616 12617 12618 12619 12620 12621 12622 12623 12624 12625 12626 12627 12628 12629 12630 12631 12632 12633 12634 12635 12636 12637 12638 12639 12640 12641 12642 12643 12644 12645 12646 12647 12648 12649 12650 12651 12652 12653 12654 12655 12656 12657 12658 12659 12660 12661 12662 12663 12664 12665 12666 12667 12668 12669 12670 12671 12672 12673 12674 12675 12676 12677 12678 12679 12680 12681 12682 12683 12684 12685 12686 12687 12688 12689 12690 12691 12692 12693 12694 12695 12696 12697 12698 12699 12700 12701 12702 12703 12704 12705 12706 12707 12708 12709 12710 12711 12712 12713 12714 12715 12716 12717 12718 12719 12720 12721 12722 12723 12724 12725 12726 12727 12728 12729 12730 12731 12732 12733 12734 12735 12736 12737 12738 12739 12740 12741 12742 12743 12744 12745 12746 12747 12748 12749 12750 12751 12752 12753 12754 12755 12756 12757 12758 12759 12760 12761 12762 12763 12764 12765 12766 12767 12768 12769 12770 12771 12772 12773 12774 12775 12776 12777 12778 12779 12780 12781 12782 12783 12784 12785 12786 12787 12788 12789 12790 12791 12792 12793 12794 12795 12796 12797 12798 12799 12800 12801 12802 12803 12804 12805 12806 12807 12808 12809 12810 12811 12812 12813 12814 12815 12816 12817 12818 12819 12820 12821 12822 12823 12824 12825 12826 12827 12828 12829 12830 12831 12832 12833 12834 12835 12836 12837 12838 12839 12840 12841 12842 12843 12844 12845 12846 12847 12848 12849 12850 12851 12852 12853 12854 12855 12856 12857 12858 12859 12860 12861 12862 12863 12864 12865 12866 12867 12868 12869 12870 12871 12872 12873 12874 12875 12876 12877 12878 12879 12880 12881 12882 12883 12884 12885 12886 12887 12888 12889 12890 12891 12892 12893 12894 12895 12896 12897 12898 12899 12900 12901 12902 12903 12904 12905 12906 12907 12908 12909 12910 12911 12912 12913 12914 12915 12916 12917 12918 12919 12920 12921 12922 12923 12924 12925 12926 12927 12928 12929 12930 12931 12932 12933 12934 12935 12936 12937 12938 12939 12940 12941 12942 12943 12944 12945 12946 12947 12948 12949 12950 12951 12952 12953 12954 12955 12956 12957 12958 12959 12960 12961 12962 12963 12964 12965 12966 12967 12968 12969 12970 12971 12972 12973 12974 12975 12976 12977 12978 12979 12980 12981 12982 12983 12984 12985 12986 12987 12988 12989 12990 12991 12992 12993 12994 12995 12996 12997 12998 12999 13000 13001 13002 13003 13004 13005 13006 13007 13008 13009 13010 13011 13012 13013 13014 13015 13016 13017 13018 13019 13020 13021 13022 13023 13024 13025 13026 13027 13028 13029 13030 13031 13032 13033 13034 13035 13036 13037 13038 13039 13040 13041 13042 13043 13044 13045 13046 13047 13048 13049 13050 13051 13052 13053 13054 13055 13056 13057 13058 13059 13060 13061 13062 13063 13064 13065 13066 13067 13068 13069 13070 13071 13072 13073 13074 13075 13076 13077 13078 13079 13080 13081 13082 13083 13084 13085 13086 13087 13088 13089 13090 13091 13092 13093 13094 13095 13096 13097 13098 13099 13100 13101 13102 13103 13104 13105 13106 13107 13108 13109 13110 13111 13112 13113 13114 13115 13116 13117 13118 13119 13120 13121 13122 13123 13124 13125 13126 13127 13128 13129 13130 13131 13132 13133 13134 13135 13136 13137 13138 13139 13140 13141 13142 13143 13144 13145 13146 13147 13148 13149 13150 13151 13152 13153 13154 13155 13156 13157 13158 13159 13160 13161 13162 13163 13164 13165 13166 13167 13168 13169 13170 13171 13172 13173 13174 13175 13176 13177 13178 13179 13180 13181 13182 13183 13184 13185 13186 13187 13188 13189 13190 13191 13192 13193 13194 13195 13196 13197 13198 13199 13200 13201 13202 13203 13204 13205 13206 13207 13208 13209 13210 13211 13212 13213 13214 13215 13216 13217 13218 13219 13220 13221 13222 13223 13224 13225 13226 13227 13228 13229 13230 13231 13232 13233 13234 13235 13236 13237 13238 13239 13240 13241 13242 13243 13244 13245 13246 13247 13248 13249 13250 13251 13252 13253 13254 13255 13256 13257 13258 13259 13260 13261 13262 13263 13264 13265 13266 13267 13268 13269 13270 13271 13272 13273 13274 13275 13276 13277 13278 13279 13280 13281 13282 13283 13284 13285 13286 13287 13288 13289 13290 13291 13292 13293 13294 13295 13296 13297 13298 13299 13300 13301 13302 13303 13304 13305 13306 13307 13308 13309 13310 13311 13312 13313 13314 13315 13316 13317 13318 13319 13320 13321 13322 13323 13324 13325 13326 13327 13328 13329 13330 13331 13332 13333 13334 13335 13336 13337 13338 13339 13340 13341 13342 13343 13344 13345 13346 13347 13348 13349 13350 13351 13352 13353 13354 13355 13356 13357 13358 13359 13360 13361 13362 13363 13364 13365 13366 13367 13368 13369 13370 13371 13372 13373 13374 13375 13376 13377 13378 13379 13380 13381 13382 13383 13384 13385 13386 13387 13388 13389 13390 13391 13392 13393 13394 13395 13396 13397 13398 13399 13400 13401 13402 13403 13404 13405 13406 13407 13408 13409 13410 13411 13412 13413 13414 13415 13416 13417 13418 13419 13420 13421 13422 13423 13424 13425 13426 13427 13428 13429 13430 13431 13432 13433 13434 13435 13436 13437 13438 13439 13440 13441 13442 13443 13444 13445 13446 13447 13448 13449 13450 13451 13452 13453 13454 13455 13456 13457 13458 13459 13460 13461 13462 13463 13464 13465 13466 13467 13468 13469 13470 13471 13472 13473 13474 13475 13476 13477 13478 13479 13480 13481 13482 13483 13484 13485 13486 13487 13488 13489 13490 13491 13492 13493 13494 13495 13496 13497 13498 13499 13500 13501 13502 13503 13504 13505 13506 13507 13508 13509 13510 13511 13512 13513 13514 13515 13516 13517 13518 13519 13520 13521 13522 13523 13524 13525 13526 13527 13528 13529 13530 13531 13532 13533 13534 13535 13536 13537 13538 13539 13540 13541 13542 13543 13544 13545 13546 13547 13548 13549 13550 13551 13552 13553 13554 13555 13556 13557 13558 13559 13560 13561 13562 13563 13564 13565 13566 13567 13568 13569 13570 13571 13572 13573 13574 13575 13576 13577 13578 13579 13580 13581 13582 13583 13584 13585 13586 13587 13588 13589 13590 13591 13592 13593 13594 13595 13596 13597 13598 13599 13600 13601 13602 13603 13604 13605 13606 13607 13608 13609 13610 13611 13612 13613 13614 13615 13616 13617 13618 13619 13620 13621 13622 13623 13624 13625 13626 13627 13628 13629 13630 13631 13632 13633 13634 13635 13636 13637 13638 13639 13640 13641 13642 13643 13644 13645 13646 13647 13648 13649 13650 13651 13652 13653 13654 13655 13656 13657 13658 13659 13660 13661 13662 13663 13664 13665 13666 13667 13668 13669 13670 13671 13672 13673 13674 13675 13676 13677 13678 13679 13680 13681 13682 13683 13684 13685 13686 13687 13688 13689 13690 13691 13692 13693 13694 13695 13696 13697 13698 13699 13700 13701 13702 13703 13704 13705 13706 13707 13708 13709 13710 13711 13712 13713 13714 13715 13716 13717 13718 13719 13720 13721 13722 13723 13724 13725 13726 13727 13728 13729 13730 13731 13732 13733 13734 13735 13736 13737 13738 13739 13740 13741 13742 13743 13744 13745 13746 13747 13748 13749 13750 13751 13752 13753 13754 13755 13756 13757 13758 13759 13760 13761 13762 13763 13764 13765 13766 13767 13768 13769 13770 13771 13772 13773 13774 13775 13776 13777 13778 13779 13780 13781 13782 13783 13784 13785 13786 13787 13788 13789 13790 13791 13792 13793 13794 13795 13796 13797 13798 13799 13800 13801 13802 13803 13804 13805 13806 13807 13808 13809 13810 13811 13812 13813 13814 13815 13816 13817 13818 13819 13820 13821 13822 13823 13824 13825 13826 13827 13828 13829 13830 13831 13832 13833 13834 13835 13836 13837 13838 13839 13840 13841 13842 13843 13844 13845 13846 13847 13848 13849 13850 13851 13852 13853 13854 13855 13856 13857 13858 13859 13860 13861 13862 13863 13864 13865 13866 13867 13868 13869 13870 13871 13872 13873 13874 13875 13876 13877 13878 13879 13880 13881 13882 13883 13884 13885 13886 13887 13888 13889 13890 13891 13892 13893 13894 13895 13896 13897 13898 13899 13900 13901 13902 13903 13904 13905 13906 13907 13908 13909 13910 13911 13912 13913 13914 13915 13916 13917 13918 13919 13920 13921 13922 13923 13924 13925 13926 13927 13928 13929 13930 13931 13932 13933 13934 13935 13936 13937 13938 13939 13940 13941 13942 13943 13944 13945 13946 13947 13948 13949 13950 13951 13952 13953 13954 13955 13956 13957 13958 13959 13960 13961 13962 13963 13964 13965 13966 13967 13968 13969 13970 13971 13972 13973 13974 13975 13976 13977 13978 13979 13980 13981 13982 13983 13984 13985 13986 13987 13988 13989 13990 13991 13992 13993 13994 13995 13996 13997 13998 13999 14000 14001 14002 14003 14004 14005 14006 14007 14008 14009 14010 14011 14012 14013 14014 14015 14016 14017 14018 14019 14020 14021 14022 14023 14024 14025 14026 14027 14028 14029 14030 14031 14032 14033 14034 14035 14036 14037 14038 14039 14040 14041 14042 14043 14044 14045 14046 14047 14048 14049 14050 14051 14052 14053 14054 14055 14056 14057 14058 14059 14060 14061 14062 14063 14064 14065 14066 14067 14068 14069 14070 14071 14072 14073 14074 14075 14076 14077 14078 14079 14080 14081 14082 14083 14084 14085 14086 14087 14088 14089 14090 14091 14092 14093 14094 14095 14096 14097 14098 14099 14100 14101 14102 14103 14104 14105 14106 14107 14108 14109 14110 14111 14112 14113 14114 14115 14116 14117 14118 14119 14120 14121 14122 14123 14124 14125 14126 14127 14128 14129 14130 14131 14132 14133 14134 14135 14136 14137 14138 14139 14140 14141 14142 14143 14144 14145 14146 14147 14148 14149 14150 14151 14152 14153 14154 14155 14156 14157 14158 14159 14160 14161 14162 14163 14164 14165 14166 14167 14168 14169 14170 14171 14172 14173 14174 14175 14176 14177 14178 14179 14180 14181 14182 14183 14184 14185 14186 14187 14188 14189 14190 14191 14192 14193 14194 14195 14196 14197 14198 14199 14200 14201 14202 14203 14204 14205 14206 14207 14208 14209 14210 14211 14212 14213 14214 14215 14216 14217 14218 14219 14220 14221 14222 14223 14224 14225 14226 14227 14228 14229 14230 14231 14232 14233 14234 14235 14236 14237 14238 14239 14240 14241 14242 14243 14244 14245 14246 14247 14248 14249 14250 14251 14252 14253 14254 14255 14256 14257 14258 14259 14260 14261 14262 14263 14264 14265 14266 14267 14268 14269 14270 14271 14272 14273 14274 14275 14276 14277 14278 14279 14280 14281 14282 14283 14284 14285 14286 14287 14288 14289 14290 14291 14292 14293 14294 14295 14296 14297 14298 14299 14300 14301 14302 14303 14304 14305 14306 14307 14308 14309 14310 14311 14312 14313 14314 14315 14316 14317 14318 14319 14320 14321 14322 14323 14324 14325 14326 14327 14328 14329 14330 14331 14332 14333 14334 14335 14336 14337 14338 14339 14340 14341 14342 14343 14344 14345 14346 14347 14348 14349 14350 14351 14352 14353 14354 14355 14356 14357 14358 14359 14360 14361 14362 14363 14364 14365 14366 14367 14368 14369 14370 14371 14372 14373 14374 14375 14376 14377 14378 14379 14380 14381 14382 14383 14384 14385 14386 14387 14388 14389 14390 14391 14392 14393 14394 14395 14396 14397 14398 14399 14400 14401 14402 14403 14404 14405 14406 14407 14408 14409 14410 14411 14412 14413 14414 14415 14416 14417 14418 14419 14420 14421 14422 14423 14424 14425 14426 14427 14428 14429 14430 14431 14432 14433 14434 14435 14436 14437 14438 14439 14440 14441 14442 14443 14444 14445 14446 14447 14448 14449 14450 14451 14452 14453 14454 14455 14456 14457 14458 14459 14460 14461 14462 14463 14464 14465 14466 14467 14468 14469 14470 14471 14472 14473 14474 14475 14476 14477 14478 14479 14480 14481 14482 14483 14484 14485 14486 14487 14488 14489 14490 14491 14492 14493 14494 14495 14496 14497 14498 14499 14500 14501 14502 14503 14504 14505 14506 14507 14508 14509 14510 14511 14512 14513 14514 14515 14516 14517 14518 14519 14520 14521 14522 14523 14524 14525 14526 14527 14528 14529 14530 14531 14532 14533 14534 14535 14536 14537 14538 14539 14540 14541 14542 14543 14544 14545 14546 14547 14548 14549 14550 14551 14552 14553 14554 14555 14556 14557 14558 14559 14560 14561 14562 14563 14564 14565 14566 14567 14568 14569 14570 14571 14572 14573 14574 14575 14576 14577 14578 14579 14580 14581 14582 14583 14584 14585 14586 14587 14588 14589 14590 14591 14592 14593 14594 14595 14596 14597 14598 14599 14600 14601 14602 14603 14604 14605 14606 14607 14608 14609 14610 14611 14612 14613 14614 14615 14616 14617 14618 14619 14620 14621 14622 14623 14624 14625 14626 14627 14628 14629 14630 14631 14632 14633 14634 14635 14636 14637 14638 14639 14640 14641 14642 14643 14644 14645 14646 14647 14648 14649 14650 14651 14652 14653 14654 14655 14656 14657 14658 14659 14660 14661 14662 14663 14664 14665 14666 14667 14668 14669 14670 14671 14672 14673 14674 14675 14676 14677 14678 14679 14680 14681 14682 14683 14684 14685 14686 14687 14688 14689 14690 14691 14692 14693 14694 14695 14696 14697 14698 14699 14700 14701 14702 14703 14704 14705 14706 14707 14708 14709 14710 14711 14712 14713 14714 14715 14716 14717 14718 14719 14720 14721 14722 14723 14724 14725 14726 14727 14728 14729 14730 14731 14732 14733 14734 14735 14736 14737 14738 14739 14740 14741 14742 14743 14744 14745 14746 14747 14748 14749 14750 14751 14752 14753 14754 14755 14756 14757 14758 14759 14760 14761 14762 14763 14764 14765 14766 14767 14768 14769 14770 14771 14772 14773 14774 14775 14776 14777 14778 14779 14780 14781 14782 14783 14784 14785 14786 14787 14788 14789 14790 14791 14792 14793 14794 14795 14796 14797 14798 14799 14800 14801 14802 14803 14804 14805 14806 14807 14808 14809 14810 14811 14812 14813 14814 14815 14816 14817 14818 14819 14820 14821 14822 14823 14824 14825 14826 14827 14828 14829 14830 14831 14832 14833 14834 14835 14836 14837 14838 14839 14840 14841 14842 14843 14844 14845 14846 14847 14848 14849 14850 14851 14852 14853 14854 14855 14856 14857 14858 14859 14860 14861 14862 14863 14864 14865 14866 14867 14868 14869 14870 14871 14872 14873 14874 14875 14876 14877 14878 14879 14880 14881 14882 14883 14884 14885 14886 14887 14888 14889 14890 14891 14892 14893 14894 14895 14896 14897 14898 14899 14900 14901 14902 14903 14904 14905 14906 14907 14908 14909 14910 14911 14912 14913 14914 14915 14916 14917 14918 14919 14920 14921 14922 14923 14924 14925 14926 14927 14928 14929 14930 14931 14932 14933 14934 14935 14936 14937 14938 14939 14940 14941 14942 14943 14944 14945 14946 14947 14948 14949 14950 14951 14952 14953 14954 14955 14956 14957 14958 14959 14960 14961 14962 14963 14964 14965 14966 14967 14968 14969 14970 14971 14972 14973 14974 14975 14976 14977 14978 14979 14980 14981 14982 14983 14984 14985 14986 14987 14988 14989 14990 14991 14992 14993 14994 14995 14996 14997 14998 14999 15000 15001 15002 15003 15004 15005 15006 15007 15008 15009 15010 15011 15012 15013 15014 15015 15016 15017 15018 15019 15020 15021 15022 15023 15024 15025 15026 15027 15028 15029 15030 15031 15032 15033 15034 15035 15036 15037 15038 15039 15040 15041 15042 15043 15044 15045 15046 15047 15048 15049 15050 15051 15052 15053 15054 15055 15056 15057 15058 15059 15060 15061 15062 15063 15064 15065 15066 15067 15068 15069 15070 15071 15072 15073 15074 15075 15076 15077 15078 15079 15080 15081 15082 15083 15084 15085 15086 15087 15088 15089 15090 15091 15092 15093 15094 15095 15096 15097 15098 15099 15100 15101 15102 15103 15104 15105 15106 15107 15108 15109 15110 15111 15112 15113 15114 15115 15116 15117 15118 15119 15120 15121 15122 15123 15124 15125 15126 15127 15128 15129 15130 15131 15132 15133 15134 15135 15136 15137 15138 15139 15140 15141 15142 15143 15144 15145 15146 15147 15148 15149 15150 15151 15152 15153 15154 15155 15156 15157 15158 15159 15160 15161 15162 15163 15164 15165 15166 15167 15168 15169 15170 15171 15172 15173 15174 15175 15176 15177 15178 15179 15180 15181 15182 15183 15184 15185 15186 15187 15188 15189 15190 15191 15192 15193 15194 15195 15196 15197 15198 15199 15200 15201 15202 15203 15204 15205 15206 15207 15208 15209 15210 15211 15212 15213 15214 15215 15216 15217 15218 15219 15220 15221 15222 15223 15224 15225 15226 15227 15228 15229 15230 15231 15232 15233 15234 15235 15236 15237 15238 15239 15240 15241 15242 15243 15244 15245 15246 15247 15248 15249 15250 15251 15252 15253 15254 15255 15256 15257 15258 15259 15260 15261 15262 15263 15264 15265 15266 15267 15268 15269 15270 15271 15272 15273 15274 15275 15276 15277 15278 15279 15280 15281 15282 15283 15284 15285 15286 15287 15288 15289 15290 15291 15292 15293 15294 15295 15296 15297 15298 15299 15300 15301 15302 15303 15304 15305 15306 15307 15308 15309 15310 15311 15312 15313 15314 15315 15316 15317 15318 15319 15320 15321 15322 15323 15324 15325 15326 15327 15328 15329 15330 15331 15332 15333 15334 15335 15336 15337 15338 15339 15340 15341 15342 15343 15344 15345 15346 15347 15348 15349 15350 15351 15352 15353 15354 15355 15356 15357 15358 15359 15360 15361 15362 15363 15364 15365 15366 15367 15368 15369 15370 15371 15372 15373 15374 15375 15376 15377 15378 15379 15380 15381 15382 15383 15384 15385 15386 15387 15388 15389 15390 15391 15392 15393 15394 15395 15396 15397 15398 15399 15400 15401 15402 15403 15404 15405 15406 15407 15408 15409 15410 15411 15412 15413 15414 15415 15416 15417 15418 15419 15420 15421 15422 15423 15424 15425 15426 15427 15428 15429 15430 15431 15432 15433 15434 15435 15436 15437 15438 15439 15440 15441 15442 15443 15444 15445 15446 15447 15448 15449 15450 15451 15452 15453 15454 15455 15456 15457 15458 15459 15460 15461 15462 15463 15464 15465 15466 15467 15468 15469 15470 15471 15472 15473 15474 15475 15476 15477 15478 15479 15480 15481 15482 15483 15484 15485 15486 15487 15488 15489 15490 15491 15492 15493 15494 15495 15496 15497 15498 15499 15500 15501 15502 15503 15504 15505 15506 15507 15508 15509 15510 15511 15512 15513 15514 15515 15516 15517 15518 15519 15520 15521 15522 15523 15524 15525 15526 15527 15528 15529 15530 15531 15532 15533 15534 15535 15536 15537 15538 15539 15540 15541 15542 15543 15544 15545 15546 15547 15548 15549 15550 15551 15552 15553 15554 15555 15556 15557 15558 15559 15560 15561 15562 15563 15564 15565 15566 15567 15568 15569 15570 15571 15572 15573 15574 15575 15576 15577 15578 15579 15580 15581 15582 15583 15584 15585 15586 15587 15588 15589 15590 15591 15592 15593 15594 15595 15596 15597 15598 15599 15600 15601 15602 15603 15604 15605 15606 15607 15608 15609 15610 15611 15612 15613 15614 15615 15616 15617 15618 15619 15620 15621 15622 15623 15624 15625 15626 15627 15628 15629 15630 15631 15632 15633 15634 15635 15636 15637 15638 15639 15640 15641 15642 15643 15644 15645 15646 15647 15648 15649 15650 15651 15652 15653 15654 15655 15656 15657 15658 15659 15660 15661 15662 15663 15664 15665 15666 15667 15668 15669 15670 15671 15672 15673 15674 15675 15676 15677 15678 15679 15680 15681 15682 15683 15684 15685 15686 15687 15688 15689 15690 15691 15692 15693 15694 15695 15696 15697 15698 15699 15700 15701 15702 15703 15704 15705 15706 15707 15708 15709 15710 15711 15712 15713 15714 15715 15716 15717 15718 15719 15720 15721 15722 15723 15724 15725 15726 15727 15728 15729 15730 15731 15732 15733 15734 15735 15736 15737 15738 15739 15740 15741 15742 15743 15744 15745 15746 15747 15748 15749 15750 15751 15752 15753 15754 15755 15756 15757 15758 15759 15760 15761 15762 15763 15764 15765 15766 15767 15768 15769 15770 15771 15772 15773 15774 15775 15776 15777 15778 15779 15780 15781 15782 15783 15784 15785 15786 15787 15788 15789 15790 15791 15792 15793 15794 15795 15796 15797 15798 15799 15800 15801 15802 15803 15804 15805 15806 15807 15808 15809 15810 15811 15812 15813 15814 15815 15816 15817 15818 15819 15820 15821 15822 15823 15824 15825 15826 15827 15828 15829 15830 15831 15832 15833 15834 15835 15836 15837 15838 15839 15840 15841 15842 15843 15844 15845 15846 15847 15848 15849 15850 15851 15852 15853 15854 15855 15856 15857 15858 15859 15860 15861 15862 15863 15864 15865 15866 15867 15868 15869 15870 15871 15872 15873 15874 15875 15876 15877 15878 15879 15880 15881 15882 15883 15884 15885 15886 15887 15888 15889 15890 15891 15892 15893 15894 15895 15896 15897 15898 15899 15900 15901 15902 15903 15904 15905 15906 15907 15908 15909 15910 15911 15912 15913 15914 15915 15916 15917 15918 15919 15920 15921 15922 15923 15924 15925 15926 15927 15928 15929 15930 15931 15932 15933 15934 15935 15936 15937 15938 15939 15940 15941 15942 15943 15944 15945 15946 15947 15948 15949 15950 15951 15952 15953 15954 15955 15956 15957 15958 15959 15960 15961 15962 15963 15964 15965 15966 15967 15968 15969 15970 15971 15972 15973 15974 15975 15976 15977 15978 15979 15980 15981 15982 15983 15984 15985 15986 15987 15988 15989 15990 15991 15992 15993 15994 15995 15996 15997 15998 15999 16000 16001 16002 16003 16004 16005 16006 16007 16008 16009 16010 16011 16012 16013 16014 16015 16016 16017 16018 16019 16020 16021 16022 16023 16024 16025 16026 16027 16028 16029 16030 16031 16032 16033 16034 16035 16036 16037 16038 16039 16040 16041 16042 16043 16044 16045 16046 16047 16048 16049 16050 16051 16052 16053 16054 16055 16056 16057 16058 16059 16060 16061 16062 16063 16064 16065 16066 16067 16068 16069 16070 16071 16072 16073 16074 16075 16076 16077 16078 16079 16080 16081 16082 16083 16084 16085 16086 16087 16088 16089 16090 16091 16092 16093 16094 16095 16096 16097 16098 16099 16100 16101 16102 16103 16104 16105 16106 16107 16108 16109 16110 16111 16112 16113 16114 16115 16116 16117 16118 16119 16120 16121 16122 16123 16124 16125 16126 16127 16128 16129 16130 16131 16132 16133 16134 16135 16136 16137 16138 16139 16140 16141 16142 16143 16144 16145 16146 16147 16148 16149 16150 16151 16152 16153 16154 16155 16156 16157 16158 16159 16160 16161 16162 16163 16164 16165 16166 16167 16168 16169 16170 16171 16172 16173 16174 16175 16176 16177 16178 16179 16180 16181 16182 16183 16184 16185 16186 16187 16188 16189 16190 16191 16192 16193 16194 16195 16196 16197 16198 16199 16200 16201 16202 16203 16204 16205 16206 16207 16208 16209 16210 16211 16212 16213 16214 16215 16216 16217 16218 16219 16220 16221 16222 16223 16224 16225 16226 16227 16228 16229 16230 16231 16232 16233 16234 16235 16236 16237 16238 16239 16240 16241 16242 16243 16244 16245 16246 16247 16248 16249 16250 16251 16252 16253 16254 16255 16256 16257 16258 16259 16260 16261 16262 16263 16264 16265 16266 16267 16268 16269 16270 16271 16272 16273 16274 16275 16276 16277 16278 16279 16280 16281 16282 16283 16284 16285 16286 16287 16288 16289 16290 16291 16292 16293 16294 16295 16296 16297 16298 16299 16300 16301 16302 16303 16304 16305 16306 16307 16308 16309 16310 16311 16312 16313 16314 16315 16316 16317 16318 16319 16320 16321 16322 16323 16324 16325 16326 16327 16328 16329 16330 16331 16332 16333 16334 16335 16336 16337 16338 16339 16340 16341 16342 16343 16344 16345 16346 16347 16348 16349 16350 16351 16352 16353 16354 16355 16356 16357 16358 16359 16360 16361 16362 16363 16364 16365 16366 16367 16368 16369 16370 16371 16372 16373 16374 16375 16376 16377 16378 16379 16380 16381 16382 16383 16384 16385 16386 16387 16388 16389 16390 16391 16392 16393 16394 16395 16396 16397 16398 16399 16400 16401 16402 16403 16404 16405 16406 16407 16408 16409 16410 16411 16412 16413 16414 16415 16416 16417 16418 16419 16420 16421 16422 16423 16424 16425 16426 16427 16428 16429 16430 16431 16432 16433 16434 16435 16436 16437 16438 16439 16440 16441 16442 16443 16444 16445 16446 16447 16448 16449 16450 16451 16452 16453 16454 16455 16456 16457 16458 16459 16460 16461 16462 16463 16464 16465 16466 16467 16468 16469 16470 16471 16472 16473 16474 16475 16476 16477 16478 16479 16480 16481 16482 16483 16484 16485 16486 16487 16488 16489 16490 16491 16492 16493 16494 16495 16496 16497 16498 16499 16500 16501 16502 16503 16504 16505 16506 16507 16508 16509 16510 16511 16512 16513 16514 16515 16516 16517 16518 16519 16520 16521 16522 16523 16524 16525 16526 16527 16528 16529 16530 16531 16532 16533 16534 16535 16536 16537 16538 16539 16540 16541 16542 16543 16544 16545 16546 16547 16548 16549 16550 16551 16552 16553 16554 16555 16556 16557 16558 16559 16560 16561 16562 16563 16564 16565 16566 16567 16568 16569 16570 16571 16572 16573 16574 16575 16576 16577 16578 16579 16580 16581 16582 16583 16584 16585 16586 16587 16588 16589 16590 16591 16592 16593 16594 16595 16596 16597 16598 16599 16600 16601 16602 16603 16604 16605 16606 16607 16608 16609 16610 16611 16612 16613 16614 16615 16616 16617 16618 16619 16620 16621 16622 16623 16624 16625 16626 16627 16628 16629 16630 16631 16632 16633 16634 16635 16636 16637 16638 16639 16640 16641 16642 16643 16644 16645 16646 16647 16648 16649 16650 16651 16652 16653 16654 16655 16656 16657 16658 16659 16660 16661 16662 16663 16664 16665 16666 16667 16668 16669 16670 16671 16672 16673 16674 16675 16676 16677 16678 16679 16680 16681 16682 16683 16684 16685 16686 16687 16688 16689 16690 16691 16692 16693 16694 16695 16696 16697 16698 16699 16700 16701 16702 16703 16704 16705 16706 16707 16708 16709 16710 16711 16712 16713 16714 16715 16716 16717 16718 16719 16720 16721 16722 16723 16724 16725 16726 16727 16728 16729 16730 16731 16732 16733 16734 16735 16736 16737 16738 16739 16740 16741 16742 16743 16744 16745 16746 16747 16748 16749 16750 16751 16752 16753 16754 16755 16756 16757 16758 16759 16760 16761 16762 16763 16764 16765 16766 16767 16768 16769 16770 16771 16772 16773 16774 16775 16776 16777 16778 16779 16780 16781 16782 16783 16784 16785 16786 16787 16788 16789 16790 16791 16792 16793 16794 16795 16796 16797 16798 16799 16800 16801 16802 16803 16804 16805 16806 16807 16808 16809 16810 16811 16812 16813 16814 16815 16816 16817 16818 16819 16820 16821 16822 16823 16824 16825 16826 16827 16828 16829 16830 16831 16832 16833 16834 16835 16836 16837 16838 16839 16840 16841 16842 16843 16844 16845 16846 16847 16848 16849 16850 16851 16852 16853 16854 16855 16856 16857 16858 16859 16860 16861 16862 16863 16864 16865 16866 16867 16868 16869 16870 16871 16872 16873 16874 16875 16876 16877 16878 16879 16880 16881 16882 16883 16884 16885 16886 16887 16888 16889 16890 16891 16892 16893 16894 16895 16896 16897 16898 16899 16900 16901 16902 16903 16904 16905 16906 16907 16908 16909 16910 16911 16912 16913 16914 16915 16916 16917 16918 16919 16920 16921 16922 16923 16924 16925 16926 16927 16928 16929 16930 16931 16932 16933 16934 16935 16936 16937 16938 16939 16940 16941 16942 16943 16944 16945 16946 16947 16948 16949 16950 16951 16952 16953 16954 16955 16956 16957 16958 16959 16960 16961 16962 16963 16964 16965 16966 16967 16968 16969 16970 16971 16972 16973 16974 16975 16976 16977 16978 16979 16980 16981 16982 16983 16984 16985 16986 16987 16988 16989 16990 16991 16992 16993 16994 16995 16996 16997 16998 16999 17000 17001 17002 17003 17004 17005 17006 17007 17008 17009 17010 17011 17012 17013 17014 17015 17016 17017 17018 17019 17020 17021 17022 17023 17024 17025 17026 17027 17028 17029 17030 17031 17032 17033 17034 17035 17036 17037 17038 17039 17040 17041 17042 17043 17044 17045 17046 17047 17048 17049 17050 17051 17052 17053 17054 17055 17056 17057 17058 17059 17060 17061 17062 17063 17064 17065 17066 17067 17068 17069 17070 17071 17072 17073 17074 17075 17076 17077 17078 17079 17080 17081 17082 17083 17084 17085 17086 17087 17088 17089 17090 17091 17092 17093 17094 17095 17096 17097 17098 17099 17100 17101 17102 17103 17104 17105 17106 17107 17108 17109 17110 17111 17112 17113 17114 17115 17116 17117 17118 17119 17120 17121 17122 17123 17124 17125 17126 17127 17128 17129 17130 17131 17132 17133 17134 17135 17136 17137 17138 17139 17140 17141 17142 17143 17144 17145 17146 17147 17148 17149 17150 17151 17152 17153 17154 17155 17156 17157 17158 17159 17160 17161 17162 17163 17164 17165 17166 17167 17168 17169 17170 17171 17172 17173 17174 17175 17176 17177 17178 17179 17180 17181 17182 17183 17184 17185 17186 17187 17188 17189 17190 17191 17192 17193 17194 17195 17196 17197 17198 17199 17200 17201 17202 17203 17204 17205 17206 17207 17208 17209 17210 17211 17212 17213 17214 17215 17216 17217 17218 17219 17220 17221 17222 17223 17224 17225 17226 17227 17228 17229 17230 17231 17232 17233 17234 17235 17236 17237 17238 17239 17240 17241 17242 17243 17244 17245 17246 17247 17248 17249 17250 17251 17252 17253 17254 17255 17256 17257 17258 17259 17260 17261 17262 17263 17264 17265 17266 17267 17268 17269 17270 17271 17272 17273 17274 17275 17276 17277 17278 17279 17280 17281 17282 17283 17284 17285 17286 17287 17288 17289 17290 17291 17292 17293 17294 17295 17296 17297 17298 17299 17300 17301 17302 17303 17304 17305 17306 17307 17308 17309 17310 17311 17312 17313 17314 17315 17316 17317 17318 17319 17320 17321 17322 17323 17324 17325 17326 17327 17328 17329 17330 17331 17332 17333 17334 17335 17336 17337 17338 17339 17340 17341 17342 17343 17344 17345 17346 17347 17348 17349 17350 17351 17352 17353 17354 17355 17356 17357 17358 17359 17360 17361 17362 17363 17364 17365 17366 17367 17368 17369 17370 17371 17372 17373 17374 17375 17376 17377 17378 17379 17380 17381 17382 17383 17384 17385 17386 17387 17388 17389 17390 17391 17392 17393 17394 17395 17396 17397 17398 17399 17400 17401 17402 17403 17404 17405 17406 17407 17408 17409 17410 17411 17412 17413 17414 17415 17416 17417 17418 17419 17420 17421 17422 17423 17424 17425 17426 17427 17428 17429 17430 17431 17432 17433 17434 17435 17436 17437 17438 17439 17440 17441 17442 17443 17444 17445 17446 17447 17448 17449 17450 17451 17452 17453 17454 17455 17456 17457 17458 17459 17460 17461 17462 17463 17464 17465 17466 17467 17468 17469 17470 17471 17472 17473 17474 17475 17476 17477 17478 17479 17480 17481 17482 17483 17484 17485 17486 17487 17488 17489 17490 17491 17492 17493 17494 17495 17496 17497 17498 17499 17500 17501 17502 17503 17504 17505 17506 17507 17508 17509 17510 17511 17512 17513 17514 17515 17516 17517 17518 17519 17520 17521 17522 17523 17524 17525 17526 17527 17528 17529 17530 17531 17532 17533 17534 17535 17536 17537 17538 17539 17540 17541 17542 17543 17544 17545 17546 17547 17548 17549 17550 17551 17552 17553 17554 17555 17556 17557 17558 17559 17560 17561 17562 17563 17564 17565 17566 17567 17568 17569 17570 17571 17572 17573 17574 17575 17576 17577 17578 17579 17580 17581 17582 17583 17584 17585 17586 17587 17588 17589 17590 17591 17592 17593 17594 17595 17596 17597 17598 17599 17600 17601 17602 17603 17604 17605 17606 17607 17608 17609 17610 17611 17612 17613 17614 17615 17616 17617 17618 17619 17620 17621 17622 17623 17624 17625 17626 17627 17628 17629 17630 17631 17632 17633 17634 17635 17636 17637 17638 17639 17640 17641 17642 17643 17644 17645 17646 17647 17648 17649 17650 17651 17652 17653 17654 17655 17656 17657 17658 17659 17660 17661 17662 17663 17664 17665 17666 17667 17668 17669 17670 17671 17672 17673 17674 17675 17676 17677 17678 17679 17680 17681 17682 17683 17684 17685 17686 17687 17688 17689 17690 17691 17692 17693 17694 17695 17696 17697 17698 17699 17700 17701 17702 17703 17704 17705 17706 17707 17708 17709 17710 17711 17712 17713 17714 17715 17716 17717 17718 17719 17720 17721 17722 17723 17724 17725 17726 17727 17728 17729 17730 17731 17732 17733 17734 17735 17736 17737 17738 17739 17740 17741 17742 17743 17744 17745 17746 17747 17748 17749 17750 17751 17752 17753 17754 17755 17756 17757 17758 17759 17760 17761 17762 17763 17764 17765 17766 17767 17768 17769 17770 17771 17772 17773 17774 17775 17776 17777 17778 17779 17780 17781 17782 17783 17784 17785 17786 17787 17788 17789 17790 17791 17792 17793 17794 17795 17796 17797 17798 17799 17800 17801 17802 17803 17804 17805 17806 17807 17808 17809 17810 17811 17812 17813 17814 17815 17816 17817 17818 17819 17820 17821 17822 17823 17824 17825 17826 17827 17828 17829 17830 17831 17832 17833 17834 17835 17836 17837 17838 17839 17840 17841 17842 17843 17844 17845 17846 17847 17848 17849 17850 17851 17852 17853 17854 17855 17856 17857 17858 17859 17860 17861 17862 17863 17864 17865 17866 17867 17868 17869 17870 17871 17872 17873 17874 17875 17876 17877 17878 17879 17880 17881 17882 17883 17884 17885 17886 17887 17888 17889 17890 17891 17892 17893 17894 17895 17896 17897 17898 17899 17900 17901 17902 17903 17904 17905 17906 17907 17908 17909 17910 17911 17912 17913 17914 17915 17916 17917 17918 17919 17920 17921 17922 17923 17924 17925 17926 17927 17928 17929 17930 17931 17932 17933 17934 17935 17936 17937 17938 17939 17940 17941 17942 17943 17944 17945 17946 17947 17948 17949 17950 17951 17952 17953 17954 17955 17956 17957 17958 17959 17960 17961 17962 17963 17964 17965 17966 17967 17968 17969 17970 17971 17972 17973 17974 17975 17976 17977 17978 17979 17980 17981 17982 17983 17984 17985 17986 17987 17988 17989 17990 17991 17992 17993 17994 17995 17996 17997 17998 17999 18000 18001 18002 18003 18004 18005 18006 18007 18008 18009 18010 18011 18012 18013 18014 18015 18016 18017 18018 18019 18020 18021 18022 18023 18024 18025 18026 18027 18028 18029 18030 18031 18032 18033 18034 18035 18036 18037 18038 18039 18040 18041 18042 18043 18044 18045 18046 18047 18048 18049 18050 18051 18052 18053 18054 18055 18056 18057 18058 18059 18060 18061 18062 18063 18064 18065 18066 18067 18068 18069 18070 18071 18072 18073 18074 18075 18076 18077 18078 18079 18080 18081 18082 18083 18084 18085 18086 18087 18088 18089 18090 18091 18092 18093 18094 18095 18096 18097 18098 18099 18100 18101 18102 18103 18104 18105 18106 18107 18108 18109 18110 18111 18112 18113 18114 18115 18116 18117 18118 18119 18120 18121 18122 18123 18124 18125 18126 18127 18128 18129 18130 18131 18132 18133 18134 18135 18136 18137 18138 18139 18140 18141 18142 18143 18144 18145 18146 18147 18148 18149 18150 18151 18152 18153 18154 18155 18156 18157 18158 18159 18160 18161 18162 18163 18164 18165 18166 18167 18168 18169 18170 18171 18172 18173 18174 18175 18176 18177 18178 18179 18180 18181 18182 18183 18184 18185 18186 18187 18188 18189 18190 18191 18192 18193 18194 18195 18196 18197 18198 18199 18200 18201 18202 18203 18204 18205 18206 18207 18208 18209 18210 18211 18212 18213 18214 18215 18216 18217 18218 18219 18220 18221 18222 18223 18224 18225 18226 18227 18228 18229 18230 18231 18232 18233 18234 18235 18236 18237 18238 18239 18240 18241 18242 18243 18244 18245 18246 18247 18248 18249 18250 18251 18252 18253 18254 18255 18256 18257 18258 18259 18260 18261 18262 18263 18264 18265 18266 18267 18268 18269 18270 18271 18272 18273 18274 18275 18276 18277 18278 18279 18280 18281 18282 18283 18284 18285 18286 18287 18288 18289 18290 18291 18292 18293 18294 18295 18296 18297 18298 18299 18300 18301 18302 18303 18304 18305 18306 18307 18308 18309 18310 18311 18312 18313 18314 18315 18316 18317 18318 18319 18320 18321 18322 18323 18324 18325 18326 18327 18328 18329 18330 18331 18332 18333 18334 18335 18336 18337 18338 18339 18340 18341 18342 18343 18344 18345 18346 18347 18348 18349 18350 18351 18352 18353 18354 18355 18356 18357 18358 18359 18360 18361 18362 18363 18364 18365 18366 18367 18368 18369 18370 18371 18372 18373 18374 18375 18376 18377 18378 18379 18380 18381 18382 18383 18384 18385 18386 18387 18388 18389 18390 18391 18392 18393 18394 18395 18396 18397 18398 18399 18400 18401 18402 18403 18404 18405 18406 18407 18408 18409 18410 18411 18412 18413 18414 18415 18416 18417 18418 18419 18420 18421 18422 18423 18424 18425 18426 18427 18428 18429 18430 18431 18432 18433 18434 18435 18436 18437 18438 18439 18440 18441 18442 18443 18444 18445 18446 18447 18448 18449 18450 18451 18452 18453 18454 18455 18456 18457 18458 18459 18460 18461 18462 18463 18464 18465 18466 18467 18468 18469 18470 18471 18472 18473 18474 18475 18476 18477 18478 18479 18480 18481 18482 18483 18484 18485 18486 18487 18488 18489 18490 18491 18492 18493 18494 18495 18496 18497 18498 18499 18500 18501 18502 18503 18504 18505 18506 18507 18508 18509 18510 18511 18512 18513 18514 18515 18516 18517 18518 18519 18520 18521 18522 18523 18524 18525 18526 18527 18528 18529 18530 18531 18532 18533 18534 18535 18536 18537 18538 18539 18540 18541 18542 18543 18544 18545 18546 18547 18548 18549 18550 18551 18552 18553 18554 18555 18556 18557 18558 18559 18560 18561 18562 18563 18564 18565 18566 18567 18568 18569 18570 18571 18572 18573 18574 18575 18576 18577 18578 18579 18580 18581 18582 18583 18584 18585 18586 18587 18588 18589 18590 18591 18592 18593 18594 18595 18596 18597 18598 18599 18600 18601 18602 18603 18604 18605 18606 18607 18608 18609 18610 18611 18612 18613 18614 18615 18616 18617 18618 18619 18620 18621 18622 18623 18624 18625 18626 18627 18628 18629 18630 18631 18632 18633 18634 18635 18636 18637 18638 18639 18640 18641 18642 18643 18644 18645 18646 18647 18648 18649 18650 18651 18652 18653 18654 18655 18656 18657 18658 18659 18660 18661 18662 18663 18664 18665 18666 18667 18668 18669 18670 18671 18672 18673 18674 18675 18676 18677 18678 18679 18680 18681 18682 18683 18684 18685 18686 18687 18688 18689 18690 18691 18692 18693 18694 18695 18696 18697 18698 18699 18700 18701 18702 18703 18704 18705 18706 18707 18708 18709 18710 18711 18712 18713 18714 18715 18716 18717 18718 18719 18720 18721 18722 18723 18724 18725 18726 18727 18728 18729 18730 18731 18732 18733 18734 18735 18736 18737 18738 18739 18740 18741 18742 18743 18744 18745 18746 18747 18748 18749 18750 18751 18752 18753 18754 18755 18756 18757 18758 18759 18760 18761 18762 18763 18764 18765 18766 18767 18768 18769 18770 18771 18772 18773 18774 18775 18776 18777 18778 18779 18780 18781 18782 18783 18784 18785 18786 18787 18788 18789 18790 18791 18792 18793 18794 18795 18796 18797 18798 18799 18800 18801 18802 18803 18804 18805 18806 18807 18808 18809 18810 18811 18812 18813 18814 18815 18816 18817 18818 18819 18820 18821 18822 18823 18824 18825 18826 18827 18828 18829 18830 18831 18832 18833 18834 18835 18836 18837 18838 18839 18840 18841 18842 18843 18844 18845 18846 18847 18848 18849 18850 18851 18852 18853 18854 18855 18856 18857 18858 18859 18860 18861 18862 18863 18864 18865 18866 18867 18868 18869 18870 18871 18872 18873 18874 18875 18876 18877 18878 18879 18880 18881 18882 18883 18884 18885 18886 18887 18888 18889 18890 18891 18892 18893 18894 18895 18896 18897 18898 18899 18900 18901 18902 18903 18904 18905 18906 18907 18908 18909 18910 18911 18912 18913 18914 18915 18916 18917 18918 18919 18920 18921 18922 18923 18924 18925 18926 18927 18928 18929 18930 18931 18932 18933 18934 18935 18936 18937 18938 18939 18940 18941 18942 18943 18944 18945 18946 18947 18948 18949 18950 18951 18952 18953 18954 18955 18956 18957 18958 18959 18960 18961 18962 18963 18964 18965 18966 18967 18968 18969 18970 18971 18972 18973 18974 18975 18976 18977 18978 18979 18980 18981 18982 18983 18984 18985 18986 18987 18988 18989 18990 18991 18992 18993 18994 18995 18996 18997 18998 18999 19000 19001 19002 19003 19004 19005 19006 19007 19008 19009 19010 19011 19012 19013 19014 19015 19016 19017 19018 19019 19020 19021 19022 19023 19024 19025 19026 19027 19028 19029 19030 19031 19032 19033 19034 19035 19036 19037 19038 19039 19040 19041 19042 19043 19044 19045 19046 19047 19048 19049 19050 19051 19052 19053 19054 19055 19056 19057 19058 19059 19060 19061 19062 19063 19064 19065 19066 19067 19068 19069 19070 19071 19072 19073 19074 19075 19076 19077 19078 19079 19080 19081 19082 19083 19084 19085 19086 19087 19088 19089 19090 19091 19092 19093 19094 19095 19096 19097 19098 19099 19100 19101 19102 19103 19104 19105 19106 19107 19108 19109 19110 19111 19112 19113 19114 19115 19116 19117 19118 19119 19120 19121 19122 19123 19124 19125 19126 19127 19128 19129 19130 19131 19132 19133 19134 19135 19136 19137 19138 19139 19140 19141 19142 19143 19144 19145 19146 19147 19148 19149 19150 19151 19152 19153 19154 19155 19156 19157 19158 19159 19160 19161 19162 19163 19164 19165 19166 19167 19168 19169 19170 19171 19172 19173 19174 19175 19176 19177 19178 19179 19180 19181 19182 19183 19184 19185 19186 19187 19188 19189 19190 19191 19192 19193 19194 19195 19196 19197 19198 19199 19200 19201 19202 19203 19204 19205 19206 19207 19208 19209 19210 19211 19212 19213 19214 19215 19216 19217 19218 19219 19220 19221 19222 19223 19224 19225 19226 19227 19228 19229 19230 19231 19232 19233 19234 19235 19236 19237 19238 19239 19240 19241 19242 19243 19244 19245 19246 19247 19248 19249 19250 19251 19252 19253 19254 19255 19256 19257 19258 19259 19260 19261 19262 19263 19264 19265 19266 19267 19268 19269 19270 19271 19272 19273 19274 19275 19276 19277 19278 19279 19280 19281 19282 19283 19284 19285 19286 19287 19288 19289 19290 19291 19292 19293 19294 19295 19296 19297 19298 19299 19300 19301 19302 19303 19304 19305 19306 19307 19308 19309 19310 19311 19312 19313 19314 19315 19316 19317 19318 19319 19320 19321 19322 19323 19324 19325 19326 19327 19328 19329 19330 19331 19332 19333 19334 19335 19336 19337 19338 19339 19340 19341 19342 19343 19344 19345 19346 19347 19348 19349 19350 19351 19352 19353 19354 19355 19356 19357 19358 19359 19360 19361 19362 19363 19364 19365 19366 19367 19368 19369 19370 19371 19372 19373 19374 19375 19376 19377 19378 19379 19380 19381 19382 19383 19384 19385 19386 19387 19388 19389 19390 19391 19392 19393 19394 19395 19396 19397 19398 19399 19400 19401 19402 19403 19404 19405 19406 19407 19408 19409 19410 19411 19412 19413 19414 19415 19416 19417 19418 19419 19420 19421 19422 19423 19424 19425 19426 19427 19428 19429 19430 19431 19432 19433 19434 19435 19436 19437 19438 19439 19440 19441 19442 19443 19444 19445 19446 19447 19448 19449 19450 19451 19452 19453 19454 19455 19456 19457 19458 19459 19460 19461 19462 19463 19464 19465 19466 19467 19468 19469 19470 19471 19472 19473 19474 19475 19476 19477 19478 19479 19480 19481 19482 19483 19484 19485 19486 19487 19488 19489 19490 19491 19492 19493 19494 19495 19496 19497 19498 19499 19500 19501 19502 19503 19504 19505 19506 19507 19508 19509 19510 19511 19512 19513 19514 19515 19516 19517 19518 19519 19520 19521 19522 19523 19524 19525 19526 19527 19528 19529 19530 19531 19532 19533 19534 19535 19536 19537 19538 19539 19540 19541 19542 19543 19544 19545 19546 19547 19548 19549 19550 19551 19552 19553 19554 19555 19556 19557 19558 19559 19560 19561 19562 19563 19564 19565 19566 19567 19568 19569 19570 19571 19572 19573 19574 19575 19576 19577 19578 19579 19580 19581 19582 19583 19584 19585 19586 19587 19588 19589 19590 19591 19592 19593 19594 19595 19596 19597 19598 19599 19600 19601 19602 19603 19604 19605 19606 19607 19608 19609 19610 19611 19612 19613 19614 19615 19616 19617 19618 19619 19620 19621 19622 19623 19624 19625 19626 19627 19628 19629 19630 19631 19632 19633 19634 19635 19636 19637 19638 19639 19640 19641 19642 19643 19644 19645 19646 19647 19648 19649 19650 19651 19652 19653 19654 19655 19656 19657 19658 19659 19660 19661 19662 19663 19664 19665 19666 19667 19668 19669 19670 19671 19672 19673 19674 19675 19676 19677 19678 19679 19680 19681 19682 19683 19684 19685 19686 19687 19688 19689 19690 19691 19692 19693 19694 19695 19696 19697 19698 19699 19700 19701 19702 19703 19704 19705 19706 19707 19708 19709 19710 19711 19712 19713 19714 19715 19716 19717 19718 19719 19720 19721 19722 19723 19724 19725 19726 19727 19728 19729 19730 19731 19732 19733 19734 19735 19736 19737 19738 19739 19740 19741 19742 19743 19744 19745 19746 19747 19748 19749 19750 19751 19752 19753 19754 19755 19756 19757 19758 19759 19760 19761 19762 19763 19764 19765 19766 19767 19768 19769 19770 19771 19772 19773 19774 19775 19776 19777 19778 19779 19780 19781 19782 19783 19784 19785 19786 19787 19788 19789 19790 19791 19792 19793 19794 19795 19796 19797 19798 19799 19800 19801 19802 19803 19804 19805 19806 19807 19808 19809 19810 19811 19812 19813 19814 19815 19816 19817 19818 19819 19820 19821 19822 19823 19824 19825 19826 19827 19828 19829 19830 19831 19832 19833 19834 19835 19836 19837 19838 19839 19840 19841 19842 19843 19844 19845 19846 19847 19848 19849 19850 19851 19852 19853 19854 19855 19856 19857 19858 19859 19860 19861 19862 19863 19864 19865 19866 19867 19868 19869 19870 19871 19872 19873 19874 19875 19876 19877 19878 19879 19880 19881 19882 19883 19884 19885 19886 19887 19888 19889 19890 19891 19892 19893 19894 19895 19896 19897 19898 19899 19900 19901 19902 19903 19904 19905 19906 19907 19908 19909 19910 19911 19912 19913 19914 19915 19916 19917 19918 19919 19920 19921 19922 19923 19924 19925 19926 19927 19928 19929 19930 19931 19932 19933 19934 19935 19936 19937 19938 19939 19940 19941 19942 19943 19944 19945 19946 19947 19948 19949 19950 19951 19952 19953 19954 19955 19956 19957 19958 19959 19960 19961 19962 19963 19964 19965 19966 19967 19968 19969 19970 19971 19972 19973 19974 19975 19976 19977 19978 19979 19980 19981 19982 19983 19984 19985 19986 19987 19988 19989 19990 19991 19992 19993 19994 19995 19996 19997 19998 19999 20000 20001 20002 20003 20004 20005 20006 20007 20008 20009 20010 20011 20012 20013 20014 20015 20016 20017 20018 20019 20020 20021 20022 20023 20024 20025 20026 20027 20028 20029 20030 20031 20032 20033 20034 20035 20036 20037 20038 20039 20040 20041 20042 20043 20044 20045 20046 20047 20048 20049 20050 20051 20052 20053 20054 20055 20056 20057 20058 20059 20060 20061 20062 20063 20064 20065 20066 20067 20068 20069 20070 20071 20072 20073 20074 20075 20076 20077 20078 20079 20080 20081 20082 20083 20084 20085 20086 20087 20088 20089 20090 20091 20092 20093 20094 20095 20096 20097 20098 20099 20100 20101 20102 20103 20104 20105 20106 20107 20108 20109 20110 20111 20112 20113 20114 20115 20116 20117 20118 20119 20120 20121 20122 20123 20124 20125 20126 20127 20128 20129 20130 20131 20132 20133 20134 20135 20136 20137 20138 20139 20140 20141 20142 20143 20144 20145 20146 20147 20148 20149 20150 20151 20152 20153 20154 20155 20156 20157 20158 20159 20160 20161 20162 20163 20164 20165 20166 20167 20168 20169 20170 20171 20172 20173 20174 20175 20176 20177 20178 20179 20180 20181 20182 20183 20184 20185 20186 20187 20188 20189 20190 20191 20192 20193 20194 20195 20196 20197 20198 20199 20200 20201 20202 20203 20204 20205 20206 20207 20208 20209 20210 20211 20212 20213 20214 20215 20216 20217 20218 20219 20220 20221 20222 20223 20224 20225 20226 20227 20228 20229 20230 20231 20232 20233 20234 20235 20236 20237 20238 20239 20240 20241 20242 20243 20244 20245 20246 20247 20248 20249 20250 20251 20252 20253 20254 20255 20256 20257 20258 20259 20260 20261 20262 20263 20264 20265 20266 20267 20268 20269 20270 20271 20272 20273 20274 20275 20276 20277 20278 20279 20280 20281 20282 20283 20284 20285 20286 20287 20288 20289 20290 20291 20292 20293 20294 20295 20296 20297 20298 20299 20300 20301 20302 20303 20304 20305 20306 20307 20308 20309 20310 20311 20312 20313 20314 20315 20316 20317 20318 20319 20320 20321 20322 20323 20324 20325 20326 20327 20328 20329 20330 20331 20332 20333 20334 20335 20336 20337 20338 20339 20340 20341 20342 20343 20344 20345 20346 20347 20348 20349 20350 20351 20352 20353 20354 20355 20356 20357 20358 20359 20360 20361 20362 20363 20364 20365 20366 20367 20368 20369 20370 20371 20372 20373 20374 20375 20376 20377 20378 20379 20380 20381 20382 20383 20384 20385 20386 20387 20388 20389 20390 20391 20392 20393 20394 20395 20396 20397 20398 20399 20400 20401 20402 20403 20404 20405 20406 20407 20408 20409 20410 20411 20412 20413 20414 20415 20416 20417 20418 20419 20420 20421 20422 20423 20424 20425 20426 20427 20428 20429 20430 20431 20432 20433 20434 20435 20436 20437 20438 20439 20440 20441 20442 20443 20444 20445 20446 20447 20448 20449 20450 20451 20452 20453 20454 20455 20456 20457 20458 20459 20460 20461 20462 20463 20464 20465 20466 20467 20468 20469 20470 20471 20472 20473 20474 20475 20476 20477 20478 20479 20480 20481 20482 20483 20484 20485 20486 20487 20488 20489 20490 20491 20492 20493 20494 20495 20496 20497 20498 20499 20500 20501 20502 20503 20504 20505 20506 20507 20508 20509 20510 20511 20512 20513 20514 20515 20516 20517 20518 20519 20520 20521 20522 20523 20524 20525 20526 20527 20528 20529 20530 20531 20532 20533 20534 20535 20536 20537 20538 20539 20540 20541 20542 20543 20544 20545 20546 20547 20548 20549 20550 20551 20552 20553 20554 20555 20556 20557 20558 20559 20560 20561 20562 20563 20564 20565 20566 20567 20568 20569 20570 20571 20572 20573 20574 20575 20576 20577 20578 20579 20580 20581 20582 20583 20584 20585 20586 20587 20588 20589 20590 20591 20592 20593 20594 20595 20596 20597 20598 20599 20600 20601 20602 20603 20604 20605 20606 20607 20608 20609 20610 20611 20612 20613 20614 20615 20616 20617 20618 20619 20620 20621 20622 20623 20624 20625 20626 20627 20628 20629 20630 20631 20632 20633 20634 20635 20636 20637 20638 20639 20640 20641 20642 20643 20644 20645 20646 20647 20648 20649 20650 20651 20652 20653 20654 20655 20656 20657 20658 20659 20660 20661 20662 20663 20664 20665 20666 20667 20668 20669 20670 20671 20672 20673 20674 20675 20676 20677 20678 20679 20680 20681 20682 20683 20684 20685 20686 20687 20688 20689 20690 20691 20692 20693 20694 20695 20696 20697 20698 20699 20700 20701 20702 20703 20704 20705 20706 20707 20708 20709 20710 20711 20712 20713 20714 20715 20716 20717 20718 20719 20720 20721 20722 20723 20724 20725 20726 20727 20728 20729 20730 20731 20732 20733 20734 20735 20736 20737 20738 20739 20740 20741 20742 20743 20744 20745 20746 20747 20748 20749 20750 20751 20752 20753 20754 20755 20756 20757 20758 20759 20760 20761 20762 20763 20764 20765 20766 20767 20768 20769 20770 20771 20772 20773 20774 20775 20776 20777 20778 20779 20780 20781 20782 20783 20784 20785 20786 20787 20788 20789 20790 20791 20792 20793 20794 20795 20796 20797 20798 20799 20800 20801 20802 20803 20804 20805 20806 20807 20808 20809 20810 20811 20812 20813 20814 20815 20816 20817 20818 20819 20820 20821 20822 20823 20824 20825 20826 20827 20828 20829 20830 20831 20832 20833 20834 20835 20836 20837 20838 20839 20840 20841 20842 20843 20844 20845 20846 20847 20848 20849 20850 20851 20852 20853 20854 20855 20856 20857 20858 20859 20860 20861 20862 20863 20864 20865 20866 20867 20868 20869 20870 20871 20872 20873 20874 20875 20876 20877 20878 20879 20880 20881 20882 20883 20884 20885 20886 20887 20888 20889 20890 20891 20892 20893 20894 20895 20896 20897 20898 20899 20900 20901 20902 20903 20904 20905 20906 20907 20908 20909 20910 20911 20912 20913 20914 20915 20916 20917 20918 20919 20920 20921 20922 20923 20924 20925 20926 20927 20928 20929 20930 20931 20932 20933 20934 20935 20936 20937 20938 20939 20940 20941 20942 20943 20944 20945 20946 20947 20948 20949 20950 20951 20952 20953 20954 20955 20956 20957 20958 20959 20960 20961 20962 20963 20964 20965 20966 20967 20968 20969 20970 20971 20972 20973 20974 20975 20976 20977 20978 20979 20980 20981 20982 20983 20984 20985 20986 20987 20988 20989 20990 20991 20992 20993 20994 20995 20996 20997 20998 20999 21000 21001 21002 21003 21004 21005 21006 21007 21008 21009 21010 21011 21012 21013 21014 21015 21016 21017 21018 21019 21020 21021 21022 21023 21024 21025 21026 21027 21028 21029 21030 21031 21032 21033 21034 21035 21036 21037 21038 21039 21040 21041 21042 21043 21044 21045 21046 21047 21048 21049 21050 21051 21052 21053 21054 21055 21056 21057 21058 21059 21060 21061 21062 21063 21064 21065 21066 21067 21068 21069 21070 21071 21072 21073 21074 21075 21076 21077 21078 21079 21080 21081 21082 21083 21084 21085 21086 21087 21088 21089 21090 21091 21092 21093 21094 21095 21096 21097 21098 21099 21100 21101 21102 21103 21104 21105 21106 21107 21108 21109 21110 21111 21112 21113 21114 21115 21116 21117 21118 21119 21120 21121 21122 21123 21124 21125 21126 21127 21128 21129 21130 21131 21132 21133 21134 21135 21136 21137 21138 21139 21140 21141 21142 21143 21144 21145 21146 21147 21148 21149 21150 21151 21152 21153 21154 21155 21156 21157 21158 21159 21160 21161 21162 21163 21164 21165 21166 21167 21168 21169 21170 21171 21172 21173 21174 21175 21176 21177 21178 21179 21180 21181 21182 21183 21184 21185 21186 21187 21188 21189 21190 21191 21192 21193 21194 21195 21196 21197 21198 21199 21200 21201 21202 21203 21204 21205 21206 21207 21208 21209 21210 21211 21212 21213 21214 21215 21216 21217 21218 21219 21220 21221 21222 21223 21224 21225 21226 21227 21228 21229 21230 21231 21232 21233 21234 21235 21236 21237 21238 21239 21240 21241 21242 21243 21244 21245 21246 21247 21248 21249 21250 21251 21252 21253 21254 21255 21256 21257 21258 21259 21260 21261 21262 21263 21264 21265 21266 21267 21268 21269 21270 21271 21272 21273 21274 21275 21276 21277 21278 21279 21280 21281 21282 21283 21284 21285 21286 21287 21288 21289 21290 21291 21292 21293 21294 21295 21296 21297 21298 21299 21300 21301 21302 21303 21304 21305 21306 21307 21308 21309 21310 21311 21312 21313 21314 21315 21316 21317 21318 21319 21320 21321 21322 21323 21324 21325 21326 21327 21328 21329 21330 21331 21332 21333 21334 21335 21336 21337 21338 21339 21340 21341 21342 21343 21344 21345 21346 21347 21348 21349 21350 21351 21352 21353 21354 21355 21356 21357 21358 21359 21360 21361 21362 21363 21364 21365 21366 21367 21368 21369 21370 21371 21372 21373 21374 21375 21376 21377 21378 21379 21380 21381 21382 21383 21384 21385 21386 21387 21388 21389 21390 21391 21392 21393 21394 21395 21396 21397 21398 21399 21400 21401 21402 21403 21404 21405 21406 21407 21408 21409 21410 21411 21412 21413 21414 21415 21416 21417 21418 21419 21420 21421 21422 21423 21424 21425 21426 21427 21428 21429 21430 21431 21432 21433 21434 21435 21436 21437 21438 21439 21440 21441 21442 21443 21444 21445 21446 21447 21448 21449 21450 21451 21452 21453 21454 21455 21456 21457 21458 21459 21460 21461 21462 21463 21464 21465 21466 21467 21468 21469 21470 21471 21472 21473 21474 21475 21476 21477 21478 21479 21480 21481 21482 21483 21484 21485 21486 21487 21488 21489 21490 21491 21492 21493 21494 21495 21496 21497 21498 21499 21500 21501 21502 21503 21504 21505 21506 21507 21508 21509 21510 21511 21512 21513 21514 21515 21516 21517 21518 21519 21520 21521 21522 21523 21524 21525 21526 21527 21528 21529 21530 21531 21532 21533 21534 21535 21536 21537 21538 21539 21540 21541 21542 21543 21544 21545 21546 21547 21548 21549 21550 21551 21552 21553 21554 21555 21556 21557 21558 21559 21560 21561 21562 21563 21564 21565 21566 21567 21568 21569 21570 21571 21572 21573 21574 21575 21576 21577 21578 21579 21580 21581 21582 21583 21584 21585 21586 21587 21588 21589 21590 21591 21592 21593 21594 21595 21596 21597 21598 21599 21600 21601 21602 21603 21604 21605 21606 21607 21608 21609 21610 21611 21612 21613 21614 21615 21616 21617 21618 21619 21620 21621 21622 21623 21624 21625 21626 21627 21628 21629 21630 21631 21632 21633 21634 21635 21636 21637 21638 21639 21640 21641 21642 21643 21644 21645 21646 21647 21648 21649 21650 21651 21652 21653 21654 21655 21656 21657 21658 21659 21660 21661 21662 21663 21664 21665 21666 21667 21668 21669 21670 21671 21672 21673 21674 21675 21676 21677 21678 21679 21680 21681 21682 21683 21684 21685 21686 21687 21688 21689 21690 21691 21692 21693 21694 21695 21696 21697 21698 21699 21700 21701 21702 21703 21704 21705 21706 21707 21708 21709 21710 21711 21712 21713 21714 21715 21716 21717 21718 21719 21720 21721 21722 21723 21724 21725 21726 21727 21728 21729 21730 21731 21732 21733 21734 21735 21736 21737 21738 21739 21740 21741 21742 21743 21744 21745 21746 21747 21748 21749 21750 21751 21752 21753 21754 21755 21756 21757 21758 21759 21760 21761 21762 21763 21764 21765 21766 21767 21768 21769 21770 21771 21772 21773 21774 21775 21776 21777 21778 21779 21780 21781 21782 21783 21784 21785 21786 21787 21788 21789 21790 21791 21792 21793 21794 21795 21796 21797 21798 21799 21800 21801 21802 21803 21804 21805 21806 21807 21808 21809 21810 21811 21812 21813 21814 21815 21816 21817 21818 21819 21820 21821 21822 21823 21824 21825 21826 21827 21828 21829 21830 21831 21832 21833 21834 21835 21836 21837 21838 21839 21840 21841 21842 21843 21844 21845 21846 21847 21848 21849 21850 21851 21852 21853 21854 21855 21856 21857 21858 21859 21860 21861 21862 21863 21864 21865 21866 21867 21868 21869 21870 21871 21872 21873 21874 21875 21876 21877 21878 21879 21880 21881 21882 21883 21884 21885 21886 21887 21888 21889 21890 21891 21892 21893 21894 21895 21896 21897 21898 21899 21900 21901 21902 21903 21904 21905 21906 21907 21908 21909 21910 21911 21912 21913 21914 21915 21916 21917 21918 21919 21920 21921 21922 21923 21924 21925 21926 21927 21928 21929 21930 21931 21932 21933 21934 21935 21936 21937 21938 21939 21940 21941 21942 21943 21944 21945 21946 21947 21948 21949 21950 21951 21952 21953 21954 21955 21956 21957 21958 21959 21960 21961 21962 21963 21964 21965 21966 21967 21968 21969 21970 21971 21972 21973 21974 21975 21976 21977 21978 21979 21980 21981 21982 21983 21984 21985 21986 21987 21988 21989 21990 21991 21992 21993 21994 21995 21996 21997 21998 21999 22000 22001 22002 22003 22004 22005 22006 22007 22008 22009 22010 22011 22012 22013 22014 22015 22016 22017 22018 22019 22020 22021 22022 22023 22024 22025 22026 22027 22028 22029 22030 22031 22032 22033 22034 22035 22036 22037 22038 22039 22040 22041 22042 22043 22044 22045 22046 22047 22048 22049 22050 22051 22052 22053 22054 22055 22056 22057 22058 22059 22060 22061 22062 22063 22064 22065 22066 22067 22068 22069 22070 22071 22072 22073 22074 22075 22076 22077 22078 22079 22080 22081 22082 22083 22084 22085 22086 22087 22088 22089 22090 22091 22092 22093 22094 22095 22096 22097 22098 22099 22100 22101 22102 22103 22104 22105 22106 22107 22108 22109 22110 22111 22112 22113 22114 22115 22116 22117 22118 22119 22120 22121 22122 22123 22124 22125 22126 22127 22128 22129 22130 22131 22132 22133 22134 22135 22136 22137 22138 22139 22140 22141 22142 22143 22144 22145 22146 22147 22148 22149 22150 22151 22152 22153 22154 22155 22156 22157 22158 22159 22160 22161 22162 22163 22164 22165 22166 22167 22168 22169 22170 22171 22172 22173 22174 22175 22176 22177 22178 22179 22180 22181 22182 22183 22184 22185 22186 22187 22188 22189 22190 22191 22192 22193 22194 22195 22196 22197 22198 22199 22200 22201 22202 22203 22204 22205 22206 22207 22208 22209 22210 22211 22212 22213 22214 22215 22216 22217 22218 22219 22220 22221 22222 22223 22224 22225 22226 22227 22228 22229 22230 22231 22232 22233 22234 22235 22236 22237 22238 22239 22240 22241 22242 22243 22244 22245 22246 22247 22248 22249 22250 22251 22252 22253 22254 22255 22256 22257 22258 22259 22260 22261 22262 22263 22264 22265 22266 22267 22268 22269 22270 22271 22272 22273 22274 22275 22276 22277 22278 22279 22280 22281 22282 22283 22284 22285 22286 22287 22288 22289 22290 22291 22292 22293 22294 22295 22296 22297 22298 22299 22300 22301 22302 22303 22304 22305 22306 22307 22308 22309 22310 22311 22312 22313 22314 22315 22316 22317 22318 22319 22320 22321 22322 22323 22324 22325 22326 22327 22328 22329 22330 22331 22332 22333 22334 22335 22336 22337 22338 22339 22340 22341 22342 22343 22344 22345 22346 22347 22348 22349 22350 22351 22352 22353 22354 22355 22356 22357 22358 22359 22360 22361 22362 22363 22364 22365 22366 22367 22368 22369 22370 22371 22372 22373 22374 22375 22376 22377 22378 22379 22380 22381 22382 22383 22384 22385 22386 22387 22388 22389 22390 22391 22392 22393 22394 22395 22396 22397 22398 22399 22400 22401 22402 22403 22404 22405 22406 22407 22408 22409 22410 22411 22412 22413 22414 22415 22416 22417 22418 22419 22420 22421 22422 22423 22424 22425 22426 22427 22428 22429 22430 22431 22432 22433 22434 22435 22436 22437 22438 22439 22440 22441 22442 22443 22444 22445 22446 22447 22448 22449 22450 22451 22452 22453 22454 22455 22456 22457 22458 22459 22460 22461 22462 22463 22464 22465 22466 22467 22468 22469 22470 22471 22472 22473 22474 22475 22476 22477 22478 22479 22480 22481 22482 22483 22484 22485 22486 22487 22488 22489 22490 22491 22492 22493 22494 22495 22496 22497 22498 22499 22500 22501 22502 22503 22504 22505 22506 22507 22508 22509 22510 22511 22512 22513 22514 22515 22516 22517 22518 22519 22520 22521 22522 22523 22524 22525 22526 22527 22528 22529 22530 22531 22532 22533 22534 22535 22536 22537 22538 22539 22540 22541 22542 22543 22544 22545 22546 22547 22548 22549 22550 22551 22552 22553 22554 22555 22556 22557 22558 22559 22560 22561 22562 22563 22564 22565 22566 22567 22568 22569 22570 22571 22572 22573 22574 22575 22576 22577 22578 22579 22580 22581 22582 22583 22584 22585 22586 22587 22588 22589 22590 22591 22592 22593 22594 22595 22596 22597 22598 22599 22600 22601 22602 22603 22604 22605 22606 22607 22608 22609 22610 22611 22612 22613 22614 22615 22616 22617 22618 22619 22620 22621 22622 22623 22624 22625 22626 22627 22628 22629 22630 22631 22632 22633 22634 22635 22636 22637 22638 22639 22640 22641 22642 22643 22644 22645 22646 22647 22648 22649 22650 22651 22652 22653 22654 22655 22656 22657 22658 22659 22660 22661 22662 22663 22664 22665 22666 22667 22668 22669 22670 22671 22672 22673 22674 22675 22676 22677 22678 22679 22680 22681 22682 22683 22684 22685 22686 22687 22688 22689 22690 22691 22692 22693 22694 22695 22696 22697 22698 22699 22700 22701 22702 22703 22704 22705 22706 22707 22708 22709 22710 22711 22712 22713 22714 22715 22716 22717 22718 22719 22720 22721 22722 22723 22724 22725 22726 22727 22728 22729 22730 22731 22732 22733 22734 22735 22736 22737 22738 22739 22740 22741 22742 22743 22744 22745 22746 22747 22748 22749 22750 22751 22752 22753 22754 22755 22756 22757 22758 22759 22760 22761 22762 22763 22764 22765 22766 22767 22768 22769 22770 22771 22772 22773 22774 22775 22776 22777 22778 22779 22780 22781 22782 22783 22784 22785 22786 22787 22788 22789 22790 22791 22792 22793 22794 22795 22796 22797 22798 22799 22800 22801 22802 22803 22804 22805 22806 22807 22808 22809 22810 22811 22812 22813 22814 22815 22816 22817 22818 22819 22820 22821 22822 22823 22824 22825 22826 22827 22828 22829 22830 22831 22832 22833 22834 22835 22836 22837 22838 22839 22840 22841 22842 22843 22844 22845 22846 22847 22848 22849 22850 22851 22852 22853 22854 22855 22856 22857 22858 22859 22860 22861 22862 22863 22864 22865 22866 22867 22868 22869 22870 22871 22872 22873 22874 22875 22876 22877 22878 22879 22880 22881 22882 22883 22884 22885 22886 22887 22888 22889 22890 22891 22892 22893 22894 22895 22896 22897 22898 22899 22900 22901 22902 22903 22904 22905 22906 22907 22908 22909 22910 22911 22912 22913 22914 22915 22916 22917 22918 22919 22920 22921 22922 22923 22924 22925 22926 22927 22928 22929 22930 22931 22932 22933 22934 22935 22936 22937 22938 22939 22940 22941 22942 22943 22944 22945 22946 22947 22948 22949 22950 22951 22952 22953 22954 22955 22956 22957 22958 22959 22960 22961 22962 22963 22964 22965 22966 22967 22968 22969 22970 22971 22972 22973 22974 22975 22976 22977 22978 22979 22980 22981 22982 22983 22984 22985 22986 22987 22988 22989 22990 22991 22992 22993 22994 22995 22996 22997 22998 22999 23000 23001 23002 23003 23004 23005 23006 23007 23008 23009 23010 23011 23012 23013 23014 23015 23016 23017 23018 23019 23020 23021 23022 23023 23024 23025 23026 23027 23028 23029 23030 23031 23032 23033 23034 23035 23036 23037 23038 23039 23040 23041 23042 23043 23044 23045 23046 23047 23048 23049 23050 23051 23052 23053 23054 23055 23056 23057 23058 23059 23060 23061 23062 23063 23064 23065 23066 23067 23068 23069 23070 23071 23072 23073 23074 23075 23076 23077 23078 23079 23080 23081 23082 23083 23084 23085 23086 23087 23088 23089 23090 23091 23092 23093 23094 23095 23096 23097 23098 23099 23100 23101 23102 23103 23104 23105 23106 23107 23108 23109 23110 23111 23112 23113 23114 23115 23116 23117 23118 23119 23120 23121 23122 23123 23124 23125 23126 23127 23128 23129 23130 23131 23132 23133 23134 23135 23136 23137 23138 23139 23140 23141 23142 23143 23144 23145 23146 23147 23148 23149 23150 23151 23152 23153 23154 23155 23156 23157 23158 23159 23160 23161 23162 23163 23164 23165 23166 23167 23168 23169 23170 23171 23172 23173 23174 23175 23176 23177 23178 23179 23180 23181 23182 23183 23184 23185 23186 23187 23188 23189 23190 23191 23192 23193 23194 23195 23196 23197 23198 23199 23200 23201 23202 23203 23204 23205 23206 23207 23208 23209 23210 23211 23212 23213 23214 23215 23216 23217 23218 23219 23220 23221 23222 23223 23224 23225 23226 23227 23228 23229 23230 23231 23232 23233 23234 23235 23236 23237 23238 23239 23240 23241 23242 23243 23244 23245 23246 23247 23248 23249 23250 23251 23252 23253 23254 23255 23256 23257 23258 23259 23260 23261 23262 23263 23264 23265 23266 23267 23268 23269 23270 23271 23272 23273 23274 23275 23276 23277 23278 23279 23280 23281 23282 23283 23284 23285 23286 23287 23288 23289 23290 23291 23292 23293 23294 23295 23296 23297 23298 23299 23300 23301 23302 23303 23304 23305 23306 23307 23308 23309 23310 23311 23312 23313 23314 23315 23316 23317 23318 23319 23320 23321 23322 23323 23324 23325 23326 23327 23328 23329 23330 23331 23332 23333 23334 23335 23336 23337 23338 23339 23340 23341 23342 23343 23344 23345 23346 23347 23348 23349 23350 23351 23352 23353 23354 23355 23356 23357 23358 23359 23360 23361 23362 23363 23364 23365 23366 23367 23368 23369 23370 23371 23372 23373 23374 23375 23376 23377 23378 23379 23380 23381 23382 23383 23384 23385 23386 23387 23388 23389 23390 23391 23392 23393 23394 23395 23396 23397 23398 23399 23400 23401 23402 23403 23404 23405 23406 23407 23408 23409 23410 23411 23412 23413 23414 23415 23416 23417 23418 23419 23420 23421 23422 23423 23424 23425 23426 23427 23428 23429 23430 23431 23432 23433 23434 23435 23436 23437 23438 23439 23440 23441 23442 23443 23444 23445 23446 23447 23448 23449 23450 23451 23452 23453 23454 23455 23456 23457 23458 23459 23460 23461 23462 23463 23464 23465 23466 23467 23468 23469 23470 23471 23472 23473 23474 23475 23476 23477 23478 23479 23480 23481 23482 23483 23484 23485 23486 23487 23488 23489 23490 23491 23492 23493 23494 23495 23496 23497 23498 23499 23500 23501 23502 23503 23504 23505 23506 23507 23508 23509 23510 23511 23512 23513 23514 23515 23516 23517 23518 23519 23520 23521 23522 23523 23524 23525 23526 23527 23528 23529 23530 23531 23532 23533 23534 23535 23536 23537 23538 23539 23540 23541 23542 23543 23544 23545 23546 23547 23548 23549 23550 23551 23552 23553 23554 23555 23556 23557 23558 23559 23560 23561 23562 23563 23564 23565 23566 23567 23568 23569 23570 23571 23572 23573 23574 23575 23576 23577 23578 23579 23580 23581 23582 23583 23584 23585 23586 23587 23588 23589 23590 23591 23592 23593 23594 23595 23596 23597 23598 23599 23600 23601 23602 23603 23604 23605 23606 23607 23608 23609 23610 23611 23612 23613 23614 23615 23616 23617 23618 23619 23620 23621 23622 23623 23624 23625 23626 23627 23628 23629 23630 23631 23632 23633 23634 23635 23636 23637 23638 23639 23640 23641 23642 23643 23644 23645 23646 23647 23648 23649 23650 23651 23652 23653 23654 23655 23656 23657 23658 23659 23660 23661 23662 23663 23664 23665 23666 23667 23668 23669 23670 23671 23672 23673 23674 23675 23676 23677 23678 23679 23680 23681 23682 23683 23684 23685 23686 23687 23688 23689 23690 23691 23692 23693 23694 23695 23696 23697 23698 23699 23700 23701 23702 23703 23704 23705 23706 23707 23708 23709 23710 23711 23712 23713 23714 23715 23716 23717 23718 23719 23720 23721 23722 23723 23724 23725 23726 23727 23728 23729 23730 23731 23732 23733 23734 23735 23736 23737 23738 23739 23740 23741 23742 23743 23744 23745 23746 23747 23748 23749 23750 23751 23752 23753 23754 23755 23756 23757 23758 23759 23760 23761 23762 23763 23764 23765 23766 23767 23768 23769 23770 23771 23772 23773 23774 23775 23776 23777 23778 23779 23780 23781 23782 23783 23784 23785 23786 23787 23788 23789 23790 23791 23792 23793 23794 23795 23796 23797 23798 23799 23800 23801 23802 23803 23804 23805 23806 23807 23808 23809 23810 23811 23812 23813 23814 23815 23816 23817 23818 23819 23820 23821 23822 23823 23824 23825 23826 23827 23828 23829 23830 23831 23832 23833 23834 23835 23836 23837 23838 23839 23840 23841 23842 23843 23844 23845 23846 23847 23848 23849 23850 23851 23852 23853 23854 23855 23856 23857 23858 23859 23860 23861 23862 23863 23864 23865 23866 23867 23868 23869 23870 23871 23872 23873 23874 23875 23876 23877 23878 23879 23880 23881 23882 23883 23884 23885 23886 23887 23888 23889 23890 23891 23892 23893 23894 23895 23896 23897 23898 23899 23900 23901 23902 23903 23904 23905 23906 23907 23908 23909 23910 23911 23912 23913 23914 23915 23916 23917 23918 23919 23920 23921 23922 23923 23924 23925 23926 23927 23928 23929 23930 23931 23932 23933 23934 23935 23936 23937 23938 23939 23940 23941 23942 23943 23944 23945 23946 23947 23948 23949 23950 23951 23952 23953 23954 23955 23956 23957 23958 23959 23960 23961 23962 23963 23964 23965 23966 23967 23968 23969 23970 23971 23972 23973 23974 23975 23976 23977 23978 23979 23980 23981 23982 23983 23984 23985 23986 23987 23988 23989 23990 23991 23992 23993 23994 23995 23996 23997 23998 23999 24000 24001 24002 24003 24004 24005 24006 24007 24008 24009 24010 24011 24012 24013 24014 24015 24016 24017 24018 24019 24020 24021 24022 24023 24024 24025 24026 24027 24028 24029 24030 24031 24032 24033 24034 24035 24036 24037 24038 24039 24040 24041 24042 24043 24044 24045 24046 24047 24048 24049 24050 24051 24052 24053 24054 24055 24056 24057 24058 24059 24060 24061 24062 24063 24064 24065 24066 24067 24068 24069 24070 24071 24072 24073 24074 24075 24076 24077 24078 24079 24080 24081 24082 24083 24084 24085 24086 24087 24088 24089 24090 24091 24092 24093 24094 24095 24096 24097 24098 24099 24100 24101 24102 24103 24104 24105 24106 24107 24108 24109 24110 24111 24112 24113 24114 24115 24116 24117 24118 24119 24120 24121 24122 24123 24124 24125 24126 24127 24128 24129 24130 24131 24132 24133 24134 24135 24136 24137 24138 24139 24140 24141 24142 24143 24144 24145 24146 24147 24148 24149 24150 24151 24152 24153 24154 24155 24156 24157 24158 24159 24160 24161 24162 24163 24164 24165 24166 24167 24168 24169 24170 24171 24172 24173 24174 24175 24176 24177 24178 24179 24180 24181 24182 24183 24184 24185 24186 24187 24188 24189 24190 24191 24192 24193 24194 24195 24196 24197 24198 24199 24200 24201 24202 24203 24204 24205 24206 24207 24208 24209 24210 24211 24212 24213 24214 24215 24216 24217 24218 24219 24220 24221 24222 24223 24224 24225 24226 24227 24228 24229 24230 24231 24232 24233 24234 24235 24236 24237 24238 24239 24240 24241 24242 24243 24244 24245 24246 24247 24248 24249 24250 24251 24252 24253 24254 24255 24256 24257 24258 24259 24260 24261 24262 24263 24264 24265 24266 24267 24268 24269 24270 24271 24272 24273 24274 24275 24276 24277 24278 24279 24280 24281 24282 24283 24284 24285 24286 24287 24288 24289 24290 24291 24292 24293 24294 24295 24296 24297 24298 24299 24300 24301 24302 24303 24304 24305 24306 24307 24308 24309 24310 24311 24312 24313 24314 24315 24316 24317 24318 24319 24320 24321 24322 24323 24324 24325 24326 24327 24328 24329 24330 24331 24332 24333 24334 24335 24336 24337 24338 24339 24340 24341 24342 24343 24344 24345 24346 24347 24348 24349 24350 24351 24352 24353 24354 24355 24356 24357 24358 24359 24360 24361 24362 24363 24364 24365 24366 24367 24368 24369 24370 24371 24372 24373 24374 24375 24376 24377 24378 24379 24380 24381 24382 24383 24384 24385 24386 24387 24388 24389 24390 24391 24392 24393 24394 24395 24396 24397 24398 24399 24400 24401 24402 24403 24404 24405 24406 24407 24408 24409 24410 24411 24412 24413 24414 24415 24416 24417 24418 24419 24420 24421 24422 24423 24424 24425 24426 24427 24428 24429 24430 24431 24432 24433 24434 24435 24436 24437 24438 24439 24440 24441 24442 24443 24444 24445 24446 24447 24448 24449 24450 24451 24452 24453 24454 24455 24456 24457 24458 24459 24460 24461 24462 24463 24464 24465 24466 24467 24468 24469 24470 24471 24472 24473 24474 24475 24476 24477 24478 24479 24480 24481 24482 24483 24484 24485 24486 24487 24488 24489 24490 24491 24492 24493 24494 24495 24496 24497 24498 24499 24500 24501 24502 24503 24504 24505 24506 24507 24508 24509 24510 24511 24512 24513 24514 24515 24516 24517 24518 24519 24520 24521 24522 24523 24524 24525 24526 24527 24528 24529 24530 24531 24532 24533 24534 24535 24536 24537 24538 24539 24540 24541 24542 24543 24544 24545 24546 24547 24548 24549 24550 24551 24552 24553 24554 24555 24556 24557 24558 24559 24560 24561 24562 24563 24564 24565 24566 24567 24568 24569 24570 24571 24572 24573 24574 24575 24576 24577 24578 24579 24580 24581 24582 24583 24584 24585 24586 24587 24588 24589 24590 24591 24592 24593 24594 24595 24596 24597 24598 24599 24600 24601 24602 24603 24604 24605 24606 24607 24608 24609 24610 24611 24612 24613 24614 24615 24616 24617 24618 24619 24620 24621 24622 24623 24624 24625 24626 24627 24628 24629 24630 24631 24632 24633 24634 24635 24636 24637 24638 24639 24640 24641 24642 24643 24644 24645 24646 24647 24648 24649 24650 24651 24652 24653 24654 24655 24656 24657 24658 24659 24660 24661 24662 24663 24664 24665 24666 24667 24668 24669 24670 24671 24672 24673 24674 24675 24676 24677 24678 24679 24680 24681 24682 24683 24684 24685 24686 24687 24688 24689 24690 24691 24692 24693 24694 24695 24696 24697 24698 24699 24700 24701 24702 24703 24704 24705 24706 24707 24708 24709 24710 24711 24712 24713 24714 24715 24716 24717 24718 24719 24720 24721 24722 24723 24724 24725 24726 24727 24728 24729 24730 24731 24732 24733 24734 24735 24736 24737 24738 24739 24740 24741 24742 24743 24744 24745 24746 24747 24748 24749 24750 24751 24752 24753 24754 24755 24756 24757 24758 24759 24760 24761 24762 24763 24764 24765 24766 24767 24768 24769 24770 24771 24772 24773 24774 24775 24776 24777 24778 24779 24780 24781 24782 24783 24784 24785 24786 24787 24788 24789 24790 24791 24792 24793 24794 24795 24796 24797 24798 24799 24800 24801 24802 24803 24804 24805 24806 24807 24808 24809 24810 24811 24812 24813 24814 24815 24816 24817 24818 24819 24820 24821 24822 24823 24824 24825 24826 24827 24828 24829 24830 24831 24832 24833 24834 24835 24836 24837 24838 24839 24840 24841 24842 24843 24844 24845 24846 24847 24848 24849 24850 24851 24852 24853 24854 24855 24856 24857 24858 24859 24860 24861 24862 24863 24864 24865 24866 24867 24868 24869 24870 24871 24872 24873 24874 24875 24876 24877 24878 24879 24880 24881 24882 24883 24884 24885 24886 24887 24888 24889 24890 24891 24892 24893 24894 24895 24896 24897 24898 24899 24900 24901 24902 24903 24904 24905 24906 24907 24908 24909 24910 24911 24912 24913 24914 24915 24916 24917 24918 24919 24920 24921 24922 24923 24924 24925 24926 24927 24928 24929 24930 24931 24932 24933 24934 24935 24936 24937 24938 24939 24940 24941 24942 24943 24944 24945 24946 24947 24948 24949 24950 24951 24952 24953 24954 24955 24956 24957 24958 24959 24960 24961 24962 24963 24964 24965 24966 24967 24968 24969 24970 24971 24972 24973 24974 24975 24976 24977 24978 24979 24980 24981 24982 24983 24984 24985 24986 24987 24988 24989 24990 24991 24992 24993 24994 24995 24996 24997 24998 24999 25000 25001 25002 25003 25004 25005 25006 25007 25008 25009 25010 25011 25012 25013 25014 25015 25016 25017 25018 25019 25020 25021 25022 25023 25024 25025 25026 25027 25028 25029 25030 25031 25032 25033 25034 25035 25036 25037 25038 25039 25040 25041 25042 25043 25044 25045 25046 25047 25048 25049 25050 25051 25052 25053 25054 25055 25056 25057 25058 25059 25060 25061 25062 25063 25064 25065 25066 25067 25068 25069 25070 25071 25072 25073 25074 25075 25076 25077 25078 25079 25080 25081 25082 25083 25084 25085 25086 25087 25088 25089 25090 25091 25092 25093 25094 25095 25096 25097 25098 25099 25100 25101 25102 25103 25104 25105 25106 25107 25108 25109 25110 25111 25112 25113 25114 25115 25116 25117 25118 25119 25120 25121 25122 25123 25124 25125 25126 25127 25128 25129 25130 25131 25132 25133 25134 25135 25136 25137 25138 25139 25140 25141 25142 25143 25144 25145 25146 25147 25148 25149 25150 25151 25152 25153 25154 25155 25156 25157 25158 25159 25160 25161 25162 25163 25164 25165 25166 25167 25168 25169 25170 25171 25172 25173 25174 25175 25176 25177 25178 25179 25180 25181 25182 25183 25184 25185 25186 25187 25188 25189 25190 25191 25192 25193 25194 25195 25196 25197 25198 25199 25200 25201 25202 25203 25204 25205 25206 25207 25208 25209 25210 25211 25212 25213 25214 25215 25216 25217 25218 25219 25220 25221 25222 25223 25224 25225 25226 25227 25228 25229 25230 25231 25232 25233 25234 25235 25236 25237 25238 25239 25240 25241 25242 25243 25244 25245 25246 25247 25248 25249 25250 25251 25252 25253 25254 25255 25256 25257 25258 25259 25260 25261 25262 25263 25264 25265 25266 25267 25268 25269 25270 25271 25272 25273 25274 25275 25276 25277 25278 25279 25280 25281 25282 25283 25284 25285 25286 25287 25288 25289 25290 25291 25292 25293 25294 25295 25296 25297 25298 25299 25300 25301 25302 25303 25304 25305 25306 25307 25308 25309 25310 25311 25312 25313 25314 25315 25316 25317 25318 25319 25320 25321 25322 25323 25324 25325 25326 25327 25328 25329 25330 25331 25332 25333 25334 25335 25336 25337 25338 25339 25340 25341 25342 25343 25344 25345 25346 25347 25348 25349 25350 25351 25352 25353 25354 25355 25356 25357 25358 25359 25360 25361 25362 25363 25364 25365 25366 25367 25368 25369 25370 25371 25372 25373 25374 25375 25376 25377 25378 25379 25380 25381 25382 25383 25384 25385 25386 25387 25388 25389 25390 25391 25392 25393 25394 25395 25396 25397 25398 25399 25400 25401 25402 25403 25404 25405 25406 25407 25408 25409 25410 25411 25412 25413 25414 25415 25416 25417 25418 25419 25420 25421 25422 25423 25424 25425 25426 25427 25428 25429 25430 25431 25432 25433 25434 25435 25436 25437 25438 25439 25440 25441 25442 25443 25444 25445 25446 25447 25448 25449 25450 25451 25452 25453 25454 25455 25456 25457 25458 25459 25460 25461 25462 25463 25464 25465 25466 25467 25468 25469 25470 25471 25472 25473 25474 25475 25476 25477 25478 25479 25480 25481 25482 25483 25484 25485 25486 25487 25488 25489 25490 25491 25492 25493 25494 25495 25496 25497 25498 25499 25500 25501 25502 25503 25504 25505 25506 25507 25508 25509 25510 25511 25512 25513 25514 25515 25516 25517 25518 25519 25520 25521 25522 25523 25524 25525 25526 25527 25528 25529 25530 25531 25532 25533 25534 25535 25536 25537 25538 25539 25540 25541 25542 25543 25544 25545 25546 25547 25548 25549 25550 25551 25552 25553 25554 25555 25556 25557 25558 25559 25560 25561 25562 25563 25564 25565 25566 25567 25568 25569 25570 25571 25572 25573 25574 25575 25576 25577 25578 25579 25580 25581 25582 25583 25584 25585 25586 25587 25588 25589 25590 25591 25592 25593 25594 25595 25596 25597 25598 25599 25600 25601 25602 25603 25604 25605 25606 25607 25608 25609 25610 25611 25612 25613 25614 25615 25616 25617 25618 25619 25620 25621 25622 25623 25624 25625 25626 25627 25628 25629 25630 25631 25632 25633 25634 25635 25636 25637 25638 25639 25640 25641 25642 25643 25644 25645 25646 25647 25648 25649 25650 25651 25652 25653 25654 25655 25656 25657 25658 25659 25660 25661 25662 25663 25664 25665 25666 25667 25668 25669 25670 25671 25672 25673 25674 25675 25676 25677 25678 25679 25680 25681 25682 25683 25684 25685 25686 25687 25688 25689 25690 25691 25692 25693 25694 25695 25696 25697 25698 25699 25700 25701 25702 25703 25704 25705 25706 25707 25708 25709 25710 25711 25712 25713 25714 25715 25716 25717 25718 25719 25720 25721 25722 25723 25724 25725 25726 25727 25728 25729 25730 25731 25732 25733 25734 25735 25736 25737 25738 25739 25740 25741 25742 25743 25744 25745 25746 25747 25748 25749 25750 25751 25752 25753 25754 25755 25756 25757 25758 25759 25760 25761 25762 25763 25764 25765 25766 25767 25768 25769 25770 25771 25772 25773 25774 25775 25776 25777 25778 25779 25780 25781 25782 25783 25784 25785 25786 25787 25788 25789 25790 25791 25792 25793 25794 25795 25796 25797 25798 25799 25800 25801 25802 25803 25804 25805 25806 25807 25808 25809 25810 25811 25812 25813 25814 25815 25816 25817 25818 25819 25820 25821 25822 25823 25824 25825 25826 25827 25828 25829 25830 25831 25832 25833 25834 25835 25836 25837 25838 25839 25840 25841 25842 25843 25844 25845 25846 25847 25848 25849 25850 25851 25852 25853 25854 25855 25856 25857 25858 25859 25860 25861 25862 25863 25864 25865 25866 25867 25868 25869 25870 25871 25872 25873 25874 25875 25876 25877 25878 25879 25880 25881 25882 25883 25884 25885 25886 25887 25888 25889 25890 25891 25892 25893 25894 25895 25896 25897 25898 25899 25900 25901 25902 25903 25904 25905 25906 25907 25908 25909 25910 25911 25912 25913 25914 25915 25916 25917 25918 25919 25920 25921 25922 25923 25924 25925 25926 25927 25928 25929 25930 25931 25932 25933 25934 25935 25936 25937 25938 25939 25940 25941 25942 25943 25944 25945 25946 25947 25948 25949 25950 25951 25952 25953 25954 25955 25956 25957 25958 25959 25960 25961 25962 25963 25964 25965 25966 25967 25968 25969 25970 25971 25972 25973 25974 25975 25976 25977 25978 25979 25980 25981 25982 25983 25984 25985 25986 25987 25988 25989 25990 25991 25992 25993 25994 25995 25996 25997 25998 25999 26000 26001 26002 26003 26004 26005 26006 26007 26008 26009 26010 26011 26012 26013 26014 26015 26016 26017 26018 26019 26020 26021 26022 26023 26024 26025 26026 26027 26028 26029 26030 26031 26032 26033 26034 26035 26036 26037 26038 26039 26040 26041 26042 26043 26044 26045 26046 26047 26048 26049 26050 26051 26052 26053 26054 26055 26056 26057 26058 26059 26060 26061 26062 26063 26064 26065 26066 26067 26068 26069 26070 26071 26072 26073 26074 26075 26076 26077 26078 26079 26080 26081 26082 26083 26084 26085 26086 26087 26088 26089 26090 26091 26092 26093 26094 26095 26096 26097 26098 26099 26100 26101 26102 26103 26104 26105 26106 26107 26108 26109 26110 26111 26112 26113 26114 26115 26116 26117 26118 26119 26120 26121 26122 26123 26124 26125 26126 26127 26128 26129 26130 26131 26132 26133 26134 26135 26136 26137 26138 26139 26140 26141 26142 26143 26144 26145 26146 26147 26148 26149 26150 26151 26152 26153 26154 26155 26156 26157 26158 26159 26160 26161 26162 26163 26164 26165 26166 26167 26168 26169 26170 26171 26172 26173 26174 26175 26176 26177 26178 26179 26180 26181 26182 26183 26184 26185 26186 26187 26188 26189 26190 26191 26192 26193 26194 26195 26196 26197 26198 26199 26200 26201 26202 26203 26204 26205 26206 26207 26208 26209 26210 26211 26212 26213 26214 26215 26216 26217 26218 26219 26220 26221 26222 26223 26224 26225 26226 26227 26228 26229 26230 26231 26232 26233 26234 26235 26236 26237 26238 26239 26240 26241 26242 26243 26244 26245 26246 26247 26248 26249 26250 26251 26252 26253 26254 26255 26256 26257 26258 26259 26260 26261 26262 26263 26264 26265 26266 26267 26268 26269 26270 26271 26272 26273 26274 26275 26276 26277 26278 26279 26280 26281 26282 26283 26284 26285 26286 26287 26288 26289 26290 26291 26292 26293 26294 26295 26296 26297 26298 26299 26300 26301 26302 26303 26304 26305 26306 26307 26308 26309 26310 26311 26312 26313 26314 26315 26316 26317 26318 26319 26320 26321 26322 26323 26324 26325 26326 26327 26328 26329 26330 26331 26332 26333 26334 26335 26336 26337 26338 26339 26340 26341 26342 26343 26344 26345 26346 26347 26348 26349 26350 26351 26352 26353 26354 26355 26356 26357 26358 26359 26360 26361 26362 26363 26364 26365 26366 26367 26368 26369 26370 26371 26372 26373 26374 26375 26376 26377 26378 26379 26380 26381 26382 26383 26384 26385 26386 26387 26388 26389 26390 26391 26392 26393 26394 26395 26396 26397 26398 26399 26400 26401 26402 26403 26404 26405 26406 26407 26408 26409 26410 26411 26412 26413 26414 26415 26416 26417 26418 26419 26420 26421 26422 26423 26424 26425 26426 26427 26428 26429 26430 26431 26432 26433 26434 26435 26436 26437 26438 26439 26440 26441 26442 26443 26444 26445 26446 26447 26448 26449 26450 26451 26452 26453 26454 26455 26456 26457 26458 26459 26460 26461 26462 26463 26464 26465 26466 26467 26468 26469 26470 26471 26472 26473 26474 26475 26476 26477 26478 26479 26480 26481 26482 26483 26484 26485 26486 26487 26488 26489 26490 26491 26492 26493 26494 26495 26496 26497 26498 26499 26500 26501 26502 26503 26504 26505 26506 26507 26508 26509 26510 26511 26512 26513 26514 26515 26516 26517 26518 26519 26520 26521 26522 26523 26524 26525 26526 26527 26528 26529 26530 26531 26532 26533 26534 26535 26536 26537 26538 26539 26540 26541 26542 26543 26544 26545 26546 26547 26548 26549 26550 26551 26552 26553 26554 26555 26556 26557 26558 26559 26560 26561 26562 26563 26564 26565 26566 26567 26568 26569 26570 26571 26572 26573 26574 26575 26576 26577 26578 26579 26580 26581 26582 26583 26584 26585 26586 26587 26588 26589 26590 26591 26592 26593 26594 26595 26596 26597 26598 26599 26600 26601 26602 26603 26604 26605 26606 26607 26608 26609 26610 26611 26612 26613 26614 26615 26616 26617 26618 26619 26620 26621 26622 26623 26624 26625 26626 26627 26628 26629 26630 26631 26632 26633 26634 26635 26636 26637 26638 26639 26640 26641 26642 26643 26644 26645 26646 26647 26648 26649 26650 26651 26652 26653 26654 26655 26656 26657 26658 26659 26660 26661 26662 26663 26664 26665 26666 26667 26668 26669 26670 26671 26672 26673 26674 26675 26676 26677 26678 26679 26680 26681 26682 26683 26684 26685 26686 26687 26688 26689 26690 26691 26692 26693 26694 26695 26696 26697 26698 26699 26700 26701 26702 26703 26704 26705 26706 26707 26708 26709 26710 26711 26712 26713 26714 26715 26716 26717 26718 26719 26720 26721 26722 26723 26724 26725 26726 26727 26728 26729 26730 26731 26732 26733 26734 26735 26736 26737 26738 26739 26740 26741 26742 26743 26744 26745 26746 26747 26748 26749 26750 26751 26752 26753 26754 26755 26756 26757 26758 26759 26760 26761 26762 26763 26764 26765 26766 26767 26768 26769 26770 26771 26772 26773 26774 26775 26776 26777 26778 26779 26780 26781 26782 26783 26784 26785 26786 26787 26788 26789 26790 26791 26792 26793 26794 26795 26796 26797 26798 26799 26800 26801 26802 26803 26804 26805 26806 26807 26808 26809 26810 26811 26812 26813 26814 26815 26816 26817 26818 26819 26820 26821 26822 26823 26824 26825 26826 26827 26828 26829 26830 26831 26832 26833 26834 26835 26836 26837 26838 26839 26840 26841 26842 26843 26844 26845 26846 26847 26848 26849 26850 26851 26852 26853 26854 26855 26856 26857 26858 26859 26860 26861 26862 26863 26864 26865 26866 26867 26868 26869 26870 26871 26872 26873 26874 26875 26876 26877 26878 26879 26880 26881 26882 26883 26884 26885 26886 26887 26888 26889 26890 26891 26892 26893 26894 26895 26896 26897 26898 26899 26900 26901 26902 26903 26904 26905 26906 26907 26908 26909 26910 26911 26912 26913 26914 26915 26916 26917 26918 26919 26920 26921 26922 26923 26924 26925 26926 26927 26928 26929 26930 26931 26932 26933 26934 26935 26936 26937 26938 26939 26940 26941 26942 26943 26944 26945 26946 26947 26948 26949 26950 26951 26952 26953 26954 26955 26956 26957 26958 26959 26960 26961 26962 26963 26964 26965 26966 26967 26968 26969 26970 26971 26972 26973 26974 26975 26976 26977 26978 26979 26980 26981 26982 26983 26984 26985 26986 26987 26988 26989 26990 26991 26992 26993 26994 26995 26996 26997 26998 26999 27000 27001 27002 27003 27004 27005 27006 27007 27008 27009 27010 27011 27012 27013 27014 27015 27016 27017 27018 27019 27020 27021 27022 27023 27024 27025 27026 27027 27028 27029 27030 27031 27032 27033 27034 27035 27036 27037 27038 27039 27040 27041 27042 27043 27044 27045 27046 27047 27048 27049 27050 27051 27052 27053 27054 27055 27056 27057 27058 27059 27060 27061 27062 27063 27064 27065 27066 27067 27068 27069 27070 27071 27072 27073 27074 27075 27076 27077 27078 27079 27080 27081 27082 27083 27084 27085 27086 27087 27088 27089 27090 27091 27092 27093 27094 27095 27096 27097 27098 27099 27100 27101 27102 27103 27104 27105 27106 27107 27108 27109 27110 27111 27112 27113 27114 27115 27116 27117 27118 27119 27120 27121 27122 27123 27124 27125 27126 27127 27128 27129 27130 27131 27132 27133 27134 27135 27136 27137 27138 27139 27140 27141 27142 27143 27144 27145 27146 27147 27148 27149 27150 27151 27152 27153 27154 27155 27156 27157 27158 27159 27160 27161 27162 27163 27164 27165 27166 27167 27168 27169 27170 27171 27172 27173 27174 27175 27176 27177 27178 27179 27180 27181 27182 27183 27184 27185 27186 27187 27188 27189 27190 27191 27192 27193 27194 27195 27196 27197 27198 27199 27200 27201 27202 27203 27204 27205 27206 27207 27208 27209 27210 27211 27212 27213 27214 27215 27216 27217 27218 27219 27220 27221 27222 27223 27224 27225 27226 27227 27228 27229 27230 27231 27232 27233 27234 27235 27236 27237 27238 27239 27240 27241 27242 27243 27244 27245 27246 27247 27248 27249 27250 27251 27252 27253 27254 27255 27256 27257 27258 27259 27260 27261 27262 27263 27264 27265 27266 27267 27268 27269 27270 27271 27272 27273 27274 27275 27276 27277 27278 27279 27280 27281 27282 27283 27284 27285 27286 27287 27288 27289 27290 27291 27292 27293 27294 27295 27296 27297 27298 27299 27300 27301 27302 27303 27304 27305 27306 27307 27308 27309 27310 27311 27312 27313 27314 27315 27316 27317 27318 27319 27320 27321 27322 27323 27324 27325 27326 27327 27328 27329 27330 27331 27332 27333 27334 27335 27336 27337 27338 27339 27340 27341 27342 27343 27344 27345 27346 27347 27348 27349 27350 27351 27352 27353 27354 27355 27356 27357 27358 27359 27360 27361 27362 27363 27364 27365 27366 27367 27368 27369 27370 27371 27372 27373 27374 27375 27376 27377 27378 27379 27380 27381 27382 27383 27384 27385 27386 27387 27388 27389 27390 27391 27392 27393 27394 27395 27396 27397 27398 27399 27400 27401 27402 27403 27404 27405 27406 27407 27408 27409 27410 27411 27412 27413 27414 27415 27416 27417 27418 27419 27420 27421 27422 27423 27424 27425 27426 27427 27428 27429 27430 27431 27432 27433 27434 27435 27436 27437 27438 27439 27440 27441 27442 27443 27444 27445 27446 27447 27448 27449 27450 27451 27452 27453 27454 27455 27456 27457 27458 27459 27460 27461 27462 27463 27464 27465 27466 27467 27468 27469 27470 27471 27472 27473 27474 27475 27476 27477 27478 27479 27480 27481 27482 27483 27484 27485 27486 27487 27488 27489 27490 27491 27492 27493 27494 27495 27496 27497 27498 27499 27500 27501 27502 27503 27504 27505 27506 27507 27508 27509 27510 27511 27512 27513 27514 27515 27516 27517 27518 27519 27520 27521 27522 27523 27524 27525 27526 27527 27528 27529 27530 27531 27532 27533 27534 27535 27536 27537 27538 27539 27540 27541 27542 27543 27544 27545 27546 27547 27548 27549 27550 27551 27552 27553 27554 27555 27556 27557 27558 27559 27560 27561 27562 27563 27564 27565 27566 27567 27568 27569 27570 27571 27572 27573 27574 27575 27576 27577 27578 27579 27580 27581 27582 27583 27584 27585 27586 27587 27588 27589 27590 27591 27592 27593 27594 27595 27596 27597 27598 27599 27600 27601 27602 27603 27604 27605 27606 27607 27608 27609 27610 27611 27612 27613 27614 27615 27616 27617 27618 27619 27620 27621 27622 27623 27624 27625 27626 27627 27628 27629 27630 27631 27632 27633 27634 27635 27636 27637 27638 27639 27640 27641 27642 27643 27644 27645 27646 27647 27648 27649 27650 27651 27652 27653 27654 27655 27656 27657 27658 27659 27660 27661 27662 27663 27664 27665 27666 27667 27668 27669 27670 27671 27672 27673 27674 27675 27676 27677 27678 27679 27680 27681 27682 27683 27684 27685 27686 27687 27688 27689 27690 27691 27692 27693 27694 27695 27696 27697 27698 27699 27700 27701 27702 27703 27704 27705 27706 27707 27708 27709 27710 27711 27712 27713 27714 27715 27716 27717 27718 27719 27720 27721 27722 27723 27724 27725 27726 27727 27728 27729 27730 27731 27732 27733 27734 27735 27736 27737 27738 27739 27740 27741 27742 27743 27744 27745 27746 27747 27748 27749 27750 27751 27752 27753 27754 27755 27756 27757 27758 27759 27760 27761 27762 27763 27764 27765 27766 27767 27768 27769 27770 27771 27772 27773 27774 27775 27776 27777 27778 27779 27780 27781 27782 27783 27784 27785 27786 27787 27788 27789 27790 27791 27792 27793 27794 27795 27796 27797 27798 27799 27800 27801 27802 27803 27804 27805 27806 27807 27808 27809 27810 27811 27812 27813 27814 27815 27816 27817 27818 27819 27820 27821 27822 27823 27824 27825 27826 27827 27828 27829 27830 27831 27832 27833 27834 27835 27836 27837 27838 27839 27840 27841 27842 27843 27844 27845 27846 27847 27848 27849 27850 27851 27852 27853 27854 27855 27856 27857 27858 27859 27860 27861 27862 27863 27864 27865 27866 27867 27868 27869 27870 27871 27872 27873 27874 27875 27876 27877 27878 27879 27880 27881 27882 27883 27884 27885 27886 27887 27888 27889 27890 27891 27892 27893 27894 27895 27896 27897 27898 27899 27900 27901 27902 27903 27904 27905 27906 27907 27908 27909 27910 27911 27912 27913 27914 27915 27916 27917 27918 27919 27920 27921 27922 27923 27924 27925 27926 27927 27928 27929 27930 27931 27932 27933 27934 27935 27936 27937 27938 27939 27940 27941 27942 27943 27944 27945 27946 27947 27948 27949 27950 27951 27952 27953 27954 27955 27956 27957 27958 27959 27960 27961 27962 27963 27964 27965 27966 27967 27968 27969 27970 27971 27972 27973 27974 27975 27976 27977 27978 27979 27980 27981 27982 27983 27984 27985 27986 27987 27988 27989 27990 27991 27992 27993 27994 27995 27996 27997 27998 27999 28000 28001 28002 28003 28004 28005 28006 28007 28008 28009 28010 28011 28012 28013 28014 28015 28016 28017 28018 28019 28020 28021 28022 28023 28024 28025 28026 28027 28028 28029 28030 28031 28032 28033 28034 28035 28036 28037 28038 28039 28040 28041 28042 28043 28044 28045 28046 28047 28048 28049 28050 28051 28052 28053 28054 28055 28056 28057 28058 28059 28060 28061 28062 28063 28064 28065 28066 28067 28068 28069 28070 28071 28072 28073 28074 28075 28076 28077 28078 28079 28080 28081 28082 28083 28084 28085 28086 28087 28088 28089 28090 28091 28092 28093 28094 28095 28096 28097 28098 28099 28100 28101 28102 28103 28104 28105 28106 28107 28108 28109 28110 28111 28112 28113 28114 28115 28116 28117 28118 28119 28120 28121 28122 28123 28124 28125 28126 28127 28128 28129 28130 28131 28132 28133 28134 28135 28136 28137 28138 28139 28140 28141 28142 28143 28144 28145 28146 28147 28148 28149 28150 28151 28152 28153 28154 28155 28156 28157 28158 28159 28160 28161 28162 28163 28164 28165 28166 28167 28168 28169 28170 28171 28172 28173 28174 28175 28176 28177 28178 28179 28180 28181 28182 28183 28184 28185 28186 28187 28188 28189 28190 28191 28192 28193 28194 28195 28196 28197 28198 28199 28200 28201 28202 28203 28204 28205 28206 28207 28208 28209 28210 28211 28212 28213 28214 28215 28216 28217 28218 28219 28220 28221 28222 28223 28224 28225 28226 28227 28228 28229 28230 28231 28232 28233 28234 28235 28236 28237 28238 28239 28240 28241 28242 28243 28244 28245 28246 28247 28248 28249 28250 28251 28252 28253 28254 28255 28256 28257 28258 28259 28260 28261 28262 28263 28264 28265 28266 28267 28268 28269 28270 28271 28272 28273 28274 28275 28276 28277 28278 28279 28280 28281 28282 28283 28284 28285 28286 28287 28288 28289 28290 28291 28292 28293 28294 28295 28296 28297 28298 28299 28300 28301 28302 28303 28304 28305 28306 28307 28308 28309 28310 28311 28312 28313 28314 28315 28316 28317 28318 28319 28320 28321 28322 28323 28324 28325 28326 28327 28328 28329 28330 28331 28332 28333 28334 28335 28336 28337 28338 28339 28340 28341 28342 28343 28344 28345 28346 28347 28348 28349 28350 28351 28352 28353 28354 28355 28356 28357 28358 28359 28360 28361 28362 28363 28364 28365 28366 28367 28368 28369 28370 28371 28372 28373 28374 28375 28376 28377 28378 28379 28380 28381 28382 28383 28384 28385 28386 28387 28388 28389 28390 28391 28392 28393 28394 28395 28396 28397 28398 28399 28400 28401 28402 28403 28404 28405 28406 28407 28408 28409 28410 28411 28412 28413 28414 28415 28416 28417 28418 28419 28420 28421 28422 28423 28424 28425 28426 28427 28428 28429 28430 28431 28432 28433 28434 28435 28436 28437 28438 28439 28440 28441 28442 28443 28444 28445 28446 28447 28448 28449 28450 28451 28452 28453 28454 28455 28456 28457 28458 28459 28460 28461 28462 28463 28464 28465 28466 28467 28468 28469 28470 28471 28472 28473 28474 28475 28476 28477 28478 28479 28480 28481 28482 28483 28484 28485 28486 28487 28488 28489 28490 28491 28492 28493 28494 28495 28496 28497 28498 28499 28500 28501 28502 28503 28504 28505 28506 28507 28508 28509 28510 28511 28512 28513 28514 28515 28516 28517 28518 28519 28520 28521 28522 28523 28524 28525 28526 28527 28528 28529 28530 28531 28532 28533 28534 28535 28536 28537 28538 28539 28540 28541 28542 28543 28544 28545 28546 28547 28548 28549 28550 28551 28552 28553 28554 28555 28556 28557 28558 28559 28560 28561 28562 28563 28564 28565 28566 28567 28568 28569 28570 28571 28572 28573 28574 28575 28576 28577 28578 28579 28580 28581 28582 28583 28584 28585 28586 28587 28588 28589 28590 28591 28592 28593 28594 28595 28596 28597 28598 28599 28600 28601 28602 28603 28604 28605 28606 28607 28608 28609 28610 28611 28612 28613 28614 28615 28616 28617 28618 28619 28620 28621 28622 28623 28624 28625 28626 28627 28628 28629 28630 28631 28632 28633 28634 28635 28636 28637 28638 28639 28640 28641 28642 28643 28644 28645 28646 28647 28648 28649 28650 28651 28652 28653 28654 28655 28656 28657 28658 28659 28660 28661 28662 28663 28664 28665 28666 28667 28668 28669 28670 28671 28672 28673 28674 28675 28676 28677 28678 28679 28680 28681 28682 28683 28684 28685 28686 28687 28688 28689 28690 28691 28692 28693 28694 28695 28696 28697 28698 28699 28700 28701 28702 28703 28704 28705 28706 28707 28708 28709 28710 28711 28712 28713 28714 28715 28716 28717 28718 28719 28720 28721 28722 28723 28724 28725 28726 28727 28728 28729 28730 28731 28732 28733 28734 28735 28736 28737 28738 28739 28740 28741 28742 28743 28744 28745 28746 28747 28748 28749 28750 28751 28752 28753 28754 28755 28756 28757 28758 28759 28760 28761 28762 28763 28764 28765 28766 28767 28768 28769 28770 28771 28772 28773 28774 28775 28776 28777 28778 28779 28780 28781 28782 28783 28784 28785 28786 28787 28788 28789 28790 28791 28792 28793 28794 28795 28796 28797 28798 28799 28800 28801 28802 28803 28804 28805 28806 28807 28808 28809 28810 28811 28812 28813 28814 28815 28816 28817 28818 28819 28820 28821 28822 28823 28824 28825 28826 28827 28828 28829 28830 28831 28832 28833 28834 28835 28836 28837 28838 28839 28840 28841 28842 28843 28844 28845 28846 28847 28848 28849 28850 28851 28852 28853 28854 28855 28856 28857 28858 28859 28860 28861 28862 28863 28864 28865 28866 28867 28868 28869 28870 28871 28872 28873 28874 28875 28876 28877 28878 28879 28880 28881 28882 28883 28884 28885 28886 28887 28888 28889 28890 28891 28892 28893 28894 28895 28896 28897 28898 28899 28900 28901 28902 28903 28904 28905 28906 28907 28908 28909 28910 28911 28912 28913 28914 28915 28916 28917 28918 28919 28920 28921 28922 28923 28924 28925 28926 28927 28928 28929 28930 28931 28932 28933 28934 28935 28936 28937 28938 28939 28940 28941 28942 28943 28944 28945 28946 28947 28948 28949 28950 28951 28952 28953 28954 28955 28956 28957 28958 28959 28960 28961 28962 28963 28964 28965 28966 28967 28968 28969 28970 28971 28972 28973 28974 28975 28976 28977 28978 28979 28980 28981 28982 28983 28984 28985 28986 28987 28988 28989 28990 28991 28992 28993 28994 28995 28996 28997 28998 28999 29000 29001 29002 29003 29004 29005 29006 29007 29008 29009 29010 29011 29012 29013 29014 29015 29016 29017 29018 29019 29020 29021 29022 29023 29024 29025 29026 29027 29028 29029 29030 29031 29032 29033 29034 29035 29036 29037 29038 29039 29040 29041 29042 29043 29044 29045 29046 29047 29048 29049 29050 29051 29052 29053 29054 29055 29056 29057 29058 29059 29060 29061 29062 29063 29064 29065 29066 29067 29068 29069 29070 29071 29072 29073 29074 29075 29076 29077 29078 29079 29080 29081 29082 29083 29084 29085 29086 29087 29088 29089 29090 29091 29092 29093 29094 29095 29096 29097 29098 29099 29100 29101 29102 29103 29104 29105 29106 29107 29108 29109 29110 29111 29112 29113 29114 29115 29116 29117 29118 29119 29120 29121 29122 29123 29124 29125 29126 29127 29128 29129 29130 29131 29132 29133 29134 29135 29136 29137 29138 29139 29140 29141 29142 29143 29144 29145 29146 29147 29148 29149 29150 29151 29152 29153 29154 29155 29156 29157 29158 29159 29160 29161 29162 29163 29164 29165 29166 29167 29168 29169 29170 29171 29172 29173 29174 29175 29176 29177 29178 29179 29180 29181 29182 29183 29184 29185 29186 29187 29188 29189 29190 29191 29192 29193 29194 29195 29196 29197 29198 29199 29200 29201 29202 29203 29204 29205 29206 29207 29208 29209 29210 29211 29212 29213 29214 29215 29216 29217 29218 29219 29220 29221 29222 29223 29224 29225 29226 29227 29228 29229 29230 29231 29232 29233 29234 29235 29236 29237 29238 29239 29240 29241 29242 29243 29244 29245 29246 29247 29248 29249 29250 29251 29252 29253 29254 29255 29256 29257 29258 29259 29260 29261 29262 29263 29264 29265 29266 29267 29268 29269 29270 29271 29272 29273 29274 29275 29276 29277 29278 29279 29280 29281 29282 29283 29284 29285 29286 29287 29288 29289 29290 29291 29292 29293 29294 29295 29296 29297 29298 29299 29300 29301 29302 29303 29304 29305 29306 29307 29308 29309 29310 29311 29312 29313 29314 29315 29316 29317 29318 29319 29320 29321 29322 29323 29324 29325 29326 29327 29328 29329 29330 29331 29332 29333 29334 29335 29336 29337 29338 29339 29340 29341 29342 29343 29344 29345 29346 29347 29348 29349 29350 29351 29352 29353 29354 29355 29356 29357 29358 29359 29360 29361 29362 29363 29364 29365 29366 29367 29368 29369 29370 29371 29372 29373 29374 29375 29376 29377 29378 29379 29380 29381 29382 29383 29384 29385 29386 29387 29388 29389 29390 29391 29392 29393 29394 29395 29396 29397 29398 29399 29400 29401 29402 29403 29404 29405 29406 29407 29408 29409 29410 29411 29412 29413 29414 29415 29416 29417 29418 29419 29420 29421 29422 29423 29424 29425 29426 29427 29428 29429 29430 29431 29432 29433 29434 29435 29436 29437 29438 29439 29440 29441 29442 29443 29444 29445 29446 29447 29448 29449 29450 29451 29452 29453 29454 29455 29456 29457 29458 29459 29460 29461 29462 29463 29464 29465 29466 29467 29468 29469 29470 29471 29472 29473 29474 29475 29476 29477 29478 29479 29480 29481 29482 29483 29484 29485 29486 29487 29488 29489 29490 29491 29492 29493 29494 29495 29496 29497 29498 29499 29500 29501 29502 29503 29504 29505 29506 29507 29508 29509 29510 29511 29512 29513 29514 29515 29516 29517 29518 29519 29520 29521 29522 29523 29524 29525 29526 29527 29528 29529 29530 29531 29532 29533 29534 29535 29536 29537 29538 29539 29540 29541 29542 29543 29544 29545 29546 29547 29548 29549 29550 29551 29552 29553 29554 29555 29556 29557 29558 29559 29560 29561 29562 29563 29564 29565 29566 29567 29568 29569 29570 29571 29572 29573 29574 29575 29576 29577 29578 29579 29580 29581 29582 29583 29584 29585 29586 29587 29588 29589 29590 29591 29592 29593 29594 29595 29596 29597 29598 29599 29600 29601 29602 29603 29604 29605 29606 29607 29608 29609 29610 29611 29612 29613 29614 29615 29616 29617 29618 29619 29620 29621 
</DataArray>
<DataArray type="UInt32" Name="offsets" format="ascii">
3 6 9 12 15 17 20 23 26 29 32 35 38 41 44 47 49 52 55 57 60 62 65 68 71 74 76 79 82 85 88 91 94 96 99 102 105 108 111 114 116 118 121 124 126 128 131 134 137 140 143 146 149 152 155 158 160 162 165 168 171 173 176 179 182 185 187 190 193 196 199 202 205 208 211 214 217 220 222 225 228 231 233 236 239 242 244 247 250 253 256 258 261 264 267 270 273 276 278 281 284 286 289 292 295 298 300 303 306 309 312 315 317 320 323 326 329 332 335 338 341 344 347 350 353 356 359 362 365 368 371 374 377 380 383 385 388 391 394 396 399 402 405 408 411 414 416 419 422 425 428 431 434 437 440 443 446 449 452 455 458 461 464 467 470 473 476 479 482 485 487 490 492 495 498 501 504 507 510 513 516 519 522 525 528 530 533 536 539 542 545 548 551 554 557 560 563 566 568 571 574 577 580 583 586 589 592 595 598 601 604 606 609 612 615 617 619 622 625 628 631 634 637 640 642 645 648 651 654 657 660 663 666 669 671 674 677 679 682 685 688 691 694 697 700 703 706 709 712 715 718 721 724 727 730 733 735 738 741 744 747 750 753 756 759 762 764 767 770 773 776 779 782 785 788 791 794 797 800 803 806 809 811 814 817 820 823 826 829 832 835 838 841 844 847 850 853 856 859 862 865 867 870 873 876 879 881 884 887 890 893 896 899 902 905 907 910 913 915 918 921 924 927 930 933 936 939 942 945 948 951 954 957 960 963 966 969 972 975 978 981 984 986 989 992 995 998 1000 1003 1006 1009 1012 1015 1017 1019 1022 1025 1027 1029 1032 1035 1038 1041 1044 1047 1050 1052 1055 1058 1061 1064 1067 1070 1073 1076 1078 1081 1084 1087 1090 1093 1096 1099 1102 1104 1107 1110 1113 1116 1118 1121 1124 1127 1130 1133 1136 1138 1141 1144 1147 1150 1153 1156 1159 1162 1165 1168 1171 1174 1177 1180 1183 1186 1189 1192 1195 1198 1201 1204 1207 1210 1213 1216 1219 1222 1225 1227 1230 1233 1236 1239 1242 1245 1248 1251 1253 1256 1259 1262 1264 1267 1270 1272 1275 1278 1281 1284 1287 1290 1293 1296 1298 1301 1304 1307 1309 1312 1314 1317 1320 1323 1326 1328 1331 1334 1336 1339 1342 1344 1347 1350 1353 1355 1358 1361 1364 1367 1370 1373 1376 1379 1382 1385 1388 1391 1394 1397 1400 1403 1406 1409 1412 1415 1418 1421 1424 1426 1429 1432 1435 1438 1441 1444 1447 1450 1452 1455 1458 1461 1464 1467 1470 1473 1476 1479 1482 1485 1488 1491 1493 1496 1499 1502 1505 1508 1511 1514 1517 1520 1523 1526 1529 1532 1535 1538 1541 1544 1547 1550 1553 1556 1558 1561 1564 1567 1569 1572 1575 1577 1580 1583 1586 1589 1591 1594 1597 1600 1603 1606 1609 1612 1614 1617 1619 1622 1625 1628 1631 1634 1637 1640 1643 1646 1649 1652 1655 1658 1661 1664 1667 1670 1673 1676 1679 1682 1685 1687 1690 1692 1695 1697 1700 1703 1705 1707 1710 1713 1716 1719 1722 1725 1728 1731 1734 1737 1740 1743 1746 1749 1752 1755 1758 1760 1763 1766 1769 1772 1774 1777 1780 1783 1786 1788 1790 1793 1795 1798 1801 1804 1807 1810 1813 1816 1819 1822 1825 1828 1831 1834 1837 1840 1843 1846 1849 1852 1855 1858 1861 1864 1867 1870 1873 1875 1878 1881 1884 1887 1890 1893 1896 1899 1902 1905 1908 1911 1913 1916 1919 1922 1924 1927 1929 1932 1935 1938 1941 1944 1947 1950 1953 1956 1959 1961 1964 1967 1970 1972 1975 1978 1981 1984 1987 1990 1993 1996 1999 2001 2004 2007 2010 2013 2015 2018 2021 2024 2027 2030 2033 2036 2039 2042 2044 2047 2050 2052 2055 2058 2061 2064 2067 2069 2072 2075 2078 2081 2083 2086 2089 2092 2095 2098 2101 2104 2106 2108 2111 2114 2117 2120 2123 2126 2128 2131 2133 2136 2139 2141 2144 2146 2149 2152 2155 2157 2160 2163 2166 2169 2171 2174 2177 2179 2182 2184 2186 2189 2191 2193 2196 2199 2201 2204 2206 2209 2212 2215 2217 2219 2222 2225 2228 2231 2234 2236 2239 2242 2245 2248 2251 2254 2257 2260 2262 2265 2267 2270 2273 2276 2279 2281 2283 2286 2289 2291 2294 2297 2300 2303 2306 2308 2311 2314 2316 2319 2321 2324 2326 2328 2331 2333 2336 2338 2340 2342 2345 2348 2350 2353 2355 2358 2361 2363 2366 2369 2372 2375 2378 2380 2383 2386 2388 2391 2394 2397 2400 2402 2405 2408 2411 2414 2417 2420 2423 2425 2428 2430 2433 2436 2439 2441 2444 2447 2450 2453 2456 2459 2462 2465 2468 2471 2474 2477 2480 2483 2486 2489 2492 2495 2497 2500 2503 2506 2509 2512 2515 2518 2521 2524 2526 2529 2532 2535 2538 2541 2544 2547 2550 2553 2556 2559 2562 2565 2567 2570 2573 2576 2579 2582 2585 2588 2591 2594 2597 2600 2603 2606 2609 2612 2615 2618 2621 2624 2627 2630 2633 2636 2639 2642 2645 2648 2651 2654 2657 2660 2663 2666 2669 2672 2675 2678 2681 2684 2687 2689 2692 2695 2698 2701 2704 2707 2710 2713 2716 2719 2722 2725 2728 2731 2734 2736 2738 2741 2744 2746 2749 2752 2755 2758 2761 2764 2767 2770 2773 2776 2779 2782 2785 2788 2791 2794 2797 2800 2803 2806 2808 2811 2813 2816 2819 2822 2825 2828 2830 2832 2835 2838 2841 2844 2847 2850 2853 2856 2859 2862 2865 2868 2871 2874 2877 2880 2883 2886 2889 2892 2895 2898 2901 2904 2907 2910 2913 2916 2919 2922 2925 2928 2931 2934 2937 2940 2943 2946 2949 2952 2955 2958 2961 2964 2967 2970 2973 2976 2979 2982 2985 2988 2991 2994 2997 3000 3002 3005 3008 3011 3014 3017 3020 3023 3025 3028 3031 3034 3037 3039 3042 3045 3048 3051 3054 3057 3060 3063 3066 3069 3072 3075 3078 3081 3084 3086 3089 3092 3095 3098 3100 3103 3106 3109 3112 3114 3117 3120 3122 3125 3128 3130 3133 3136 3139 3142 3144 3147 3150 3153 3156 3159 3162 3165 3168 3171 3174 3177 3180 3183 3186 3189 3192 3195 3198 3201 3204 3207 3210 3213 3216 3218 3221 3223 3226 3229 3232 3235 3238 3241 3244 3247 3250 3253 3256 3259 3261 3264 3267 3270 3273 3276 3278 3281 3284 3287 3290 3293 3296 3299 3302 3305 3308 3311 3313 3315 3318 3321 3323 3326 3329 3332 3335 3337 3340 3343 3345 3348 3351 3354 3357 3360 3363 3365 3368 3371 3374 3377 3380 3383 3386 3389 3392 3395 3398 3401 3404 3407 3410 3413 3416 3418 3421 3424 3426 3429 3432 3435 3437 3440 3442 3445 3448 3451 3454 3456 3459 3462 3465 3468 3471 3474 3477 3479 3482 3485 3488 3491 3493 3495 3498 3501 3503 3506 3509 3512 3514 3517 3520 3522 3525 3528 3530 3533 3536 3538 3541 3544 3547 3549 3552 3555 3558 3561 3564 3567 3570 3573 3576 3579 3582 3584 3587 3590 3593 3595 3597 3600 3603 3605 3608 3611 3613 3616 3619 3621 3624 3626 3629 3632 3635 3637 3639 3641 3644 3647 3649 3652 3655 3658 3661 3664 3666 3669 3672 3675 3678 3680 3683 3686 3688 3691 3694 3696 3698 3701 3704 3707 3710 3712 3715 3718 3721 3723 3726 3728 3731 3734 3737 3740 3743 3746 3749 3752 3754 3757 3760 3763 3765 3768 3771 3774 3777 3780 3783 3786 3789 3792 3795 3798 3800 3803 3806 3809 3812 3815 3817 3819 3822 3824 3826 3829 3832 3835 3837 3840 3842 3845 3848 3850 3853 3856 3859 3862 3865 3868 3871 3874 3877 3879 3882 3885 3888 3891 3893 3896 3899 3902 3905 3908 3911 3914 3917 3920 3922 3925 3928 3931 3934 3937 3939 3941 3944 3947 3949 3952 3955 3958 3961 3964 3966 3969 3971 3974 3977 3980 3982 3985 3988 3991 3994 3997 4000 4003 4006 4009 4011 4013 4016 4019 4022 4024 4027 4030 4032 4034 4037 4040 4043 4045 4048 4051 4054 4057 4060 4063 4065 4068 4071 4074 4076 4078 4081 4084 4087 4089 4091 4094 4097 4099 4102 4105 4108 4110 4113 4115 4118 4121 4124 4126 4129 4132 4135 4138 4141 4144 4146 4148 4151 4153 4156 4159 4161 4164 4166 4168 4171 4174 4176 4179 4182 4185 4188 4191 4193 4196 4199 4202 4205 4207 4210 4213 4216 4219 4222 4225 4228 4230 4233 4236 4239 4242 4244 4247 4250 4253 4256 4259 4262 4265 4268 4271 4274 4276 4279 4282 4284 4286 4289 4292 4295 4298 4301 4304 4307 4309 4312 4315 4318 4320 4322 4325 4328 4331 4334 4337 4340 4343 4346 4348 4351 4354 4357 4360 4362 4365 4368 4371 4374 4377 4379 4382 4385 4388 4391 4394 4397 4400 4403 4406 4409 4412 4415 4418 4421 4424 4427 4430 4433 4436 4439 4442 4444 4447 4450 4452 4455 4458 4461 4464 4466 4469 4472 4475 4478 4481 4484 4487 4490 4493 4496 4499 4502 4505 4508 4511 4514 4517 4520 4523 4526 4529 4532 4535 4538 4541 4544 4547 4550 4553 4556 4559 4562 4565 4568 4571 4574 4577 4580 4583 4586 4589 4592 4595 4598 4601 4604 4607 4610 4613 4615 4618 4621 4624 4627 4630 4633 4635 4638 4641 4644 4647 4649 4652 4654 4657 4660 4662 4665 4668 4671 4674 4677 4680 4683 4686 4689 4692 4695 4698 4701 4703 4706 4709 4711 4714 4717 4719 4722 4724 4727 4730 4733 4736 4739 4742 4745 4748 4751 4754 4757 4760 4763 4766 4769 4772 4775 4778 4781 4784 4787 4790 4792 4795 4798 4801 4804 4807 4810 4813 4816 4819 4822 4825 4828 4831 4834 4837 4840 4843 4846 4849 4852 4855 4858 4861 4864 4867 4870 4873 4876 4879 4882 4885 4888 4891 4894 4896 4899 4902 4905 4908 4911 4914 4916 4919 4922 4924 4926 4929 4932 4935 4938 4941 4944 4947 4949 4952 4955 4957 4960 4963 4966 4969 4972 4975 4977 4980 4983 4986 4988 4991 4993 4996 4999 5002 5004 5007 5010 5013 5015 5018 5021 5024 5027 5030 5032 5035 5038 5040 5043 5045 5047 5050 5053 5055 5058 5060 5063 5066 5069 5072 5075 5077 5080 5083 5085 5088 5090 5093 5096 5098 5101 5104 5107 5110 5113 5115 5117 5119 5122 5125 5128 5131 5134 5137 5140 5143 5146 5149 5151 5154 5157 5159 5162 5165 5167 5169 5171 5174 5176 5179 5182 5185 5188 5190 5193 5195 5198 5201 5204 5206 5209 5211 5214 5216 5219 5222 5225 5227 5230 5233 5235 5238 5240 5242 5244 5247 5250 5252 5255 5257 5259 5262 5265 5268 5271 5274 5277 5280 5283 5286 5289 5292 5295 5297 5300 5303 5306 5309 5311 5314 5317 5320 5322 5324 5326 5329 5332 5335 5337 5340 5342 5345 5347 5350 5353 5356 5359 5362 5365 5367 5370 5373 5375 5377 5379 5382 5385 5388 5390 5393 5395 5398 5401 5404 5407 5410 5413 5416 5418 5421 5424 5427 5430 5432 5435 5438 5441 5443 5446 5448 5450 5453 5455 5458 5461 5464 5467 5470 5473 5476 5479 5482 5485 5488 5491 5494 5497 5499 5502 5505 5508 5511 5514 5517 5520 5523 5526 5529 5532 5534 5537 5540 5543 5546 5549 5552 5555 5558 5561 5564 5567 5570 5573 5576 5579 5582 5585 5587 5590 5593 5596 5599 5601 5604 5607 5610 5613 5616 5619 5622 5625 5628 5631 5634 5637 5640 5643 5646 5649 5651 5654 5656 5659 5662 5665 5668 5670 5673 5676 5678 5681 5684 5686 5689 5692 5694 5696 5699 5702 5704 5707 5710 5712 5715 5718 5721 5723 5726 5729 5732 5735 5737 5740 5742 5745 5748 5751 5754 5757 5760 5763 5766 5769 5772 5775 5778 5781 5784 5787 5790 5793 5796 5799 5802 5805 5808 5811 5814 5817 5819 5822 5825 5827 5830 5833 5836 5839 5842 5845 5848 5851 5854 5857 5860 5862 5865 5868 5871 5874 5876 5879 5882 5884 5887 5890 5893 5896 5899 5901 5904 5906 5909 5912 5915 5918 5921 5924 5927 5930 5933 5936 5939 5942 5945 5948 5951 5954 5957 5960 5963 5966 5969 5972 5975 5978 5981 5983 5986 5988 5991 5993 5995 5998 6001 6004 6007 6010 6012 6015 6018 6021 6024 6027 6030 6032 6035 6038 6041 6044 6047 6050 6052 6054 6057 6060 6063 6066 6068 6071 6074 6077 6080 6083 6086 6089 6092 6095 6098 6101 6104 6107 6110 6113 6116 6119 6122 6124 6127 6129 6131 6134 6137 6140 6143 6146 6149 6152 6154 6157 6160 6163 6165 6167 6170 6173 6176 6179 6182 6185 6188 6191 6194 6197 6200 6203 6206 6209 6212 6215 6218 6221 6224 6227 6230 6233 6236 6239 6242 6245 6248 6251 6253 6256 6259 6262 6265 6267 6270 6273 6276 6279 6282 6285 6288 6291 6294 6297 6300 6303 6306 6309 6312 6315 6318 6321 6323 6326 6329 6332 6335 6338 6341 6344 6347 6349 6351 6354 6356 6359 6362 6365 6368 6371 6374 6377 6380 6383 6386 6389 6391 6394 6396 6399 6402 6405 6408 6411 6414 6417 6420 6423 6425 6428 6431 6434 6436 6438 6441 6444 6447 6449 6451 6454 6456 6459 6462 6465 6468 6471 6474 6477 6480 6483 6485 6488 6491 6494 6497 6500 6503 6506 6508 6511 6514 6517 6520 6523 6526 6528 6531 6534 6537 6540 6543 6546 6548 6551 6554 6557 6560 6563 6566 6569 6572 6575 6578 6581 6584 6587 6590 6593 6595 6598 6601 6604 6607 6610 6613 6616 6619 6622 6625 6628 6631 6634 6637 6640 6642 6645 6648 6651 6654 6657 6660 6663 6666 6669 6672 6674 6677 6680 6683 6685 6688 6691 6694 6697 6700 6703 6706 6708 6711 6714 6717 6719 6722 6725 6727 6730 6733 6736 6738 6740 6743 6746 6749 6751 6754 6757 6760 6763 6766 6769 6772 6774 6777 6780 6783 6786 6789 6791 6794 6797 6800 6803 6805 6808 6811 6814 6817 6820 6823 6826 6829 6831 6834 6837 6840 6843 6846 6849 6852 6855 6858 6861 6864 6867 6870 6873 6876 6879 6882 6885 6888 6891 6894 6897 6900 6903 6906 6909 6912 6915 6918 6921 6924 6927 6930 6932 6935 6938 6940 6943 6946 6949 6951 6953 6956 6959 6962 6965 6967 6969 6972 6975 6978 6981 6984 6986 6989 6992 6995 6998 7001 7004 7007 7009 7012 7015 7018 7021 7024 7026 7029 7032 7035 7037 7040 7043 7046 7049 7052 7054 7056 7059 7062 7065 7068 7071 7074 7077 7080 7083 7086 7089 7091 7094 7097 7099 7102 7105 7108 7111 7114 7117 7120 7123 7126 7129 7132 7135 7138 7140 7142 7145 7148 7151 7154 7157 7160 7163 7166 7169 7172 7175 7178 7181 7184 7186 7189 7192 7195 7197 7200 7203 7206 7209 7212 7215 7218 7221 7224 7227 7230 7233 7236 7239 7241 7244 7246 7249 7251 7254 7257 7260 7263 7266 7268 7270 7273 7276 7279 7282 7285 7287 7290 7293 7296 7299 7302 7305 7308 7311 7314 7317 7319 7322 7325 7328 7331 7334 7337 7340 7343 7346 7349 7352 7355 7358 7361 7364 7367 7370 7373 7376 7379 7381 7384 7387 7390 7393 7396 7399 7402 7405 7408 7411 7414 7417 7420 7423 7426 7429 7432 7435 7438 7441 7444 7447 7450 7453 7456 7458 7461 7464 7467 7470 7473 7476 7479 7481 7484 7487 7490 7492 7495 7498 7501 7504 7506 7509 7511 7514 7517 7520 7523 7526 7529 7531 7534 7537 7540 7542 7545 7548 7551 7554 7556 7559 7561 7564 7566 7569 7572 7575 7577 7580 7582 7585 7588 7591 7594 7597 7600 7603 7606 7608 7611 7614 7617 7620 7623 7626 7628 7631 7634 7637 7640 7643 7645 7647 7649 7652 7655 7658 7661 7664 7667 7670 7673 7676 7679 7682 7685 7688 7690 7693 7695 7698 7701 7704 7707 7710 7713 7716 7719 7722 7724 7727 7730 7732 7734 7737 7740 7742 7745 7748 7751 7754 7756 7759 7762 7765 7768 7770 7773 7776 7779 7782 7785 7787 7790 7793 7796 7799 7801 7804 7807 7810 7812 7815 7818 7821 7824 7827 7829 7832 7835 7838 7841 7844 7847 7850 7853 7856 7858 7861 7864 7867 7870 7873 7876 7879 7882 7885 7887 7890 7893 7896 7899 7902 7905 7908 7911 7914 7917 7919 7922 7925 7927 7930 7932 7935 7938 7941 7944 7947 7950 7953 7956 7959 7962 7964 7967 7969 7972 7975 7978 7981 7984 7987 7990 7993 7996 7999 8002 8004 8007 8010 8013 8015 8018 8021 8024 8027 8029 8032 8035 8037 8040 8043 8046 8049 8052 8055 8058 8061 8064 8067 8070 8073 8076 8079 8082 8085 8088 8091 8094 8097 8100 8103 8106 8109 8112 8115 8118 8120 8123 8126 8129 8132 8134 8137 8139 8141 8144 8147 8150 8153 8156 8158 8160 8163 8166 8169 8172 8175 8178 8181 8184 8187 8190 8193 8196 8199 8202 8205 8208 8211 8214 8217 8219 8222 8225 8228 8231 8233 8236 8239 8242 8245 8248 8251 8254 8256 8258 8261 8264 8266 8269 8272 8274 8277 8279 8282 8284 8287 8290 8293 8296 8299 8301 8304 8307 8309 8312 8314 8317 8320 8323 8326 8329 8332 8335 8338 8341 8344 8347 8350 8353 8356 8359 8362 8364 8367 8369 8372 8375 8378 8381 8384 8387 8390 8393 8396 8399 8402 8405 8408 8411 8414 8417 8420 8423 8426 8429 8432 8435 8438 8441 8444 8447 8450 8453 8456 8459 8462 8465 8468 8471 8474 8476 8479 8482 8485 8488 8490 8493 8496 8499 8502 8505 8508 8511 8514 8517 8520 8523 8526 8529 8531 8534 8536 8539 8542 8545 8547 8549 8552 8555 8558 8561 8564 8566 8569 8572 8575 8578 8580 8583 8586 8588 8591 8594 8597 8600 8603 8606 8609 8612 8615 8618 8621 8624 8627 8630 8633 8636 8639 8642 8645 8648 8651 8654 8657 8660 8663 8666 8669 8672 8675 8678 8681 8684 8687 8690 8693 8696 8698 8701 8704 8707 8710 8713 8716 8719 8722 8725 8728 8731 8734 8737 8740 8743 8746 8749 8752 8755 8758 8761 8764 8767 8770 8773 8776 8779 8782 8785 8788 8791 8794 8796 8799 8801 8804 8807 8810 8813 8815 8818 8821 8824 8827 8829 8832 8835 8838 8841 8844 8847 8850 8853 8856 8859 8862 8865 8868 8871 8874 8877 8880 8883 8886 8888 8891 8894 8897 8900 8903 8906 8908 8911 8914 8917 8920 8923 8925 8928 8931 8934 8937 8940 8943 8946 8949 8952 8955 8958 8960 8963 8966 8969 8972 8975 8978 8981 8984 8986 8989 8992 8995 8998 9001 9004 9007 9009 9012 9015 9018 9021 9024 9027 9030 9033 9036 9039 9042 9045 9048 9051 9054 9057 9060 9063 9066 9069 9071 9074 9076 9079 9082 9085 9088 9091 9094 9097 9100 9103 9105 9107 9110 9113 9115 9118 9121 9124 9126 9129 9132 9135 9138 9140 9143 9146 9149 9151 9154 9157 9160 9163 9166 9169 9172 9175 9178 9181 9184 9186 9189 9192 9194 9197 9200 9203 9206 9208 9211 9214 9216 9219 9222 9225 9228 9231 9234 9237 9240 9243 9246 9249 9252 9255 9257 9260 9263 9266 9269 9272 9275 9277 9280 9283 9286 9288 9291 9294 9297 9300 9303 9306 9309 9312 9314 9317 9320 9323 9325 9328 9331 9334 9336 9339 9341 9344 9347 9350 9353 9356 9359 9362 9365 9368 9371 9373 9376 9378 9381 9383 9386 9388 9391 9394 9397 9400 9403 9406 9409 9412 9414 9417 9419 9422 9425 9428 9431 9433 9436 9439 9442 9445 9448 9450 9453 9456 9459 9462 9464 9467 9470 9473 9476 9479 9481 9484 9486 9489 9491 9493 9496 9499 9502 9505 9507 9510 9513 9516 9519 9522 9525 9528 9531 9534 9537 9540 9543 9546 9549 9552 9555 9558 9561 9564 9567 9570 9573 9575 9578 9580 9583 9585 9588 9591 9594 9596 9599 9601 9604 9607 9610 9612 9615 9618 9621 9624 9627 9630 9633 9636 9639 9642 9645 9648 9651 9654 9657 9660 9663 9666 9669 9672 9675 9678 9681 9684 9687 9690 9693 9696 9699 9702 9705 9708 9711 9714 9717 9720 9723 9726 9729 9732 9735 9738 9741 9744 9747 9750 9753 9756 9759 9762 9765 9768 9771 9774 9777 9780 9783 9786 9789 9792 9795 9798 9801 9804 9807 9810 9813 9816 9819 9822 9825 9828 9831 9834 9837 9840 9843 9846 9849 9851 9854 9857 9860 9863 9866 9869 9871 9874 9877 9880 9883 9886 9889 9891 9894 9897 9900 9903 9906 9908 9911 9914 9917 9919 9922 9925 9928 9931 9934 9937 9939 9942 9945 9947 9950 9952 9954 9957 9960 9963 9965 9968 9971 9974 9977 9980 9983 9986 9989 9992 9995 9998 10001 10004 10007 10010 10013 10016 10019 10022 10025 10028 10031 10034 10037 10040 10043 10046 10049 10052 10055 10058 10061 10064 10067 10070 10073 10075 10078 10081 10084 10087 10090 10092 10095 10098 10101 10104 10107 10110 10113 10116 10119 10121 10123 10126 10129 10131 10134 10136 10139 10142 10144 10146 10149 10152 10154 10157 10160 10163 10166 10169 10172 10175 10178 10181 10184 10187 10190 10193 10195 10198 10201 10204 10207 10210 10213 10216 10219 10222 10225 10228 10231 10234 10237 10240 10243 10246 10249 10252 10255 10257 10260 10263 10266 10269 10271 10274 10277 10279 10282 10285 10288 10291 10294 10297 10300 10303 10306 10309 10312 10314 10317 10320 10323 10326 10329 10332 10335 10338 10341 10344 10347 10350 10353 10356 10358 10361 10364 10367 10370 10372 10375 10378 10381 10384 10387 10389 10392 10395 10398 10401 10404 10407 10410 10413 10416 10419 10422 10425 10428 10430 10433 10436 10439 10442 10445 10448 10451 10454 10457 10460 10463 10466 10469 10472 10475 10478 10481 10484 10486 10488 10491 10494 10497 10500 10503 10506 10509 10512 10515 10518 10520 10523 10526 10529 10532 10535 10538 10541 10544 10547 10550 10553 10555 10558 10561 10564 10567 10569 10572 10575 10578 10581 10584 10587 10590 10593 10596 10599 10602 10605 10607 10610 10613 10616 10619 10622 10625 10628 10631 10634 10637 10640 10643 10646 10649 10652 10655 10658 10661 10664 10667 10670 10672 10674 10677 10680 10683 10686 10689 10692 10695 10698 10701 10704 10707 10709 10711 10714 10717 10720 10723 10726 10728 10731 10734 10737 10740 10742 10744 10747 10749 10752 10755 10757 10760 10762 10765 10768 10771 10773 10776 10779 10782 10785 10787 10790 10793 10796 10799 10802 10804 10807 10810 10813 10815 10818 10821 10824 10827 10830 10832 10835 10838 10841 10844 10847 10849 10852 10855 10857 10860 10863 10865 10868 10871 10874 10876 10879 10882 10885 10887 10890 10893 10896 10898 10901 10904 10907 10909 10912 10914 10917 10920 10923 10926 10929 10932 10935 10937 10940 10943 10946 10948 10951 10954 10957 10960 10963 10966 10969 10972 10975 10978 10981 10984 10987 10990 10993 10996 10999 11002 11005 11008 11011 11014 11017 11020 11023 11026 11029 11032 11035 11038 11041 11044 11047 11050 11053 11056 11059 11062 11065 11068 11071 11074 11077 11080 11083 11086 11089 11092 11095 11098 11101 11104 11107 11110 11113 11116 11119 11122 11125 11128 11131 11134 11137 11140 11143 11146 11149 11152 11155 11158 11161 11164 11167 11170 11173 11176 11179 11182 11184 11187 11190 11192 11195 11198 11201 11204 11207 11210 11213 11216 11219 11222 11225 11228 11231 11234 11236 11239 11242 11244 11247 11250 11252 11255 11258 11261 11264 11267 11270 11273 11276 11279 11282 11285 11288 11291 11294 11297 11300 11303 11306 11309 11312 11315 11318 11321 11324 11327 11330 11333 11336 11339 11342 11345 11348 11351 11353 11356 11359 11362 11365 11368 11371 11374 11377 11380 11383 11386 11389 11392 11395 11398 11401 11404 11407 11410 11413 11416 11419 11422 11425 11428 11431 11434 11437 11440 11443 11446 11449 11452 11455 11458 11461 11464 11466 11469 11472 11475 11478 11481 11484 11487 11490 11493 11496 11499 11502 11505 11508 11511 11514 11517 11520 11523 11526 11529 11532 11535 11538 11541 11544 11547 11550 11553 11556 11559 11562 11565 11568 11571 11574 11577 11580 11583 11586 11589 11592 11595 11598 11601 11604 11607 11610 11613 11616 11619 11622 11625 11628 11631 11634 11637 11640 11642 11645 11648 11651 11654 11657 11660 11663 11666 11669 11672 11675 11678 11681 11684 11687 11690 11692 11695 11698 11700 11703 11705 11707 11710 11713 11716 11719 11722 11725 11728 11731 11734 11737 11740 11743 11746 11749 11752 11755 11758 11761 11764 11767 11770 11773 11776 11779 11782 11785 11788 11791 11794 11797 11800 11803 11806 11809 11812 11815 11818 11821 11824 11827 11829 11832 11835 11838 11841 11843 11846 11849 11852 11855 11858 11860 11862 11865 11868 11871 11873 11875 11877 11880 11883 11886 11889 11892 11895 11898 11900 11903 11906 11908 11911 11914 11916 11919 11922 11924 11927 11930 11933 11936 11939 11942 11944 11947 11950 11952 11955 11958 11961 11964 11967 11970 11973 11976 11979 11982 11985 11988 11991 11994 11997 12000 12003 12006 12009 12012 12015 12018 12021 12024 12027 12030 12032 12035 12038 12041 12044 12047 12050 12053 12056 12059 12062 12065 12068 12071 12074 12077 12080 12083 12086 12089 12092 12095 12098 12101 12104 12107 12110 12113 12116 12119 12122 12125 12128 12131 12134 12137 12140 12143 12146 12149 12152 12155 12158 12161 12164 12167 12170 12173 12176 12179 12182 12185 12188 12191 12194 12197 12200 12202 12205 12208 12210 12212 12215 12218 12220 12222 12225 12228 12231 12233 12236 12238 12241 12244 12247 12249 12252 12255 12258 12261 12264 12267 12270 12273 12276 12279 12282 12285 12288 12291 12293 12296 12299 12302 12305 12308 12310 12313 12316 12319 12322 12325 12328 12331 12334 12336 12339 12342 12345 12348 12351 12353 12356 12359 12362 12365 12368 12371 12374 12377 12380 12383 12386 12389 12392 12395 12397 12400 12403 12406 12408 12410 12413 12416 12419 12422 12425 12428 12431 12434 12436 12439 12441 12444 12446 12449 12451 12454 12457 12459 12462 12464 12467 12470 12473 12476 12479 12482 12485 12488 12491 12494 12497 12499 12502 12505 12508 12511 12514 12517 12520 12523 12526 12529 12531 12534 12537 12540 12543 12546 12549 12552 12555 12558 12561 12564 12567 12570 12573 12576 12578 12581 12584 12587 12590 12593 12596 12599 12602 12604 12607 12610 12612 12614 12617 12619 12621 12624 12626 12629 12632 12634 12637 12639 12642 12644 12647 12649 12652 12655 12658 12661 12664 12666 12669 12672 12675 12677 12680 12683 12686 12689 12692 12695 12698 12701 12704 12706 12709 12712 12715 12718 12721 12724 12727 12730 12733 12736 12739 12742 12745 12748 12751 12754 12757 12760 12763 12765 12768 12771 12774 12777 12780 12783 12786 12788 12791 12793 12796 12799 12802 12805 12807 12810 12813 12816 12819 12822 12825 12827 12830 12833 12836 12839 12842 12845 12848 12851 12854 12857 12860 12863 12866 12869 12872 12875 12878 12880 12883 12886 12889 12892 12894 12897 12899 12902 12905 12908 12910 12912 12915 12918 12921 12924 12927 12929 12932 12935 12938 12940 12943 12946 12949 12951 12953 12956 12959 12962 12965 12968 12970 12972 12975 12977 12980 12983 12986 12989 12992 12995 12998 13001 13004 13007 13010 13013 13016 13019 13022 13025 13027 13030 13033 13036 13039 13041 13044 13047 13049 13052 13055 13058 13061 13064 13067 13070 13073 13076 13079 13082 13085 13088 13091 13094 13097 13100 13103 13105 13108 13111 13114 13117 13120 13123 13126 13129 13131 13134 13137 13139 13142 13145 13148 13151 13153 13156 13159 13162 13165 13168 13171 13173 13175 13178 13181 13184 13187 13190 13192 13195 13198 13201 13204 13206 13209 13212 13214 13217 13220 13223 13226 13228 13230 13233 13236 13239 13242 13244 13246 13249 13252 13255 13258 13261 13264 13267 13270 13273 13276 13278 13281 13284 13287 13290 13293 13295 13297 13300 13303 13306 13309 13312 13315 13318 13321 13324 13327 13330 13333 13335 13338 13341 13344 13347 13350 13353 13356 13359 13361 13364 13367 13370 13372 13375 13378 13381 13384 13386 13389 13392 13394 13397 13400 13403 13406 13409 13412 13415 13418 13421 13424 13427 13430 13433 13436 13439 13442 13445 13448 13451 13454 13457 13460 13463 13466 13468 13471 13474 13477 13480 13483 13486 13489 13492 13495 13498 13501 13504 13507 13510 13513 13516 13519 13522 13525 13528 13531 13534 13537 13540 13543 13546 13549 13552 13554 13557 13560 13562 13565 13568 13570 13573 13576 13579 13582 13584 13587 13590 13593 13596 13599 13601 13604 13607 13610 13613 13616 13619 13621 13624 13627 13630 13633 13636 13639 13642 13645 13647 13650 13653 13656 13659 13662 13665 13668 13671 13674 13677 13680 13683 13686 13689 13692 13695 13698 13701 13703 13706 13709 13711 13714 13716 13719 13722 13724 13727 13730 13733 13736 13739 13742 13745 13748 13751 13754 13757 13760 13763 13766 13769 13772 13775 13778 13781 13784 13787 13790 13793 13796 13799 13802 13805 13808 13811 13814 13817 13819 13822 13825 13827 13830 13833 13835 13837 13840 13843 13846 13849 13852 13855 13858 13861 13864 13867 13870 13873 13876 13879 13882 13885 13888 13891 13894 13897 13900 13903 13906 13909 13912 13915 13918 13921 13924 13927 13930 13933 13936 13938 13941 13943 13946 13948 13951 13954 13957 13960 13963 13965 13968 13971 13974 13977 13980 13982 13985 13987 13990 13992 13995 13998 14001 14004 14007 14010 14013 14016 14018 14021 14023 14026 14029 14031 14034 14037 14040 14043 14046 14049 14051 14054 14056 14058 14061 14064 14067 14070 14073 14076 14079 14082 14084 14087 14090 14092 14095 14098 14100 14103 14105 14108 14111 14114 14116 14118 14121 14123 14126 14129 14132 14135 14138 14141 14144 14147 14150 14153 14156 14159 14162 14165 14168 14171 14174 14177 14180 14182 14185 14188 14191 14194 14197 14200 14203 14206 14209 14212 14215 14218 14221 14224 14227 14230 14233 14236 14239 14242 14245 14248 14251 14254 14257 14260 14263 14266 14269 14272 14275 14278 14281 14284 14287 14290 14293 14296 14299 14302 14305 14308 14311 14314 14317 14320 14323 14326 14329 14332 14335 14338 14341 14344 14346 14349 14352 14355 14358 14360 14363 14366 14369 14372 14375 14378 14381 14384 14387 14390 14393 14396 14399 14402 14405 14408 14410 14413 14415 14418 14421 14424 14427 14430 14433 14436 14438 14440 14442 14445 14448 14451 14454 14456 14458 14460 14462 14464 14467 14470 14472 14475 14478 14481 14484 14486 14489 14492 14495 14498 14501 14504 14507 14509 14512 14515 14517 14519 14522 14525 14528 14531 14534 14537 14539 14542 14544 14546 14549 14551 14553 14556 14559 14562 14565 14567 14570 14572 14575 14578 14580 14583 14586 14588 14591 14593 14596 14599 14601 14604 14606 14609 14612 14615 14618 14620 14623 14626 14629 14632 14634 14637 14640 14642 14645 14648 14651 14654 14657 14660 14662 14665 14668 14671 14674 14677 14680 14683 14686 14689 14691 14694 14696 14699 14702 14705 14708 14711 14714 14717 14719 14722 14725 14728 14731 14734 14737 14740 14743 14746 14749 14752 14754 14756 14759 14762 14764 14766 14769 14772 14774 14777 14780 14783 14785 14788 14790 14792 14795 14798 14801 14803 14805 14808 14811 14813 14816 14819 14821 14824 14826 14829 14831 14834 14837 14840 14843 14846 14848 14851 14854 14856 14859 14861 14863 14866 14868 14870 14873 14876 14879 14882 14885 14888 14890 14892 14895 14897 14900 14903 14906 14909 14911 14914 14917 14920 14923 14926 14929 14932 14935 14938 14941 14944 14947 14950 14953 14956 14959 14962 14965 14968 14971 14974 14977 14980 14983 14986 14989 14992 14995 14998 15001 15004 15007 15010 15013 15016 15019 15022 15025 15028 15031 15034 15037 15040 15043 15046 15049 15052 15055 15058 15061 15064 15067 15070 15073 15076 15079 15082 15085 15088 15091 15094 15097 15100 15103 15106 15109 15112 15115 15118 15121 15124 15127 15130 15133 15136 15139 15142 15145 15148 15151 15154 15156 15159 15162 15165 15168 15171 15174 15176 15179 15182 15185 15188 15191 15194 15196 15199 15202 15204 15207 15210 15213 15216 15219 15222 15225 15228 15231 15234 15237 15240 15243 15246 15248 15251 15254 15257 15260 15263 15265 15268 15271 15274 15277 15279 15282 15285 15288 15291 15294 15297 15300 15303 15306 15309 15312 15315 15318 15321 15324 15327 15330 15333 15336 15339 15342 15345 15348 15351 15354 15357 15360 15363 15366 15369 15372 15375 15378 15381 15384 15386 15389 15392 15395 15398 15401 15404 15407 15410 15413 15416 15419 15422 15425 15428 15431 15434 15437 15440 15443 15446 15449 15452 15455 15458 15461 15464 15467 15470 15473 15476 15479 15482 15485 15488 15491 15494 15497 15500 15503 15506 15509 15512 15515 15518 15521 15524 15527 15530 15533 15536 15539 15542 15545 15548 15551 15554 15557 15560 15563 15566 15569 15572 15575 15578 15581 15584 15587 15590 15593 15596 15599 15602 15605 15608 15611 15614 15617 15620 15623 15626 15629 15632 15635 15638 15641 15644 15647 15650 15653 15656 15659 15662 15665 15668 15671 15674 15677 15680 15683 15686 15688 15691 15694 15697 15700 15703 15706 15709 15712 15715 15718 15721 15724 15727 15730 15733 15736 15739 15742 15745 15748 15751 15754 15756 15759 15761 15764 15767 15770 15773 15776 15778 15780 15783 15786 15788 15791 15793 15796 15799 15801 15804 15807 15810 15813 15816 15819 15822 15825 15828 15831 15834 15837 15840 15843 15846 15849 15852 15855 15857 15860 15863 15866 15868 15871 15874 15877 15879 15882 15884 15887 15890 15893 15896 15899 15902 15905 15908 15911 15914 15916 15919 15922 15925 15928 15930 15932 15934 15937 15940 15943 15946 15949 15952 15955 15958 15960 15963 15966 15969 15972 15975 15978 15981 15984 15986 15989 15992 15994 15997 16000 16003 16006 16009 16011 16014 16016 16019 16021 16023 16026 16028 16031 16034 16036 16039 16041 16044 16047 16050 16053 16056 16059 16062 16065 16067 16070 16072 16074 16077 16079 16082 16084 16087 16090 16093 16095 16097 16100 16103 16105 16108 16110 16113 16115 16118 16121 16124 16127 16130 16132 16135 16138 16141 16144 16147 16150 16153 16156 16159 16161 16164 16166 16169 16172 16175 16178 16181 16184 16187 16189 16192 16195 16198 16200 16203 16205 16207 16210 16213 16216 16219 16222 16224 16226 16229 16232 16235 16238 16241 16244 16247 16250 16252 16255 16257 16260 16262 16265 16268 16271 16274 16277 16279 16282 16285 16288 16291 16294 16297 16300 16303 16306 16309 16312 16315 16318 16321 16324 16327 16330 16333 16336 16339 16342 16345 16347 16350 16353 16356 16359 16362 16364 16367 16370 16373 16376 16378 16381 16384 16387 16390 16393 16396 16399 16401 16404 16407 16409 16412 16415 16418 16421 16424 16427 16430 16433 16436 16439 16442 16445 16448 16450 16453 16455 16458 16461 16464 16467 16470 16473 16476 16479 16482 16485 16488 16491 16494 16496 16499 16502 16505 16507 16510 16513 16515 16518 16520 16523 16526 16529 16532 16535 16538 16540 16543 16546 16549 16552 16555 16558 16561 16563 16566 16569 16571 16574 16576 16579 16581 16583 16585 16588 16591 16594 16596 16599 16602 16604 16607 16609 16612 16615 16618 16621 16624 16627 16630 16633 16636 16639 16642 16645 16648 16651 16654 16657 16659 16662 16664 16667 16670 16673 16676 16679 16682 16685 16688 16691 16694 16697 16700 16703 16706 16709 16712 16714 16717 16720 16723 16726 16728 16731 16734 16737 16740 16743 16746 16749 16752 16755 16758 16761 16764 16767 16770 16773 16776 16779 16782 16785 16788 16790 16793 16796 16799 16802 16804 16807 16810 16813 16816 16819 16822 16824 16827 16830 16833 16836 16839 16842 16845 16848 16851 16854 16857 16860 16863 16866 16868 16870 16873 16876 16879 16882 16884 16887 16890 16893 16896 16898 16900 16903 16906 16909 16912 16915 16918 16921 16924 16927 16930 16933 16936 16939 16942 16944 16947 16949 16952 16955 16958 16961 16964 16967 16970 16973 16976 16979 16982 16985 16988 16991 16994 16997 17000 17003 17006 17009 17012 17015 17018 17021 17024 17027 17030 17033 17036 17039 17042 17045 17048 17051 17054 17057 17060 17063 17066 17069 17072 17074 17077 17080 17083 17086 17089 17092 17095 17098 17101 17104 17106 17109 17112 17115 17118 17121 17124 17127 17130 17133 17136 17139 17142 17145 17148 17151 17154 17156 17159 17162 17164 17167 17169 17172 17175 17178 17181 17184 17186 17189 17191 17194 17197 17199 17202 17205 17208 17211 17214 17217 17220 17223 17226 17229 17232 17235 17238 17241 17244 17247 17249 17252 17255 17257 17260 17263 17266 17269 17272 17275 17278 17281 17284 17287 17290 17293 17296 17299 17302 17305 17308 17311 17314 17317 17320 17323 17326 17329 17332 17335 17338 17341 17344 17347 17350 17353 17356 17359 17362 17364 17367 17370 17373 17375 17378 17381 17384 17387 17390 17393 17396 17399 17401 17404 17407 17410 17412 17415 17418 17420 17423 17426 17429 17432 17434 17436 17439 17441 17444 17447 17450 17453 17456 17458 17461 17463 17466 17468 17471 17474 17477 17480 17483 17486 17489 17491 17494 17497 17500 17503 17506 17508 17511 17514 17517 17519 17522 17525 17528 17530 17533 17536 17538 17541 17544 17546 17549 17552 17555 17558 17561 17564 17567 17570 17573 17575 17578 17581 17584 17587 17590 17593 17595 17598 17601 17604 17606 17608 17611 17614 17617 17620 17623 17626 17629 17632 17635 17638 17641 17644 17647 17650 17653 17656 17659 17662 17665 17668 17670 17673 17676 17679 17682 17685 17688 17691 17694 17696 17699 17702 17705 17708 17711 17714 17717 17720 17723 17726 17729 17732 17735 17737 17740 17743 17745 17748 17751 17754 17757 17760 17763 17766 17769 17772 17775 17778 17781 17784 17787 17790 17793 17796 17799 17802 17805 17808 17811 17814 17817 17820 17823 17826 17829 17832 17835 17838 17841 17844 17847 17850 17853 17856 17859 17862 17865 17868 17871 17874 17877 17880 17883 17886 17889 17892 17895 17898 17901 17904 17906 17909 17912 17915 17918 17921 17924 17927 17930 17933 17936 17939 17942 17945 17948 17951 17954 17957 17960 17963 17966 17969 17972 17975 17978 17981 17984 17987 17990 17993 17996 17999 18002 18005 18008 18011 18014 18017 18020 18023 18026 18029 18032 18035 18038 18041 18044 18047 18050 18053 18056 18059 18062 18065 18068 18071 18074 18077 18080 18083 18086 18089 18091 18094 18097 18100 18103 18106 18109 18112 18115 18118 18120 18123 18126 18129 18132 18135 18138 18141 18143 18146 18149 18152 18155 18158 18161 18164 18167 18169 18172 18175 18178 18181 18184 18187 18190 18192 18194 18197 18200 18203 18206 18209 18212 18215 18218 18221 18224 18227 18230 18233 18236 18239 18242 18245 18248 18251 18254 18257 18260 18262 18265 18268 18271 18274 18277 18280 18283 18286 18289 18292 18295 18298 18301 18304 18307 18310 18313 18316 18319 18322 18325 18328 18331 18334 18337 18340 18343 18346 18349 18352 18355 18358 18361 18364 18367 18370 18373 18376 18379 18382 18385 18388 18391 18393 18396 18399 18402 18405 18408 18411 18414 18417 18420 18422 18425 18428 18431 18434 18437 18440 18442 18445 18448 18451 18454 18457 18460 18463 18465 18468 18470 18473 18476 18478 18481 18484 18487 18490 18492 18495 18497 18500 18502 18505 18508 18510 18513 18516 18519 18522 18525 18528 18531 18534 18537 18540 18543 18546 18548 18551 18554 18557 18560 18563 18566 18569 18572 18575 18578 18581 18584 18587 18590 18593 18596 18599 18602 18605 18608 18611 18614 18617 18620 18623 18626 18629 18632 18635 18638 18640 18643 18646 18649 18652 18655 18658 18661 18664 18667 18670 18673 18676 18679 18681 18684 18687 18689 18692 18695 18698 18700 18702 18705 18708 18710 18712 18715 18718 18721 18724 18727 18730 18733 18736 18739 18742 18745 18748 18751 18753 18756 18759 18762 18765 18767 18770 18772 18775 18778 18780 18782 18785 18788 18791 18794 18796 18799 18802 18805 18807 18810 18813 18816 18819 18822 18825 18828 18831 18834 18837 18840 18843 18846 18849 18851 18853 18856 18859 18862 18865 18868 18871 18874 18876 18879 18882 18884 18887 18889 18892 18895 18898 18901 18904 18906 18908 18911 18914 18916 18919 18922 18924 18927 18929 18932 18935 18938 18941 18944 18946 18948 18951 18954 18957 18960 18963 18965 18968 18970 18973 18976 18979 18982 18984 18987 18990 18993 18996 18998 19001 19004 19007 19010 19013 19016 19019 19022 19024 19027 19030 19032 19035 19038 19041 19044 19047 19050 19053 19056 19059 19061 19064 19067 19070 19073 19076 19079 19082 19085 19088 19091 19094 19097 19100 19102 19105 19108 19111 19114 19116 19119 19122 19125 19128 19131 19134 19136 19139 19142 19145 19147 19150 19152 19154 19157 19160 19163 19166 19169 19172 19175 19178 19181 19184 19187 19190 19192 19195 19198 19201 19204 19207 19209 19212 19214 19217 19220 19223 19226 19229 19232 19234 19237 19240 19243 19246 19249 19252 19255 19258 19261 19264 19267 19270 19273 19276 19279 19282 19284 19287 19290 19293 19296 19299 19302 19305 19308 19311 19314 19316 19319 19322 19325 19327 19329 19332 19335 19338 19341 19344 19346 19348 19351 19353 19356 19359 19361 19364 19367 19370 19373 19375 19378 19381 19384 19387 19390 19393 19396 19399 19402 19405 19408 19411 19413 19416 19419 19422 19425 19427 19430 19433 19436 19438 19441 19444 19447 19449 19452 19455 19458 19460 19463 19466 19469 19471 19474 19477 19480 19483 19486 19489 19492 19495 19498 19501 19504 19507 19510 19512 19515 19518 19521 19523 19526 19529 19532 19535 19538 19541 19543 19546 19549 19552 19555 19558 19561 19564 19567 19570 19573 19576 19579 19581 19584 19587 19590 19593 19596 19598 19601 19604 19607 19610 19612 19615 19618 19621 19624 19627 19630 19633 19636 19639 19642 19645 19647 19650 19653 19656 19659 19662 19665 19667 19670 19673 19676 19679 19682 19685 19688 19691 19694 19697 19700 19703 19706 19709 19712 19715 19718 19721 19724 19727 19730 19732 19735 19738 19741 19744 19746 19749 19752 19755 19758 19761 19764 19767 19770 19773 19776 19778 19781 19783 19786 19789 19792 19795 19797 19800 19803 19806 19809 19812 19815 19818 19821 19823 19826 19829 19832 19835 19838 19840 19843 19846 19849 19851 19854 19857 19860 19863 19866 19868 19871 19874 19877 19880 19883 19886 19888 19890 19893 19896 19899 19901 19904 19907 19909 19911 19913 19916 19919 19922 19924 19927 19930 19933 19935 19938 19941 19944 19947 19950 19953 19956 19959 19962 19965 19968 19970 19972 19975 19978 19981 19984 19986 19989 19992 19995 19998 20001 20004 20007 20010 20013 20016 20019 20022 20025 20027 20030 20033 20036 20038 20041 20044 20047 20050 20053 20056 20059 20062 20064 20067 20070 20072 20075 20078 20081 20084 20087 20090 20092 20095 20098 20101 20104 20106 20109 20112 20114 20116 20119 20121 20123 20126 20129 20131 20134 20137 20139 20142 20145 20148 20151 20154 20157 20160 20163 20165 20168 20171 20174 20176 20179 20182 20185 20188 20191 20194 20197 20200 20203 20206 20209 20212 20215 20218 20221 20224 20227 20230 20233 20236 20239 20242 20245 20248 20251 20254 20257 20260 20263 20266 20269 20272 20275 20277 20280 20283 20286 20289 20292 20295 20298 20301 20304 20307 20310 20313 20316 20319 20322 20325 20328 20330 20333 20336 20339 20342 20345 20348 20351 20354 20357 20359 20362 20365 20368 20371 20374 20376 20379 20381 20384 20387 20390 20393 20396 20399 20402 20405 20408 20411 20414 20417 20420 20423 20426 20429 20432 20435 20438 20441 20444 20446 20449 20452 20455 20458 20461 20464 20467 20470 20473 20476 20479 20481 20483 20486 20489 20492 20494 20497 20500 20503 20506 20509 20512 20515 20518 20521 20523 20526 20529 20532 20535 20538 20541 20544 20546 20549 20551 20554 20557 20560 20563 20566 20569 20572 20575 20578 20581 20584 20587 20590 20593 20596 20599 20602 20605 20608 20611 20614 20617 20619 20622 20625 20628 20631 20634 20637 20640 20643 20646 20649 20652 20655 20658 20661 20664 20667 20670 20673 20676 20678 20681 20684 20687 20690 20693 20696 20699 20702 20705 20708 20711 20714 20717 20720 20723 20726 20729 20732 20735 20738 20741 20744 20747 20750 20753 20756 20759 20762 20765 20768 20771 20774 20777 20780 20783 20786 20789 20792 20795 20798 20801 20804 20807 20810 20813 20816 20819 20822 20825 20828 20831 20834 20837 20840 20843 20846 20849 20852 20855 20858 20861 20864 20867 20870 20873 20876 20879 20882 20885 20888 20891 20894 20897 20900 20903 20906 20909 20912 20915 20918 20921 20924 20927 20930 20933 20936 20939 20942 20945 20948 20951 20954 20957 20960 20963 20966 20969 20972 20975 20978 20981 20984 20987 20990 20993 20996 20999 21001 21003 21006 21009 21012 21015 21018 21021 21023 21025 21028 21031 21034 21037 21040 21043 21046 21049 21052 21055 21058 21061 21064 21067 21069 21072 21075 21078 21081 21084 21087 21090 21093 21096 21099 21102 21105 21108 21111 21114 21117 21120 21122 21125 21128 21131 21134 21137 21140 21143 21146 21149 21152 21154 21157 21160 21163 21165 21168 21171 21174 21177 21180 21183 21186 21189 21192 21195 21198 21201 21204 21207 21210 21212 21215 21218 21220 21223 21226 21229 21232 21235 21238 21241 21244 21247 21250 21253 21256 21259 21262 21265 21268 21270 21273 21276 21278 21281 21284 21287 21290 21293 21295 21298 21301 21304 21307 21310 21313 21315 21317 21320 21323 21326 21328 21331 21334 21336 21338 21341 21344 21347 21350 21352 21354 21357 21360 21363 21365 21368 21371 21374 21377 21380 21383 21385 21387 21390 21393 21395 21398 21400 21402 21405 21408 21411 21414 21416 21419 21422 21424 21427 21430 21433 21436 21438 21441 21444 21447 21450 21453 21456 21459 21461 21464 21467 21470 21473 21476 21479 21482 21485 21488 21491 21494 21497 21500 21503 21506 21509 21512 21515 21518 21520 21523 21526 21529 21532 21534 21537 21540 21543 21546 21549 21551 21554 21557 21560 21563 21565 21568 21571 21574 21577 21579 21582 21585 21588 21591 21594 21596 21599 21602 21605 21608 21610 21613 21616 21619 21622 21625 21628 21630 21633 21636 21638 21640 21643 21646 21648 21651 21654 21657 21660 21662 21665 21667 21670 21673 21676 21678 21680 21682 21685 21688 21691 21694 21697 21699 21702 21705 21707 21710 21713 21716 21719 21722 21725 21728 21731 21734 21737 21740 21742 21745 21748 21751 21754 21757 21759 21762 21764 21766 21769 21772 21775 21777 21779 21782 21785 21787 21790 21793 21796 21798 21801 21803 21806 21809 21812 21814 21817 21820 21823 21825 21827 21830 21833 21836 21839 21842 21845 21848 21851 21854 21857 21860 21863 21866 21869 21872 21875 21878 21881 21884 21887 21890 21893 21896 21899 21902 21905 21908 21911 21914 21917 21920 21923 21926 21929 21932 21935 21938 21941 21944 21947 21950 21953 21956 21959 21962 21965 21968 21971 21974 21976 21979 21982 21984 21987 21990 21993 21995 21998 22001 22004 22007 22009 22012 22015 22018 22020 22023 22026 22028 22031 22034 22037 22039 22042 22044 22047 22049 22052 22055 22058 22061 22064 22066 22069 22072 22075 22078 22081 22084 22087 22090 22093 22096 22099 22102 22105 22108 22111 22114 22116 22119 22122 22124 22127 22130 22133 22136 22139 22142 22144 22147 22150 22152 22155 22158 22161 22164 22166 22168 22170 22172 22175 22178 22181 22184 22187 22190 22193 22196 22198 22200 22203 22206 22209 22212 22214 22217 22220 22223 22226 22229 22232 22235 22237 22240 22243 22246 22249 22252 22255 22258 22261 22264 22267 22270 22273 22276 22279 22282 22285 22288 22291 22294 22297 22300 22303 22306 22309 22312 22315 22318 22321 22324 22327 22330 22333 22336 22339 22342 22345 22348 22351 22354 22357 22360 22363 22366 22369 22372 22375 22378 22381 22384 22387 22390 22393 22396 22399 22402 22405 22408 22411 22414 22417 22420 22423 22425 22428 22431 22434 22437 22440 22442 22444 22447 22450 22453 22455 22458 22461 22463 22466 22468 22471 22474 22476 22479 22482 22485 22488 22491 22494 22497 22500 22503 22506 22509 22512 22515 22518 22521 22524 22527 22530 22533 22536 22539 22542 22545 22548 22551 22554 22557 22560 22563 22566 22568 22571 22574 22577 22580 22583 22586 22588 22591 22594 22597 22599 22602 22605 22608 22611 22614 22617 22620 22622 22625 22628 22631 22634 22637 22640 22643 22646 22648 22651 22654 22656 22659 22662 22665 22668 22671 22674 22677 22680 22683 22686 22689 22692 22695 22698 22701 22704 22707 22710 22713 22716 22719 22722 22725 22728 22731 22734 22736 22739 22742 22745 22748 22751 22754 22757 22760 22763 22765 22768 22771 22774 22777 22780 22783 22786 22789 22792 22794 22797 22799 22802 22805 22807 22810 22812 22815 22818 22821 22824 22827 22830 22833 22835 22838 22841 22844 22847 22850 22853 22856 22859 22862 22865 22868 22871 22874 22877 22880 22882 22885 22888 22890 22893 22896 22899 22902 22905 22907 22910 22913 22915 22918 22921 22923 22925 22928 22931 22933 22936 22939 22942 22944 22947 22949 22952 22955 22958 22961 22963 22966 22969 22972 22975 22978 22981 22984 22987 22990 22992 22995 22998 23001 23004 23007 23010 23013 23016 23018 23021 23024 23027 23030 23032 23035 23037 23040 23043 23046 23049 23052 23054 23057 23059 23061 23064 23067 23069 23072 23075 23078 23081 23084 23086 23089 23091 23094 23097 23100 23103 23106 23108 23111 23114 23116 23119 23121 23124 23127 23130 23133 23136 23139 23141 23144 23147 23150 23153 23155 23158 23161 23163 23165 23168 23171 23174 23177 23180 23183 23185 23188 23191 23194 23197 23200 23203 23206 23209 23212 23215 23217 23220 23223 23226 23228 23231 23234 23237 23240 23243 23246 23249 23252 23255 23258 23260 23263 23266 23269 23272 23275 23278 23281 23284 23287 23290 23293 23296 23299 23302 23305 23308 23311 23314 23316 23319 23322 23325 23328 23331 23333 23336 23338 23341 23344 23347 23350 23353 23356 23359 23362 23365 23368 23370 23373 23376 23379 23381 23384 23387 23390 23393 23396 23399 23402 23405 23408 23411 23414 23417 23420 23423 23426 23429 23431 23434 23437 23440 23443 23446 23449 23452 23454 23457 23460 23463 23466 23468 23471 23474 23477 23480 23482 23485 23488 23490 23493 23496 23498 23501 23504 23507 23510 23512 23514 23517 23520 23523 23526 23529 23532 23535 23538 23541 23544 23547 23550 23553 23556 23559 23562 23565 23568 23571 23574 23577 23579 23582 23585 23588 23591 23593 23596 23599 23602 23605 23608 23611 23614 23617 23619 23622 23624 23626 23629 23632 23635 23637 23640 23643 23646 23649 23652 23655 23658 23661 23664 23666 23669 23671 23674 23677 23680 23682 23685 23688 23690 23693 23695 23698 23701 23704 23707 23709 23711 23714 23717 23720 23723 23725 23728 23730 23732 23735 23738 23741 23744 23747 23750 23753 23756 23759 23762 23765 23768 23771 23774 23777 23780 23782 23785 23788 23791 23794 23797 23800 23803 23806 23809 23812 23815 23818 23821 23824 23827 23830 23833 23836 23839 23842 23845 23848 23851 23854 23857 23860 23863 23866 23869 23872 23875 23878 23881 23884 23887 23890 23893 23895 23898 23901 23904 23907 23910 23912 23915 23918 23921 23923 23926 23929 23932 23935 23938 23941 23943 23945 23948 23951 23954 23957 23959 23962 23965 23968 23971 23974 23977 23980 23982 23985 23988 23991 23994 23997 23999 24002 24005 24008 24010 24013 24016 24019 24022 24024 24027 24030 24033 24036 24039 24042 24044 24047 24050 24053 24056 24059 24062 24065 24068 24071 24074 24077 24079 24082 24085 24088 24091 24094 24097 24100 24103 24106 24109 24112 24115 24118 24121 24123 24126 24129 24131 24134 24136 24138 24141 24144 24147 24150 24153 24156 24159 24162 24165 24168 24171 24174 24177 24180 24183 24186 24189 24192 24195 24198 24201 24203 24206 24209 24212 24215 24218 24221 24224 24227 24230 24233 24236 24239 24242 24245 24248 24251 24254 24257 24260 24263 24266 24269 24272 24275 24278 24281 24284 24287 24290 24293 24296 24299 24302 24305 24308 24311 24314 24317 24320 24323 24326 24329 24332 24335 24338 24341 24344 24347 24350 24353 24356 24359 24362 24365 24368 24371 24374 24377 24380 24383 24386 24389 24392 24395 24398 24401 24403 24406 24409 24412 24415 24417 24419 24422 24425 24428 24431 24433 24436 24439 24442 24445 24448 24451 24454 24457 24460 24463 24466 24469 24471 24474 24477 24480 24483 24486 24489 24492 24495 24498 24501 24504 24507 24509 24512 24515 24518 24521 24524 24527 24530 24533 24536 24539 24541 24544 24547 24549 24552 24555 24558 24561 24564 24567 24570 24573 24576 24579 24582 24585 24588 24591 24594 24597 24600 24603 24606 24609 24612 24615 24618 24621 24624 24626 24629 24632 24634 24637 24640 24642 24645 24648 24651 24654 24657 24660 24662 24665 24668 24671 24674 24676 24679 24682 24685 24688 24691 24694 24697 24700 24703 24706 24709 24712 24715 24718 24721 24724 24727 24730 24733 24736 24739 24741 24744 24747 24750 24753 24756 24759 24762 24765 24768 24771 24774 24777 24780 24783 24786 24788 24791 24793 24796 24799 24802 24805 24808 24811 24814 24817 24820 24823 24826 24829 24832 24834 24837 24840 24843 24846 24849 24852 24854 24857 24860 24862 24865 24868 24871 24874 24877 24880 24883 24886 24888 24891 24894 24897 24900 24903 24906 24908 24911 24914 24917 24920 24923 24926 24929 24932 24935 24938 24941 24944 24947 24950 24953 24956 24959 24962 24965 24968 24971 24974 24976 24979 24982 24985 24988 24991 24994 24997 25000 25003 25006 25009 25012 25015 25018 25021 25024 25027 25030 25033 25036 25039 25042 25044 25047 25050 25053 25056 25058 25061 25064 25066 25069 25072 25074 25077 25080 25083 25086 25089 25091 25093 25096 25098 25100 25103 25106 25109 25111 25114 25117 25119 25122 25125 25128 25131 25134 25137 25140 25143 25146 25149 25152 25155 25158 25161 25164 25167 25170 25173 25176 25179 25182 25185 25188 25191 25194 25197 25200 25203 25206 25209 25212 25215 25218 25221 25224 25227 25230 25233 25236 25239 25242 25245 25248 25251 25254 25257 25259 25262 25265 25268 25271 25274 25277 25280 25283 25286 25289 25292 25295 25298 25300 25303 25306 25308 25310 25313 25316 25319 25322 25325 25328 25331 25333 25336 25339 25341 25344 25347 25350 25352 25355 25358 25361 25363 25366 25369 25372 25375 25378 25381 25384 25387 25390 25393 25396 25399 25402 25405 25408 25411 25414 25417 25420 25423 25426 25428 25431 25434 25437 25440 25442 25445 25447 25450 25452 25455 25458 25460 25462 25465 25468 25471 25474 25477 25480 25483 25485 25488 25490 25493 25496 25499 25502 25505 25508 25511 25514 25517 25519 25522 25524 25527 25530 25533 25535 25538 25541 25543 25546 25548 25551 25554 25557 25559 25562 25565 25568 25571 25574 25577 25580 25583 25586 25589 25592 25594 25597 25600 25603 25606 25608 25611 25614 25617 25620 25623 25626 25629 25632 25635 25638 25641 25644 25647 25650 25653 25656 25659 25662 25665 25668 25670 25673 25676 25679 25681 25684 25686 25688 25690 25693 25696 25699 25702 25705 25708 25711 25714 25717 25720 25723 25726 25728 25731 25734 25736 25739 25741 25744 25746 25749 25752 25754 25757 25760 25763 25766 25768 25771 25774 25777 25780 25783 25786 25789 25791 25794 25797 25800 25803 25806 25809 25812 25815 25818 25821 25823 25826 25829 25832 25835 25838 25841 25844 25847 25850 25853 25856 25859 25862 25864 25867 25870 25873 25875 25877 25879 25882 25885 25888 25891 25894 25897 25899 25902 25905 25908 25911 25914 25916 25919 25922 25925 25928 25931 25934 25936 25939 25942 25944 25947 25950 25952 25955 25958 25961 25963 25966 25969 25971 25974 25977 25980 25982 25985 25988 25990 25992 25995 25998 26001 26004 26006 26009 26012 26015 26018 26021 26024 26027 26030 26033 26036 26039 26042 26045 26048 26051 26054 26057 26060 26063 26066 26069 26072 26075 26078 26081 26084 26087 26090 26093 26096 26099 26101 26104 26107 26110 26113 26116 26119 26122 26125 26127 26130 26133 26136 26139 26142 26145 26148 26151 26154 26157 26160 26162 26165 26168 26171 26174 26177 26180 26183 26186 26189 26192 26195 26198 26201 26204 26207 26210 26213 26215 26218 26221 26224 26227 26230 26232 26235 26238 26240 26243 26246 26249 26252 26255 26258 26260 26263 26266 26269 26271 26274 26277 26279 26282 26285 26288 26290 26293 26295 26298 26301 26304 26307 26309 26312 26315 26318 26321 26324 26326 26328 26331 26334 26337 26340 26343 26346 26349 26352 26355 26358 26361 26364 26366 26369 26372 26375 26378 26381 26384 26387 26390 26393 26396 26399 26402 26405 26407 26410 26413 26416 26418 26421 26424 26426 26429 26432 26434 26437 26439 26442 26445 26447 26450 26453 26456 26459 26461 26463 26466 26468 26471 26474 26477 26480 26483 26486 26489 26492 26495 26498 26501 26504 26507 26509 26512 26515 26518 26521 26524 26526 26529 26532 26535 26538 26541 26544 26547 26550 26553 26556 26559 26562 26565 26568 26571 26574 26577 26580 26583 26586 26589 26592 26595 26598 26601 26604 26607 26610 26613 26616 26619 26621 26624 26627 26630 26633 26635 26638 26641 26644 26646 26649 26652 26655 26658 26661 26664 26667 26670 26673 26676 26679 26682 26685 26688 26691 26693 26696 26699 26702 26705 26708 26711 26714 26717 26720 26723 26726 26729 26732 26735 26737 26739 26742 26744 26747 26749 26752 26755 26758 26761 26764 26767 26770 26773 26776 26779 26782 26784 26787 26790 26793 26796 26799 26801 26804 26807 26810 26813 26816 26819 26821 26824 26827 26830 26833 26836 26839 26842 26845 26848 26851 26854 26857 26860 26863 26866 26869 26872 26875 26878 26881 26884 26887 26890 26893 26895 26898 26901 26904 26907 26910 26912 26915 26918 26921 26924 26927 26930 26933 26936 26939 26942 26945 26948 26951 26954 26957 26960 26963 26966 26969 26972 26975 26978 26981 26984 26986 26989 26992 26995 26997 27000 27003 27006 27009 27012 27015 27018 27021 27024 27027 27030 27033 27036 27039 27042 27045 27048 27051 27054 27057 27060 27063 27066 27069 27072 27075 27078 27081 27084 27087 27089 27092 27095 27097 27100 27103 27106 27109 27112 27115 27118 27121 27124 27126 27129 27131 27134 27137 27140 27143 27146 27149 27152 27155 27157 27160 27163 27166 27168 27171 27174 27177 27180 27183 27186 27188 27191 27194 27197 27199 27202 27205 27208 27211 27214 27217 27220 27223 27226 27229 27232 27235 27238 27241 27244 27247 27250 27253 27256 27259 27262 27265 27267 27270 27273 27276 27279 27282 27285 27287 27290 27293 27296 27298 27300 27303 27306 27309 27312 27315 27318 27320 27322 27325 27327 27330 27332 27335 27338 27340 27343 27345 27348 27351 27354 27357 27359 27361 27364 27367 27370 27373 27376 27379 27382 27385 27388 27390 27393 27396 27399 27402 27405 27407 27410 27413 27416 27419 27422 27425 27428 27431 27434 27437 27439 27442 27444 27447 27450 27453 27456 27459 27462 27465 27468 27471 27474 27477 27480 27483 27486 27489 27492 27495 27498 27501 27504 27507 27510 27513 27516 27518 27521 27524 27527 27530 27533 27536 27539 27542 27545 27548 27551 27553 27556 27558 27561 27564 27567 27570 27573 27576 27579 27582 27585 27588 27591 27593 27596 27599 27602 27604 27607 27610 27613 27615 27618 27621 27624 27627 27630 27633 27636 27639 27642 27645 27648 27651 27654 27657 27660 27663 27666 27669 27671 27674 27676 27679 27682 27685 27688 27691 27693 27696 27698 27701 27704 27707 27709 27712 27715 27718 27721 27724 27727 27729 27732 27735 27737 27740 27743 27746 27749 27752 27755 27758 27761 27764 27767 27770 27773 27776 27779 27782 27785 27788 27791 27794 27797 27800 27803 27806 27809 27812 27815 27818 27821 27824 27827 27830 27833 27836 27839 27842 27845 27848 27851 27854 27857 27860 27863 27866 27869 27872 27875 27878 27881 27884 27887 27890 27893 27896 27899 27901 27904 27907 27910 27913 27916 27918 27921 27924 27927 27930 27933 27936 27939 27942 27945 27948 27951 27954 27957 27960 27963 27966 27969 27972 27975 27978 27981 27984 27987 27990 27993 27996 27999 28002 28005 28008 28011 28014 28017 28020 28023 28026 28029 28032 28035 28038 28041 28044 28047 28050 28053 28056 28059 28062 28065 28068 28071 28074 28077 28080 28083 28086 28089 28092 28095 28098 28101 28104 28106 28109 28112 28115 28118 28120 28123 28126 28129 28132 28135 28138 28141 28144 28147 28150 28153 28156 28159 28162 28165 28168 28171 28173 28176 28179 28182 28184 28187 28189 28192 28195 28198 28201 28204 28207 28210 28213 28216 28219 28222 28225 28228 28231 28234 28237 28239 28242 28245 28248 28251 28253 28256 28259 28262 28265 28268 28271 28274 28277 28280 28283 28286 28289 28292 28295 28298 28301 28304 28306 28309 28311 28314 28317 28319 28321 28324 28326 28329 28332 28335 28338 28340 28343 28346 28349 28351 28354 28357 28360 28363 28366 28369 28372 28375 28377 28380 28383 28386 28388 28391 28394 28397 28400 28403 28405 28408 28411 28414 28416 28418 28421 28424 28427 28429 28432 28434 28437 28440 28443 28446 28449 28452 28455 28458 28461 28464 28467 28470 28473 28476 28479 28482 28485 28488 28491 28494 28497 28500 28503 28506 28508 28510 28513 28516 28519 28522 28525 28527 28529 28532 28535 28538 28541 28544 28546 28549 28552 28555 28558 28561 28564 28567 28570 28573 28576 28579 28582 28585 28587 28590 28593 28596 28599 28602 28604 28607 28610 28613 28616 28619 28621 28624 28627 28630 28633 28636 28639 28642 28645 28648 28651 28654 28656 28659 28662 28665 28668 28671 28674 28677 28680 28683 28686 28689 28692 28694 28696 28699 28702 28705 28708 28711 28714 28717 28720 28723 28726 28728 28731 28734 28737 28740 28743 28745 28748 28751 28754 28757 28760 28763 28766 28769 28772 28774 28777 28779 28782 28785 28788 28791 28794 28797 28800 28803 28806 28809 28812 28815 28818 28820 28823 28826 28829 28831 28834 28836 28839 28842 28845 28847 28850 28852 28855 28858 28861 28864 28867 28870 28873 28876 28879 28881 28884 28887 28890 28893 28896 28899 28902 28905 28908 28911 28914 28917 28920 28923 28926 28929 28932 28935 28938 28941 28944 28947 28950 28953 28956 28958 28961 28964 28967 28970 28973 28976 28979 28982 28984 28987 28990 28992 28995 28998 29000 29003 29005 29008 29011 29013 29016 29019 29022 29024 29027 29030 29033 29036 29039 29042 29045 29048 29051 29054 29056 29059 29062 29065 29068 29071 29073 29076 29078 29081 29083 29086 29089 29092 29095 29098 29101 29104 29106 29108 29111 29114 29117 29119 29121 29124 29126 29129 29132 29135 29138 29141 29143 29146 29149 29151 29154 29157 29160 29163 29166 29169 29171 29174 29177 29180 29182 29185 29188 29191 29194 29197 29199 29202 29204 29207 29209 29212 29215 29218 29221 29224 29227 29230 29233 29236 29239 29242 29245 29248 29251 29254 29257 29260 29263 29266 29269 29272 29275 29278 29281 29284 29287 29290 29293 29296 29298 29301 29304 29307 29310 29313 29316 29319 29321 29324 29327 29330 29332 29335 29337 29340 29343 29345 29348 29351 29354 29356 29359 29362 29365 29368 29370 29373 29376 29379 29382 29385 29388 29391 29394 29397 29400 29403 29406 29409 29411 29414 29417 29420 29423 29426 29429 29431 29434 29437 29440 29443 29446 29449 29452 29455 29458 29461 29464 29467 29469 29472 29475 29478 29481 29484 29487 29489 29492 29495 29498 29501 29504 29507 29509 29512 29514 29517 29520 29523 29525 29528 29531 29534 29537 29540 29543 29545 29548 29551 29554 29557 29560 29563 29566 29569 29572 29575 29578 29581 29584 29587 29590 29593 29595 29598 29601 29604 29607 29610 29613 29616 29619 29622 
</DataArray>
<DataArray type="UInt32" Name="types" format="ascii">
5 5 5 5 5 3 5 5 5 5 5 5 5 5 5 5 3 5 5 3 5 3 5 5 5 5 3 5 5 5 5 5 5 3 5 5 5 5 5 5 3 3 5 5 3 3 5 5 5 5 5 5 5 5 5 5 3 3 5 5 5 3 5 5 5 5 3 5 5 5 5 5 5 5 5 5 5 5 3 5 5 5 3 5 5 5 3 5 5 5 5 3 5 5 5 5 5 5 3 5 5 3 5 5 5 5 3 5 5 5 5 5 3 5 5 5 5 5 5 5 5 5 5 5 5 5 5 5 5 5 5 5 5 5 5 3 5 5 5 3 5 5 5 5 5 5 3 5 5 5 5 5 5 5 5 5 5 5 5 5 5 5 5 5 5 5 5 5 5 5 3 5 3 5 5 5 5 5 5 5 5 5 5 5 5 3 5 5 5 5 5 5 5 5 5 5 5 5 3 5 5 5 5 5 5 5 5 5 5 5 5 3 5 5 5 3 3 5 5 5 5 5 5 5 3 5 5 5 5 5 5 5 5 5 3 5 5 3 5 5 5 5 5 5 5 5 5 5 5 5 5 5 5 5 5 5 3 5 5 5 5 5 5 5 5 5 3 5 5 5 5 5 5 5 5 5 5 5 5 5 5 5 3 5 5 5 5 5 5 5 5 5 5 5 5 5 5 5 5 5 5 3 5 5 5 5 3 5 5 5 5 5 5 5 5 3 5 5 3 5 5 5 5 5 5 5 5 5 5 5 5 5 5 5 5 5 5 5 5 5 5 5 3 5 5 5 5 3 5 5 5 5 5 3 3 5 5 3 3 5 5 5 5 5 5 5 3 5 5 5 5 5 5 5 5 3 5 5 5 5 5 5 5 5 3 5 5 5 5 3 5 5 5 5 5 5 3 5 5 5 5 5 5 5 5 5 5 5 5 5 5 5 5 5 5 5 5 5 5 5 5 5 5 5 5 5 3 5 5 5 5 5 5 5 5 3 5 5 5 3 5 5 3 5 5 5 5 5 5 5 5 3 5 5 5 3 5 3 5 5 5 5 3 5 5 3 5 5 3 5 5 5 3 5 5 5 5 5 5 5 5 5 5 5 5 5 5 5 5 5 5 5 5 5 5 5 3 5 5 5 5 5 5 5 5 3 5 5 5 5 5 5 5 5 5 5 5 5 5 3 5 5 5 5 5 5 5 5 5 5 5 5 5 5 5 5 5 5 5 5 5 3 5 5 5 3 5 5 3 5 5 5 5 3 5 5 5 5 5 5 5 3 5 3 5 5 5 5 5 5 5 5 5 5 5 5 5 5 5 5 5 5 5 5 5 5 3 5 3 5 3 5 5 3 3 5 5 5 5 5 5 5 5 5 5 5 5 5 5 5 5 5 3 5 5 5 5 3 5 5 5 5 3 3 5 3 5 5 5 5 5 5 5 5 5 5 5 5 5 5 5 5 5 5 5 5 5 5 5 5 5 5 3 5 5 5 5 5 5 5 5 5 5 5 5 3 5 5 5 3 5 3 5 5 5 5 5 5 5 5 5 5 3 5 5 5 3 5 5 5 5 5 5 5 5 5 3 5 5 5 5 3 5 5 5 5 5 5 5 5 5 3 5 5 3 5 5 5 5 5 3 5 5 5 5 3 5 5 5 5 5 5 5 3 3 5 5 5 5 5 5 3 5 3 5 5 3 5 3 5 5 5 3 5 5 5 5 3 5 5 3 5 3 3 5 3 3 5 5 3 5 3 5 5 5 3 3 5 5 5 5 5 3 5 5 5 5 5 5 5 5 3 5 3 5 5 5 5 3 3 5 5 3 5 5 5 5 5 3 5 5 3 5 3 5 3 3 5 3 5 3 3 3 5 5 3 5 3 5 5 3 5 5 5 5 5 3 5 5 3 5 5 5 5 3 5 5 5 5 5 5 5 3 5 3 5 5 5 3 5 5 5 5 5 5 5 5 5 5 5 5 5 5 5 5 5 5 3 5 5 5 5 5 5 5 5 5 3 5 5 5 5 5 5 5 5 5 5 5 5 5 3 5 5 5 5 5 5 5 5 5 5 5 5 5 5 5 5 5 5 5 5 5 5 5 5 5 5 5 5 5 5 5 5 5 5 5 5 5 5 5 5 3 5 5 5 5 5 5 5 5 5 5 5 5 5 5 5 3 3 5 5 3 5 5 5 5 5 5 5 5 5 5 5 5 5 5 5 5 5 5 5 5 3 5 3 5 5 5 5 5 3 3 5 5 5 5 5 5 5 5 5 5 5 5 5 5 5 5 5 5 5 5 5 5 5 5 5 5 5 5 5 5 5 5 5 5 5 5 5 5 5 5 5 5 5 5 5 5 5 5 5 5 5 5 5 5 5 5 3 5 5 5 5 5 5 5 3 5 5 5 5 3 5 5 5 5 5 5 5 5 5 5 5 5 5 5 5 3 5 5 5 5 3 5 5 5 5 3 5 5 3 5 5 3 5 5 5 5 3 5 5 5 5 5 5 5 5 5 5 5 5 5 5 5 5 5 5 5 5 5 5 5 5 3 5 3 5 5 5 5 5 5 5 5 5 5 5 5 3 5 5 5 5 5 3 5 5 5 5 5 5 5 5 5 5 5 3 3 5 5 3 5 5 5 5 3 5 5 3 5 5 5 5 5 5 3 5 5 5 5 5 5 5 5 5 5 5 5 5 5 5 5 5 3 5 5 3 5 5 5 3 5 3 5 5 5 5 3 5 5 5 5 5 5 5 3 5 5 5 5 3 3 5 5 3 5 5 5 3 5 5 3 5 5 3 5 5 3 5 5 5 3 5 5 5 5 5 5 5 5 5 5 5 3 5 5 5 3 3 5 5 3 5 5 3 5 5 3 5 3 5 5 5 3 3 3 5 5 3 5 5 5 5 5 3 5 5 5 5 3 5 5 3 5 5 3 3 5 5 5 5 3 5 5 5 3 5 3 5 5 5 5 5 5 5 5 3 5 5 5 3 5 5 5 5 5 5 5 5 5 5 5 3 5 5 5 5 5 3 3 5 3 3 5 5 5 3 5 3 5 5 3 5 5 5 5 5 5 5 5 5 3 5 5 5 5 3 5 5 5 5 5 5 5 5 5 3 5 5 5 5 5 3 3 5 5 3 5 5 5 5 5 3 5 3 5 5 5 3 5 5 5 5 5 5 5 5 5 3 3 5 5 5 3 5 5 3 3 5 5 5 3 5 5 5 5 5 5 3 5 5 5 3 3 5 5 5 3 3 5 5 3 5 5 5 3 5 3 5 5 5 3 5 5 5 5 5 5 3 3 5 3 5 5 3 5 3 3 5 5 3 5 5 5 5 5 3 5 5 5 5 3 5 5 5 5 5 5 5 3 5 5 5 5 3 5 5 5 5 5 5 5 5 5 5 3 5 5 3 3 5 5 5 5 5 5 5 3 5 5 5 3 3 5 5 5 5 5 5 5 5 3 5 5 5 5 3 5 5 5 5 5 3 5 5 5 5 5 5 5 5 5 5 5 5 5 5 5 5 5 5 5 5 5 3 5 5 3 5 5 5 5 3 5 5 5 5 5 5 5 5 5 5 5 5 5 5 5 5 5 5 5 5 5 5 5 5 5 5 5 5 5 5 5 5 5 5 5 5 5 5 5 5 5 5 5 5 5 5 5 5 5 3 5 5 5 5 5 5 3 5 5 5 5 3 5 3 5 5 3 5 5 5 5 5 5 5 5 5 5 5 5 5 3 5 5 3 5 5 3 5 3 5 5 5 5 5 5 5 5 5 5 5 5 5 5 5 5 5 5 5 5 5 5 3 5 5 5 5 5 5 5 5 5 5 5 5 5 5 5 5 5 5 5 5 5 5 5 5 5 5 5 5 5 5 5 5 5 5 3 5 5 5 5 5 5 3 5 5 3 3 5 5 5 5 5 5 5 3 5 5 3 5 5 5 5 5 5 3 5 5 5 3 5 3 5 5 5 3 5 5 5 3 5 5 5 5 5 3 5 5 3 5 3 3 5 5 3 5 3 5 5 5 5 5 3 5 5 3 5 3 5 5 3 5 5 5 5 5 3 3 3 5 5 5 5 5 5 5 5 5 5 3 5 5 3 5 5 3 3 3 5 3 5 5 5 5 3 5 3 5 5 5 3 5 3 5 3 5 5 5 3 5 5 3 5 3 3 3 5 5 3 5 3 3 5 5 5 5 5 5 5 5 5 5 5 5 3 5 5 5 5 3 5 5 5 3 3 3 5 5 5 3 5 3 5 3 5 5 5 5 5 5 3 5 5 3 3 3 5 5 5 3 5 3 5 5 5 5 5 5 5 3 5 5 5 5 3 5 5 5 3 5 3 3 5 3 5 5 5 5 5 5 5 5 5 5 5 5 5 5 3 5 5 5 5 5 5 5 5 5 5 5 3 5 5 5 5 5 5 5 5 5 5 5 5 5 5 5 5 5 3 5 5 5 5 3 5 5 5 5 5 5 5 5 5 5 5 5 5 5 5 5 3 5 3 5 5 5 5 3 5 5 3 5 5 3 5 5 3 3 5 5 3 5 5 3 5 5 5 3 5 5 5 5 3 5 3 5 5 5 5 5 5 5 5 5 5 5 5 5 5 5 5 5 5 5 5 5 5 5 5 5 3 5 5 3 5 5 5 5 5 5 5 5 5 5 5 3 5 5 5 5 3 5 5 3 5 5 5 5 5 3 5 3 5 5 5 5 5 5 5 5 5 5 5 5 5 5 5 5 5 5 5 5 5 5 5 5 5 3 5 3 5 3 3 5 5 5 5 5 3 5 5 5 5 5 5 3 5 5 5 5 5 5 3 3 5 5 5 5 3 5 5 5 5 5 5 5 5 5 5 5 5 5 5 5 5 5 5 3 5 3 3 5 5 5 5 5 5 5 3 5 5 5 3 3 5 5 5 5 5 5 5 5 5 5 5 5 5 5 5 5 5 5 5 5 5 5 5 5 5 5 5 5 3 5 5 5 5 3 5 5 5 5 5 5 5 5 5 5 5 5 5 5 5 5 5 5 3 5 5 5 5 5 5 5 5 3 3 5 3 5 5 5 5 5 5 5 5 5 5 5 3 5 3 5 5 5 5 5 5 5 5 5 3 5 5 5 3 3 5 5 5 3 3 5 3 5 5 5 5 5 5 5 5 5 3 5 5 5 5 5 5 5 3 5 5 5 5 5 5 3 5 5 5 5 5 5 3 5 5 5 5 5 5 5 5 5 5 5 5 5 5 5 3 5 5 5 5 5 5 5 5 5 5 5 5 5 5 5 3 5 5 5 5 5 5 5 5 5 5 3 5 5 5 3 5 5 5 5 5 5 5 3 5 5 5 3 5 5 3 5 5 5 3 3 5 5 5 3 5 5 5 5 5 5 5 3 5 5 5 5 5 3 5 5 5 5 3 5 5 5 5 5 5 5 5 3 5 5 5 5 5 5 5 5 5 5 5 5 5 5 5 5 5 5 5 5 5 5 5 5 5 5 5 5 5 5 5 5 5 3 5 5 3 5 5 5 3 3 5 5 5 5 3 3 5 5 5 5 5 3 5 5 5 5 5 5 5 3 5 5 5 5 5 3 5 5 5 3 5 5 5 5 5 3 3 5 5 5 5 5 5 5 5 5 5 5 3 5 5 3 5 5 5 5 5 5 5 5 5 5 5 5 5 3 3 5 5 5 5 5 5 5 5 5 5 5 5 5 5 3 5 5 5 3 5 5 5 5 5 5 5 5 5 5 5 5 5 5 3 5 3 5 3 5 5 5 5 5 3 3 5 5 5 5 5 3 5 5 5 5 5 5 5 5 5 5 3 5 5 5 5 5 5 5 5 5 5 5 5 5 5 5 5 5 5 5 5 3 5 5 5 5 5 5 5 5 5 5 5 5 5 5 5 5 5 5 5 5 5 5 5 5 5 3 5 5 5 5 5 5 5 3 5 5 5 3 5 5 5 5 3 5 3 5 5 5 5 5 5 3 5 5 5 3 5 5 5 5 3 5 3 5 3 5 5 5 3 5 3 5 5 5 5 5 5 5 5 3 5 5 5 5 5 5 3 5 5 5 5 5 3 3 3 5 5 5 5 5 5 5 5 5 5 5 5 5 3 5 3 5 5 5 5 5 5 5 5 5 3 5 5 3 3 5 5 3 5 5 5 5 3 5 5 5 5 3 5 5 5 5 5 3 5 5 5 5 3 5 5 5 3 5 5 5 5 5 3 5 5 5 5 5 5 5 5 5 3 5 5 5 5 5 5 5 5 5 3 5 5 5 5 5 5 5 5 5 5 3 5 5 3 5 3 5 5 5 5 5 5 5 5 5 5 3 5 3 5 5 5 5 5 5 5 5 5 5 5 3 5 5 5 3 5 5 5 5 3 5 5 3 5 5 5 5 5 5 5 5 5 5 5 5 5 5 5 5 5 5 5 5 5 5 5 5 5 5 5 3 5 5 5 5 3 5 3 3 5 5 5 5 5 3 3 5 5 5 5 5 5 5 5 5 5 5 5 5 5 5 5 5 5 5 3 5 5 5 5 3 5 5 5 5 5 5 5 3 3 5 5 3 5 5 3 5 3 5 3 5 5 5 5 5 3 5 5 3 5 3 5 5 5 5 5 5 5 5 5 5 5 5 5 5 5 5 3 5 3 5 5 5 5 5 5 5 5 5 5 5 5 5 5 5 5 5 5 5 5 5 5 5 5 5 5 5 5 5 5 5 5 5 5 5 3 5 5 5 5 3 5 5 5 5 5 5 5 5 5 5 5 5 5 3 5 3 5 5 5 3 3 5 5 5 5 5 3 5 5 5 5 3 5 5 3 5 5 5 5 5 5 5 5 5 5 5 5 5 5 5 5 5 5 5 5 5 5 5 5 5 5 5 5 5 5 5 5 5 5 5 5 3 5 5 5 5 5 5 5 5 5 5 5 5 5 5 5 5 5 5 5 5 5 5 5 5 5 5 5 5 5 5 5 5 3 5 3 5 5 5 5 3 5 5 5 5 3 5 5 5 5 5 5 5 5 5 5 5 5 5 5 5 5 5 5 5 3 5 5 5 5 5 5 3 5 5 5 5 5 3 5 5 5 5 5 5 5 5 5 5 5 3 5 5 5 5 5 5 5 5 3 5 5 5 5 5 5 5 3 5 5 5 5 5 5 5 5 5 5 5 5 5 5 5 5 5 5 5 5 3 5 3 5 5 5 5 5 5 5 5 5 3 3 5 5 3 5 5 5 3 5 5 5 5 3 5 5 5 3 5 5 5 5 5 5 5 5 5 5 5 3 5 5 3 5 5 5 5 3 5 5 3 5 5 5 5 5 5 5 5 5 5 5 5 5 3 5 5 5 5 5 5 3 5 5 5 3 5 5 5 5 5 5 5 5 3 5 5 5 3 5 5 5 3 5 3 5 5 5 5 5 5 5 5 5 5 3 5 3 5 3 5 3 5 5 5 5 5 5 5 5 3 5 3 5 5 5 5 3 5 5 5 5 5 3 5 5 5 5 3 5 5 5 5 5 3 5 3 5 3 3 5 5 5 5 3 5 5 5 5 5 5 5 5 5 5 5 5 5 5 5 5 5 5 5 5 5 5 3 5 3 5 3 5 5 5 3 5 3 5 5 5 3 5 5 5 5 5 5 5 5 5 5 5 5 5 5 5 5 5 5 5 5 5 5 5 5 5 5 5 5 5 5 5 5 5 5 5 5 5 5 5 5 5 5 5 5 5 5 5 5 5 5 5 5 5 5 5 5 5 5 5 5 5 5 5 5 5 5 5 5 5 5 5 5 5 5 5 5 5 5 5 3 5 5 5 5 5 5 3 5 5 5 5 5 5 3 5 5 5 5 5 3 5 5 5 3 5 5 5 5 5 5 3 5 5 3 5 3 3 5 5 5 3 5 5 5 5 5 5 5 5 5 5 5 5 5 5 5 5 5 5 5 5 5 5 5 5 5 5 5 5 5 5 5 5 5 5 5 5 3 5 5 5 5 5 3 5 5 5 5 5 5 5 5 5 3 3 5 5 3 5 3 5 5 3 3 5 5 3 5 5 5 5 5 5 5 5 5 5 5 5 5 3 5 5 5 5 5 5 5 5 5 5 5 5 5 5 5 5 5 5 5 5 3 5 5 5 5 3 5 5 3 5 5 5 5 5 5 5 5 5 5 5 3 5 5 5 5 5 5 5 5 5 5 5 5 5 5 3 5 5 5 5 3 5 5 5 5 5 3 5 5 5 5 5 5 5 5 5 5 5 5 5 3 5 5 5 5 5 5 5 5 5 5 5 5 5 5 5 5 5 5 3 3 5 5 5 5 5 5 5 5 5 5 3 5 5 5 5 5 5 5 5 5 5 5 3 5 5 5 5 3 5 5 5 5 5 5 5 5 5 5 5 5 3 5 5 5 5 5 5 5 5 5 5 5 5 5 5 5 5 5 5 5 5 5 3 3 5 5 5 5 5 5 5 5 5 5 5 3 3 5 5 5 5 5 3 5 5 5 5 3 3 5 3 5 5 3 5 3 5 5 5 3 5 5 5 5 3 5 5 5 5 5 3 5 5 5 3 5 5 5 5 5 3 5 5 5 5 5 3 5 5 3 5 5 3 5 5 5 3 5 5 5 3 5 5 5 3 5 5 5 3 5 3 5 5 5 5 5 5 5 3 5 5 5 3 5 5 5 5 5 5 5 5 5 5 5 5 5 5 5 5 5 5 5 5 5 5 5 5 5 5 5 5 5 5 5 5 5 5 5 5 5 5 5 5 5 5 5 5 5 5 5 5 5 5 5 5 5 5 5 5 5 5 5 5 5 5 5 5 5 5 5 5 5 5 5 5 5 5 5 5 5 5 3 5 5 3 5 5 5 5 5 5 5 5 5 5 5 5 5 5 3 5 5 3 5 5 3 5 5 5 5 5 5 5 5 5 5 5 5 5 5 5 5 5 5 5 5 5 5 5 5 5 5 5 5 5 5 5 5 5 3 5 5 5 5 5 5 5 5 5 5 5 5 5 5 5 5 5 5 5 5 5 5 5 5 5 5 5 5 5 5 5 5 5 5 5 5 5 3 5 5 5 5 5 5 5 5 5 5 5 5 5 5 5 5 5 5 5 5 5 5 5 5 5 5 5 5 5 5 5 5 5 5 5 5 5 5 5 5 5 5 5 5 5 5 5 5 5 5 5 5 5 5 5 5 5 5 3 5 5 5 5 5 5 5 5 5 5 5 5 5 5 5 5 3 5 5 3 5 3 3 5 5 5 5 5 5 5 5 5 5 5 5 5 5 5 5 5 5 5 5 5 5 5 5 5 5 5 5 5 5 5 5 5 5 5 5 5 5 5 5 3 5 5 5 5 3 5 5 5 5 5 3 3 5 5 5 3 3 3 5 5 5 5 5 5 5 3 5 5 3 5 5 3 5 5 3 5 5 5 5 5 5 3 5 5 3 5 5 5 5 5 5 5 5 5 5 5 5 5 5 5 5 5 5 5 5 5 5 5 5 5 5 3 5 5 5 5 5 5 5 5 5 5 5 5 5 5 5 5 5 5 5 5 5 5 5 5 5 5 5 5 5 5 5 5 5 5 5 5 5 5 5 5 5 5 5 5 5 5 5 5 5 5 5 5 5 5 5 5 3 5 5 3 3 5 5 3 3 5 5 5 3 5 3 5 5 5 3 5 5 5 5 5 5 5 5 5 5 5 5 5 5 3 5 5 5 5 5 3 5 5 5 5 5 5 5 5 3 5 5 5 5 5 3 5 5 5 5 5 5 5 5 5 5 5 5 5 5 3 5 5 5 3 3 5 5 5 5 5 5 5 5 3 5 3 5 3 5 3 5 5 3 5 3 5 5 5 5 5 5 5 5 5 5 5 3 5 5 5 5 5 5 5 5 5 5 3 5 5 5 5 5 5 5 5 5 5 5 5 5 5 5 3 5 5 5 5 5 5 5 5 3 5 5 3 3 5 3 3 5 3 5 5 3 5 3 5 3 5 3 5 5 5 5 5 3 5 5 5 3 5 5 5 5 5 5 5 5 5 3 5 5 5 5 5 5 5 5 5 5 5 5 5 5 5 5 5 5 5 3 5 5 5 5 5 5 5 3 5 3 5 5 5 5 3 5 5 5 5 5 5 3 5 5 5 5 5 5 5 5 5 5 5 5 5 5 5 5 5 3 5 5 5 5 3 5 3 5 5 5 3 3 5 5 5 5 5 3 5 5 5 3 5 5 5 3 3 5 5 5 5 5 3 3 5 3 5 5 5 5 5 5 5 5 5 5 5 5 5 5 5 5 3 5 5 5 5 3 5 5 3 5 5 5 5 5 5 5 5 5 5 5 5 5 5 5 5 5 5 3 5 5 5 5 5 5 5 5 3 5 5 3 5 5 5 5 3 5 5 5 5 5 5 3 3 5 5 5 5 5 3 5 5 5 5 3 5 5 3 5 5 5 5 3 3 5 5 5 5 3 3 5 5 5 5 5 5 5 5 5 5 3 5 5 5 5 5 3 3 5 5 5 5 5 5 5 5 5 5 5 5 3 5 5 5 5 5 5 5 5 3 5 5 5 3 5 5 5 5 3 5 5 3 5 5 5 5 5 5 5 5 5 5 5 5 5 5 5 5 5 5 5 5 5 5 5 5 3 5 5 5 5 5 5 5 5 5 5 5 5 5 5 5 5 5 5 5 5 5 5 5 5 5 5 5 5 3 5 5 3 5 5 3 5 5 5 5 3 5 5 5 5 5 3 5 5 5 5 5 5 3 5 5 5 5 5 5 5 5 3 5 5 5 5 5 5 5 5 5 5 5 5 5 5 5 5 5 5 3 5 5 3 5 3 5 5 3 5 5 5 5 5 5 5 5 5 5 5 5 5 5 5 5 5 5 5 5 5 5 5 5 5 5 5 5 5 5 5 3 5 5 3 5 5 3 3 5 5 5 5 5 5 5 5 5 5 5 5 5 5 5 5 5 5 5 5 5 5 5 5 5 5 5 5 5 5 5 5 5 3 5 3 5 3 5 5 5 5 5 3 5 5 5 5 5 3 5 3 5 3 5 5 5 5 5 5 5 5 3 5 3 5 5 3 5 5 5 5 5 5 3 5 3 3 5 5 5 5 5 5 5 5 3 5 5 3 5 5 3 5 3 5 5 5 3 3 5 3 5 5 5 5 5 5 5 5 5 5 5 5 5 5 5 5 5 5 5 3 5 5 5 5 5 5 5 5 5 5 5 5 5 5 5 5 5 5 5 5 5 5 5 5 5 5 5 5 5 5 5 5 5 5 5 5 5 5 5 5 5 5 5 5 5 5 5 5 5 5 5 5 5 5 3 5 5 5 5 3 5 5 5 5 5 5 5 5 5 5 5 5 5 5 5 5 3 5 3 5 5 5 5 5 5 5 3 3 3 5 5 5 5 3 3 3 3 3 5 5 3 5 5 5 5 3 5 5 5 5 5 5 5 3 5 5 3 3 5 5 5 5 5 5 3 5 3 3 5 3 3 5 5 5 5 3 5 3 5 5 3 5 5 3 5 3 5 5 3 5 3 5 5 5 5 3 5 5 5 5 3 5 5 3 5 5 5 5 5 5 3 5 5 5 5 5 5 5 5 5 3 5 3 5 5 5 5 5 5 5 3 5 5 5 5 5 5 5 5 5 5 5 3 3 5 5 3 3 5 5 3 5 5 5 3 5 3 3 5 5 5 3 3 5 5 3 5 5 3 5 3 5 3 5 5 5 5 5 3 5 5 3 5 3 3 5 3 3 5 5 5 5 5 5 3 3 5 3 5 5 5 5 3 5 5 5 5 5 5 5 5 5 5 5 5 5 5 5 5 5 5 5 5 5 5 5 5 5 5 5 5 5 5 5 5 5 5 5 5 5 5 5 5 5 5 5 5 5 5 5 5 5 5 5 5 5 5 5 5 5 5 5 5 5 5 5 5 5 5 5 5 5 5 5 5 5 5 5 5 5 5 5 5 5 3 5 5 5 5 5 5 3 5 5 5 5 5 5 3 5 5 3 5 5 5 5 5 5 5 5 5 5 5 5 5 5 3 5 5 5 5 5 3 5 5 5 5 3 5 5 5 5 5 5 5 5 5 5 5 5 5 5 5 5 5 5 5 5 5 5 5 5 5 5 5 5 5 5 5 5 5 5 5 3 5 5 5 5 5 5 5 5 5 5 5 5 5 5 5 5 5 5 5 5 5 5 5 5 5 5 5 5 5 5 5 5 5 5 5 5 5 5 5 5 5 5 5 5 5 5 5 5 5 5 5 5 5 5 5 5 5 5 5 5 5 5 5 5 5 5 5 5 5 5 5 5 5 5 5 5 5 5 5 5 5 5 5 5 5 5 5 5 5 5 5 5 5 5 5 5 5 5 5 5 3 5 5 5 5 5 5 5 5 5 5 5 5 5 5 5 5 5 5 5 5 5 5 3 5 3 5 5 5 5 5 3 3 5 5 3 5 3 5 5 3 5 5 5 5 5 5 5 5 5 5 5 5 5 5 5 5 5 5 3 5 5 5 3 5 5 5 3 5 3 5 5 5 5 5 5 5 5 5 5 3 5 5 5 5 3 3 3 5 5 5 5 5 5 5 5 3 5 5 5 5 5 5 5 5 3 5 5 3 5 5 5 5 5 3 5 3 5 3 3 5 3 5 5 3 5 3 5 5 5 5 5 5 5 5 3 5 3 3 5 3 5 3 5 5 5 3 3 5 5 3 5 3 5 3 5 5 5 5 5 3 5 5 5 5 5 5 5 5 5 3 5 3 5 5 5 5 5 5 5 3 5 5 5 3 5 3 3 5 5 5 5 5 3 3 5 5 5 5 5 5 5 5 3 5 3 5 3 5 5 5 5 5 3 5 5 5 5 5 5 5 5 5 5 5 5 5 5 5 5 5 5 5 5 5 5 3 5 5 5 5 5 3 5 5 5 5 3 5 5 5 5 5 5 5 3 5 5 3 5 5 5 5 5 5 5 5 5 5 5 5 5 3 5 3 5 5 5 5 5 5 5 5 5 5 5 5 5 3 5 5 5 3 5 5 3 5 3 5 5 5 5 5 5 3 5 5 5 5 5 5 5 3 5 5 3 5 3 5 3 3 3 5 5 5 3 5 5 3 5 3 5 5 5 5 5 5 5 5 5 5 5 5 5 5 5 5 3 5 3 5 5 5 5 5 5 5 5 5 5 5 5 5 5 5 5 3 5 5 5 5 3 5 5 5 5 5 5 5 5 5 5 5 5 5 5 5 5 5 5 5 5 3 5 5 5 5 3 5 5 5 5 5 5 3 5 5 5 5 5 5 5 5 5 5 5 5 5 5 3 3 5 5 5 5 3 5 5 5 5 3 3 5 5 5 5 5 5 5 5 5 5 5 5 5 5 3 5 3 5 5 5 5 5 5 5 5 5 5 5 5 5 5 5 5 5 5 5 5 5 5 5 5 5 5 5 5 5 5 5 5 5 5 5 5 5 5 5 5 5 3 5 5 5 5 5 5 5 5 5 5 3 5 5 5 5 5 5 5 5 5 5 5 5 5 5 5 5 3 5 5 3 5 3 5 5 5 5 5 3 5 3 5 5 3 5 5 5 5 5 5 5 5 5 5 5 5 5 5 5 5 3 5 5 3 5 5 5 5 5 5 5 5 5 5 5 5 5 5 5 5 5 5 5 5 5 5 5 5 5 5 5 5 5 5 5 5 5 5 5 3 5 5 5 3 5 5 5 5 5 5 5 5 3 5 5 5 3 5 5 3 5 5 5 5 3 3 5 3 5 5 5 5 5 3 5 3 5 3 5 5 5 5 5 5 5 3 5 5 5 5 5 3 5 5 5 3 5 5 5 3 5 5 3 5 5 3 5 5 5 5 5 5 5 5 5 3 5 5 5 5 5 5 3 5 5 5 3 3 5 5 5 5 5 5 5 5 5 5 5 5 5 5 5 5 5 5 5 5 3 5 5 5 5 5 5 5 5 3 5 5 5 5 5 5 5 5 5 5 5 5 5 3 5 5 3 5 5 5 5 5 5 5 5 5 5 5 5 5 5 5 5 5 5 5 5 5 5 5 5 5 5 5 5 5 5 5 5 5 5 5 5 5 5 5 5 5 5 5 5 5 5 5 5 5 5 5 5 5 3 5 5 5 5 5 5 5 5 5 5 5 5 5 5 5 5 5 5 5 5 5 5 5 5 5 5 5 5 5 5 5 5 5 5 5 5 5 5 5 5 5 5 5 5 5 5 5 5 5 5 5 5 5 5 5 5 5 5 5 5 5 3 5 5 5 5 5 5 5 5 5 3 5 5 5 5 5 5 5 3 5 5 5 5 5 5 5 5 3 5 5 5 5 5 5 5 3 3 5 5 5 5 5 5 5 5 5 5 5 5 5 5 5 5 5 5 5 5 5 5 3 5 5 5 5 5 5 5 5 5 5 5 5 5 5 5 5 5 5 5 5 5 5 5 5 5 5 5 5 5 5 5 5 5 5 5 5 5 5 5 5 5 5 5 3 5 5 5 5 5 5 5 5 5 3 5 5 5 5 5 5 3 5 5 5 5 5 5 5 3 5 3 5 5 3 5 5 5 5 3 5 3 5 3 5 5 3 5 5 5 5 5 5 5 5 5 5 5 5 3 5 5 5 5 5 5 5 5 5 5 5 5 5 5 5 5 5 5 5 5 5 5 5 5 5 5 5 5 5 5 3 5 5 5 5 5 5 5 5 5 5 5 5 5 3 5 5 3 5 5 5 3 3 5 5 3 3 5 5 5 5 5 5 5 5 5 5 5 5 5 3 5 5 5 5 3 5 3 5 5 3 3 5 5 5 5 3 5 5 5 3 5 5 5 5 5 5 5 5 5 5 5 5 5 5 3 3 5 5 5 5 5 5 5 3 5 5 3 5 3 5 5 5 5 5 3 3 5 5 3 5 5 3 5 3 5 5 5 5 5 3 3 5 5 5 5 5 3 5 3 5 5 5 5 3 5 5 5 5 3 5 5 5 5 5 5 5 5 3 5 5 3 5 5 5 5 5 5 5 5 5 3 5 5 5 5 5 5 5 5 5 5 5 5 5 3 5 5 5 5 3 5 5 5 5 5 5 3 5 5 5 3 5 3 3 5 5 5 5 5 5 5 5 5 5 5 5 3 5 5 5 5 5 3 5 3 5 5 5 5 5 5 3 5 5 5 5 5 5 5 5 5 5 5 5 5 5 5 5 3 5 5 5 5 5 5 5 5 5 5 3 5 5 5 3 3 5 5 5 5 5 3 3 5 3 5 5 3 5 5 5 5 3 5 5 5 5 5 5 5 5 5 5 5 5 3 5 5 5 5 3 5 5 5 3 5 5 5 3 5 5 5 3 5 5 5 3 5 5 5 5 5 5 5 5 5 5 5 5 5 3 5 5 5 3 5 5 5 5 5 5 3 5 5 5 5 5 5 5 5 5 5 5 5 3 5 5 5 5 5 3 5 5 5 5 3 5 5 5 5 5 5 5 5 5 5 5 3 5 5 5 5 5 5 3 5 5 5 5 5 5 5 5 5 5 5 5 5 5 5 5 5 5 5 5 5 3 5 5 5 5 3 5 5 5 5 5 5 5 5 5 5 3 5 3 5 5 5 5 3 5 5 5 5 5 5 5 5 3 5 5 5 5 5 3 5 5 5 3 5 5 5 5 5 3 5 5 5 5 5 5 3 3 5 5 5 3 5 5 3 3 3 5 5 5 3 5 5 5 3 5 5 5 5 5 5 5 5 5 5 5 3 3 5 5 5 5 3 5 5 5 5 5 5 5 5 5 5 5 5 5 3 5 5 5 3 5 5 5 5 5 5 5 5 3 5 5 3 5 5 5 5 5 5 3 5 5 5 5 3 5 5 3 3 5 3 3 5 5 3 5 5 3 5 5 5 5 5 5 5 5 3 5 5 5 3 5 5 5 5 5 5 5 5 5 5 5 5 5 5 5 5 5 5 5 5 5 5 5 5 5 5 5 5 5 5 5 5 5 3 5 5 5 5 5 5 5 5 5 5 5 5 5 5 5 5 5 3 5 5 5 5 5 5 5 5 5 3 5 5 5 5 5 3 5 3 5 5 5 5 5 5 5 5 5 5 5 5 5 5 5 5 5 5 5 5 5 3 5 5 5 5 5 5 5 5 5 5 5 3 3 5 5 5 3 5 5 5 5 5 5 5 5 5 3 5 5 5 5 5 5 5 3 5 3 5 5 5 5 5 5 5 5 5 5 5 5 5 5 5 5 5 5 5 5 5 5 3 5 5 5 5 5 5 5 5 5 5 5 5 5 5 5 5 5 5 5 3 5 5 5 5 5 5 5 5 5 5 5 5 5 5 5 5 5 5 5 5 5 5 5 5 5 5 5 5 5 5 5 5 5 5 5 5 5 5 5 5 5 5 5 5 5 5 5 5 5 5 5 5 5 5 5 5 5 5 5 5 5 5 5 5 5 5 5 5 5 5 5 5 5 5 5 5 5 5 5 5 5 5 5 5 5 5 5 5 5 5 5 5 5 5 5 5 5 5 5 5 5 5 5 5 5 5 5 3 3 5 5 5 5 5 5 3 3 5 5 5 5 5 5 5 5 5 5 5 5 5 5 3 5 5 5 5 5 5 5 5 5 5 5 5 5 5 5 5 5 3 5 5 5 5 5 5 5 5 5 5 3 5 5 5 3 5 5 5 5 5 5 5 5 5 5 5 5 5 5 5 3 5 5 3 5 5 5 5 5 5 5 5 5 5 5 5 5 5 5 5 3 5 5 3 5 5 5 5 5 3 5 5 5 5 5 5 3 3 5 5 5 3 5 5 3 3 5 5 5 5 3 3 5 5 5 3 5 5 5 5 5 5 3 3 5 5 3 5 3 3 5 5 5 5 3 5 5 3 5 5 5 5 3 5 5 5 5 5 5 5 3 5 5 5 5 5 5 5 5 5 5 5 5 5 5 5 5 5 5 5 3 5 5 5 5 3 5 5 5 5 5 3 5 5 5 5 3 5 5 5 5 3 5 5 5 5 5 3 5 5 5 5 3 5 5 5 5 5 5 3 5 5 3 3 5 5 3 5 5 5 5 3 5 3 5 5 5 3 3 3 5 5 5 5 5 3 5 5 3 5 5 5 5 5 5 5 5 5 5 5 3 5 5 5 5 5 3 5 3 3 5 5 5 3 3 5 5 3 5 5 5 3 5 3 5 5 5 3 5 5 5 3 3 5 5 5 5 5 5 5 5 5 5 5 5 5 5 5 5 5 5 5 5 5 5 5 5 5 5 5 5 5 5 5 5 5 5 5 5 5 5 5 5 5 5 5 5 5 5 5 5 5 3 5 5 3 5 5 5 3 5 5 5 5 3 5 5 5 3 5 5 3 5 5 5 3 5 3 5 3 5 5 5 5 5 3 5 5 5 5 5 5 5 5 5 5 5 5 5 5 5 5 3 5 5 3 5 5 5 5 5 5 3 5 5 3 5 5 5 5 3 3 3 3 5 5 5 5 5 5 5 5 3 3 5 5 5 5 3 5 5 5 5 5 5 5 3 5 5 5 5 5 5 5 5 5 5 5 5 5 5 5 5 5 5 5 5 5 5 5 5 5 5 5 5 5 5 5 5 5 5 5 5 5 5 5 5 5 5 5 5 5 5 5 5 5 5 5 5 5 5 5 5 5 5 5 5 5 5 3 5 5 5 5 5 3 3 5 5 5 3 5 5 3 5 3 5 5 3 5 5 5 5 5 5 5 5 5 5 5 5 5 5 5 5 5 5 5 5 5 5 5 5 5 5 5 5 5 5 3 5 5 5 5 5 5 3 5 5 5 3 5 5 5 5 5 5 5 3 5 5 5 5 5 5 5 5 3 5 5 3 5 5 5 5 5 5 5 5 5 5 5 5 5 5 5 5 5 5 5 5 5 5 5 5 5 5 3 5 5 5 5 5 5 5 5 5 3 5 5 5 5 5 5 5 5 5 3 5 3 5 5 3 5 3 5 5 5 5 5 5 5 3 5 5 5 5 5 5 5 5 5 5 5 5 5 5 5 3 5 5 3 5 5 5 5 5 3 5 5 3 5 5 3 3 5 5 3 5 5 5 3 5 3 5 5 5 5 3 5 5 5 5 5 5 5 5 5 3 5 5 5 5 5 5 5 5 3 5 5 5 5 3 5 3 5 5 5 5 5 3 5 3 3 5 5 3 5 5 5 5 5 3 5 3 5 5 5 5 5 3 5 5 3 5 3 5 5 5 5 5 5 3 5 5 5 5 3 5 5 3 3 5 5 5 5 5 5 3 5 5 5 5 5 5 5 5 5 5 3 5 5 5 3 5 5 5 5 5 5 5 5 5 5 3 5 5 5 5 5 5 5 5 5 5 5 5 5 5 5 5 5 5 3 5 5 5 5 5 3 5 3 5 5 5 5 5 5 5 5 5 5 3 5 5 5 3 5 5 5 5 5 5 5 5 5 5 5 5 5 5 5 5 3 5 5 5 5 5 5 5 3 5 5 5 5 3 5 5 5 5 3 5 5 3 5 5 3 5 5 5 5 3 3 5 5 5 5 5 5 5 5 5 5 5 5 5 5 5 5 5 5 5 5 5 3 5 5 5 5 3 5 5 5 5 5 5 5 5 3 5 3 3 5 5 5 3 5 5 5 5 5 5 5 5 5 3 5 3 5 5 5 3 5 5 3 5 3 5 5 5 5 3 3 5 5 5 5 3 5 3 3 5 5 5 5 5 5 5 5 5 5 5 5 5 5 5 5 3 5 5 5 5 5 5 5 5 5 5 5 5 5 5 5 5 5 5 5 5 5 5 5 5 5 5 5 5 5 5 5 5 5 5 5 5 5 3 5 5 5 5 5 3 5 5 5 3 5 5 5 5 5 5 3 3 5 5 5 5 3 5 5 5 5 5 5 5 3 5 5 5 5 5 3 5 5 5 3 5 5 5 5 3 5 5 5 5 5 5 3 5 5 5 5 5 5 5 5 5 5 5 3 5 5 5 5 5 5 5 5 5 5 5 5 5 5 3 5 5 3 5 3 3 5 5 5 5 5 5 5 5 5 5 5 5 5 5 5 5 5 5 5 5 5 3 5 5 5 5 5 5 5 5 5 5 5 5 5 5 5 5 5 5 5 5 5 5 5 5 5 5 5 5 5 5 5 5 5 5 5 5 5 5 5 5 5 5 5 5 5 5 5 5 5 5 5 5 5 5 5 5 5 5 5 5 5 5 5 5 5 5 3 5 5 5 5 3 3 5 5 5 5 3 5 5 5 5 5 5 5 5 5 5 5 5 3 5 5 5 5 5 5 5 5 5 5 5 5 3 5 5 5 5 5 5 5 5 5 5 3 5 5 3 5 5 5 5 5 5 5 5 5 5 5 5 5 5 5 5 5 5 5 5 5 5 5 5 5 3 5 5 3 5 5 3 5 5 5 5 5 5 3 5 5 5 5 3 5 5 5 5 5 5 5 5 5 5 5 5 5 5 5 5 5 5 5 5 5 3 5 5 5 5 5 5 5 5 5 5 5 5 5 5 5 3 5 3 5 5 5 5 5 5 5 5 5 5 5 5 5 3 5 5 5 5 5 5 3 5 5 3 5 5 5 5 5 5 5 5 3 5 5 5 5 5 5 3 5 5 5 5 5 5 5 5 5 5 5 5 5 5 5 5 5 5 5 5 5 5 3 5 5 5 5 5 5 5 5 5 5 5 5 5 5 5 5 5 5 5 5 5 5 3 5 5 5 5 3 5 5 3 5 5 3 5 5 5 5 5 3 3 5 3 3 5 5 5 3 5 5 3 5 5 5 5 5 5 5 5 5 5 5 5 5 5 5 5 5 5 5 5 5 5 5 5 5 5 5 5 5 5 5 5 5 5 5 5 5 5 5 5 5 5 5 5 5 5 3 5 5 5 5 5 5 5 5 5 5 5 5 5 3 5 5 3 3 5 5 5 5 5 5 5 3 5 5 3 5 5 5 3 5 5 5 3 5 5 5 5 5 5 5 5 5 5 5 5 5 5 5 5 5 5 5 5 5 3 5 5 5 5 3 5 3 5 3 5 5 3 3 5 5 5 5 5 5 5 3 5 3 5 5 5 5 5 5 5 5 5 3 5 3 5 5 5 3 5 5 3 5 3 5 5 5 3 5 5 5 5 5 5 5 5 5 5 5 3 5 5 5 5 3 5 5 5 5 5 5 5 5 5 5 5 5 5 5 5 5 5 5 5 5 3 5 5 5 3 5 3 3 3 5 5 5 5 5 5 5 5 5 5 5 5 3 5 5 3 5 3 5 3 5 5 3 5 5 5 5 3 5 5 5 5 5 5 5 3 5 5 5 5 5 5 5 5 5 5 3 5 5 5 5 5 5 5 5 5 5 5 5 5 3 5 5 5 3 3 3 5 5 5 5 5 5 3 5 5 5 5 5 3 5 5 5 5 5 5 3 5 5 3 5 5 3 5 5 5 3 5 5 3 5 5 5 3 5 5 3 3 5 5 5 5 3 5 5 5 5 5 5 5 5 5 5 5 5 5 5 5 5 5 5 5 5 5 5 5 5 5 5 5 5 5 5 5 3 5 5 5 5 5 5 5 5 3 5 5 5 5 5 5 5 5 5 5 5 3 5 5 5 5 5 5 5 5 5 5 5 5 5 5 5 5 5 3 5 5 5 5 5 3 5 5 3 5 5 5 5 5 5 3 5 5 5 3 5 5 3 5 5 5 3 5 3 5 5 5 5 3 5 5 5 5 5 3 3 5 5 5 5 5 5 5 5 5 5 5 5 3 5 5 5 5 5 5 5 5 5 5 5 5 5 3 5 5 5 3 5 5 3 5 5 3 5 3 5 5 3 5 5 5 5 3 3 5 3 5 5 5 5 5 5 5 5 5 5 5 5 5 3 5 5 5 5 5 3 5 5 5 5 5 5 5 5 5 5 5 5 5 5 5 5 5 5 5 5 5 5 5 5 5 5 5 5 5 5 5 3 5 5 5 5 3 5 5 5 3 5 5 5 5 5 5 5 5 5 5 5 5 5 5 5 3 5 5 5 5 5 5 5 5 5 5 5 5 5 5 3 3 5 3 5 3 5 5 5 5 5 5 5 5 5 5 5 3 5 5 5 5 5 3 5 5 5 5 5 5 3 5 5 5 5 5 5 5 5 5 5 5 5 5 5 5 5 5 5 5 5 5 5 5 5 3 5 5 5 5 5 3 5 5 5 5 5 5 5 5 5 5 5 5 5 5 5 5 5 5 5 5 5 5 5 5 3 5 5 5 3 5 5 5 5 5 5 5 5 5 5 5 5 5 5 5 5 5 5 5 5 5 5 5 5 5 5 5 5 5 5 3 5 5 3 5 5 5 5 5 5 5 5 5 3 5 3 5 5 5 5 5 5 5 5 3 5 5 5 3 5 5 5 5 5 5 3 5 5 5 3 5 5 5 5 5 5 5 5 5 5 5 5 5 5 5 5 5 5 5 5 5 5 3 5 5 5 5 5 5 3 5 5 5 3 3 5 5 5 5 5 5 3 3 5 3 5 3 5 5 3 5 3 5 5 5 5 3 3 5 5 5 5 5 5 5 5 5 3 5 5 5 5 5 3 5 5 5 5 5 5 5 5 5 5 3 5 3 5 5 5 5 5 5 5 5 5 5 5 5 5 5 5 5 5 5 5 5 5 5 5 5 3 5 5 5 5 5 5 5 5 5 5 5 3 5 3 5 5 5 5 5 5 5 5 5 5 5 3 5 5 5 3 5 5 5 3 5 5 5 5 5 5 5 5 5 5 5 5 5 5 5 5 5 5 3 5 3 5 5 5 5 5 3 5 3 5 5 5 3 5 5 5 5 5 5 3 5 5 3 5 5 5 5 5 5 5 5 5 5 5 5 5 5 5 5 5 5 5 5 5 5 5 5 5 5 5 5 5 5 5 5 5 5 5 5 5 5 5 5 5 5 5 5 5 5 5 5 5 5 5 5 5 5 3 5 5 5 5 5 3 5 5 5 5 5 5 5 5 5 5 5 5 5 5 5 5 5 5 5 5 5 5 5 5 5 5 5 5 5 5 5 5 5 5 5 5 5 5 5 5 5 5 5 5 5 5 5 5 5 5 5 5 5 5 5 5 5 5 5 5 5 5 3 5 5 5 5 3 5 5 5 5 5 5 5 5 5 5 5 5 5 5 5 5 5 3 5 5 5 3 5 3 5 5 5 5 5 5 5 5 5 5 5 5 5 5 5 5 3 5 5 5 5 3 5 5 5 5 5 5 5 5 5 5 5 5 5 5 5 5 5 3 5 3 5 5 3 3 5 3 5 5 5 5 3 5 5 5 3 5 5 5 5 5 5 5 5 3 5 5 5 3 5 5 5 5 5 3 5 5 5 3 3 5 5 5 3 5 3 5 5 5 5 5 5 5 5 5 5 5 5 5 5 5 5 5 5 5 5 5 5 5 5 3 3 5 5 5 5 5 3 3 5 5 5 5 5 3 5 5 5 5 5 5 5 5 5 5 5 5 5 3 5 5 5 5 5 3 5 5 5 5 5 3 5 5 5 5 5 5 5 5 5 5 5 3 5 5 5 5 5 5 5 5 5 5 5 5 3 3 5 5 5 5 5 5 5 5 5 5 3 5 5 5 5 5 3 5 5 5 5 5 5 5 5 5 3 5 3 5 5 5 5 5 5 5 5 5 5 5 5 5 3 5 5 5 3 5 3 5 5 5 3 5 3 5 5 5 5 5 5 5 5 5 3 5 5 5 5 5 5 5 5 5 5 5 5 5 5 5 5 5 5 5 5 5 5 5 5 5 3 5 5 5 5 5 5 5 5 3 5 5 3 5 5 3 5 3 5 5 3 5 5 5 3 5 5 5 5 5 5 5 5 5 5 3 5 5 5 5 5 3 5 3 5 3 5 5 5 5 5 5 5 3 3 5 5 5 3 3 5 3 5 5 5 5 5 3 5 5 3 5 5 5 5 5 5 3 5 5 5 3 5 5 5 5 5 3 5 3 5 3 5 5 5 5 5 5 5 5 5 5 5 5 5 5 5 5 5 5 5 5 5 5 5 5 5 5 5 5 5 3 5 5 5 5 5 5 5 3 5 5 5 3 5 3 5 5 3 5 5 5 3 5 5 5 5 3 5 5 5 5 5 5 5 5 5 5 5 5 5 3 5 5 5 5 5 5 3 5 5 5 5 5 5 5 5 5 5 5 5 3 5 5 5 5 5 5 3 5 5 5 5 5 5 3 5 3 5 5 5 3 5 5 5 5 5 5 3 5 5 5 5 5 5 5 5 5 5 5 5 5 5 5 5 3 5 5 5 5 5 5 5 5 5 
</DataArray>
</Cells>
<PointData Scalars="" Vectors="displacement," Tensors="">
<DataArray type="Float64" Name="displacement" NumberOfComponents="3" format="ascii">
-0.024896616419558232 9.2580236927001287e-06 0 -0.023941159712714519 -8.2914898468393379e-05 0 -0.022876011274668245 -8.6837573924227186e-07 0 -0.024896616419558232 9.2580236927001287e-06 0 -0.024916110346259755 1.8733631629214167e-05 0 -0.025000089250731661 8.523944691674445e-09 0 -0.024896616419558232 9.2580236927001287e-06 0 -0.024998304996210682 2.4258205418020862e-07 0 -0.025000089250731661 8.523944691674445e-09 0 -0.024896616419558232 9.2580236927001287e-06 0 -0.024998304996210682 2.4258205418020862e-07 0 -0.022876011274668245 -8.6837573924227186e-07 0 -0.024896616419558232 9.2580236927001287e-06 0 -0.023941159712714519 -8.2914898468393379e-05 0 -0.023456246787466231 -3.4113751112460276e-06 0 -0.024772656483727527 2.9902623138763231e-05 0 -0.024226789008049043 -2.8901360917433719e-05 0 -0.023941159712714519 -8.2914898468393379e-05 0 -0.023522504959523509 -0.0001502815351057675 0 -0.023456246787466231 -3.4113751112460276e-06 0 -0.023941159712714519 -8.2914898468393379e-05 0 -0.023522504959523509 -0.0001502815351057675 0 -0.022876011274668245 -8.6837573924227186e-07 0 -0.022876011274668245 -8.6837573924227186e-07 0 -0.021312774872821082 1.213397139443301e-06 0 -0.022510017279075173 -4.0315780315853629e-05 0 -0.023522504959523509 -0.0001502815351057675 0 -0.022972495895031773 -6.5237190488783844e-05 0 -0.022928167842633473 -5.3813680295843788e-05 0 -0.023522504959523509 -0.0001502815351057675 0 -0.022876011274668245 -8.6837573924227186e-07 0 -0.022972495895031773 -6.5237190488783844e-05 0 -0.022972495895031773 -6.5237190488783844e-05 0 -0.022510017279075173 -4.0315780315853629e-05 0 -0.022813693275220689 3.3281326863410025e-05 0 -0.022876011274668245 -8.6837573924227186e-07 0 -0.022972495895031773 -6.5237190488783844e-05 0 -0.022510017279075173 -4.0315780315853629e-05 0 -0.023625691636000607 -0.00012751598443741757 0 -0.023710906877054305 -7.4781482549759727e-05 0 -0.023623360250036161 3.701218883232588e-07 0 -0.023625691636000607 -0.00012751598443741757 0 -0.023507732287453367 -0.0001360499452155543 0 -0.023623360250036161 3.701218883232588e-07 0 -0.022972495895031773 -6.5237190488783844e-05 0 -0.022928167842633473 -5.3813680295843788e-05 0 -0.022813693275220689 3.3281326863410025e-05 0 -0.023237955788260437 -0.00011858517334976627 0 -0.023271630134189411 9.5264483344703876e-05 0 -0.022928167842633473 -5.3813680295843788e-05 0 -0.022813693275220689 3.3281326863410025e-05 0 -0.02291528961572244 0.0001732012956601802 0 -0.023522504959523509 -0.0001502815351057675 0 -0.023507732287453367 -0.0001360499452155543 0 -0.023485012520980054 -0.00015679926928882177 0 -0.023448711603932068 -0.00015184090249711684 0 -0.023237955788260437 -0.00011858517334976627 0 -0.023507732287453367 -0.0001360499452155543 0 -0.023539265954391455 -0.00016175449964748513 0 -0.023485012520980054 -0.00015679926928882177 0 -0.023305686574912218 -0.0001565754448256307 0 -0.024148219555809133 -6.6135323713720546e-05 0 -0.023539265954391455 -0.00016175449964748513 0 -0.023485012520980054 -0.00015679926928882177 0 -0.023594041566302296 -0.00021954301007710448 0 -0.023625691636000607 -0.00012751598443741757 0 -0.023539265954391455 -0.00016175449964748513 0 -0.023594041566302296 -0.00021954301007710448 0 -0.023625691636000607 -0.00012751598443741757 0 -0.023507732287453367 -0.0001360499452155543 0 -0.023539265954391455 -0.00016175449964748513 0 -0.023625691636000607 -0.00012751598443741757 0 -0.023594041566302296 -0.00021954301007710448 0 -0.023776721552089864 -0.00015947946887402668 0 -0.024148219555809133 -6.6135323713720546e-05 0 -0.024226789008049043 -2.8901360917433719e-05 0 -0.023485012520980054 -0.00015679926928882177 0 -0.023404026097037848 -0.00017137418302725209 0 -0.023456246787466231 -3.4113751112460276e-06 0 -0.023522504959523509 -0.0001502815351057675 0 -0.023485012520980054 -0.00015679926928882177 0 -0.023456246787466231 -3.4113751112460276e-06 0 -0.02493446249765735 2.7122391918062303e-05 0 -0.025000089250731661 8.523944691674445e-09 0 -0.024958631423531354 2.3131601025766939e-05 0 -0.02493446249765735 2.7122391918062303e-05 0 -0.024916110346259755 1.8733631629214167e-05 0 -0.025000089250731661 8.523944691674445e-09 0 -0.025000089250731661 8.523944691674445e-09 0 -0.024954749107097489 1.1081120911428657e-05 0 -0.024958631423531354 2.3131601025766939e-05 0 -0.025000089250731661 8.523944691674445e-09 0 -0.024954749107097489 1.1081120911428657e-05 0 -0.024825432814279656 5.2889903009427719e-05 0 -0.024781691683176042 2.5126313173007763e-05 0 -0.024836541548354848 4.6098250400132146e-05 0 -0.02472340464514965 0.00010101272632254088 0 -0.024661086556992826 3.2798253003195637e-05 0 -0.024825432814279656 5.2889903009427719e-05 0 -0.02472340464514965 0.00010101272632254088 0 -0.024661086556992826 3.2798253003195637e-05 0 -0.024601980496816545 8.3850297228876513e-05 0 -0.02472340464514965 0.00010101272632254088 0 -0.024639805679489878 0.00017391303884355379 0 -0.024601980496816545 8.3850297228876513e-05 0 -0.02472340464514965 0.00010101272632254088 0 -0.024639805679489878 0.00017391303884355379 0 -0.024752535160459697 0.00015583010028554382 0 -0.02472340464514965 0.00010101272632254088 0 -0.024752968446168571 0.00010454894101376465 0 -0.024752535160459697 0.00015583010028554382 0 -0.024374865114584202 2.4828886475361128e-05 0 -0.024513740802733074 0.00010929857372208987 0 -0.024529136989737233 2.568588357876338e-05 0 -0.024148219555809133 -6.6135323713720546e-05 0 -0.024112173016259321 -3.7051017709582127e-05 0 -0.024148219555809133 -6.6135323713720546e-05 0 -0.024852530853542096 3.2890855770483907e-05 0 -0.024661086556992826 3.2798253003195637e-05 0 -0.024529136989737233 2.568588357876338e-05 0 -0.024601980496816545 8.3850297228876513e-05 0 -0.024513740802733074 0.00010929857372208987 0 -0.024529136989737233 2.568588357876338e-05 0 -0.024601980496816545 8.3850297228876513e-05 0 -0.024781691683176042 2.5126313173007763e-05 0 -0.024852530853542096 3.2890855770483907e-05 0 -0.024303248418088137 5.9421913993582559e-05 0 -0.024112173016259321 -3.7051017709582127e-05 0 -0.024639805679489878 0.00017391303884355379 0 -0.024513740802733074 0.00010929857372208987 0 -0.024601980496816545 8.3850297228876513e-05 0 -0.023947222347689475 -7.5486647812447215e-05 0 -0.023776721552089864 -0.00015947946887402668 0 -0.02379366035988004 -1.0749276531209156e-05 0 -0.023776721552089864 -0.00015947946887402668 0 -0.023710906877054305 -7.4781482549759727e-05 0 -0.02379366035988004 -1.0749276531209156e-05 0 -0.023625691636000607 -0.00012751598443741757 0 -0.023776721552089864 -0.00015947946887402668 0 -0.023710906877054305 -7.4781482549759727e-05 0 -0.023710906877054305 -7.4781482549759727e-05 0 -0.02379366035988004 -1.0749276531209156e-05 0 -0.023623360250036161 3.701218883232588e-07 0 -0.02379366035988004 -1.0749276531209156e-05 0 -0.023735453090422437 0.00012053291639693795 0 -0.023623360250036161 3.701218883232588e-07 0 -0.023947222347689475 -7.5486647812447215e-05 0 -0.02379366035988004 -1.0749276531209156e-05 0 -0.02397270428092543 4.6493636429507853e-05 0 -0.023858096346131379 0.00010671882669533131 0 -0.02397270428092543 4.6493636429507853e-05 0 -0.023947815530662709 0.00017235662011854414 0 -0.02379366035988004 -1.0749276531209156e-05 0 -0.023858096346131379 0.00010671882669533131 0 -0.02397270428092543 4.6493636429507853e-05 0 -0.02379366035988004 -1.0749276531209156e-05 0 -0.023858096346131379 0.00010671882669533131 0 -0.023735453090422437 0.00012053291639693795 0 -0.024303248418088137 5.9421913993582559e-05 0 -0.024398741442047133 7.5037114849098866e-05 0 -0.024398741442047133 7.5037114849098866e-05 0 -0.024686644252292132 0.0001567678551028545 0 -0.024639805679489878 0.00017391303884355379 0 -0.024727272821989988 0.00022087421408219332 0 -0.024752535160459697 0.00015583010028554382 0 -0.023947222347689475 -7.5486647812447215e-05 0 -0.024095104201912586 1.2203451446424687e-05 0 -0.02397270428092543 4.6493636429507853e-05 0 -0.02397270428092543 4.6493636429507853e-05 0 -0.024051363406105995 0.00013938340997503065 0 -0.023947815530662709 0.00017235662011854414 0 -0.024398741442047133 7.5037114849098866e-05 0 -0.024063962058496847 0.00013183024552784547 0 -0.024095104201912586 1.2203451446424687e-05 0 -0.02397270428092543 4.6493636429507853e-05 0 -0.024051363406105995 0.00013938340997503065 0 -0.024176606041217095 -2.7810946303910625e-05 0 -0.024122659903433385 0.00013090738077280333 0 -0.024232633831494949 0.00015759103816653913 0 -0.024122659903433385 0.00013090738077280333 0 -0.024148368960024588 0.00022191989791022675 0 -0.024232633831494949 0.00015759103816653913 0 -0.024051363406105995 0.00013938340997503065 0 -0.023947815530662709 0.00017235662011854414 0 -0.024056225882396101 0.00025803614069811311 0 -0.024063962058496847 0.00013183024552784547 0 -0.024059220876433061 0.00025359452408636312 0 -0.023947815530662709 0.00017235662011854414 0 -0.023944847809264199 0.000274317162284024 0 -0.024056225882396101 0.00025803614069811311 0 -0.023944847809264199 0.000274317162284024 0 -0.024056225882396101 0.00025803614069811311 0 -0.024016915317136064 0.00033883273187062976 0 -0.024056225882396101 0.00025803614069811311 0 -0.024145721712610858 0.00029508920520822574 0 -0.024016915317136064 0.00033883273187062976 0 -0.024122659903433385 0.00013090738077280333 0 -0.024056225882396101 0.00025803614069811311 0 -0.024148368960024588 0.00022191989791022675 0 -0.024056225882396101 0.00025803614069811311 0 -0.024126399796019049 0.00026088593456253856 0 -0.024148368960024588 0.00022191989791022675 0 -0.024145721712610858 0.00029508920520822574 0 -0.0241434889063647 0.00025985083862037329 0 -0.024147774377978076 0.00027125026632601279 0 -0.024126399796019049 0.00026088593456253856 0 -0.0241434889063647 0.00025985083862037329 0 -0.024148368960024588 0.00022191989791022675 0 -0.024056225882396101 0.00025803614069811311 0 -0.024126399796019049 0.00026088593456253856 0 -0.024145721712610858 0.00029508920520822574 0 -0.024126399796019049 0.00026088593456253856 0 -0.024145721712610858 0.00029508920520822574 0 -0.0241434889063647 0.00025985083862037329 0 -0.0241434889063647 0.00025985083862037329 0 -0.024148396566823532 0.00023961138427487378 0 -0.024147774377978076 0.00027125026632601279 0 -0.0241434889063647 0.00025985083862037329 0 -0.024148368960024588 0.00022191989791022675 0 -0.024148396566823532 0.00023961138427487378 0 -0.023234887917615341 0.00020566109806712459 0 -0.023685363099997293 0.00052859180379081041 0 -0.022869904071178809 0.00042593510983092556 0 -0.022752800638016275 0.00044548099884423882 0 -0.022815014512069354 0.00046047005666605996 0 -0.023858096346131379 0.00010671882669533131 0 -0.023735453090422437 0.00012053291639693795 0 -0.023832937031913509 0.00023675074718959799 0 -0.023858096346131379 0.00010671882669533131 0 -0.023947815530662709 0.00017235662011854414 0 -0.023832937031913509 0.00023675074718959799 0 -0.023685363099997293 0.00052859180379081041 0 -0.020494198726602231 7.5404711107085297e-05 0 -0.023947815530662709 0.00017235662011854414 0 -0.023944847809264199 0.000274317162284024 0 -0.023832937031913509 0.00023675074718959799 0 -0.023944847809264199 0.000274317162284024 0 -0.023832937031913509 0.00023675074718959799 0 -0.023919076503503868 0.00040088958180580549 0 -0.022752800638016275 0.00044548099884423882 0 -0.022815014512069354 0.00046047005666605996 0 -0.022738876706407153 0.00035708804463139437 0 -0.020764758526441714 0.00045756506340518117 0 -0.018195068799278055 0.00040483892784216424 0 -0.017980337744384359 0.00020099948870047962 0 -0.017945801862470682 0.00030063481255868357 0 -0.018175480695549983 0.0003392741387926366 0 -0.022815014512069354 0.00046047005666605996 0 -0.022729490748748273 0.00051462740962080638 0 -0.02282369630247412 0.00041716989095089922 0 -0.022869904071178809 0.00042593510983092556 0 -0.022815014512069354 0.00046047005666605996 0 -0.02282369630247412 0.00041716989095089922 0 -0.017980337744384359 0.00020099948870047962 0 -0.01770039928854324 0.0001840880249519077 0 -0.017945801862470682 0.00030063481255868357 0 -0.020764758526441714 0.00045756506340518117 0 -0.020324900701096108 0.00031588066793738774 0 -0.017980337744384359 0.00020099948870047962 0 -0.018030506152879319 0.00023012424117567425 0 -0.01770039928854324 0.0001840880249519077 0 -0.018679176445257004 7.2225716163606412e-05 0 -0.01770039928854324 0.0001840880249519077 0 -0.018457680422166493 -2.9985848515619672e-08 0 -0.018030506152879319 0.00023012424117567425 0 -0.018679176445257004 7.2225716163606412e-05 0 -0.01770039928854324 0.0001840880249519077 0 -0.018679176445257004 7.2225716163606412e-05 0 -0.019883617152760782 -7.6027724243605844e-08 0 -0.018457680422166493 -2.9985848515619672e-08 0 -0.018679176445257004 7.2225716163606412e-05 0 -0.019883617152760782 -7.6027724243605844e-08 0 -0.0192542176951233 0.00039299321999855909 0 -0.018030506152879319 0.00023012424117567425 0 -0.018679176445257004 7.2225716163606412e-05 0 -0.0192542176951233 0.00039299321999855909 0 -0.020324900701096108 0.00031588066793738774 0 -0.020780376669659036 0.00036503465584289765 0 -0.022729490748748273 0.00051462740962080638 0 -0.02239420813049374 0.0005260447830783548 0 -0.022743429324669742 0.00029241767792995512 0 -0.019883617152760782 -7.6027724243605844e-08 0 -0.0192542176951233 0.00039299321999855909 0 -0.02130821755036624 1.494327338666334e-06 0 -0.020780376669659036 0.00036503465584289765 0 -0.021309657791214281 2.5795500412438177e-08 0 -0.02239420813049374 0.0005260447830783548 0 -0.021312774872821082 1.213397139443301e-06 0 -0.022510017279075173 -4.0315780315853629e-05 0 -0.02239420813049374 0.0005260447830783548 0 -0.022510017279075173 -4.0315780315853629e-05 0 -0.022743429324669742 0.00029241767792995512 0 -0.022510017279075173 -4.0315780315853629e-05 0 -0.022813693275220689 3.3281326863410025e-05 0 -0.022743429324669742 0.00029241767792995512 0 -0.022813693275220689 3.3281326863410025e-05 0 -0.02291528961572244 0.0001732012956601802 0 -0.022743429324669742 0.00029241767792995512 0 -0.023234887917615341 0.00020566109806712459 0 -0.023271630134189411 9.5264483344703876e-05 0 -0.022869904071178809 0.00042593510983092556 0 -0.02291528961572244 0.0001732012956601802 0 -0.02282369630247412 0.00041716989095089922 0 -0.02291528961572244 0.0001732012956601802 0 -0.02282369630247412 0.00041716989095089922 0 -0.022743429324669742 0.00029241767792995512 0 -0.022729490748748273 0.00051462740962080638 0 -0.02282369630247412 0.00041716989095089922 0 -0.022743429324669742 0.00029241767792995512 0 -0.024176617053826167 0.00091157638676690137 0 -0.024396921213785696 0.0013027619935001983 0 -0.024845728183517934 0.00038622558446646635 0 -0.024176617053826167 0.00091157638676690137 0 -0.024446897508238041 0.00016043786549732611 0 -0.024845728183517934 0.00038622558446646635 0 -0.024331586009889904 0.0002346866139312146 0 -0.023840466789507353 0.0008319918438752168 0 -0.024446897508238041 0.00016043786549732611 0 -0.024565768877731362 0.00016740267315565677 0 -0.024524853849331753 0.00020301983181477573 0 -0.024176617053826167 0.00091157638676690137 0 -0.024446897508238041 0.00016043786549732611 0 -0.023084773141994263 0.0013830925709545502 0 -0.024446897508238041 0.00016043786549732611 0 -0.02474542422395757 0.00010668834584935163 0 -0.024565768877731362 0.00016740267315565677 0 -0.024446897508238041 0.00016043786549732611 0 -0.024735097157528106 6.9947950464387208e-05 0 -0.02474542422395757 0.00010668834584935163 0 -0.024446897508238041 0.00016043786549732611 0 -0.024735097157528106 6.9947950464387208e-05 0 -0.024845728183517934 0.00038622558446646635 0 -0.024735097157528106 6.9947950464387208e-05 0 -0.024999893870380346 1.0821682601220555e-07 0 -0.02474542422395757 0.00010668834584935163 0 -0.024999893870380346 1.0821682601220555e-07 0 -0.02474542422395757 0.00010668834584935163 0 -0.024999189214433518 1.8381575941416601e-07 0 -0.02474542422395757 0.00010668834584935163 0 -0.024681722021392238 0.00013964671586850827 0 -0.024999189214433518 1.8381575941416601e-07 0 -0.02474542422395757 0.00010668834584935163 0 -0.024681722021392238 0.00013964671586850827 0 -0.024565768877731362 0.00016740267315565677 0 -0.024681722021392238 0.00013964671586850827 0 -0.024565768877731362 0.00016740267315565677 0 -0.024448792564510442 0.00026139918278087967 0 -0.024681722021392238 0.00013964671586850827 0 -0.024568599339502232 0.00021546099984741528 0 -0.024448792564510442 0.00026139918278087967 0 -0.025000089250731661 8.523944691674445e-09 0 -0.024999189214433518 1.8381575941416601e-07 0 -0.024824866908864544 6.9868571359833431e-05 0 -0.024681722021392238 0.00013964671586850827 0 -0.024722355911991057 0.00013047057298607467 0 -0.024568599339502232 0.00021546099984741528 0 -0.024722355911991057 0.00013047057298607467 0 -0.02458587270591173 0.00021489520731539035 0 -0.024568599339502232 0.00021546099984741528 0 -0.024722355911991057 0.00013047057298607467 0 -0.024683773189531018 0.00013247961831914959 0 -0.02458587270591173 0.00021489520731539035 0 -0.024681722021392238 0.00013964671586850827 0 -0.024722355911991057 0.00013047057298607467 0 -0.024999189214433518 1.8381575941416601e-07 0 -0.024722355911991057 0.00013047057298607467 0 -0.024999189214433518 1.8381575941416601e-07 0 -0.024824866908864544 6.9868571359833431e-05 0 -0.025000089250731661 8.523944691674445e-09 0 -0.024824866908864544 6.9868571359833431e-05 0 -0.024825432814279656 5.2889903009427719e-05 0 -0.024824866908864544 6.9868571359833431e-05 0 -0.024825432814279656 5.2889903009427719e-05 0 -0.024752968446168571 0.00010454894101376465 0 -0.024824866908864544 6.9868571359833431e-05 0 -0.024752968446168571 0.00010454894101376465 0 -0.024683773189531018 0.00013247961831914959 0 -0.02472340464514965 0.00010101272632254088 0 -0.024825432814279656 5.2889903009427719e-05 0 -0.024752968446168571 0.00010454894101376465 0 -0.024722355911991057 0.00013047057298607467 0 -0.024824866908864544 6.9868571359833431e-05 0 -0.024683773189531018 0.00013247961831914959 0 -0.024651790959505097 0.00014338449342378608 0 -0.02452374707667997 0.00018027410663984308 0 -0.024683773189531018 0.00013247961831914959 0 -0.024603171468959677 0.00014466050421544198 0 -0.024446581782912577 0.00014696782934080799 0 -0.024752968446168571 0.00010454894101376465 0 -0.024603171468959677 0.00014466050421544198 0 -0.024609762217223163 0.00015241164158214692 0 -0.024752968446168571 0.00010454894101376465 0 -0.024683773189531018 0.00013247961831914959 0 -0.024603171468959677 0.00014466050421544198 0 -0.024729735536682975 0.00011853018723161922 0 -0.024686644252292132 0.0001567678551028545 0 -0.02460490304944489 0.00011569047743579028 0 -0.024609762217223163 0.00015241164158214692 0 -0.024520217583019976 0.00013778388172462844 0 -0.024603171468959677 0.00014466050421544198 0 -0.024609762217223163 0.00015241164158214692 0 -0.024520217583019976 0.00013778388172462844 0 -0.024520217583019976 0.00013778388172462844 0 -0.024387515904467725 0.00011291682144583108 0 -0.024446581782912577 0.00014696782934080799 0 -0.024603171468959677 0.00014466050421544198 0 -0.024520217583019976 0.00013778388172462844 0 -0.024446581782912577 0.00014696782934080799 0 -0.024387515904467725 0.00011291682144583108 0 -0.024357588226091589 0.00017866342987975993 0 -0.024446581782912577 0.00014696782934080799 0 -0.02460490304944489 0.00011569047743579028 0 -0.024520217583019976 0.00013778388172462844 0 -0.024387515904467725 0.00011291682144583108 0 -0.024398741442047133 7.5037114849098866e-05 0 -0.024391918702052408 9.7432534883928854e-05 0 -0.024176606041217095 -2.7810946303910625e-05 0 -0.024387515904467725 0.00011291682144583108 0 -0.024232633831494949 0.00015759103816653913 0 -0.024232633831494949 0.00015759103816653913 0 -0.024206751870073321 0.00019932782636941656 0 -0.024298762899678143 0.00018298776050714694 0 -0.024387515904467725 0.00011291682144583108 0 -0.024232633831494949 0.00015759103816653913 0 -0.024298762899678143 0.00018298776050714694 0 -0.024148368960024588 0.00022191989791022675 0 -0.024232633831494949 0.00015759103816653913 0 -0.024206751870073321 0.00019932782636941656 0 -0.024148368960024588 0.00022191989791022675 0 -0.024206751870073321 0.00019932782636941656 0 -0.024148396566823532 0.00023961138427487378 0 -0.024206751870073321 0.00019932782636941656 0 -0.024199748802459377 0.00020109680465767575 0 -0.024298762899678143 0.00018298776050714694 0 -0.024199748802459377 0.00020109680465767575 0 -0.024215211675020627 0.00019546316828129948 0 -0.024124606783940669 0.00021110042235388665 0 -0.024206751870073321 0.00019932782636941656 0 -0.024199748802459377 0.00020109680465767575 0 -0.024148396566823532 0.00023961138427487378 0 -0.024199748802459377 0.00020109680465767575 0 -0.024148396566823532 0.00023961138427487378 0 -0.024124606783940669 0.00021110042235388665 0 -0.024298762899678143 0.00018298776050714694 0 -0.024342787081097429 0.00020783686747490824 0 -0.024303985973568438 0.00018748764602454388 0 -0.024298762899678143 0.00018298776050714694 0 -0.024215211675020627 0.00019546316828129948 0 -0.024303985973568438 0.00018748764602454388 0 -0.024199748802459377 0.00020109680465767575 0 -0.024298762899678143 0.00018298776050714694 0 -0.024215211675020627 0.00019546316828129948 0 -0.024387515904467725 0.00011291682144583108 0 -0.024298762899678143 0.00018298776050714694 0 -0.024357588226091589 0.00017866342987975993 0 -0.024357588226091589 0.00017866342987975993 0 -0.024329497812514284 0.0002602020814489638 0 -0.024367424098333989 0.00019485534670707079 0 -0.024298762899678143 0.00018298776050714694 0 -0.024357588226091589 0.00017866342987975993 0 -0.024342787081097429 0.00020783686747490824 0 -0.024342787081097429 0.00020783686747490824 0 -0.024329497812514284 0.0002602020814489638 0 -0.024339535624090011 0.00013893848973983841 0 -0.024357588226091589 0.00017866342987975993 0 -0.024342787081097429 0.00020783686747490824 0 -0.024329497812514284 0.0002602020814489638 0 -0.024342787081097429 0.00020783686747490824 0 -0.024339535624090011 0.00013893848973983841 0 -0.024339065143449638 0.00018548270500231144 0 -0.024342787081097429 0.00020783686747490824 0 -0.024339065143449638 0.00018548270500231144 0 -0.024303985973568438 0.00018748764602454388 0 -0.024329497812514284 0.0002602020814489638 0 -0.024339535624090011 0.00013893848973983841 0 -0.024263183918161613 0.00017852828766117356 0 -0.024329497812514284 0.0002602020814489638 0 -0.024238354635003463 0.00037189501596300058 0 -0.024263183918161613 0.00017852828766117356 0 -0.024420117128654086 0.00031884650009528828 0 -0.024242584061956032 0.00040615982360483051 0 -0.024238354635003463 0.00037189501596300058 0 -0.024329497812514284 0.0002602020814489638 0 -0.024367424098333989 0.00019485534670707079 0 -0.024238354635003463 0.00037189501596300058 0 -0.024387651951560951 0.00026470655433718517 0 -0.02426753452435992 0.00034659370236287215 0 -0.024357588226091589 0.00017866342987975993 0 -0.024367424098333989 0.00019485534670707079 0 -0.024446581782912577 0.00014696782934080799 0 -0.024387651951560951 0.00026470655433718517 0 -0.02452374707667997 0.00018027410663984308 0 -0.024420117128654086 0.00031884650009528828 0 -0.02458587270591173 0.00021489520731539035 0 -0.024568599339502232 0.00021546099984741528 0 -0.024420117128654086 0.00031884650009528828 0 -0.024568599339502232 0.00021546099984741528 0 -0.024448792564510442 0.00026139918278087967 0 -0.024565768877731362 0.00016740267315565677 0 -0.02441357920997669 0.00028459743455532433 0 -0.024524853849331753 0.00020301983181477573 0 -0.024565768877731362 0.00016740267315565677 0 -0.024448792564510442 0.00026139918278087967 0 -0.02441357920997669 0.00028459743455532433 0 -0.02441357920997669 0.00028459743455532433 0 -0.024323967762749796 0.00040510606511990238 0 -0.024242584061956032 0.00040615982360483051 0 -0.02441357920997669 0.00028459743455532433 0 -0.024323967762749796 0.00040510606511990238 0 -0.024524853849331753 0.00020301983181477573 0 -0.024420117128654086 0.00031884650009528828 0 -0.024448792564510442 0.00026139918278087967 0 -0.024242584061956032 0.00040615982360483051 0 -0.024448792564510442 0.00026139918278087967 0 -0.02441357920997669 0.00028459743455532433 0 -0.024242584061956032 0.00040615982360483051 0 -0.024242584061956032 0.00040615982360483051 0 -0.024238354635003463 0.00037189501596300058 0 -0.023628782107717929 0.00069495080751084796 0 -0.024238354635003463 0.00037189501596300058 0 -0.023628782107717929 0.00069495080751084796 0 -0.024013637985213072 0.00021030693233081173 0 -0.024238354635003463 0.00037189501596300058 0 -0.024013637985213072 0.00021030693233081173 0 -0.024263183918161613 0.00017852828766117356 0 -0.024323967762749796 0.00040510606511990238 0 -0.024242584061956032 0.00040615982360483051 0 -0.023628782107717929 0.00069495080751084796 0 -0.023540484315558177 0.001397094085288997 0 -0.023647037075554531 0.00071056882438457706 0 -0.02273125092554372 0.0025568201557468174 0 -0.023628782107717929 0.00069495080751084796 0 -0.022504533544943108 0.0020127800697703263 0 -0.022504533544943108 0.0020127800697703263 0 -0.022130483368742404 0.0019566174871776159 0 -0.022897340638391415 0.002475548088191201 0 -0.022130483368742404 0.0019566174871776159 0 -0.021593748506230699 0.0019252604539782192 0 -0.022897340638391415 0.002475548088191201 0 -0.022130483368742404 0.0019566174871776159 0 -0.022211811021327962 0.0014262001969959723 0 -0.021619530512290625 0.0015356554107495844 0 -0.022504533544943108 0.0020127800697703263 0 -0.022130483368742404 0.0019566174871776159 0 -0.022211811021327962 0.0014262001969959723 0 -0.023628782107717929 0.00069495080751084796 0 -0.022211811021327962 0.0014262001969959723 0 -0.022370422861942508 0.0006191491634998695 0 -0.023628782107717929 0.00069495080751084796 0 -0.022504533544943108 0.0020127800697703263 0 -0.022211811021327962 0.0014262001969959723 0 -0.022211811021327962 0.0014262001969959723 0 -0.02146512594550349 0.00096874001048081007 0 -0.021619530512290625 0.0015356554107495844 0 -0.022211811021327962 0.0014262001969959723 0 -0.02146512594550349 0.00096874001048081007 0 -0.022370422861942508 0.0006191491634998695 0 -0.02146512594550349 0.00096874001048081007 0 -0.022370422861942508 0.0006191491634998695 0 -0.021161594095410106 0.0002424375071812682 0 -0.020584819005600934 0.00095710012642645699 0 -0.020880517746398351 0.001807350284787429 0 -0.019709822177958074 2.9807928894173796e-05 0 -0.019079445223327572 0.0028069036439057468 0 -0.019709822177958074 2.9807928894173796e-05 0 -0.018859288644888887 0.00087674543686561905 0 -0.020729252932224419 0.0017646687553444463 0 -0.01958476577415029 0.00028639891142266953 0 -0.02146512594550349 0.00096874001048081007 0 -0.020734923579471532 0.00053730270899175455 0 -0.021161594095410106 0.0002424375071812682 0 -0.02146512594550349 0.00096874001048081007 0 -0.020584819005600934 0.00095710012642645699 0 -0.020734923579471532 0.00053730270899175455 0 -0.02146512594550349 0.00096874001048081007 0 -0.021128236987995191 0.0012801480997545671 0 -0.021619530512290625 0.0015356554107495844 0 -0.02146512594550349 0.00096874001048081007 0 -0.020584819005600934 0.00095710012642645699 0 -0.021128236987995191 0.0012801480997545671 0 -0.021128236987995191 0.0012801480997545671 0 -0.020846780657657209 0.0014240156371476014 0 -0.02120497599057148 0.0016148219981247359 0 -0.021128236987995191 0.0012801480997545671 0 -0.021619530512290625 0.0015356554107495844 0 -0.02120497599057148 0.0016148219981247359 0 -0.020584819005600934 0.00095710012642645699 0 -0.020846780657657209 0.0014240156371476014 0 -0.020880517746398351 0.001807350284787429 0 -0.020584819005600934 0.00095710012642645699 0 -0.021128236987995191 0.0012801480997545671 0 -0.020846780657657209 0.0014240156371476014 0 -0.020658622953459081 0.0019733688880240316 0 -0.021593748506230699 0.0019252604539782192 0 -0.022897340638391415 0.002475548088191201 0 -0.020975635229031089 0.0016708084996575913 0 -0.021039677998352737 0.0018226570737388109 0 -0.020880517746398351 0.001807350284787429 0 -0.021039677998352737 0.0018226570737388109 0 -0.020658622953459081 0.0019733688880240316 0 -0.021593748506230699 0.0019252604539782192 0 -0.020846780657657209 0.0014240156371476014 0 -0.020975635229031089 0.0016708084996575913 0 -0.020880517746398351 0.001807350284787429 0 -0.021586265414324287 0.0017893140983427961 0 -0.023236817797433709 0.0029725752267219649 0 -0.020846780657657209 0.0014240156371476014 0 -0.020975635229031089 0.0016708084996575913 0 -0.02120497599057148 0.0016148219981247359 0 -0.020975635229031089 0.0016708084996575913 0 -0.021039677998352737 0.0018226570737388109 0 -0.02120497599057148 0.0016148219981247359 0 -0.021039677998352737 0.0018226570737388109 0 -0.020658622953459081 0.0019733688880240316 0 -0.020679702638215884 0.0017935864398967989 0 -0.020847197346280263 0.0017907254593785399 0 -0.020729252932224419 0.0017646687553444463 0 -0.021586265414324287 0.0017893140983427961 0 -0.020729252932224419 0.0017646687553444463 0 -0.021619530512290625 0.0015356554107495844 0 -0.02120497599057148 0.0016148219981247359 0 -0.021593748506230699 0.0019252604539782192 0 -0.021039677998352737 0.0018226570737388109 0 -0.02120497599057148 0.0016148219981247359 0 -0.021593748506230699 0.0019252604539782192 0 -0.022130483368742404 0.0019566174871776159 0 -0.021619530512290625 0.0015356554107495844 0 -0.021593748506230699 0.0019252604539782192 0 -0.024560223480180093 0.0039532635033610181 0 -0.024025068995853952 0.0024220530218813643 0 -0.02473054810976371 0.002614791059267197 0 -0.024560223480180093 0.0039532635033610181 0 -0.024025068995853952 0.0024220530218813643 0 -0.022897340638391415 0.002475548088191201 0 -0.024025068995853952 0.0024220530218813643 0 -0.0245048828293634 0.0017911304397102922 0 -0.02473054810976371 0.002614791059267197 0 -0.024025068995853952 0.0024220530218813643 0 -0.022897340638391415 0.002475548088191201 0 -0.023810656303471317 0.0016647949360760041 0 -0.023540484315558177 0.001397094085288997 0 -0.023840466789507353 0.0008319918438752168 0 -0.02273125092554372 0.0025568201557468174 0 -0.022504533544943108 0.0020127800697703263 0 -0.022897340638391415 0.002475548088191201 0 -0.02273125092554372 0.0025568201557468174 0 -0.022897340638391415 0.002475548088191201 0 -0.023084773141994263 0.0013830925709545502 0 -0.022897340638391415 0.002475548088191201 0 -0.023084773141994263 0.0013830925709545502 0 -0.023810656303471317 0.0016647949360760041 0 -0.024176617053826167 0.00091157638676690137 0 -0.023084773141994263 0.0013830925709545502 0 -0.023810656303471317 0.0016647949360760041 0 -0.024176617053826167 0.00091157638676690137 0 -0.024396921213785696 0.0013027619935001983 0 -0.023810656303471317 0.0016647949360760041 0 -0.024396921213785696 0.0013027619935001983 0 -0.0245048828293634 0.0017911304397102922 0 -0.023810656303471317 0.0016647949360760041 0 -0.024025068995853952 0.0024220530218813643 0 -0.0245048828293634 0.0017911304397102922 0 -0.023810656303471317 0.0016647949360760041 0 -0.024396921213785696 0.0013027619935001983 0 -0.0245048828293634 0.0017911304397102922 0 -0.024808320225204985 0.0014589938319107998 0 -0.019054208646061676 -0.0010708300982781177 0 -0.018922873721422317 -0.00094175819568692012 0 -0.018733007274425895 -0.0012412673511871376 0 -0.019452891261751641 -0.00082892698442746415 0 -0.016715851670599191 -0.00081305433669004066 0 -0.019076036292818097 -0.00078122239471865016 0 -0.019064986631808917 -0.00070517378349019581 0 -0.019113187772271209 -0.00074456396359700455 0 -0.019076036292818097 -0.00078122239471865016 0 -0.019156258705066577 -0.00085624720794457907 0 -0.019040247228452982 -0.0007588684822699527 0 -0.019452891261751641 -0.00082892698442746415 0 -0.018988636685583728 -0.00092478882554932449 0 -0.019076036292818097 -0.00078122239471865016 0 -0.019040247228452982 -0.0007588684822699527 0 -0.019064986631808917 -0.00070517378349019581 0 -0.019054208646061676 -0.0010708300982781177 0 -0.019140248225174964 -0.00086645891532675413 0 -0.019156258705066577 -0.00085624720794457907 0 -0.019054208646061676 -0.0010708300982781177 0 -0.019054998823855179 -0.0009006593744630484 0 -0.019140248225174964 -0.00086645891532675413 0 -0.019140248225174964 -0.00086645891532675413 0 -0.019182869550880027 -0.00085116195344545737 0 -0.019156258705066577 -0.00085624720794457907 0 -0.019140248225174964 -0.00086645891532675413 0 -0.019110419823736572 -0.00069807070971200235 0 -0.01919465208000818 -0.00074902736994296362 0 -0.019140248225174964 -0.00086645891532675413 0 -0.01919465208000818 -0.00074902736994296362 0 -0.019182869550880027 -0.00085116195344545737 0 -0.019054998823855179 -0.0009006593744630484 0 -0.019140248225174964 -0.00086645891532675413 0 -0.019110419823736572 -0.00069807070971200235 0 -0.019054998823855179 -0.0009006593744630484 0 -0.018922873721422317 -0.00094175819568692012 0 -0.019110419823736572 -0.00069807070971200235 0 -0.018922873721422317 -0.00094175819568692012 0 -0.018920017235230034 -0.00072263596466459962 0 -0.019110419823736572 -0.00069807070971200235 0 -0.019054208646061676 -0.0010708300982781177 0 -0.019054998823855179 -0.0009006593744630484 0 -0.018922873721422317 -0.00094175819568692012 0 -0.018922873721422317 -0.00094175819568692012 0 -0.018920017235230034 -0.00072263596466459962 0 -0.018694274895667388 -0.00099070138430547511 0 -0.018920017235230034 -0.00072263596466459962 0 -0.01919228250055913 -0.00046795141502318854 0 -0.018212681302987522 -0.00046376189612474622 0 -0.018920017235230034 -0.00072263596466459962 0 -0.01919228250055913 -0.00046795141502318854 0 -0.019110419823736572 -0.00069807070971200235 0 -0.01919228250055913 -0.00046795141502318854 0 -0.019709822177958074 2.9807928894173796e-05 0 -0.021161594095410106 0.0002424375071812682 0 -0.01919228250055913 -0.00046795141502318854 0 -0.019709822177958074 2.9807928894173796e-05 0 -0.018832217364645163 -1.7294620150660514e-05 0 -0.019709822177958074 2.9807928894173796e-05 0 -0.020734923579471532 0.00053730270899175455 0 -0.021161594095410106 0.0002424375071812682 0 -0.020584819005600934 0.00095710012642645699 0 -0.019709822177958074 2.9807928894173796e-05 0 -0.020734923579471532 0.00053730270899175455 0 -0.019709822177958074 2.9807928894173796e-05 0 -0.018859288644888887 0.00087674543686561905 0 -0.018832217364645163 -1.7294620150660514e-05 0 -0.019309344669952093 -0.00050430999932983772 0 -0.021084908534236474 -0.00055046812629761421 0 -0.01919228250055913 -0.00046795141502318854 0 -0.021161594095410106 0.0002424375071812682 0 -0.023052081979393738 -0.00068352591588185857 0 -0.022370422861942508 0.0006191491634998695 0 -0.021161594095410106 0.0002424375071812682 0 -0.023052081979393738 -0.00068352591588185857 0 -0.01919228250055913 -0.00046795141502318854 0 -0.019110419823736572 -0.00069807070971200235 0 -0.019218634235486153 -0.00051546277673019823 0 -0.019110419823736572 -0.00069807070971200235 0 -0.01919465208000818 -0.00074902736994296362 0 -0.019218634235486153 -0.00051546277673019823 0 -0.019336176084807612 -0.00068867731188798046 0 -0.019218634235486153 -0.00051546277673019823 0 -0.019713023395465445 -0.00022972148476296423 0 -0.01919465208000818 -0.00074902736994296362 0 -0.019336176084807612 -0.00068867731188798046 0 -0.019218634235486153 -0.00051546277673019823 0 -0.019336176084807612 -0.00068867731188798046 0 -0.019562976805925135 -0.0007003388925896683 0 -0.019424813555516438 -0.00079910854397695255 0 -0.023628782107717929 0.00069495080751084796 0 -0.022370422861942508 0.0006191491634998695 0 -0.023052081979393738 -0.00068352591588185857 0 -0.023628782107717929 0.00069495080751084796 0 -0.023052081979393738 -0.00068352591588185857 0 -0.024013637985213072 0.00021030693233081173 0 -0.021084908534236474 -0.00055046812629761421 0 -0.022006726537238668 -0.00017289041186616195 0 -0.023052081979393738 -0.00068352591588185857 0 -0.024013637985213072 0.00021030693233081173 0 -0.024295057436520589 -9.6590570083915088e-05 0 -0.024013637985213072 0.00021030693233081173 0 -0.024295057436520589 -9.6590570083915088e-05 0 -0.024263183918161613 0.00017852828766117356 0 -0.019336176084807612 -0.00068867731188798046 0 -0.019713023395465445 -0.00022972148476296423 0 -0.019562976805925135 -0.0007003388925896683 0 -0.019713023395465445 -0.00022972148476296423 0 -0.019562976805925135 -0.0007003388925896683 0 -0.019786704116804221 -0.00065069791067408225 0 -0.019562976805925135 -0.0007003388925896683 0 -0.019786704116804221 -0.00065069791067408225 0 -0.019810220314760547 -0.0008341330926870576 0 -0.019810220314760547 -0.0008341330926870576 0 -0.019564633890740722 -0.00095604366569604783 0 -0.019803673324490841 -0.0010105551753780237 0 -0.019562976805925135 -0.0007003388925896683 0 -0.019564633890740722 -0.00095604366569604783 0 -0.019424813555516438 -0.00079910854397695255 0 -0.019562976805925135 -0.0007003388925896683 0 -0.019810220314760547 -0.0008341330926870576 0 -0.019564633890740722 -0.00095604366569604783 0 -0.019564633890740722 -0.00095604366569604783 0 -0.019230659362111636 -0.00086583440420093336 0 -0.019588423690003211 -0.0012050618566905934 0 -0.019564633890740722 -0.00095604366569604783 0 -0.019424813555516438 -0.00079910854397695255 0 -0.019230659362111636 -0.00086583440420093336 0 -0.019336176084807612 -0.00068867731188798046 0 -0.019424813555516438 -0.00079910854397695255 0 -0.019230659362111636 -0.00086583440420093336 0 -0.01919465208000818 -0.00074902736994296362 0 -0.019336176084807612 -0.00068867731188798046 0 -0.019230659362111636 -0.00086583440420093336 0 -0.01919465208000818 -0.00074902736994296362 0 -0.019230659362111636 -0.00086583440420093336 0 -0.019182869550880027 -0.00085116195344545737 0 -0.019230659362111636 -0.00086583440420093336 0 -0.019182869550880027 -0.00085116195344545737 0 -0.019156258705066577 -0.00085624720794457907 0 -0.019230659362111636 -0.00086583440420093336 0 -0.019156258705066577 -0.00085624720794457907 0 -0.01891010835920812 -0.0008000326110684376 0 -0.019212587578657129 -0.00085514327638334215 0 -0.019251302940456488 -0.00099303215258158108 0 -0.019156258705066577 -0.00085624720794457907 0 -0.01891010835920812 -0.0008000326110684376 0 -0.019040247228452982 -0.0007588684822699527 0 -0.019588423690003211 -0.0012050618566905934 0 -0.019848919491179406 -0.0011805972492172126 0 -0.019803673324490841 -0.0010105551753780237 0 -0.019564633890740722 -0.00095604366569604783 0 -0.019588423690003211 -0.0012050618566905934 0 -0.019803673324490841 -0.0010105551753780237 0 -0.019848919491179406 -0.0011805972492172126 0 -0.020056379365319593 -0.0010956831785411613 0 -0.019977469484905083 -0.0010023322313425706 0 -0.019848919491179406 -0.0011805972492172126 0 -0.019977469484905083 -0.0010023322313425706 0 -0.019803673324490841 -0.0010105551753780237 0 -0.020056379365319593 -0.0010956831785411613 0 -0.020080483002150464 -0.0009322750150748334 0 -0.020153064673003609 -0.00099426368892606529 0 -0.020056379365319593 -0.0010956831785411613 0 -0.020080483002150464 -0.0009322750150748334 0 -0.019977469484905083 -0.0010023322313425706 0 -0.020080483002150464 -0.0009322750150748334 0 -0.020004339133446306 -0.00086833424840681152 0 -0.019977469484905083 -0.0010023322313425706 0 -0.020080483002150464 -0.0009322750150748334 0 -0.020168332891712364 -0.00088490717324824538 0 -0.020153064673003609 -0.00099426368892606529 0 -0.020080483002150464 -0.0009322750150748334 0 -0.020103854640098125 -0.00082730260368869292 0 -0.020168332891712364 -0.00088490717324824538 0 -0.020080483002150464 -0.0009322750150748334 0 -0.020004339133446306 -0.00086833424840681152 0 -0.020103854640098125 -0.00082730260368869292 0 -0.020004339133446306 -0.00086833424840681152 0 -0.019977469484905083 -0.0010023322313425706 0 -0.019803673324490841 -0.0010105551753780237 0 -0.019810220314760547 -0.0008341330926870576 0 -0.020004339133446306 -0.00086833424840681152 0 -0.020072987165913818 -0.00073764703779695742 0 -0.019810220314760547 -0.0008341330926870576 0 -0.020004339133446306 -0.00086833424840681152 0 -0.019803673324490841 -0.0010105551753780237 0 -0.019713023395465445 -0.00022972148476296423 0 -0.020072987165913818 -0.00073764703779695742 0 -0.021673539339519467 0.00013174143692943363 0 -0.019786704116804221 -0.00065069791067408225 0 -0.019810220314760547 -0.0008341330926870576 0 -0.020072987165913818 -0.00073764703779695742 0 -0.020004339133446306 -0.00086833424840681152 0 -0.020072987165913818 -0.00073764703779695742 0 -0.020103854640098125 -0.00082730260368869292 0 -0.019713023395465445 -0.00022972148476296423 0 -0.019786704116804221 -0.00065069791067408225 0 -0.020072987165913818 -0.00073764703779695742 0 -0.022006726537238668 -0.00017289041186616195 0 -0.023019724258711426 0.00015977317685705585 0 -0.024295057436520589 -9.6590570083915088e-05 0 -0.024339535624090011 0.00013893848973983841 0 -0.024346235878458841 0.00024118960903399026 0 -0.024295057436520589 -9.6590570083915088e-05 0 -0.024339535624090011 0.00013893848973983841 0 -0.024263183918161613 0.00017852828766117356 0 -0.024339065143449638 0.00018548270500231144 0 -0.024346235878458841 0.00024118960903399026 0 -0.024303985973568438 0.00018748764602454388 0 -0.024339535624090011 0.00013893848973983841 0 -0.024339065143449638 0.00018548270500231144 0 -0.024346235878458841 0.00024118960903399026 0 -0.020128862378107883 -0.00073832236690163421 0 -0.020969008296054612 -0.00061317333712313383 0 -0.020072987165913818 -0.00073764703779695742 0 -0.020137782604423407 -0.00078645184454434957 0 -0.020103854640098125 -0.00082730260368869292 0 -0.020072987165913818 -0.00073764703779695742 0 -0.021673539339519467 0.00013174143692943363 0 -0.021813714016765587 -0.0004582016181498541 0 -0.020103854640098125 -0.00082730260368869292 0 -0.020158386171860127 -0.00083148943050942404 0 -0.020168332891712364 -0.00088490717324824538 0 -0.020137782604423407 -0.00078645184454434957 0 -0.020103854640098125 -0.00082730260368869292 0 -0.020158386171860127 -0.00083148943050942404 0 -0.020158386171860127 -0.00083148943050942404 0 -0.02024072961795146 -0.00082314900596135502 0 -0.020168332891712364 -0.00088490717324824538 0 -0.020137782604423407 -0.00078645184454434957 0 -0.020158386171860127 -0.00083148943050942404 0 -0.02024072961795146 -0.00082314900596135502 0 -0.020137782604423407 -0.00078645184454434957 0 -0.02024072961795146 -0.00082314900596135502 0 -0.020332427182802794 -0.00073739344968123228 0 -0.021673539339519467 0.00013174143692943363 0 -0.021813714016765587 -0.0004582016181498541 0 -0.023754425831095324 -6.1104284976972619e-05 0 -0.020969008296054612 -0.00061317333712313383 0 -0.022027540003450301 -0.00041390084949345239 0 -0.021673539339519467 0.00013174143692943363 0 -0.02399302727909685 0.00017436784618175046 0 -0.023754425831095324 -6.1104284976972619e-05 0 -0.024346235878458841 0.00024118960903399026 0 -0.024219729757243652 0.00019795645932990714 0 -0.02399302727909685 0.00017436784618175046 0 -0.023019724258711426 0.00015977317685705585 0 -0.023951818714174983 0.00018552745160632699 0 -0.024346235878458841 0.00024118960903399026 0 -0.024219729757243652 0.00019795645932990714 0 -0.024303985973568438 0.00018748764602454388 0 -0.024215211675020627 0.00019546316828129948 0 -0.024219729757243652 0.00019795645932990714 0 -0.024303985973568438 0.00018748764602454388 0 -0.024215211675020627 0.00019546316828129948 0 -0.024219729757243652 0.00019795645932990714 0 -0.02399302727909685 0.00017436784618175046 0 -0.024148396566823532 0.00023961138427487378 0 -0.024100581481035367 0.00023257227792242171 0 -0.024124606783940669 0.00021110042235388665 0 -0.024100581481035367 0.00023257227792242171 0 -0.024124606783940669 0.00021110042235388665 0 -0.02399302727909685 0.00017436784618175046 0 -0.024215211675020627 0.00019546316828129948 0 -0.024124606783940669 0.00021110042235388665 0 -0.02399302727909685 0.00017436784618175046 0 -0.02399302727909685 0.00017436784618175046 0 -0.023754425831095324 -6.1104284976972619e-05 0 -0.02409777944462347 0.00020997056436915221 0 -0.024100581481035367 0.00023257227792242171 0 -0.02399302727909685 0.00017436784618175046 0 -0.02409777944462347 0.00020997056436915221 0 -0.020332427182802794 -0.00073739344968123228 0 -0.020366887975359203 -0.00080470817082845393 0 -0.020441800549026279 -0.00077424097743146447 0 -0.020332427182802794 -0.00073739344968123228 0 -0.020315533629067309 -0.0008273230368004296 0 -0.020366887975359203 -0.00080470817082845393 0 -0.02024072961795146 -0.00082314900596135502 0 -0.020332427182802794 -0.00073739344968123228 0 -0.020315533629067309 -0.0008273230368004296 0 -0.02024072961795146 -0.00082314900596135502 0 -0.020315533629067309 -0.0008273230368004296 0 -0.020258415045230595 -0.0009423089184545007 0 -0.020315533629067309 -0.0008273230368004296 0 -0.020366887975359203 -0.00080470817082845393 0 -0.020378295814068602 -0.00087985951771461552 0 -0.020366887975359203 -0.00080470817082845393 0 -0.020378295814068602 -0.00087985951771461552 0 -0.020441800549026279 -0.00077424097743146447 0 -0.020378295814068602 -0.00087985951771461552 0 -0.020258415045230595 -0.0009423089184545007 0 -0.02039941721472658 -0.0011054393816951516 0 -0.020315533629067309 -0.0008273230368004296 0 -0.020378295814068602 -0.00087985951771461552 0 -0.020258415045230595 -0.0009423089184545007 0 -0.02024072961795146 -0.00082314900596135502 0 -0.020168332891712364 -0.00088490717324824538 0 -0.020258415045230595 -0.0009423089184545007 0 -0.020168332891712364 -0.00088490717324824538 0 -0.020153064673003609 -0.00099426368892606529 0 -0.020258415045230595 -0.0009423089184545007 0 -0.020153064673003609 -0.00099426368892606529 0 -0.020258415045230595 -0.0009423089184545007 0 -0.020213095946730604 -0.0011270934867101364 0 -0.020056379365319593 -0.0010956831785411613 0 -0.020213095946730604 -0.0011270934867101364 0 -0.02010295968313915 -0.0012359827831355003 0 -0.020056379365319593 -0.0010956831785411613 0 -0.020153064673003609 -0.00099426368892606529 0 -0.020213095946730604 -0.0011270934867101364 0 -0.020258415045230595 -0.0009423089184545007 0 -0.020213095946730604 -0.0011270934867101364 0 -0.02039941721472658 -0.0011054393816951516 0 -0.020213095946730604 -0.0011270934867101364 0 -0.020255902028312577 -0.001324079302169986 0 -0.02039941721472658 -0.0011054393816951516 0 -0.018342710557802656 -0.00077296274946227249 0 -0.018276033591959548 -0.00093725048996714144 0 -0.016265056617319286 -0.00031802706432188774 0 -0.015998031881784006 -0.00073323480273016352 0 -0.015919216881564842 -0.00041342079959843148 0 -0.020213095946730604 -0.0011270934867101364 0 -0.02010295968313915 -0.0012359827831355003 0 -0.020255902028312577 -0.001324079302169986 0 -0.020255902028312577 -0.001324079302169986 0 -0.020097182197137131 -0.0015515114138069633 0 -0.02006071016839691 -0.0013589402193817152 0 -0.02010295968313915 -0.0012359827831355003 0 -0.020255902028312577 -0.001324079302169986 0 -0.02006071016839691 -0.0013589402193817152 0 -0.018342710557802656 -0.00077296274946227249 0 -0.017725478889328773 -0.0008414079480011992 0 -0.016265056617319286 -0.00031802706432188774 0 -0.016050222694617804 -2.334536554849779e-05 0 -0.015919216881564842 -0.00041342079959843148 0 -0.016265056617319286 -0.00031802706432188774 0 -0.016050222694617804 -2.334536554849779e-05 0 -0.016537637849327057 0.00010958580603736941 0 -0.016050222694617804 -2.334536554849779e-05 0 -0.016124692727376488 0.00031991413513749383 0 -0.016537637849327057 0.00010958580603736941 0 -0.014224359324667648 -0.00036534215529875145 0 -0.01488970394609521 -0.0001322327621074801 0 -0.014215650246079939 -1.2993191179000244e-06 0 -0.014224359324667648 -0.00036534215529875145 0 -0.01488970394609521 -0.0001322327621074801 0 -0.01492996027455158 -0.00074922178756760694 0 -0.014779540500572046 0.00013862946853193577 0 -0.017725478889328773 -0.0008414079480011992 0 -0.017725478889328773 -0.0008414079480011992 0 -0.020723097028013549 -0.0017524599875430996 0 -0.01962279293562787 -0.0013579191520025299 0 -0.019860906039868877 -0.0013679696224308626 0 -0.019858295775713443 -0.0014139257698864058 0 -0.01488970394609521 -0.0001322327621074801 0 -0.01492996027455158 -0.00074922178756760694 0 -0.015376114839934941 -2.6348224790938968e-05 0 -0.019502608901801492 -0.0011090618523919818 0 -0.017468882244215354 -0.00069785857134563496 0 -0.017725478889328773 -0.0008414079480011992 0 -0.017468882244215354 -0.00069785857134563496 0 -0.01962279293562787 -0.0013579191520025299 0 -0.019860906039868877 -0.0013679696224308626 0 -0.019728536685495641 -0.0011499948772825464 0 -0.018614327210053364 -0.00091096299314884558 0 -0.018425898839064848 -0.00071313980959516131 0 -0.018303907494379757 -0.0011863189799712717 0 -0.018614327210053364 -0.00091096299314884558 0 -0.018621633182265729 -0.00051982818992056979 0 -0.018898682309912325 -0.00100946557014182 0 -0.018614327210053364 -0.00091096299314884558 0 -0.018621633182265729 -0.00051982818992056979 0 -0.018425898839064848 -0.00071313980959516131 0 -0.018621633182265729 -0.00051982818992056979 0 -0.018618609674525635 -0.00051182023682130287 0 -0.018425898839064848 -0.00071313980959516131 0 -0.018621633182265729 -0.00051982818992056979 0 -0.018618609674525635 -0.00051182023682130287 0 -0.018688895995804911 -0.0006134074676975755 0 -0.019858295775713443 -0.0014139257698864058 0 -0.019928791266503029 -0.0012797597565942116 0 -0.019786214142793815 -0.001386618846970615 0 -0.019502608901801492 -0.0011090618523919818 0 -0.019194897776414258 -0.00094853130396192547 0 -0.019860906039868877 -0.0013679696224308626 0 -0.019858295775713443 -0.0014139257698864058 0 -0.019786214142793815 -0.001386618846970615 0 -0.020097182197137131 -0.0015515114138069633 0 -0.019858295775713443 -0.0014139257698864058 0 -0.02006071016839691 -0.0013589402193817152 0 -0.019858295775713443 -0.0014139257698864058 0 -0.02006071016839691 -0.0013589402193817152 0 -0.019928791266503029 -0.0012797597565942116 0 -0.02010295968313915 -0.0012359827831355003 0 -0.02006071016839691 -0.0013589402193817152 0 -0.019928791266503029 -0.0012797597565942116 0 -0.020056379365319593 -0.0010956831785411613 0 -0.02010295968313915 -0.0012359827831355003 0 -0.019928791266503029 -0.0012797597565942116 0 -0.019848919491179406 -0.0011805972492172126 0 -0.020056379365319593 -0.0010956831785411613 0 -0.019928791266503029 -0.0012797597565942116 0 -0.019848919491179406 -0.0011805972492172126 0 -0.019928791266503029 -0.0012797597565942116 0 -0.019786214142793815 -0.001386618846970615 0 -0.01891010835920812 -0.0008000326110684376 0 -0.018899316259505222 -0.00065073928403544209 0 -0.018688895995804911 -0.0006134074676975755 0 -0.019251302940456488 -0.00099303215258158108 0 -0.019194897776414258 -0.00094853130396192547 0 -0.019588423690003211 -0.0012050618566905934 0 -0.019848919491179406 -0.0011805972492172126 0 -0.019786214142793815 -0.001386618846970615 0 -0.018899316259505222 -0.00065073928403544209 0 -0.018993888193466139 -0.0006366095804286059 0 -0.019040247228452982 -0.0007588684822699527 0 -0.01891010835920812 -0.0008000326110684376 0 -0.018899316259505222 -0.00065073928403544209 0 -0.019040247228452982 -0.0007588684822699527 0 -0.018899316259505222 -0.00065073928403544209 0 -0.018922340712962876 -0.00053488309879077991 0 -0.018993888193466139 -0.0006366095804286059 0 -0.018899316259505222 -0.00065073928403544209 0 -0.018792879421651029 -0.00055637409135831425 0 -0.018922340712962876 -0.00053488309879077991 0 -0.018618609674525635 -0.00051182023682130287 0 -0.018688895995804911 -0.0006134074676975755 0 -0.018792879421651029 -0.00055637409135831425 0 -0.018899316259505222 -0.00065073928403544209 0 -0.018688895995804911 -0.0006134074676975755 0 -0.018792879421651029 -0.00055637409135831425 0 -0.018618609674525635 -0.00051182023682130287 0 -0.018792879421651029 -0.00055637409135831425 0 -0.018845904094120555 -0.00044744274312218232 0 -0.018615217968265159 -0.00048881002731755697 0 -0.018325515850141187 -0.00053881896960859333 0 -0.018618609674525635 -0.00051182023682130287 0 -0.018425898839064848 -0.00071313980959516131 0 -0.017985851731415953 -0.00054720047267714869 0 -0.018425898839064848 -0.00071313980959516131 0 -0.017985851731415953 -0.00054720047267714869 0 -0.018303907494379757 -0.0011863189799712717 0 -0.017985851731415953 -0.00054720047267714869 0 -0.017654128428442328 -0.001203296102879064 0 -0.018303907494379757 -0.0011863189799712717 0 -0.017985851731415953 -0.00054720047267714869 0 -0.017296888192796084 -0.00075352525492030048 0 -0.017654128428442328 -0.001203296102879064 0 -0.018325515850141187 -0.00053881896960859333 0 -0.018540251300438449 -0.00053491214171587722 0 -0.018922340712962876 -0.00053488309879077991 0 -0.018845904094120555 -0.00044744274312218232 0 -0.018965087098712669 -0.00043414953466970304 0 -0.018792879421651029 -0.00055637409135831425 0 -0.018922340712962876 -0.00053488309879077991 0 -0.018845904094120555 -0.00044744274312218232 0 -0.018922340712962876 -0.00053488309879077991 0 -0.018996498433523221 -0.00052701855231971056 0 -0.018965087098712669 -0.00043414953466970304 0 -0.018996498433523221 -0.00052701855231971056 0 -0.018965087098712669 -0.00043414953466970304 0 -0.019017139282975284 -0.00045433150938780411 0 -0.017296888192796084 -0.00075352525492030048 0 -0.016529314026767872 -0.0010479912534815596 0 -0.016845702951447807 -0.0012013742771701879 0 -0.019029380099912008 -0.00041066126396617177 0 -0.019017139282975284 -0.00045433150938780411 0 -0.019073897895286879 -0.00050786700574853951 0 -0.018540251300438449 -0.00053491214171587722 0 -0.015380121951884481 -0.00018445863589469254 0 -0.018965087098712669 -0.00043414953466970304 0 -0.019017139282975284 -0.00045433150938780411 0 -0.019019281439445604 -0.0004073519575057358 0 -0.019029380099912008 -0.00041066126396617177 0 -0.019017139282975284 -0.00045433150938780411 0 -0.019019281439445604 -0.0004073519575057358 0 -0.018996498433523221 -0.00052701855231971056 0 -0.019017139282975284 -0.00045433150938780411 0 -0.019073897895286879 -0.00050786700574853951 0 -0.018996498433523221 -0.00052701855231971056 0 -0.019046282584598229 -0.00060612294033890988 0 -0.019073897895286879 -0.00050786700574853951 0 -0.019046282584598229 -0.00060612294033890988 0 -0.019107710637900399 -0.00064118591076218231 0 -0.019073897895286879 -0.00050786700574853951 0 -0.019046282584598229 -0.00060612294033890988 0 -0.019064986631808917 -0.00070517378349019581 0 -0.019107710637900399 -0.00064118591076218231 0 -0.018922340712962876 -0.00053488309879077991 0 -0.018996498433523221 -0.00052701855231971056 0 -0.018993888193466139 -0.0006366095804286059 0 -0.018996498433523221 -0.00052701855231971056 0 -0.019046282584598229 -0.00060612294033890988 0 -0.018993888193466139 -0.0006366095804286059 0 -0.019046282584598229 -0.00060612294033890988 0 -0.018993888193466139 -0.0006366095804286059 0 -0.019064986631808917 -0.00070517378349019581 0 -0.018993888193466139 -0.0006366095804286059 0 -0.019040247228452982 -0.0007588684822699527 0 -0.019064986631808917 -0.00070517378349019581 0 -0.019064986631808917 -0.00070517378349019581 0 -0.019107710637900399 -0.00064118591076218231 0 -0.019113187772271209 -0.00074456396359700455 0 -0.015957547707243742 -0.0002996169506694525 0 -0.016004093921734897 -0.0002668632047843962 0 -0.016564684961067718 -0.00017921720184459647 0 -0.015957547707243742 -0.0002996169506694525 0 -0.015554054555083834 -0.00035118956466377338 0 -0.016004093921734897 -0.0002668632047843962 0 -0.015957547707243742 -0.0002996169506694525 0 -0.015538267642326475 -0.0003768546616453329 0 -0.015608598630343945 -0.00035103339456821648 0 -0.015957547707243742 -0.0002996169506694525 0 -0.015788232424014149 -0.00021562941549666784 0 -0.015608598630343945 -0.00035103339456821648 0 -0.015538267642326475 -0.0003768546616453329 0 -0.015408593139740554 -0.00039969823856963283 0 -0.0152516405622802 -0.00037462402551502954 0 -0.015957547707243742 -0.0002996169506694525 0 -0.015538267642326475 -0.0003768546616453329 0 -0.015554054555083834 -0.00035118956466377338 0 -0.015538267642326475 -0.0003768546616453329 0 -0.015554054555083834 -0.00035118956466377338 0 -0.0152516405622802 -0.00037462402551502954 0 -0.015554054555083834 -0.00035118956466377338 0 -0.016004093921734897 -0.0002668632047843962 0 -0.015007087961467613 -0.00025832829365238311 0 -0.016004093921734897 -0.0002668632047843962 0 -0.015606111048318161 -3.6652060079802286e-07 0 -0.015007087961467613 -0.00025832829365238311 0 -0.016004093921734897 -0.0002668632047843962 0 -0.017031861270443482 -3.0619243957979487e-07 0 -0.015606111048318161 -3.6652060079802286e-07 0 -0.016004093921734897 -0.0002668632047843962 0 -0.016771250877397517 -0.00014141392151232273 0 -0.016564684961067718 -0.00017921720184459647 0 -0.016004093921734897 -0.0002668632047843962 0 -0.017031861270443482 -3.0619243957979487e-07 0 -0.016771250877397517 -0.00014141392151232273 0 -0.016771250877397517 -0.00014141392151232273 0 -0.017470333577531829 -5.9230266856792544e-05 0 -0.016564684961067718 -0.00017921720184459647 0 -0.017031861270443482 -3.0619243957979487e-07 0 -0.016771250877397517 -0.00014141392151232273 0 -0.017470333577531829 -5.9230266856792544e-05 0 -0.017031861270443482 -3.0619243957979487e-07 0 -0.018457680422166493 -2.9985848515619672e-08 0 -0.017470333577531829 -5.9230266856792544e-05 0 -0.01770039928854324 0.0001840880249519077 0 -0.017470333577531829 -5.9230266856792544e-05 0 -0.016564684961067718 -0.00017921720184459647 0 -0.01770039928854324 0.0001840880249519077 0 -0.018457680422166493 -2.9985848515619672e-08 0 -0.017470333577531829 -5.9230266856792544e-05 0 -0.01770039928854324 0.0001840880249519077 0 -0.016366098548747657 -2.523910078286142e-05 0 -0.016227772615695989 0.00040373129143843957 0 -0.017713789341249023 0.00025767112619629138 0 -0.016843521648434442 0.00026989193282283712 0 -0.01770039928854324 0.0001840880249519077 0 -0.016564684961067718 -0.00017921720184459647 0 -0.016366098548747657 -2.523910078286142e-05 0 -0.016564684961067718 -0.00017921720184459647 0 -0.016112491530289961 -0.00015892259313041415 0 -0.016366098548747657 -2.523910078286142e-05 0 -0.015957547707243742 -0.0002996169506694525 0 -0.016564684961067718 -0.00017921720184459647 0 -0.016112491530289961 -0.00015892259313041415 0 -0.015957547707243742 -0.0002996169506694525 0 -0.016112491530289961 -0.00015892259313041415 0 -0.015788232424014149 -0.00021562941549666784 0 -0.016112491530289961 -0.00015892259313041415 0 -0.015923505385911297 2.483388369943686e-05 0 -0.016366098548747657 -2.523910078286142e-05 0 -0.016112491530289961 -0.00015892259313041415 0 -0.015923505385911297 2.483388369943686e-05 0 -0.015788232424014149 -0.00021562941549666784 0 -0.015923505385911297 2.483388369943686e-05 0 -0.016366098548747657 -2.523910078286142e-05 0 -0.016227772615695989 0.00040373129143843957 0 -0.015923505385911297 2.483388369943686e-05 0 -0.016227772615695989 0.00040373129143843957 0 -0.015645367083901317 0.0001751712652077825 0 -0.016843521648434442 0.00026989193282283712 0 -0.018195068799278055 0.00040483892784216424 0 -0.015923505385911297 2.483388369943686e-05 0 -0.015645367083901317 0.0001751712652077825 0 -0.015676629693341413 -8.5671171698351216e-05 0 -0.015645367083901317 0.0001751712652077825 0 -0.015560784002689171 9.8419793202727653e-06 0 -0.015676629693341413 -8.5671171698351216e-05 0 -0.015657322519989438 9.2039644907896255e-05 0 -0.015461092936413217 1.5398343158352724e-05 0 -0.015560784002689171 9.8419793202727653e-06 0 -0.018195068799278055 0.00040483892784216424 0 -0.020494198726602231 7.5404711107085297e-05 0 -0.022752800638016275 0.00044548099884423882 0 -0.022738876706407153 0.00035708804463139437 0 -0.022608625312323861 0.00032684883877537519 0 -0.015461092936413217 1.5398343158352724e-05 0 -0.015560784002689171 9.8419793202727653e-06 0 -0.015480768653944007 -0.00017138386771285794 0 -0.018195068799278055 0.00040483892784216424 0 -0.015745883211933286 -0.0004845681158173286 0 -0.015560784002689171 9.8419793202727653e-06 0 -0.015480768653944007 -0.00017138386771285794 0 -0.015567409174526439 -0.00015905715191299422 0 -0.015560784002689171 9.8419793202727653e-06 0 -0.015567409174526439 -0.00015905715191299422 0 -0.015676629693341413 -8.5671171698351216e-05 0 -0.015480768653944007 -0.00017138386771285794 0 -0.015567409174526439 -0.00015905715191299422 0 -0.015519724247008371 -0.00025765684703620657 0 -0.015567409174526439 -0.00015905715191299422 0 -0.015610908303902608 -0.00026680285285040923 0 -0.015519724247008371 -0.00025765684703620657 0 -0.015567409174526439 -0.00015905715191299422 0 -0.015676629693341413 -8.5671171698351216e-05 0 -0.015610908303902608 -0.00026680285285040923 0 -0.015788232424014149 -0.00021562941549666784 0 -0.015676629693341413 -8.5671171698351216e-05 0 -0.015610908303902608 -0.00026680285285040923 0 -0.015923505385911297 2.483388369943686e-05 0 -0.015788232424014149 -0.00021562941549666784 0 -0.015676629693341413 -8.5671171698351216e-05 0 -0.023754425831095324 -6.1104284976972619e-05 0 -0.02409777944462347 0.00020997056436915221 0 -0.024363096288948467 0.00021031665317378914 0 -0.022027540003450301 -0.00041390084949345239 0 -0.02238319933996058 -8.8156780000583329e-05 0 -0.02409777944462347 0.00020997056436915221 0 -0.024147774377978076 0.00027125026632601279 0 -0.024363096288948467 0.00021031665317378914 0 -0.024148396566823532 0.00023961138427487378 0 -0.024100581481035367 0.00023257227792242171 0 -0.024147774377978076 0.00027125026632601279 0 -0.024100581481035367 0.00023257227792242171 0 -0.02409777944462347 0.00020997056436915221 0 -0.024147774377978076 0.00027125026632601279 0 -0.023772102775755952 0.0003215345185387265 0 -0.02238319933996058 -8.8156780000583329e-05 0 -0.024145721712610858 0.00029508920520822574 0 -0.024147774377978076 0.00027125026632601279 0 -0.024363096288948467 0.00021031665317378914 0 -0.020494198726602231 7.5404711107085297e-05 0 -0.02238319933996058 -8.8156780000583329e-05 0 -0.023919076503503868 0.00040088958180580549 0 -0.02410663537127071 0.00044795756568296013 0 -0.024016915317136064 0.00033883273187062976 0 -0.024145721712610858 0.00029508920520822574 0 -0.02410663537127071 0.00044795756568296013 0 -0.024016915317136064 0.00033883273187062976 0 -0.023944847809264199 0.000274317162284024 0 -0.023919076503503868 0.00040088958180580549 0 -0.024016915317136064 0.00033883273187062976 0 -0.020459600428151817 0.00020715690373571962 0 -0.019690380447242781 7.3854201946810431e-05 0 -0.019723548288965498 -0.0009446523028996866 0 -0.020494198726602231 7.5404711107085297e-05 0 -0.017496175296132347 -0.00083421925975743776 0 -0.015461092936413217 1.5398343158352724e-05 0 -0.015480768653944007 -0.00017138386771285794 0 -0.015375126966816793 -0.00028761582267793279 0 -0.02054198752707748 -0.00069605015129589934 0 -0.020441800549026279 -0.00077424097743146447 0 -0.020531000718836141 -0.00089937867743088401 0 -0.02238319933996058 -8.8156780000583329e-05 0 -0.017496175296132347 -0.00083421925975743776 0 -0.020332427182802794 -0.00073739344968123228 0 -0.02054198752707748 -0.00069605015129589934 0 -0.020441800549026279 -0.00077424097743146447 0 -0.020378295814068602 -0.00087985951771461552 0 -0.020441800549026279 -0.00077424097743146447 0 -0.020531000718836141 -0.00089937867743088401 0 -0.017496175296132347 -0.00083421925975743776 0 -0.018276033591959548 -0.00093725048996714144 0 -0.020378295814068602 -0.00087985951771461552 0 -0.020531000718836141 -0.00089937867743088401 0 -0.02039941721472658 -0.0011054393816951516 0 -0.015480768653944007 -0.00017138386771285794 0 -0.015375126966816793 -0.00028761582267793279 0 -0.015451550019828959 -0.00033236656181448649 0 -0.015375126966816793 -0.00028761582267793279 0 -0.015451550019828959 -0.00033236656181448649 0 -0.015495470543793431 -0.00039612435372614991 0 -0.017496175296132347 -0.00083421925975743776 0 -0.015388417019517195 -0.00048070370120870614 0 -0.015495470543793431 -0.00039612435372614991 0 -0.015453943605407564 -0.00038128358060381725 0 -0.015409783721254318 -0.00038160649598248663 0 -0.015451550019828959 -0.00033236656181448649 0 -0.015495470543793431 -0.00039612435372614991 0 -0.015453943605407564 -0.00038128358060381725 0 -0.015775786761090819 -0.0011126114460599892 0 -0.015719158359637952 -0.00068903411936372901 0 -0.015998031881784006 -0.00073323480273016352 0 -0.015608598630343945 -0.00035103339456821648 0 -0.015610908303902608 -0.00026680285285040923 0 -0.015481735809891718 -0.00037497866011235615 0 -0.015788232424014149 -0.00021562941549666784 0 -0.015608598630343945 -0.00035103339456821648 0 -0.015610908303902608 -0.00026680285285040923 0 -0.015480768653944007 -0.00017138386771285794 0 -0.015451550019828959 -0.00033236656181448649 0 -0.015519724247008371 -0.00025765684703620657 0 -0.015610908303902608 -0.00026680285285040923 0 -0.015519724247008371 -0.00025765684703620657 0 -0.015481735809891718 -0.00037497866011235615 0 -0.015451550019828959 -0.00033236656181448649 0 -0.015519724247008371 -0.00025765684703620657 0 -0.015481735809891718 -0.00037497866011235615 0 -0.015481735809891718 -0.00037497866011235615 0 -0.015453943605407564 -0.00038128358060381725 0 -0.015409783721254318 -0.00038160649598248663 0 -0.015481735809891718 -0.00037497866011235615 0 -0.015408593139740554 -0.00039969823856963283 0 -0.015409783721254318 -0.00038160649598248663 0 -0.015451550019828959 -0.00033236656181448649 0 -0.015481735809891718 -0.00037497866011235615 0 -0.015453943605407564 -0.00038128358060381725 0 -0.015608598630343945 -0.00035103339456821648 0 -0.015481735809891718 -0.00037497866011235615 0 -0.015408593139740554 -0.00039969823856963283 0 -0.015538267642326475 -0.0003768546616453329 0 -0.015608598630343945 -0.00035103339456821648 0 -0.015408593139740554 -0.00039969823856963283 0 -0.015408593139740554 -0.00039969823856963283 0 -0.015218810278937787 -0.00035792672816254242 0 -0.0152516405622802 -0.00037462402551502954 0 -0.015218810278937787 -0.00035792672816254242 0 -0.015409783721254318 -0.00038160649598248663 0 -0.015290721366520954 -0.00027755484160404145 0 -0.015408593139740554 -0.00039969823856963283 0 -0.015218810278937787 -0.00035792672816254242 0 -0.015409783721254318 -0.00038160649598248663 0 -0.015409783721254318 -0.00038160649598248663 0 -0.015290721366520954 -0.00027755484160404145 0 -0.015635920169133358 -0.00021223757951542414 0 -0.015290721366520954 -0.00027755484160404145 0 -0.015635920169133358 -0.00021223757951542414 0 -0.015285845995133451 -8.0471954379365734e-05 0 -0.015290721366520954 -0.00027755484160404145 0 -0.015035160694696056 -0.00014811773718515419 0 -0.015285845995133451 -8.0471954379365734e-05 0 -0.015218810278937787 -0.00035792672816254242 0 -0.015290721366520954 -0.00027755484160404145 0 -0.015035160694696056 -0.00014811773718515419 0 -0.015719158359637952 -0.00068903411936372901 0 -0.015919216881564842 -0.00041342079959843148 0 -0.015635920169133358 -0.00021223757951542414 0 -0.015719158359637952 -0.00068903411936372901 0 -0.015998031881784006 -0.00073323480273016352 0 -0.015919216881564842 -0.00041342079959843148 0 -0.015495470543793431 -0.00039612435372614991 0 -0.015409783721254318 -0.00038160649598248663 0 -0.015635920169133358 -0.00021223757951542414 0 -0.015388417019517195 -0.00048070370120870614 0 -0.015676815223315967 -0.00024415734676921035 0 -0.015635920169133358 -0.00021223757951542414 0 -0.015502065963807994 2.2181945014844278e-05 0 -0.015285845995133451 -8.0471954379365734e-05 0 -0.016050222694617804 -2.334536554849779e-05 0 -0.015919216881564842 -0.00041342079959843148 0 -0.015635920169133358 -0.00021223757951542414 0 -0.016050222694617804 -2.334536554849779e-05 0 -0.015635920169133358 -0.00021223757951542414 0 -0.01574208598961712 0.00015440767311545935 0 -0.016050222694617804 -2.334536554849779e-05 0 -0.016124692727376488 0.00031991413513749383 0 -0.01574208598961712 0.00015440767311545935 0 -0.015635920169133358 -0.00021223757951542414 0 -0.01574208598961712 0.00015440767311545935 0 -0.015502065963807994 2.2181945014844278e-05 0 -0.01574208598961712 0.00015440767311545935 0 -0.015502065963807994 2.2181945014844278e-05 0 -0.015426235728391656 0.00030298923260848546 0 -0.01574208598961712 0.00015440767311545935 0 -0.015426235728391656 0.00030298923260848546 0 -0.01573474246976821 0.0005149620332204766 0 -0.016124692727376488 0.00031991413513749383 0 -0.01574208598961712 0.00015440767311545935 0 -0.01573474246976821 0.0005149620332204766 0 -0.014779540500572046 0.00013862946853193577 0 -0.014837451027507022 0.00022339310743311338 0 -0.014224359324667648 -0.00036534215529875145 0 -0.013706262637557681 1.01086328415856e-05 0 -0.014215650246079939 -1.2993191179000244e-06 0 -0.015035160694696056 -0.00014811773718515419 0 -0.015249380429174758 0.00014355110968592474 0 -0.015029137268468978 0.00040240933952166344 0 -0.015035160694696056 -0.00014811773718515419 0 -0.015029137268468978 0.00040240933952166344 0 -0.014386545327216088 -0.00011051375924460644 0 -0.015035160694696056 -0.00014811773718515419 0 -0.015285845995133451 -8.0471954379365734e-05 0 -0.015249380429174758 0.00014355110968592474 0 -0.015502065963807994 2.2181945014844278e-05 0 -0.015285845995133451 -8.0471954379365734e-05 0 -0.015249380429174758 0.00014355110968592474 0 -0.015502065963807994 2.2181945014844278e-05 0 -0.015249380429174758 0.00014355110968592474 0 -0.015426235728391656 0.00030298923260848546 0 -0.015249380429174758 0.00014355110968592474 0 -0.015426235728391656 0.00030298923260848546 0 -0.015029137268468978 0.00040240933952166344 0 -0.015426235728391656 0.00030298923260848546 0 -0.015029137268468978 0.00040240933952166344 0 -0.015363000200688799 0.0007163429455051951 0 -0.01381552752896119 -8.0076945607706081e-05 0 -0.013710974516582828 -9.2786168936912029e-05 0 -0.013776002052699837 8.9294073521373562e-05 0 -0.01381552752896119 -8.0076945607706081e-05 0 -0.013710974516582828 -9.2786168936912029e-05 0 -0.014386545327216088 -0.00011051375924460644 0 -0.013710974516582828 -9.2786168936912029e-05 0 -0.01360964761340918 -0.00012326843453540484 0 -0.013016515458887389 -3.4260815040998377e-05 0 -0.013710974516582828 -9.2786168936912029e-05 0 -0.014386545327216088 -0.00011051375924460644 0 -0.01360964761340918 -0.00012326843453540484 0 -0.014386545327216088 -0.00011051375924460644 0 -0.014346662086792857 -0.00018426367772835249 0 -0.01360964761340918 -0.00012326843453540484 0 -0.014513470624505543 0.0001792064195356778 0 -0.014317564950787639 -0.00012529465264174105 0 -0.015035160694696056 -0.00014811773718515419 0 -0.014386545327216088 -0.00011051375924460644 0 -0.014798477623906221 -0.00029187045956342948 0 -0.015218810278937787 -0.00035792672816254242 0 -0.015035160694696056 -0.00014811773718515419 0 -0.014798477623906221 -0.00029187045956342948 0 -0.014798477623906221 -0.00029187045956342948 0 -0.014346662086792857 -0.00018426367772835249 0 -0.015007087961467613 -0.00025832829365238311 0 -0.014386545327216088 -0.00011051375924460644 0 -0.014798477623906221 -0.00029187045956342948 0 -0.014346662086792857 -0.00018426367772835249 0 -0.015554054555083834 -0.00035118956466377338 0 -0.0152516405622802 -0.00037462402551502954 0 -0.015007087961467613 -0.00025832829365238311 0 -0.014798477623906221 -0.00029187045956342948 0 -0.0152516405622802 -0.00037462402551502954 0 -0.015007087961467613 -0.00025832829365238311 0 -0.015218810278937787 -0.00035792672816254242 0 -0.014798477623906221 -0.00029187045956342948 0 -0.0152516405622802 -0.00037462402551502954 0 -0.015606111048318161 -3.6652060079802286e-07 0 -0.015007087961467613 -0.00025832829365238311 0 -0.01455887290669898 -0.0001380335982294681 0 -0.014346662086792857 -0.00018426367772835249 0 -0.015007087961467613 -0.00025832829365238311 0 -0.01455887290669898 -0.0001380335982294681 0 -0.015606111048318161 -3.6652060079802286e-07 0 -0.01455887290669898 -0.0001380335982294681 0 -0.014180163161547995 -2.6053738946124145e-07 0 -0.014180163161547995 -2.6053738946124145e-07 0 -0.01360964761340918 -0.00012326843453540484 0 -0.012754399711985458 -1.0707107277631312e-07 0 -0.01455887290669898 -0.0001380335982294681 0 -0.014180163161547995 -2.6053738946124145e-07 0 -0.01360964761340918 -0.00012326843453540484 0 -0.014346662086792857 -0.00018426367772835249 0 -0.01455887290669898 -0.0001380335982294681 0 -0.01360964761340918 -0.00012326843453540484 0 -0.01360964761340918 -0.00012326843453540484 0 -0.012156570555131843 2.0985330832538346e-05 0 -0.013016515458887389 -3.4260815040998377e-05 0 -0.01360964761340918 -0.00012326843453540484 0 -0.012754399711985458 -1.0707107277631312e-07 0 -0.012156570555131843 2.0985330832538346e-05 0 -0.012754399711985458 -1.0707107277631312e-07 0 -0.012156570555131843 2.0985330832538346e-05 0 -0.011328400215255817 8.8046038157898137e-08 0 -0.012156570555131843 2.0985330832538346e-05 0 -0.013016515458887389 -3.4260815040998377e-05 0 -0.012260354445432206 0.00019163479281512425 0 -0.012156570555131843 2.0985330832538346e-05 0 -0.012260354445432206 0.00019163479281512425 0 -0.011181398494240692 6.4427469289110527e-05 0 -0.012156570555131843 2.0985330832538346e-05 0 -0.011328400215255817 8.8046038157898137e-08 0 -0.011181398494240692 6.4427469289110527e-05 0 -0.013710974516582828 -9.2786168936912029e-05 0 -0.013647873529244283 0.00022344695622213761 0 -0.013776002052699837 8.9294073521373562e-05 0 -0.013710974516582828 -9.2786168936912029e-05 0 -0.013035999541228417 4.1377406793135805e-05 0 -0.013138269071823538 0.00020436437123679709 0 -0.013620235475990896 -6.7234160415788522e-05 0 -0.013505858498099205 0.00011427285833554608 0 -0.013035999541228417 4.1377406793135805e-05 0 -0.012260354445432206 0.00019163479281512425 0 -0.013138269071823538 0.00020436437123679709 0 -0.013035999541228417 4.1377406793135805e-05 0 -0.013016515458887389 -3.4260815040998377e-05 0 -0.012260354445432206 0.00019163479281512425 0 -0.013710974516582828 -9.2786168936912029e-05 0 -0.013035999541228417 4.1377406793135805e-05 0 -0.013016515458887389 -3.4260815040998377e-05 0 -0.012092253851256589 0.00014612916193981965 0 -0.011696246801310988 0.00047510849367631095 0 -0.012260354445432206 0.00019163479281512425 0 -0.012757619322127533 0.00063069724533971691 0 -0.012465898270048188 0.00107015852479556 0 -0.012260354445432206 0.00019163479281512425 0 -0.012757619322127533 0.00063069724533971691 0 -0.013138269071823538 0.00020436437123679709 0 -0.013505858498099205 0.00011427285833554608 0 -0.012571603898563679 0.0011407896590321812 0 -0.013647873529244283 0.00022344695622213761 0 -0.013670319985351996 0.00036950116128691953 0 -0.013743639536220299 0.00028347613861355012 0 -0.012757619322127533 0.00063069724533971691 0 -0.013138269071823538 0.00020436437123679709 0 -0.012990831934038787 0.0010504546918828686 0 -0.013138269071823538 0.00020436437123679709 0 -0.013053871801752211 0.0011024315874767253 0 -0.012990831934038787 0.0010504546918828686 0 -0.013030564042446536 0.0010925613313003222 0 -0.012990831934038787 0.0010504546918828686 0 -0.012888924680715111 0.0012125355093723195 0 -0.012571603898563679 0.0011407896590321812 0 -0.012637990906280865 0.0011640916620959056 0 -0.012757619322127533 0.00063069724533971691 0 -0.012990831934038787 0.0010504546918828686 0 -0.012750930401858228 0.00096898955547069056 0 -0.012990831934038787 0.0010504546918828686 0 -0.012750930401858228 0.00096898955547069056 0 -0.012785541741167038 0.0011207738019639248 0 -0.012990831934038787 0.0010504546918828686 0 -0.012785541741167038 0.0011207738019639248 0 -0.012888924680715111 0.0012125355093723195 0 -0.012750930401858228 0.00096898955547069056 0 -0.012785541741167038 0.0011207738019639248 0 -0.012465898270048188 0.00107015852479556 0 -0.012785541741167038 0.0011207738019639248 0 -0.012465898270048188 0.00107015852479556 0 -0.012769585038673452 0.0013602163519074559 0 -0.012757619322127533 0.00063069724533971691 0 -0.012750930401858228 0.00096898955547069056 0 -0.012465898270048188 0.00107015852479556 0 -0.010862149559759039 2.67754014998311e-05 0 -0.010274156218229642 -5.7490292281932679e-05 0 -0.010080876279195884 -0.00010977005405956906 0 -0.011696246801310988 0.00047510849367631095 0 -0.011365079196940879 0.00069902794421822559 0 -0.012465898270048188 0.00107015852479556 0 -0.012769585038673452 0.0013602163519074559 0 -0.012584397541739002 0.0016357107748495912 0 -0.012571603898563679 0.0011407896590321812 0 -0.012198228948148038 0.001707849756379502 0 -0.012769585038673452 0.0013602163519074559 0 -0.013012652484604061 0.0015636710859003396 0 -0.012584397541739002 0.0016357107748495912 0 -0.013030564042446536 0.0010925613313003222 0 -0.012888924680715111 0.0012125355093723195 0 -0.013012652484604061 0.0015636710859003396 0 -0.012769585038673452 0.0013602163519074559 0 -0.012888924680715111 0.0012125355093723195 0 -0.013012652484604061 0.0015636710859003396 0 -0.012785541741167038 0.0011207738019639248 0 -0.012769585038673452 0.0013602163519074559 0 -0.012888924680715111 0.0012125355093723195 0 -0.011328400215255817 8.8046038157898137e-08 0 -0.011181398494240692 6.4427469289110527e-05 0 -0.009902775594448179 3.8814390999087509e-08 0 -0.012260354445432206 0.00019163479281512425 0 -0.010862149559759039 2.67754014998311e-05 0 -0.011181398494240692 6.4427469289110527e-05 0 -0.010862149559759039 2.67754014998311e-05 0 -0.011181398494240692 6.4427469289110527e-05 0 -0.010274156218229642 -5.7490292281932679e-05 0 -0.010274156218229642 -5.7490292281932679e-05 0 -0.009902775594448179 3.8814390999087509e-08 0 -0.0095122132267878509 -8.2656730029180827e-05 0 -0.011181398494240692 6.4427469289110527e-05 0 -0.010274156218229642 -5.7490292281932679e-05 0 -0.009902775594448179 3.8814390999087509e-08 0 -0.0095122132267878509 -8.2656730029180827e-05 0 -0.0084763637255389854 -8.0785567196214044e-07 0 -0.0091690847171724214 -3.5369873495126429e-05 0 -0.009902775594448179 3.8814390999087509e-08 0 -0.0095122132267878509 -8.2656730029180827e-05 0 -0.0084763637255389854 -8.0785567196214044e-07 0 -0.0084763637255389854 -8.0785567196214044e-07 0 -0.0091690847171724214 -3.5369873495126429e-05 0 -0.0084603031682543867 4.3123012372674419e-05 0 -0.0093342448480807499 5.8356803637559028e-05 0 -0.0091690847171724214 -3.5369873495126429e-05 0 -0.0090103213450269948 0.00010377482841894843 0 -0.0091690847171724214 -3.5369873495126429e-05 0 -0.0084603031682543867 4.3123012372674419e-05 0 -0.0090103213450269948 0.00010377482841894843 0 -0.0091690847171724214 -3.5369873495126429e-05 0 -0.0097477628593020307 -0.00010612441627821108 0 -0.009658222059912536 -5.5118539536510632e-05 0 -0.0093342448480807499 5.8356803637559028e-05 0 -0.0091690847171724214 -3.5369873495126429e-05 0 -0.009658222059912536 -5.5118539536510632e-05 0 -0.0095122132267878509 -8.2656730029180827e-05 0 -0.0091690847171724214 -3.5369873495126429e-05 0 -0.0097477628593020307 -0.00010612441627821108 0 -0.010274156218229642 -5.7490292281932679e-05 0 -0.0097477628593020307 -0.00010612441627821108 0 -0.010080876279195884 -0.00010977005405956906 0 -0.010274156218229642 -5.7490292281932679e-05 0 -0.0095122132267878509 -8.2656730029180827e-05 0 -0.0097477628593020307 -0.00010612441627821108 0 -0.0097477628593020307 -0.00010612441627821108 0 -0.010080876279195884 -0.00010977005405956906 0 -0.009658222059912536 -5.5118539536510632e-05 0 -0.012584397541739002 0.0016357107748495912 0 -0.01281552519722332 0.001834090406049293 0 -0.012646910797628995 0.0021442723278651673 0 -0.010080876279195884 -0.00010977005405956906 0 -0.009658222059912536 -5.5118539536510632e-05 0 -0.009809071195893795 -3.6968515406131811e-05 0 -0.011365079196940879 0.00069902794421822559 0 -0.010991046100049234 0.0012612913798446179 0 -0.013012652484604061 0.0015636710859003396 0 -0.01281552519722332 0.001834090406049293 0 -0.013021624629825561 0.0019824819628510709 0 -0.012198228948148038 0.001707849756379502 0 -0.010389792712069754 0.0018464756877033443 0 -0.013012652484604061 0.0015636710859003396 0 -0.012584397541739002 0.0016357107748495912 0 -0.01281552519722332 0.001834090406049293 0 -0.010389792712069754 0.0018464756877033443 0 -0.008831670787480296 0.0017639737806002813 0 -0.0094645306558868054 0.0016710572982561475 0 -0.0096125421361462019 0.0016015292400885029 0 -0.0095784615681047125 0.0014372422510162957 0 -0.01281552519722332 0.001834090406049293 0 -0.013021624629825561 0.0019824819628510709 0 -0.012646910797628995 0.0021442723278651673 0 -0.010389792712069754 0.0018464756877033443 0 -0.010991046100049234 0.0012612913798446179 0 -0.010991046100049234 0.0012612913798446179 0 -0.009749976759525188 0.00080245482282839274 0 -0.009809071195893795 -3.6968515406131811e-05 0 -0.0097507583702611811 0.00014894818007726238 0 -0.0099712450918713752 0.00040727737886241296 0 -0.009658222059912536 -5.5118539536510632e-05 0 -0.009809071195893795 -3.6968515406131811e-05 0 -0.0096841976733745994 4.8338543544399001e-05 0 -0.009809071195893795 -3.6968515406131811e-05 0 -0.0097507583702611811 0.00014894818007726238 0 -0.0096841976733745994 4.8338543544399001e-05 0 -0.0096841976733745994 4.8338543544399001e-05 0 -0.0095502064760492108 5.2143805007382374e-05 0 -0.0095439979778841645 0.00018488660526728396 0 -0.0097507583702611811 0.00014894818007726238 0 -0.0096841976733745994 4.8338543544399001e-05 0 -0.0095439979778841645 0.00018488660526728396 0 -0.0093342448480807499 5.8356803637559028e-05 0 -0.009658222059912536 -5.5118539536510632e-05 0 -0.0095502064760492108 5.2143805007382374e-05 0 -0.009658222059912536 -5.5118539536510632e-05 0 -0.0096841976733745994 4.8338543544399001e-05 0 -0.0095502064760492108 5.2143805007382374e-05 0 -0.0093342448480807499 5.8356803637559028e-05 0 -0.0095502064760492108 5.2143805007382374e-05 0 -0.0095439979778841645 0.00018488660526728396 0 -0.0097507583702611811 0.00014894818007726238 0 -0.0095439979778841645 0.00018488660526728396 0 -0.0096244328461542131 0.00039418664705763245 0 -0.0095439979778841645 0.00018488660526728396 0 -0.0096244328461542131 0.00039418664705763245 0 -0.0092342627115002216 0.0002362768277162017 0 -0.0097507583702611811 0.00014894818007726238 0 -0.0096244328461542131 0.00039418664705763245 0 -0.0099712450918713752 0.00040727737886241296 0 -0.0096244328461542131 0.00039418664705763245 0 -0.0099712450918713752 0.00040727737886241296 0 -0.0097622893149901177 0.00075933274988103643 0 -0.0096244328461542131 0.00039418664705763245 0 -0.0092342627115002216 0.0002362768277162017 0 -0.009212120731692839 0.00055397913118439138 0 -0.0096244328461542131 0.00039418664705763245 0 -0.0097622893149901177 0.00075933274988103643 0 -0.009212120731692839 0.00055397913118439138 0 -0.0094645306558868054 0.0016710572982561475 0 -0.0095784615681047125 0.0014372422510162957 0 -0.0094166611191351269 0.0013977740604646427 0 -0.0095452360109709363 0.0012722378577604328 0 -0.0094166611191351269 0.0013977740604646427 0 -0.0093653975852367628 0.0011199700951847855 0 -0.0095784615681047125 0.0014372422510162957 0 -0.0095452360109709363 0.0012722378577604328 0 -0.0094166611191351269 0.0013977740604646427 0 -0.009749976759525188 0.00080245482282839274 0 -0.0093185872319243579 0.001401414584894828 0 -0.0099712450918713752 0.00040727737886241296 0 -0.010096587424799727 0.0010841755347562154 0 -0.0097622893149901177 0.00075933274988103643 0 -0.010164651806549619 0.0011802621398587592 0 -0.0091240147141839027 0.0013479678632111565 0 -0.010233489504650877 0.0017545151320356063 0 -0.010164651806549619 0.0011802621398587592 0 -0.0097622893149901177 0.00075933274988103643 0 -0.0091240147141839027 0.0013479678632111565 0 -0.0097622893149901177 0.00075933274988103643 0 -0.0091240147141839027 0.0013479678632111565 0 -0.009212120731692839 0.00055397913118439138 0 -0.0093185872319243579 0.001401414584894828 0 -0.0097651714224364101 0.0010217343252266918 0 -0.0091240147141839027 0.0013479678632111565 0 -0.0083115563936112836 0.00033293386396305425 0 -0.009212120731692839 0.00055397913118439138 0 -0.0064557016736154025 -1.6006078281673087e-06 0 -0.0069502972891274193 1.940786575497274e-07 0 -0.0058676353440118099 -7.0702490608561238e-05 0 -0.0091240147141839027 0.0013479678632111565 0 -0.0072044769338661004 0.00032772540752478015 0 -0.0083115563936112836 0.00033293386396305425 0 -0.0064713307018379792 0.0011151563748465808 0 -0.0068527836729626547 0.0012664691699707221 0 -0.0066585494818279982 0.00090418250341019689 0 -0.0078156553853239389 0.0012820850658527565 0 -0.0071401430321005026 0.00057793181948772785 0 -0.0071401430321005026 0.00057793181948772785 0 -0.0064440747961940076 0.00038470692821911627 0 -0.0064557016736154025 -1.6006078281673087e-06 0 -0.0069502972891274193 1.940786575497274e-07 0 -0.0056075291162652431 -1.8937195157645861e-07 0 -0.0071401430321005026 0.00057793181948772785 0 -0.0070500732821275492 1.4255054413067459e-06 0 -0.0083115563936112836 0.00033293386396305425 0 -0.0070528086693397111 2.284196642677991e-06 0 -0.0084603031682543867 4.3123012372674419e-05 0 -0.0084763637255389854 -8.0785567196214044e-07 0 -0.0070528086693397111 2.284196642677991e-06 0 -0.0084603031682543867 4.3123012372674419e-05 0 -0.0072044769338661004 0.00032772540752478015 0 -0.0083115563936112836 0.00033293386396305425 0 -0.0070528086693397111 2.284196642677991e-06 0 -0.0083115563936112836 0.00033293386396305425 0 -0.0084603031682543867 4.3123012372674419e-05 0 -0.0088510162813234521 0.00025787949534505266 0 -0.0084603031682543867 4.3123012372674419e-05 0 -0.0088510162813234521 0.00025787949534505266 0 -0.0090103213450269948 0.00010377482841894843 0 -0.0093342448480807499 5.8356803637559028e-05 0 -0.0090103213450269948 0.00010377482841894843 0 -0.0092342627115002216 0.0002362768277162017 0 -0.0093342448480807499 5.8356803637559028e-05 0 -0.0095439979778841645 0.00018488660526728396 0 -0.0092342627115002216 0.0002362768277162017 0 -0.0088510162813234521 0.00025787949534505266 0 -0.0090103213450269948 0.00010377482841894843 0 -0.0092342627115002216 0.0002362768277162017 0 -0.0088510162813234521 0.00025787949534505266 0 -0.0092342627115002216 0.0002362768277162017 0 -0.009212120731692839 0.00055397913118439138 0 -0.0083115563936112836 0.00033293386396305425 0 -0.0088510162813234521 0.00025787949534505266 0 -0.009212120731692839 0.00055397913118439138 0 -0.007999617012827814 0.0021590502968324662 0 -0.0079464765856624674 0.0021217931411854438 0 -0.0079974984842691877 0.0021061027944282592 0 -0.007999617012827814 0.0021590502968324662 0 -0.0079974984842691877 0.0021061027944282592 0 -0.0080796715370281009 0.0021723365759959011 0 -0.007999617012827814 0.0021590502968324662 0 -0.0080796715370281009 0.0021723365759959011 0 -0.0080473244586666669 0.0022095553518151536 0 -0.007999617012827814 0.0021590502968324662 0 -0.0080473244586666669 0.0022095553518151536 0 -0.0080112651200850322 0.0021907338917098052 0 -0.007999617012827814 0.0021590502968324662 0 -0.0079954471976468773 0.0021523570419040928 0 -0.0080112651200850322 0.0021907338917098052 0 -0.0079954471976468773 0.0021523570419040928 0 -0.0080112651200850322 0.0021907338917098052 0 -0.0080848812304333689 0.00215102961675757 0 -0.0079954471976468773 0.0021523570419040928 0 -0.0079887775094516743 0.0021435838375106265 0 -0.0080848812304333689 0.00215102961675757 0 -0.0079954471976468773 0.0021523570419040928 0 -0.0079887775094516743 0.0021435838375106265 0 -0.0079464765856624674 0.0021217931411854438 0 -0.007999617012827814 0.0021590502968324662 0 -0.0079954471976468773 0.0021523570419040928 0 -0.0079464765856624674 0.0021217931411854438 0 -0.0079887775094516743 0.0021435838375106265 0 -0.0078282597522076718 0.0020419814842668766 0 -0.0079464765856624674 0.0021217931411854438 0 -0.0079887775094516743 0.0021435838375106265 0 -0.0078282597522076718 0.0020419814842668766 0 -0.0080273632287191313 0.0022560158371243851 0 -0.0078282597522076718 0.0020419814842668766 0 -0.0079974984842691877 0.0021061027944282592 0 -0.0080956729950514405 0.0018922609976272304 0 -0.0078282597522076718 0.0020419814842668766 0 -0.0079464765856624674 0.0021217931411854438 0 -0.0079974984842691877 0.0021061027944282592 0 -0.0079974984842691877 0.0021061027944282592 0 -0.0081509628239413452 0.002110034148896117 0 -0.0080956729950514405 0.0018922609976272304 0 -0.0084001125667683696 0.0021118118340486443 0 -0.0081509628239413452 0.002110034148896117 0 -0.0080956729950514405 0.0018922609976272304 0 -0.0084001125667683696 0.0021118118340486443 0 -0.0084495125759923868 0.0017356820144095687 0 -0.0080956729950514405 0.0018922609976272304 0 -0.008831670787480296 0.0017639737806002813 0 -0.0080220085027633767 0.0014819295184582085 0 -0.0084001125667683696 0.0021118118340486443 0 -0.0081509628239413452 0.002110034148896117 0 -0.0081958180560223262 0.0021913716373107568 0 -0.0084001125667683696 0.0021118118340486443 0 -0.0081958180560223262 0.0021913716373107568 0 -0.0082835714053845332 0.0022527002330080142 0 -0.0079974984842691877 0.0021061027944282592 0 -0.0081509628239413452 0.002110034148896117 0 -0.0080796715370281009 0.0021723365759959011 0 -0.0081958180560223262 0.0021913716373107568 0 -0.0080796715370281009 0.0021723365759959011 0 -0.0081279620162554647 0.0022388358195860932 0 -0.0081509628239413452 0.002110034148896117 0 -0.0081958180560223262 0.0021913716373107568 0 -0.0080796715370281009 0.0021723365759959011 0 -0.0081279620162554647 0.0022388358195860932 0 -0.0081849341098812964 0.0023049256597000045 0 -0.0082835714053845332 0.0022527002330080142 0 -0.0081958180560223262 0.0021913716373107568 0 -0.0081279620162554647 0.0022388358195860932 0 -0.0082835714053845332 0.0022527002330080142 0 -0.0081279620162554647 0.0022388358195860932 0 -0.0081849341098812964 0.0023049256597000045 0 -0.0080821865274340477 0.0022688229205312265 0 -0.0083918959168675002 0.0023230697447170919 0 -0.0084001125667683696 0.0021118118340486443 0 -0.0082835714053845332 0.0022527002330080142 0 -0.0083918959168675002 0.0023230697447170919 0 -0.0082835714053845332 0.0022527002330080142 0 -0.0082779546471816127 0.0023634976305137992 0 -0.0081849341098812964 0.0023049256597000045 0 -0.0082835714053845332 0.0022527002330080142 0 -0.0082779546471816127 0.0023634976305137992 0 -0.011354966633459508 0.0017232473374186898 0 -0.011316944477073824 0.001475746563118426 0 -0.011114876195948404 0.001563639777858817 0 -0.010389792712069754 0.0018464756877033443 0 -0.0095169482391019213 0.0020470074711849691 0 -0.011114876195948404 0.001563639777858817 0 -0.010905236857507104 0.0016540211064874023 0 -0.011151299738740957 0.0018155727106793668 0 -0.0081849341098812964 0.0023049256597000045 0 -0.0081598677013870764 0.0024061456000728019 0 -0.0080821865274340477 0.0022688229205312265 0 -0.0081849341098812964 0.0023049256597000045 0 -0.0082779546471816127 0.0023634976305137992 0 -0.0081598677013870764 0.0024061456000728019 0 -0.0095169482391019213 0.0020470074711849691 0 -0.010246757197895353 0.0015914506528035817 0 -0.0077710515242733549 0.0018383879218779309 0 -0.0081780108399785723 0.0018949638900454002 0 -0.0083216014553533519 0.0022127576634061873 0 -0.010246757197895353 0.0015914506528035817 0 -0.0077724947894486363 0.0021648331256707669 0 -0.0081598677013870764 0.0024061456000728019 0 -0.0080821865274340477 0.0022688229205312265 0 -0.008002056108941967 0.0022441891472360967 0 -0.0077710515242733549 0.0018383879218779309 0 -0.0081780108399785723 0.0018949638900454002 0 -0.0082746704261704926 0.0015536891803895425 0 -0.0081780108399785723 0.0018949638900454002 0 -0.0083616947086212513 0.0019519841660293241 0 -0.0082746704261704926 0.0015536891803895425 0 -0.0081780108399785723 0.0018949638900454002 0 -0.0083216014553533519 0.0022127576634061873 0 -0.0083616947086212513 0.0019519841660293241 0 -0.0081279620162554647 0.0022388358195860932 0 -0.0080821865274340477 0.0022688229205312265 0 -0.0080473244586666669 0.0022095553518151536 0 -0.0080821865274340477 0.0022688229205312265 0 -0.0080315366783727925 0.0022247970529197182 0 -0.0080473244586666669 0.0022095553518151536 0 -0.0080315366783727925 0.0022247970529197182 0 -0.008002056108941967 0.0022441891472360967 0 -0.0080112651200850322 0.0021907338917098052 0 -0.0080821865274340477 0.0022688229205312265 0 -0.0080315366783727925 0.0022247970529197182 0 -0.008002056108941967 0.0022441891472360967 0 -0.0080315366783727925 0.0022247970529197182 0 -0.0080473244586666669 0.0022095553518151536 0 -0.0080112651200850322 0.0021907338917098052 0 -0.0080796715370281009 0.0021723365759959011 0 -0.0081279620162554647 0.0022388358195860932 0 -0.0080473244586666669 0.0022095553518151536 0 -0.0077724947894486363 0.0021648331256707669 0 -0.0082384892680236622 0.0022231622472284641 0 -0.0083216014553533519 0.0022127576634061873 0 -0.0082116534024173158 0.0021906589404173077 0 -0.0080848812304333689 0.00215102961675757 0 -0.008002056108941967 0.0022441891472360967 0 -0.0080112651200850322 0.0021907338917098052 0 -0.0080848812304333689 0.00215102961675757 0 -0.0083216014553533519 0.0022127576634061873 0 -0.0082116534024173158 0.0021906589404173077 0 -0.0083426394899672393 0.0021843913879816923 0 -0.0083722043517437551 0.0021922798233924125 0 -0.0086250795984916112 0.0020459209234142189 0 -0.0082116534024173158 0.0021906589404173077 0 -0.0083426394899672393 0.0021843913879816923 0 -0.0081548327238068919 0.0022387298191629428 0 -0.0083426394899672393 0.0021843913879816923 0 -0.0086583860544597775 0.0018966940016285853 0 -0.0091344203181657133 0.0018897049415306309 0 -0.0083426394899672393 0.0021843913879816923 0 -0.0081548327238068919 0.0022387298191629428 0 -0.0081168043766094242 0.0023112634490270222 0 -0.0083426394899672393 0.0021843913879816923 0 -0.0083616947086212513 0.0019519841660293241 0 -0.0086583860544597775 0.0018966940016285853 0 -0.0083216014553533519 0.0022127576634061873 0 -0.0083426394899672393 0.0021843913879816923 0 -0.0083616947086212513 0.0019519841660293241 0 -0.0083616947086212513 0.0019519841660293241 0 -0.0086583860544597775 0.0018966940016285853 0 -0.0085993932381981924 0.001700792487393266 0 -0.0086583860544597775 0.0018966940016285853 0 -0.0088851270458102354 0.001647490533639583 0 -0.0091344203181657133 0.0018897049415306309 0 -0.0086583860544597775 0.0018966940016285853 0 -0.0088851270458102354 0.001647490533639583 0 -0.0085993932381981924 0.001700792487393266 0 -0.0085993932381981924 0.001700792487393266 0 -0.0082746704261704926 0.0015536891803895425 0 -0.008966782269699422 0.0011598700923181402 0 -0.011095644739800197 0.00090505933833549704 0 -0.011416928697211223 0.00073065027942395414 0 -0.0088851270458102354 0.001647490533639583 0 -0.0085993932381981924 0.001700792487393266 0 -0.008966782269699422 0.0011598700923181402 0 -0.013717013669276232 0.00037808534041611805 0 -0.013749127989207788 0.00036394470300375796 0 -0.013737034986924848 0.00035615019364444972 0 -0.0083616947086212513 0.0019519841660293241 0 -0.0085993932381981924 0.001700792487393266 0 -0.0082746704261704926 0.0015536891803895425 0 -0.013689985137951699 0.00038598387027664812 0 -0.013717013669276232 0.00037808534041611805 0 -0.013707620501643501 0.00036393002291872019 0 -0.010246757197895353 0.0015914506528035817 0 -0.011095644739800197 0.00090505933833549704 0 -0.013717013669276232 0.00037808534041611805 0 -0.013718868168472433 0.00035745064104499187 0 -0.013707620501643501 0.00036393002291872019 0 -0.013718868168472433 0.00035745064104499187 0 -0.013722670152708049 0.00033658844139274622 0 -0.013712658820173657 0.00035084240008223077 0 -0.013717013669276232 0.00037808534041611805 0 -0.013718868168472433 0.00035745064104499187 0 -0.013749127989207788 0.00036394470300375796 0 -0.013718868168472433 0.00035745064104499187 0 -0.013749127989207788 0.00036394470300375796 0 -0.013712658820173657 0.00035084240008223077 0 -0.013749127989207788 0.00036394470300375796 0 -0.013737034986924848 0.00035615019364444972 0 -0.013740550162659114 0.00036210802584907324 0 -0.013749127989207788 0.00036394470300375796 0 -0.01380672727813155 0.00036133623589710212 0 -0.013740550162659114 0.00036210802584907324 0 -0.013749127989207788 0.00036394470300375796 0 -0.01380672727813155 0.00036133623589710212 0 -0.013712658820173657 0.00035084240008223077 0 -0.011393229774469124 0.0019705822028593025 0 -0.011354966633459508 0.0017232473374186898 0 -0.011151299738740957 0.0018155727106793668 0 -0.013699142037570998 0.00037315181334784416 0 -0.013707620501643501 0.00036393002291872019 0 -0.013717843226488296 0.00034156146660297045 0 -0.012571603898563679 0.0011407896590321812 0 -0.012654943748099329 0.0011875743325174568 0 -0.011354966633459508 0.0017232473374186898 0 -0.011114876195948404 0.001563639777858817 0 -0.011151299738740957 0.0018155727106793668 0 -0.013689985137951699 0.00038598387027664812 0 -0.013699142037570998 0.00037315181334784416 0 -0.013707620501643501 0.00036393002291872019 0 -0.010246757197895353 0.0015914506528035817 0 -0.012654943748099329 0.0011875743325174568 0 -0.013718868168472433 0.00035745064104499187 0 -0.013707620501643501 0.00036393002291872019 0 -0.013722670152708049 0.00033658844139274622 0 -0.013707620501643501 0.00036393002291872019 0 -0.013722670152708049 0.00033658844139274622 0 -0.013717843226488296 0.00034156146660297045 0 -0.013722670152708049 0.00033658844139274622 0 -0.013717843226488296 0.00034156146660297045 0 -0.013731532163370827 0.0003173801368788774 0 -0.013670319985351996 0.00036950116128691953 0 -0.013699142037570998 0.00037315181334784416 0 -0.013717843226488296 0.00034156146660297045 0 -0.013670319985351996 0.00036950116128691953 0 -0.013717843226488296 0.00034156146660297045 0 -0.013743639536220299 0.00028347613861355012 0 -0.013626519807920968 0.0002893478694140449 0 -0.014248731630784628 0.00035081231071803836 0 -0.013647873529244283 0.00022344695622213761 0 -0.013743639536220299 0.00028347613861355012 0 -0.013776002052699837 8.9294073521373562e-05 0 -0.013717843226488296 0.00034156146660297045 0 -0.013743639536220299 0.00028347613861355012 0 -0.013731532163370827 0.0003173801368788774 0 -0.013743639536220299 0.00028347613861355012 0 -0.013731532163370827 0.0003173801368788774 0 -0.013726785544268984 0.00033544729419469443 0 -0.013722670152708049 0.00033658844139274622 0 -0.013731532163370827 0.0003173801368788774 0 -0.013726785544268984 0.00033544729419469443 0 -0.014513470624505543 0.0001792064195356778 0 -0.014248731630784628 0.00035081231071803836 0 -0.013743639536220299 0.00028347613861355012 0 -0.014034103091649611 0.00014097748135304607 0 -0.013776002052699837 8.9294073521373562e-05 0 -0.01381552752896119 -8.0076945607706081e-05 0 -0.014034103091649611 0.00014097748135304607 0 -0.013776002052699837 8.9294073521373562e-05 0 -0.01380672727813155 0.00036133623589710212 0 -0.013715167406899435 0.00023054507064174804 0 -0.013911865505819476 0.00018293407761543133 0 -0.01380672727813155 0.00036133623589710212 0 -0.013911865505819476 0.00018293407761543133 0 -0.013940171497355359 0.00027453757001959559 0 -0.01380672727813155 0.00036133623589710212 0 -0.013712658820173657 0.00035084240008223077 0 -0.013715167406899435 0.00023054507064174804 0 -0.013722670152708049 0.00033658844139274622 0 -0.013726785544268984 0.00033544729419469443 0 -0.013712658820173657 0.00035084240008223077 0 -0.013504252236819269 0.00019322675006195724 0 -0.013712658820173657 0.00035084240008223077 0 -0.013715167406899435 0.00023054507064174804 0 -0.014248731630784628 0.00035081231071803836 0 -0.013512294886584833 0.00024578492988741764 0 -0.014248731630784628 0.00035081231071803836 0 -0.014837451027507022 0.00022339310743311338 0 -0.015426235728391656 0.00030298923260848546 0 -0.015363000200688799 0.0007163429455051951 0 -0.01573474246976821 0.0005149620332204766 0 -0.013504252236819269 0.00019322675006195724 0 -0.013715167406899435 0.00023054507064174804 0 -0.013706262637557681 1.01086328415856e-05 0 -0.013706262637557681 1.01086328415856e-05 0 -0.013911865505819476 0.00018293407761543133 0 -0.014215650246079939 -1.2993191179000244e-06 0 -0.013715167406899435 0.00023054507064174804 0 -0.013706262637557681 1.01086328415856e-05 0 -0.013911865505819476 0.00018293407761543133 0 -0.013911865505819476 0.00018293407761543133 0 -0.014215650246079939 -1.2993191179000244e-06 0 -0.014556312453999872 0.00022525445834435702 0 -0.013911865505819476 0.00018293407761543133 0 -0.013940171497355359 0.00027453757001959559 0 -0.014090403893908678 0.00018553320852617638 0 -0.013967791225788034 0.00019208214414522085 0 -0.014278224034021507 0.00019592962711077741 0 -0.01380672727813155 0.00036133623589710212 0 -0.013707530219839835 0.00042187125381079957 0 -0.013740550162659114 0.00036210802584907324 0 -0.013764232890670471 0.00037801419177683972 0 -0.014018678008485899 0.00033908404178311166 0 -0.01380672727813155 0.00036133623589710212 0 -0.013940171497355359 0.00027453757001959559 0 -0.014057772568808153 0.0003253665877444396 0 -0.013940171497355359 0.00027453757001959559 0 -0.014057772568808153 0.0003253665877444396 0 -0.014090403893908678 0.00018553320852617638 0 -0.013202797659112619 0.00071210987120930928 0 -0.011347312645029427 0.00076615560465153601 0 -0.014057772568808153 0.0003253665877444396 0 -0.014230270225496907 0.00029252334257456604 0 -0.014090403893908678 0.00018553320852617638 0 -0.014018678008485899 0.00033908404178311166 0 -0.013202797659112619 0.00071210987120930928 0 -0.013707530219839835 0.00042187125381079957 0 -0.013609014107732798 0.00044496550903351143 0 -0.01367520886430528 0.00034553237455219564 0 -0.011170035702203374 0.00088416200472352742 0 -0.011294946235968677 0.0011116053920893511 0 -0.010983729193524715 0.0012465325269873633 0 -0.014230270225496907 0.00029252334257456604 0 -0.014090403893908678 0.00018553320852617638 0 -0.014293870886676186 0.00018125228981435019 0 -0.014278224034021507 0.00019592962711077741 0 -0.014978013213805002 0.00031543804134119091 0 -0.01488970394609521 -0.0001322327621074801 0 -0.014556312453999872 0.00022525445834435702 0 -0.01524319981404018 0.00021078063653087918 0 -0.01488970394609521 -0.0001322327621074801 0 -0.014215650246079939 -1.2993191179000244e-06 0 -0.014556312453999872 0.00022525445834435702 0 -0.01488970394609521 -0.0001322327621074801 0 -0.015376114839934941 -2.6348224790938968e-05 0 -0.01524319981404018 0.00021078063653087918 0 -0.013886889140493051 0.00071858516301761838 0 -0.014014572557730953 0.0004923971013586231 0 -0.014272360973529579 0.00064333150126009693 0 -0.017468882244215354 -0.00069785857134563496 0 -0.014978013213805002 0.00031543804134119091 0 -0.01620947030130785 -0.00018768756428153802 0 -0.016351753639407971 4.6475319395385965e-05 0 -0.016072641166497446 5.8090694486887419e-05 0 -0.018614327210053364 -0.00091096299314884558 0 -0.018898682309912325 -0.00100946557014182 0 -0.018802827390086322 -0.0011591488631649625 0 -0.017468882244215354 -0.00069785857134563496 0 -0.015782429870744363 0.00025882557161142086 0 -0.014178060562715944 0.00048565904245462228 0 -0.014014572557730953 0.0004923971013586231 0 -0.014272360973529579 0.00064333150126009693 0 -0.015782429870744363 0.00025882557161142086 0 -0.014978013213805002 0.00031543804134119091 0 -0.013202797659112619 0.00071210987120930928 0 -0.014978013213805002 0.00031543804134119091 0 -0.013631265292902605 0.00078338743644870473 0 -0.013515820609828895 0.0006157498306251075 0 -0.013136288882671729 0.00079259817051216715 0 -0.013070874419784091 0.00054785627985195367 0 -0.013194835653949704 0.0007305727545965779 0 -0.015782429870744363 0.00025882557161142086 0 -0.015723080306390191 -0.00022858963976311842 0 -0.018614327210053364 -0.00091096299314884558 0 -0.018802827390086322 -0.0011591488631649625 0 -0.018303907494379757 -0.0011863189799712717 0 -0.013078404028853281 0.00073336890373085044 0 -0.01308847580955408 0.00073682957411850658 0 -0.013099626071165672 0.00073601704743031689 0 -0.015782429870744363 0.00025882557161142086 0 -0.013070874419784091 0.00054785627985195367 0 -0.013078404028853281 0.00073336890373085044 0 -0.01308847580955408 0.00073682957411850658 0 -0.013077526865316418 0.00073803920127336192 0 -0.013070874419784091 0.00054785627985195367 0 -0.010274544603731445 0.0015430797438749995 0 -0.01153090356620824 0.0008010972306323308 0 -0.01150237150580994 0.0010176206047518002 0 -0.011714167180315597 0.0010974958627655946 0 -0.011170035702203374 0.00088416200472352742 0 -0.01153090356620824 0.0008010972306323308 0 -0.01150237150580994 0.0010176206047518002 0 -0.011170035702203374 0.00088416200472352742 0 -0.01150237150580994 0.0010176206047518002 0 -0.011294946235968677 0.0011116053920893511 0 -0.013202797659112619 0.00071210987120930928 0 -0.013070874419784091 0.00054785627985195367 0 -0.0082506992536721026 0.002195203052408183 0 -0.0083785479826869944 0.0021049068632716388 0 -0.0085519040798463127 0.0021569052533852717 0 -0.0082443049520671136 0.0021994643937410601 0 -0.0086202151215259704 0.0020105211257874919 0 -0.0082443049520671136 0.0021994643937410601 0 -0.0082075302319342992 0.0022057221877311186 0 -0.0081567537655918634 0.0022002413600899413 0 -0.01150237150580994 0.0010176206047518002 0 -0.011294946235968677 0.0011116053920893511 0 -0.011227498267827526 0.0013478793322588387 0 -0.0082217150981106716 0.0022510631383035476 0 -0.0085519040798463127 0.0021569052533852717 0 -0.0082443049520671136 0.0021994643937410601 0 -0.01150237150580994 0.0010176206047518002 0 -0.011714167180315597 0.0010974958627655946 0 -0.011227498267827526 0.0013478793322588387 0 -0.010274544603731445 0.0015430797438749995 0 -0.0098480980011724697 0.0017901489458172545 0 -0.0082443049520671136 0.0021994643937410601 0 -0.0082200248437634543 0.0022062261858788327 0 -0.0082075302319342992 0.0022057221877311186 0 -0.0082200248437634543 0.0022062261858788327 0 -0.0082082261904252787 0.0022418549001678636 0 -0.008196168735654194 0.0022278325584868899 0 -0.0082200248437634543 0.0022062261858788327 0 -0.0082075302319342992 0.0022057221877311186 0 -0.0081977387567467325 0.0022116418295904795 0 -0.0082200248437634543 0.0022062261858788327 0 -0.0081977387567467325 0.0022116418295904795 0 -0.008196168735654194 0.0022278325584868899 0 -0.0082075302319342992 0.0022057221877311186 0 -0.0081977387567467325 0.0022116418295904795 0 -0.0081567537655918634 0.0022002413600899413 0 -0.0081977387567467325 0.0022116418295904795 0 -0.0081734902513131875 0.0022197852966541003 0 -0.0081567537655918634 0.0022002413600899413 0 -0.0081977387567467325 0.0022116418295904795 0 -0.0081734902513131875 0.0022197852966541003 0 -0.008196168735654194 0.0022278325584868899 0 -0.0081734902513131875 0.0022197852966541003 0 -0.0081567537655918634 0.0022002413600899413 0 -0.0081587710135296726 0.002215438310109195 0 -0.0098480980011724697 0.0017901489458172545 0 -0.0096172148094523999 0.0016931963956625163 0 -0.0081567537655918634 0.0022002413600899413 0 -0.0081425559435181535 0.0022192224497849639 0 -0.0081489687475182256 0.0022156613078970714 0 -0.0083785479826869944 0.0021049068632716388 0 -0.0086250795984916112 0.0020459209234142189 0 -0.0085519040798463127 0.0021569052533852717 0 -0.0086202151215259704 0.0020105211257874919 0 -0.0089092060882842525 0.0019952642894426544 0 -0.0081567537655918634 0.0022002413600899413 0 -0.0081392294751883205 0.0022253169298519643 0 -0.0081425559435181535 0.0022192224497849639 0 -0.0081567537655918634 0.0022002413600899413 0 -0.0081489687475182256 0.0022156613078970714 0 -0.0081587710135296726 0.002215438310109195 0 -0.0086202151215259704 0.0020105211257874919 0 -0.0089092060882842525 0.0019952642894426544 0 -0.0090130545679165969 0.0018055379555119142 0 -0.0096172148094523999 0.0016931963956625163 0 -0.011347312645029427 0.00076615560465153601 0 -0.0096172148094523999 0.0016931963956625163 0 -0.0086250795984916112 0.0020459209234142189 0 -0.008966782269699422 0.0011598700923181402 0 -0.0094956597100605902 0.0013747421080477829 0 -0.0098527214391555696 0.00074546535143111181 0 -0.0088851270458102354 0.001647490533639583 0 -0.0090673341977207493 0.0015508000848139445 0 -0.008966782269699422 0.0011598700923181402 0 -0.009241502074193185 0.0016352122701770258 0 -0.0096172148094523999 0.0016931963956625163 0 -0.0090673341977207493 0.0015508000848139445 0 -0.0094211687382687245 0.0013832045257911965 0 -0.0091344203181657133 0.0018897049415306309 0 -0.0088851270458102354 0.001647490533639583 0 -0.0090673341977207493 0.0015508000848139445 0 -0.0091344203181657133 0.0018897049415306309 0 -0.0090673341977207493 0.0015508000848139445 0 -0.008966782269699422 0.0011598700923181402 0 -0.0094956597100605902 0.0013747421080477829 0 -0.013707530219839835 0.00042187125381079957 0 -0.013740550162659114 0.00036210802584907324 0 -0.01367520886430528 0.00034553237455219564 0 -0.013737034986924848 0.00035615019364444972 0 -0.013740550162659114 0.00036210802584907324 0 -0.01367520886430528 0.00034553237455219564 0 -0.011416928697211223 0.00073065027942395414 0 -0.011347312645029427 0.00076615560465153601 0 -0.011227498267827526 0.0013478793322588387 0 -0.010614455978232308 0.0016452752260935725 0 -0.010807803818346845 0.0013007065671921307 0 -0.011294946235968677 0.0011116053920893511 0 -0.011227498267827526 0.0013478793322588387 0 -0.010807803818346845 0.0013007065671921307 0 -0.011058151540086179 0.0012493886615055404 0 -0.011347312645029427 0.00076615560465153601 0 -0.0086834617105382653 0.0020511944568347954 0 -0.0085746657130039775 0.0016528438011713959 0 -0.0084316408165500435 0.0019532391004565839 0 -0.0085002566347653595 0.0018848972657302878 0 -0.011272129822032127 0.00043517986997386319 0 -0.0086834617105382653 0.0020511944568347954 0 -0.0087619119046372148 0.0016394288643638874 0 -0.0085746657130039775 0.0016528438011713959 0 -0.015380121951884481 -0.00018445863589469254 0 -0.012683810172638489 0.00064361527452472408 0 -0.011272129822032127 0.00043517986997386319 0 -0.012683810172638489 0.00064361527452472408 0 -0.013258658238104681 0.00054226726609002125 0 -0.013200214829047712 0.00046999102882932067 0 -0.013027781534025991 0.0005593878458641881 0 -0.013840708155695172 -0.00017324853937614673 0 -0.01272315915391369 -1.5981600774134015e-05 0 -0.013774610209454453 -8.7729541205465154e-05 0 -0.013313063267879248 0.00013539814952329886 0 -0.013749810815974822 0.00033388838964067699 0 -0.013840708155695172 -0.00017324853937614673 0 -0.015380121951884481 -0.00018445863589469254 0 -0.015380121951884481 -0.00018445863589469254 0 -0.01272315915391369 -1.5981600774134015e-05 0 -0.011272129822032127 0.00043517986997386319 0 -0.01272315915391369 -1.5981600774134015e-05 0 -0.013258658238104681 0.00054226726609002125 0 -0.013200214829047712 0.00046999102882932067 0 -0.013262189301011787 0.00049752101876995056 0 -0.0085746657130039775 0.0016528438011713959 0 -0.0084316408165500435 0.0019532391004565839 0 -0.008162208854295647 0.0018758416053534961 0 -0.012683810172638489 0.00064361527452472408 0 -0.01023652985018926 0.0014188243366276331 0 -0.017296888192796084 -0.00075352525492030048 0 -0.016845702951447807 -0.0012013742771701879 0 -0.017654128428442328 -0.001203296102879064 0 -0.012683810172638489 0.00064361527452472408 0 -0.015789183653930654 -0.00029983225379981356 0 -0.012959487376855761 0.0007468538134378697 0 -0.01305242977447528 0.00072624488223995006 0 -0.013040697312982984 0.00075547221768419996 0 -0.0084316408165500435 0.0019532391004565839 0 -0.008162208854295647 0.0018758416053534961 0 -0.0083123489977852891 0.0022251433932994275 0 -0.015789183653930654 -0.00029983225379981356 0 -0.015723080306390191 -0.00022858963976311842 0 -0.01305242977447528 0.00072624488223995006 0 -0.013040697312982984 0.00075547221768419996 0 -0.013099626071165672 0.00073601704743031689 0 -0.013515820609828895 0.0006157498306251075 0 -0.013136288882671729 0.00079259817051216715 0 -0.013099626071165672 0.00073601704743031689 0 -0.013040697312982984 0.00075547221768419996 0 -0.013136288882671729 0.00079259817051216715 0 -0.013099626071165672 0.00073601704743031689 0 -0.01308847580955408 0.00073682957411850658 0 -0.013077526865316418 0.00073803920127336192 0 -0.01305242977447528 0.00072624488223995006 0 -0.01308847580955408 0.00073682957411850658 0 -0.01305242977447528 0.00072624488223995006 0 -0.013099626071165672 0.00073601704743031689 0 -0.010274544603731445 0.0015430797438749995 0 -0.01023652985018926 0.0014188243366276331 0 -0.0078119512426086208 0.0020649602246954656 0 -0.008162208854295647 0.0018758416053534961 0 -0.008059661987727753 0.0021500796003737391 0 -0.0078119512426086208 0.0020649602246954656 0 -0.0079623091778758797 0.0023532903677102265 0 -0.008059661987727753 0.0021500796003737391 0 -0.010274544603731445 0.0015430797438749995 0 -0.0078224239612010166 0.0022779664665675864 0 -0.0082217150981106716 0.0022510631383035476 0 -0.0082443049520671136 0.0021994643937410601 0 -0.0082233672428053389 0.0021990974157064681 0 -0.0082443049520671136 0.0021994643937410601 0 -0.0082200248437634543 0.0022062261858788327 0 -0.0082233672428053389 0.0021990974157064681 0 -0.0082200248437634543 0.0022062261858788327 0 -0.0082233672428053389 0.0021990974157064681 0 -0.0082082261904252787 0.0022418549001678636 0 -0.0079623091778758797 0.0023532903677102265 0 -0.0081600447152324843 0.0024218416555022429 0 -0.0081164516264985651 0.0026326235750129289 0 -0.0078224239612010166 0.0022779664665675864 0 -0.0082144921493385991 0.002468027916897618 0 -0.0079623091778758797 0.0023532903677102265 0 -0.0081600447152324843 0.0024218416555022429 0 -0.008059661987727753 0.0021500796003737391 0 -0.0081600447152324843 0.0024218416555022429 0 -0.008059661987727753 0.0021500796003737391 0 -0.0083123489977852891 0.0022251433932994275 0 -0.008162208854295647 0.0018758416053534961 0 -0.008059661987727753 0.0021500796003737391 0 -0.0083123489977852891 0.0022251433932994275 0 -0.0086834617105382653 0.0020511944568347954 0 -0.0084316408165500435 0.0019532391004565839 0 -0.0083123489977852891 0.0022251433932994275 0 -0.0083123489977852891 0.0022251433932994275 0 -0.0085849033444952132 0.0024268548629515592 0 -0.0083262795045593047 0.002580595430013178 0 -0.0081600447152324843 0.0024218416555022429 0 -0.0083123489977852891 0.0022251433932994275 0 -0.0083262795045593047 0.002580595430013178 0 -0.0086834617105382653 0.0020511944568347954 0 -0.0083123489977852891 0.0022251433932994275 0 -0.0085849033444952132 0.0024268548629515592 0 -0.0085002566347653595 0.0018848972657302878 0 -0.0085845527096919463 0.0024737933165722334 0 -0.0084308779810516963 0.0027533818633598077 0 -0.0082438165070275547 0.0028648070140688984 0 -0.0082036073542349295 0.0029284143440297585 0 -0.0085845527096919463 0.0024737933165722334 0 -0.0083491832722320004 0.0029908837301260609 0 -0.0085849033444952132 0.0024268548629515592 0 -0.0084308779810516963 0.0027533818633598077 0 -0.0083262795045593047 0.002580595430013178 0 -0.0083262795045593047 0.002580595430013178 0 -0.0082438165070275547 0.0028648070140688984 0 -0.0081164516264985651 0.0026326235750129289 0 -0.0084308779810516963 0.0027533818633598077 0 -0.0083262795045593047 0.002580595430013178 0 -0.0082438165070275547 0.0028648070140688984 0 -0.0082228795738659034 0.0026160695418124447 0 -0.0082144921493385991 0.002468027916897618 0 -0.0082369562849652061 0.0023882322733091111 0 -0.0082426386781266209 0.0022755003079487509 0 -0.0082162720687911847 0.0023610997041055891 0 -0.0082426386781266209 0.0022755003079487509 0 -0.0082085287440549094 0.0023051230842209849 0 -0.0082162720687911847 0.0023610997041055891 0 -0.0081600447152324843 0.0024218416555022429 0 -0.0083262795045593047 0.002580595430013178 0 -0.0081164516264985651 0.0026326235750129289 0 -0.0082233672428053389 0.0021990974157064681 0 -0.0082426386781266209 0.0022755003079487509 0 -0.0082082261904252787 0.0022418549001678636 0 -0.0082426386781266209 0.0022755003079487509 0 -0.0082082261904252787 0.0022418549001678636 0 -0.0082085287440549094 0.0023051230842209849 0 -0.0082146207237886199 0.0023828586264787268 0 -0.0082074199691399771 0.0022961023202595892 0 -0.0082340156476606308 0.0023078276327776451 0 -0.0082085287440549094 0.0023051230842209849 0 -0.0082146207237886199 0.0023828586264787268 0 -0.0082074199691399771 0.0022961023202595892 0 -0.0082085287440549094 0.0023051230842209849 0 -0.0082146207237886199 0.0023828586264787268 0 -0.0082162720687911847 0.0023610997041055891 0 -0.0082146207237886199 0.0023828586264787268 0 -0.0082399358045706327 0.0023369400673638424 0 -0.0082281420393244993 0.0023554995563872293 0 -0.0082146207237886199 0.0023828586264787268 0 -0.0082399358045706327 0.0023369400673638424 0 -0.0082340156476606308 0.0023078276327776451 0 -0.0082399358045706327 0.0023369400673638424 0 -0.0082618816995419769 0.0022857342223491367 0 -0.008267638805256881 0.0022961500829136979 0 -0.0082399358045706327 0.0023369400673638424 0 -0.0082281420393244993 0.0023554995563872293 0 -0.008267638805256881 0.0022961500829136979 0 -0.0082146207237886199 0.0023828586264787268 0 -0.0082281420393244993 0.0023554995563872293 0 -0.0081896260608538621 0.0024601779649920099 0 -0.0082281420393244993 0.0023554995563872293 0 -0.0081896260608538621 0.0024601779649920099 0 -0.0081794840864295709 0.0023698019493681934 0 -0.0081896260608538621 0.0024601779649920099 0 -0.0081532893843308911 0.0024528531441945231 0 -0.0081794840864295709 0.0023698019493681934 0 -0.0082146207237886199 0.0023828586264787268 0 -0.0081896260608538621 0.0024601779649920099 0 -0.0082162720687911847 0.0023610997041055891 0 -0.0082369562849652061 0.0023882322733091111 0 -0.0081896260608538621 0.0024601779649920099 0 -0.0082162720687911847 0.0023610997041055891 0 -0.0082369562849652061 0.0023882322733091111 0 -0.0081896260608538621 0.0024601779649920099 0 -0.008176337823913072 0.0025594368505789792 0 -0.0082228795738659034 0.0026160695418124447 0 -0.0081975008544153561 0.002691427088797921 0 -0.0082369562849652061 0.0023882322733091111 0 -0.008176337823913072 0.0025594368505789792 0 -0.0081874032929526424 0.0027128693885701857 0 -0.0081896260608538621 0.0024601779649920099 0 -0.008176337823913072 0.0025594368505789792 0 -0.0081532893843308911 0.0024528531441945231 0 -0.008176337823913072 0.0025594368505789792 0 -0.0081532893843308911 0.0024528531441945231 0 -0.0080849624352177414 0.0024965516213634816 0 -0.008176337823913072 0.0025594368505789792 0 -0.0081874032929526424 0.0027128693885701857 0 -0.0080849624352177414 0.0024965516213634816 0 -0.0081874032929526424 0.0027128693885701857 0 -0.0080353598290216783 0.0027426461487819469 0 -0.0080849624352177414 0.0024965516213634816 0 -0.0080353598290216783 0.0027426461487819469 0 -0.0082036073542349295 0.0029284143440297585 0 -0.008081331207850732 0.003029152468092558 0 -0.0081874032929526424 0.0027128693885701857 0 -0.0080353598290216783 0.0027426461487819469 0 -0.0082036073542349295 0.0029284143440297585 0 -0.0082760524339491187 0.0032565237963027563 0 -0.0082036073542349295 0.0029284143440297585 0 -0.0082396420898295745 0.0032236552212973773 0 -0.0082438165070275547 0.0028648070140688984 0 -0.0081874032929526424 0.0027128693885701857 0 -0.0082036073542349295 0.0029284143440297585 0 -0.0083491832722320004 0.0029908837301260609 0 -0.008233481917187516 0.0029308633486124437 0 -0.0081416549881978256 0.0022146598410471329 0 -0.0081515998797253263 0.0022206776301868887 0 -0.0081230277102408242 0.0021921421609177364 0 -0.0081416549881978256 0.0022146598410471329 0 -0.0081230277102408242 0.0021921421609177364 0 -0.00813262801623966 0.0022118867432471307 0 -0.0081416549881978256 0.0022146598410471329 0 -0.0081515998797253263 0.0022206776301868887 0 -0.0081661675754271489 0.0022323008821025069 0 -0.0081515998797253263 0.0022206776301868887 0 -0.0081230277102408242 0.0021921421609177364 0 -0.0081510859395835123 0.0022180532940767905 0 -0.0081230277102408242 0.0021921421609177364 0 -0.0080848812304333689 0.00215102961675757 0 -0.0081285357295319653 0.0021976163399808749 0 -0.0081230277102408242 0.0021921421609177364 0 -0.0080848812304333689 0.00215102961675757 0 -0.0081148156956293988 0.00218939958616725 0 -0.0082116534024173158 0.0021906589404173077 0 -0.0080848812304333689 0.00215102961675757 0 -0.0081285357295319653 0.0021976163399808749 0 -0.0081230277102408242 0.0021921421609177364 0 -0.0081285357295319653 0.0021976163399808749 0 -0.00813262801623966 0.0022118867432471307 0 -0.0081285357295319653 0.0021976163399808749 0 -0.00813262801623966 0.0022118867432471307 0 -0.008136905259914274 0.0022228293529798103 0 -0.00813262801623966 0.0022118867432471307 0 -0.008136905259914274 0.0022228293529798103 0 -0.0081425559435181535 0.0022192224497849639 0 -0.0081285357295319653 0.0021976163399808749 0 -0.008136905259914274 0.0022228293529798103 0 -0.0081548327238068919 0.0022387298191629428 0 -0.0082116534024173158 0.0021906589404173077 0 -0.0081285357295319653 0.0021976163399808749 0 -0.0081548327238068919 0.0022387298191629428 0 -0.008136905259914274 0.0022228293529798103 0 -0.0081548327238068919 0.0022387298191629428 0 -0.0081392294751883205 0.0022253169298519643 0 -0.008372352976590846 0.0022798270873377892 0 -0.0086250795984916112 0.0020459209234142189 0 -0.008136905259914274 0.0022228293529798103 0 -0.0081392294751883205 0.0022253169298519643 0 -0.0081425559435181535 0.0022192224497849639 0 -0.0081425559435181535 0.0022192224497849639 0 -0.0081434191521284772 0.0022167068925541262 0 -0.0081489687475182256 0.0022156613078970714 0 -0.00813262801623966 0.0022118867432471307 0 -0.0081425559435181535 0.0022192224497849639 0 -0.0081434191521284772 0.0022167068925541262 0 -0.0081416549881978256 0.0022146598410471329 0 -0.00813262801623966 0.0022118867432471307 0 -0.0081434191521284772 0.0022167068925541262 0 -0.0081416549881978256 0.0022146598410471329 0 -0.0081434191521284772 0.0022167068925541262 0 -0.0081563890286151259 0.0022214819547472725 0 -0.0081416549881978256 0.0022146598410471329 0 -0.0081563890286151259 0.0022214819547472725 0 -0.0081661675754271489 0.0022323008821025069 0 -0.0081489687475182256 0.0022156613078970714 0 -0.0081587710135296726 0.002215438310109195 0 -0.0081563890286151259 0.0022214819547472725 0 -0.0081434191521284772 0.0022167068925541262 0 -0.0081489687475182256 0.0022156613078970714 0 -0.0081563890286151259 0.0022214819547472725 0 -0.0081734902513131875 0.0022197852966541003 0 -0.0081587710135296726 0.002215438310109195 0 -0.0081563890286151259 0.0022214819547472725 0 -0.0081734902513131875 0.0022197852966541003 0 -0.0081762843589556072 0.0022322900716267016 0 -0.0081563890286151259 0.0022214819547472725 0 -0.0081734902513131875 0.0022197852966541003 0 -0.0081762843589556072 0.0022322900716267016 0 -0.008196168735654194 0.0022278325584868899 0 -0.0081762843589556072 0.0022322900716267016 0 -0.008190614886175545 0.0022565437897788697 0 -0.0081661675754271489 0.0022323008821025069 0 -0.0081762843589556072 0.0022322900716267016 0 -0.0081563890286151259 0.0022214819547472725 0 -0.0081661675754271489 0.0022323008821025069 0 -0.0081762843589556072 0.0022322900716267016 0 -0.008196168735654194 0.0022278325584868899 0 -0.008190614886175545 0.0022565437897788697 0 -0.0082082261904252787 0.0022418549001678636 0 -0.008196168735654194 0.0022278325584868899 0 -0.008190614886175545 0.0022565437897788697 0 -0.0082082261904252787 0.0022418549001678636 0 -0.0082085287440549094 0.0023051230842209849 0 -0.008190614886175545 0.0022565437897788697 0 -0.008190614886175545 0.0022565437897788697 0 -0.0081801990861116915 0.002250210888939023 0 -0.0082074199691399771 0.0022961023202595892 0 -0.0082085287440549094 0.0023051230842209849 0 -0.008190614886175545 0.0022565437897788697 0 -0.0082074199691399771 0.0022961023202595892 0 -0.008190614886175545 0.0022565437897788697 0 -0.0081661675754271489 0.0022323008821025069 0 -0.0081801990861116915 0.002250210888939023 0 -0.0081515998797253263 0.0022206776301868887 0 -0.0081661675754271489 0.0022323008821025069 0 -0.0081801990861116915 0.002250210888939023 0 -0.0081515998797253263 0.0022206776301868887 0 -0.0081801990861116915 0.002250210888939023 0 -0.0081510859395835123 0.0022180532940767905 0 -0.0082022540080904389 0.0022681412724738013 0 -0.0081797210925250736 0.0022474268462435399 0 -0.0081510859395835123 0.0022180532940767905 0 -0.0081801990861116915 0.002250210888939023 0 -0.0082022540080904389 0.0022681412724738013 0 -0.0081510859395835123 0.0022180532940767905 0 -0.0081801990861116915 0.002250210888939023 0 -0.0082022540080904389 0.0022681412724738013 0 -0.0082074199691399771 0.0022961023202595892 0 -0.0082022540080904389 0.0022681412724738013 0 -0.0082074199691399771 0.0022961023202595892 0 -0.0082340156476606308 0.0023078276327776451 0 -0.0082022540080904389 0.0022681412724738013 0 -0.0082340156476606308 0.0023078276327776451 0 -0.0082283113736051263 0.0022743797859939765 0 -0.0082340156476606308 0.0023078276327776451 0 -0.0082618816995419769 0.0022857342223491367 0 -0.0082283113736051263 0.0022743797859939765 0 -0.0082399358045706327 0.0023369400673638424 0 -0.0082340156476606308 0.0023078276327776451 0 -0.0082618816995419769 0.0022857342223491367 0 -0.0081797210925250736 0.0022474268462435399 0 -0.0082283113736051263 0.0022743797859939765 0 -0.0081978311246962386 0.0022826631770077044 0 -0.0082022540080904389 0.0022681412724738013 0 -0.0081797210925250736 0.0022474268462435399 0 -0.0082283113736051263 0.0022743797859939765 0 -0.0081797210925250736 0.0022474268462435399 0 -0.008142491400393307 0.0022517559610486008 0 -0.0081978311246962386 0.0022826631770077044 0 -0.0081797210925250736 0.0022474268462435399 0 -0.008142491400393307 0.0022517559610486008 0 -0.0080971727174193372 0.0021960410955262073 0 -0.0081797210925250736 0.0022474268462435399 0 -0.0081510859395835123 0.0022180532940767905 0 -0.0080971727174193372 0.0021960410955262073 0 -0.0081510859395835123 0.0022180532940767905 0 -0.0081148156956293988 0.00218939958616725 0 -0.0080971727174193372 0.0021960410955262073 0 -0.0081230277102408242 0.0021921421609177364 0 -0.0081510859395835123 0.0022180532940767905 0 -0.0081148156956293988 0.00218939958616725 0 -0.0079887775094516743 0.0021435838375106265 0 -0.0080848812304333689 0.00215102961675757 0 -0.0080971727174193372 0.0021960410955262073 0 -0.0080848812304333689 0.00215102961675757 0 -0.0081148156956293988 0.00218939958616725 0 -0.0080971727174193372 0.0021960410955262073 0 -0.008142491400393307 0.0022517559610486008 0 -0.0080971727174193372 0.0021960410955262073 0 -0.0080273632287191313 0.0022560158371243851 0 -0.0079887775094516743 0.0021435838375106265 0 -0.0080971727174193372 0.0021960410955262073 0 -0.0080273632287191313 0.0022560158371243851 0 -0.0067288642140427542 0.0016527684138667503 0 -0.0063677785257084474 0.00097015803009490741 0 -0.0057624626671723793 0.0010512062434908979 0 -0.0073921524037958049 0.0019368146894691738 0 -0.0069992324863058205 0.0016895969622072818 0 -0.0063677785257084474 0.00097015803009490741 0 -0.0059721572213747541 0.00049690898948393837 0 -0.0066697940789890754 0.00038657677555831968 0 -0.0063677785257084474 0.00097015803009490741 0 -0.0059721572213747541 0.00049690898948393837 0 -0.0057624626671723793 0.0010512062434908979 0 -0.0059721572213747541 0.00049690898948393837 0 -0.0057624626671723793 0.0010512062434908979 0 -0.0055342882444751771 0.00034107986307801725 0 -0.008142491400393307 0.0022517559610486008 0 -0.0080273632287191313 0.0022560158371243851 0 -0.0081440860686823966 0.0023106870321435088 0 -0.008142491400393307 0.0022517559610486008 0 -0.0081440860686823966 0.0023106870321435088 0 -0.0081978311246962386 0.0022826631770077044 0 -0.0081978311246962386 0.0022826631770077044 0 -0.0082537049087528774 0.0022906777087069443 0 -0.0082318693774616081 0.0022993129858208229 0 -0.0081440860686823966 0.0023106870321435088 0 -0.0081978311246962386 0.0022826631770077044 0 -0.0082318693774616081 0.0022993129858208229 0 -0.0082283113736051263 0.0022743797859939765 0 -0.0081978311246962386 0.0022826631770077044 0 -0.0082537049087528774 0.0022906777087069443 0 -0.0082618816995419769 0.0022857342223491367 0 -0.0082855777972866921 0.0022649756316292175 0 -0.008267638805256881 0.0022961500829136979 0 -0.0082618816995419769 0.0022857342223491367 0 -0.0082283113736051263 0.0022743797859939765 0 -0.0082537049087528774 0.0022906777087069443 0 -0.0082618816995419769 0.0022857342223491367 0 -0.0082855777972866921 0.0022649756316292175 0 -0.0082537049087528774 0.0022906777087069443 0 -0.0082855777972866921 0.0022649756316292175 0 -0.0082537049087528774 0.0022906777087069443 0 -0.0083095689232246771 0.0022123298149446728 0 -0.0082537049087528774 0.0022906777087069443 0 -0.0083095689232246771 0.0022123298149446728 0 -0.008343183605705403 0.0021396551622058463 0 -0.0082855777972866921 0.0022649756316292175 0 -0.0083095689232246771 0.0022123298149446728 0 -0.0082910263101273109 0.0022352804591248836 0 -0.0082537049087528774 0.0022906777087069443 0 -0.0082318693774616081 0.0022993129858208229 0 -0.0081950735917900933 0.0022791545335997488 0 -0.0066653761669070912 0.0013429737108523749 0 -0.0073020581089217849 0.0014562699847266907 0 -0.0086508190219021907 0.0025937207585287887 0 -0.0073020581089217849 0.0014562699847266907 0 -0.0082537049087528774 0.0022906777087069443 0 -0.008343183605705403 0.0021396551622058463 0 -0.0084108092066971472 0.0020190789158868777 0 -0.0052756802588042901 0.00047694581517186355 0 -0.0052807096814460608 0.00019424801596092516 0 -0.0053046291080201978 1.2183851450404097e-06 0 -0.0069992324863058205 0.0016895969622072818 0 -0.0066653761669070912 0.0013429737108523749 0 -0.0057624626671723793 0.0010512062434908979 0 -0.0052756802588042901 0.00047694581517186355 0 -0.0055342882444751771 0.00034107986307801725 0 -0.0052756802588042901 0.00047694581517186355 0 -0.0053365375513840024 0.00020565548783855428 0 -0.0055342882444751771 0.00034107986307801725 0 -0.0052756802588042901 0.00047694581517186355 0 -0.0053365375513840024 0.00020565548783855428 0 -0.0052807096814460608 0.00019424801596092516 0 -0.0053365375513840024 0.00020565548783855428 0 -0.0053396047759067516 0.00012258591614639345 0 -0.0052693214285055709 0.00011899951271645748 0 -0.0053365375513840024 0.00020565548783855428 0 -0.0053396047759067516 0.00012258591614639345 0 -0.0055342882444751771 0.00034107986307801725 0 -0.0053046566737677634 5.5905737182025771e-05 0 -0.0052807096814460608 0.00019424801596092516 0 -0.0052952138918563475 5.7808754594186134e-05 0 -0.0053046566737677634 5.5905737182025771e-05 0 -0.0052952138918563475 5.7808754594186134e-05 0 -0.0054123557447884997 -2.5131948914148864e-05 0 -0.0053046566737677634 5.5905737182025771e-05 0 -0.0052807096814460608 0.00019424801596092516 0 -0.0053046291080201978 1.2183851450404097e-06 0 -0.0053365375513840024 0.00020565548783855428 0 -0.0052807096814460608 0.00019424801596092516 0 -0.0052693214285055709 0.00011899951271645748 0 -0.0052807096814460608 0.00019424801596092516 0 -0.0052693214285055709 0.00011899951271645748 0 -0.0052952138918563475 5.7808754594186134e-05 0 -0.0052693214285055709 0.00011899951271645748 0 -0.0052952138918563475 5.7808754594186134e-05 0 -0.0052464075978357972 8.8445827898092649e-05 0 -0.0052952138918563475 5.7808754594186134e-05 0 -0.0052464075978357972 8.8445827898092649e-05 0 -0.0053893538335797282 -3.274641534188639e-06 0 -0.0052464075978357972 8.8445827898092649e-05 0 -0.0053893538335797282 -3.274641534188639e-06 0 -0.0052604467251262952 0.00017569241819590789 0 -0.0052693214285055709 0.00011899951271645748 0 -0.0052464075978357972 8.8445827898092649e-05 0 -0.0052231720115819523 0.00012366601367599375 0 -0.0052464075978357972 8.8445827898092649e-05 0 -0.0051519306089556245 0.00016647713910732424 0 -0.0052231720115819523 0.00012366601367599375 0 -0.0052464075978357972 8.8445827898092649e-05 0 -0.0051519306089556245 0.00016647713910732424 0 -0.0052604467251262952 0.00017569241819590789 0 -0.0053396047759067516 0.00012258591614639345 0 -0.0051553581880112104 0.00017735219720443207 0 -0.0057413715070026737 3.580637478316985e-06 0 -0.0053396047759067516 0.00012258591614639345 0 -0.0052231720115819523 0.00012366601367599375 0 -0.0051553581880112104 0.00017735219720443207 0 -0.0053396047759067516 0.00012258591614639345 0 -0.0052693214285055709 0.00011899951271645748 0 -0.0052231720115819523 0.00012366601367599375 0 -0.0051519306089556245 0.00016647713910732424 0 -0.0052231720115819523 0.00012366601367599375 0 -0.0051553581880112104 0.00017735219720443207 0 -0.0052267710566447443 0.00017105944742513068 0 -0.0056621952673698598 0.00029369695209858175 0 -0.005352889391204374 0.00021642772575869305 0 -0.0060262305269174086 0.00030992761681354245 0 -0.0055451622907487343 0.00052859396681937906 0 -0.0053510096741759767 0.00018498661196012021 0 -0.005880814548283376 0.00033720138833764012 0 -0.0051553581880112104 0.00017735219720443207 0 -0.005352889391204374 0.00021642772575869305 0 -0.0055451622907487343 0.00052859396681937906 0 -0.005352889391204374 0.00021642772575869305 0 -0.0054127341313611795 0.00024383304577508267 0 -0.0053964664550209887 0.00019975739188310234 0 -0.0054351415611384813 0.00021704426797575181 0 -0.0054127341313611795 0.00024383304577508267 0 -0.0053964664550209887 0.00019975739188310234 0 -0.0060262305269174086 0.00030992761681354245 0 -0.0063617374166929537 0.00064691223342511314 0 -0.0055451622907487343 0.00052859396681937906 0 -0.0054351415611384813 0.00021704426797575181 0 -0.0054127341313611795 0.00024383304577508267 0 -0.005452497219020005 0.00026916163810297033 0 -0.005880814548283376 0.00033720138833764012 0 -0.0051949434932447251 0.00058991120912724963 0 -0.0065325559984973254 0.00075380680746329348 0 -0.0056621952673698598 0.00029369695209858175 0 -0.0060262305269174086 0.00030992761681354245 0 -0.0063617374166929537 0.00064691223342511314 0 -0.0068777798325417314 0.0006138810440323569 0 -0.0063617374166929537 0.00064691223342511314 0 -0.0063980328460846898 0.0011020356405336915 0 -0.0055451622907487343 0.00052859396681937906 0 -0.0059721572213747541 0.00049690898948393837 0 -0.0066697940789890754 0.00038657677555831968 0 -0.0057413715070026737 3.580637478316985e-06 0 -0.0063617374166929537 0.00064691223342511314 0 -0.0063980328460846898 0.0011020356405336915 0 -0.0066335269305332744 0.00085773438900535112 0 -0.0059721572213747541 0.00049690898948393837 0 -0.0057413715070026737 3.580637478316985e-06 0 -0.0055342882444751771 0.00034107986307801725 0 -0.0053396047759067516 0.00012258591614639345 0 -0.0057413715070026737 3.580637478316985e-06 0 -0.0055342882444751771 0.00034107986307801725 0 -0.0076707141399649272 0.0018356904382135213 0 -0.007647301902257873 0.002080045619635029 0 -0.0079302239221078694 0.0021549417028809228 0 -0.007647301902257873 0.002080045619635029 0 -0.0079198059759356416 0.0024354464899749555 0 -0.0079302239221078694 0.0021549417028809228 0 -0.007647301902257873 0.002080045619635029 0 -0.0079198059759356416 0.0024354464899749555 0 -0.0077260500249657152 0.002358085008439367 0 -0.0080353598290216783 0.0027426461487819469 0 -0.0079198059759356416 0.0024354464899749555 0 -0.0080849624352177414 0.0024965516213634816 0 -0.0080353598290216783 0.0027426461487819469 0 -0.0079198059759356416 0.0024354464899749555 0 -0.0077917431699418898 0.0026162229726708775 0 -0.0080849624352177414 0.0024965516213634816 0 -0.0080986450711039697 0.0023030174748975125 0 -0.0079302239221078694 0.0021549417028809228 0 -0.0079198059759356416 0.0024354464899749555 0 -0.0080849624352177414 0.0024965516213634816 0 -0.0079302239221078694 0.0021549417028809228 0 -0.0081532893843308911 0.0024528531441945231 0 -0.0080849624352177414 0.0024965516213634816 0 -0.0080986450711039697 0.0023030174748975125 0 -0.0076707141399649272 0.0018356904382135213 0 -0.0079302239221078694 0.0021549417028809228 0 -0.007687876241008273 0.001553632472943817 0 -0.0080986450711039697 0.0023030174748975125 0 -0.0079302239221078694 0.0021549417028809228 0 -0.0081082008350926351 0.0020655224911014791 0 -0.0079302239221078694 0.0021549417028809228 0 -0.0081082008350926351 0.0020655224911014791 0 -0.007687876241008273 0.001553632472943817 0 -0.0081082008350926351 0.0020655224911014791 0 -0.0082348202358237775 0.0019044329336327663 0 -0.0080536236567901407 0.00170246765469065 0 -0.0081082008350926351 0.0020655224911014791 0 -0.0082370725069262855 0.002080495183673081 0 -0.0082348202358237775 0.0019044329336327663 0 -0.0081082008350926351 0.0020655224911014791 0 -0.0082325428158184482 0.0021940303019601232 0 -0.0081804903976517608 0.0022588044470297683 0 -0.0081082008350926351 0.0020655224911014791 0 -0.0082370725069262855 0.002080495183673081 0 -0.0082325428158184482 0.0021940303019601232 0 -0.0080986450711039697 0.0023030174748975125 0 -0.0081082008350926351 0.0020655224911014791 0 -0.0081804903976517608 0.0022588044470297683 0 -0.0080986450711039697 0.0023030174748975125 0 -0.0081794840864295709 0.0023698019493681934 0 -0.0081804903976517608 0.0022588044470297683 0 -0.0081532893843308911 0.0024528531441945231 0 -0.0080986450711039697 0.0023030174748975125 0 -0.0081794840864295709 0.0023698019493681934 0 -0.0082281420393244993 0.0023554995563872293 0 -0.0081794840864295709 0.0023698019493681934 0 -0.0081804903976517608 0.0022588044470297683 0 -0.0082281420393244993 0.0023554995563872293 0 -0.0081804903976517608 0.0022588044470297683 0 -0.008253545470861795 0.002262192378937902 0 -0.0082325428158184482 0.0021940303019601232 0 -0.0081804903976517608 0.0022588044470297683 0 -0.008253545470861795 0.002262192378937902 0 -0.0082325428158184482 0.0021940303019601232 0 -0.0082860912216639344 0.002197051446041585 0 -0.008253545470861795 0.002262192378937902 0 -0.0082860912216639344 0.002197051446041585 0 -0.008253545470861795 0.002262192378937902 0 -0.0082910263101273109 0.0022352804591248836 0 -0.0082281420393244993 0.0023554995563872293 0 -0.008253545470861795 0.002262192378937902 0 -0.008267638805256881 0.0022961500829136979 0 -0.008253545470861795 0.002262192378937902 0 -0.008267638805256881 0.0022961500829136979 0 -0.0082910263101273109 0.0022352804591248836 0 -0.0082855777972866921 0.0022649756316292175 0 -0.008267638805256881 0.0022961500829136979 0 -0.0082910263101273109 0.0022352804591248836 0 -0.0082860912216639344 0.002197051446041585 0 -0.0082910263101273109 0.0022352804591248836 0 -0.0083204398587239971 0.0021665920484447887 0 -0.0083095689232246771 0.0022123298149446728 0 -0.0082910263101273109 0.0022352804591248836 0 -0.0083204398587239971 0.0021665920484447887 0 -0.0083095689232246771 0.0022123298149446728 0 -0.008343183605705403 0.0021396551622058463 0 -0.0083204398587239971 0.0021665920484447887 0 -0.008343183605705403 0.0021396551622058463 0 -0.0083447528103499907 0.002110998460502275 0 -0.0083204398587239971 0.0021665920484447887 0 -0.008343183605705403 0.0021396551622058463 0 -0.0083447528103499907 0.002110998460502275 0 -0.0083735367450862228 0.0020690875020470262 0 -0.0083447528103499907 0.002110998460502275 0 -0.0083145832240541367 0.0021407366470232634 0 -0.0083204398587239971 0.0021665920484447887 0 -0.0083447528103499907 0.002110998460502275 0 -0.0083145832240541367 0.0021407366470232634 0 -0.0083302595392497538 0.0020900702185857986 0 -0.0082860912216639344 0.002197051446041585 0 -0.0083145832240541367 0.0021407366470232634 0 -0.0083204398587239971 0.0021665920484447887 0 -0.0082860912216639344 0.002197051446041585 0 -0.0083145832240541367 0.0021407366470232634 0 -0.0082868645902769277 0.0021316344631140943 0 -0.0082325428158184482 0.0021940303019601232 0 -0.0082860912216639344 0.002197051446041585 0 -0.0082868645902769277 0.0021316344631140943 0 -0.0082370725069262855 0.002080495183673081 0 -0.0082868645902769277 0.0021316344631140943 0 -0.0083064463378838254 0.0020463124139819817 0 -0.0082370725069262855 0.002080495183673081 0 -0.0082325428158184482 0.0021940303019601232 0 -0.0082868645902769277 0.0021316344631140943 0 -0.0082868645902769277 0.0021316344631140943 0 -0.0083302595392497538 0.0020900702185857986 0 -0.0083064463378838254 0.0020463124139819817 0 -0.0083145832240541367 0.0021407366470232634 0 -0.0082868645902769277 0.0021316344631140943 0 -0.0083302595392497538 0.0020900702185857986 0 -0.0082370725069262855 0.002080495183673081 0 -0.0083064463378838254 0.0020463124139819817 0 -0.0082348202358237775 0.0019044329336327663 0 -0.0083302595392497538 0.0020900702185857986 0 -0.0083064463378838254 0.0020463124139819817 0 -0.0083664335832104031 0.0020445539768572324 0 -0.0083064463378838254 0.0020463124139819817 0 -0.0083441601144046071 0.0019991129358435927 0 -0.0083664335832104031 0.0020445539768572324 0 -0.0083441601144046071 0.0019991129358435927 0 -0.0084177587719423443 0.0019762948496198237 0 -0.0082348202358237775 0.0019044329336327663 0 -0.0083064463378838254 0.0020463124139819817 0 -0.0083441601144046071 0.0019991129358435927 0 -0.0082348202358237775 0.0019044329336327663 0 -0.0083842868172813965 0.0020160605529128532 0 -0.0084108092066971472 0.0020190789158868777 0 -0.0083735367450862228 0.0020690875020470262 0 -0.0083441601144046071 0.0019991129358435927 0 -0.0083842868172813965 0.0020160605529128532 0 -0.0084177587719423443 0.0019762948496198237 0 -0.008343183605705403 0.0021396551622058463 0 -0.0084108092066971472 0.0020190789158868777 0 -0.0083735367450862228 0.0020690875020470262 0 -0.0083441601144046071 0.0019991129358435927 0 -0.0083842868172813965 0.0020160605529128532 0 -0.0083664335832104031 0.0020445539768572324 0 -0.0083842868172813965 0.0020160605529128532 0 -0.0084177587719423443 0.0019762948496198237 0 -0.0084108092066971472 0.0020190789158868777 0 -0.0074025715364820985 0.0014972226886546492 0 -0.0073020581089217849 0.0014562699847266907 0 -0.0083447528103499907 0.002110998460502275 0 -0.0083664335832104031 0.0020445539768572324 0 -0.0083735367450862228 0.0020690875020470262 0 -0.0083447528103499907 0.002110998460502275 0 -0.0083302595392497538 0.0020900702185857986 0 -0.0083664335832104031 0.0020445539768572324 0 -0.0083842868172813965 0.0020160605529128532 0 -0.0083664335832104031 0.0020445539768572324 0 -0.0083735367450862228 0.0020690875020470262 0 -0.0054123557447884997 -2.5131948914148864e-05 0 -0.0053893538335797282 -3.274641534188639e-06 0 -0.0059349545555076174 -0.00018806062169078599 0 -0.0084177587719423443 0.0019762948496198237 0 -0.0084463294813081017 0.001998182429714506 0 -0.0081843994186636057 0.0013615120980632581 0 -0.0084177587719423443 0.0019762948496198237 0 -0.0081843994186636057 0.0013615120980632581 0 -0.0082348202358237775 0.0019044329336327663 0 -0.0053046291080201978 1.2183851450404097e-06 0 -0.0054123557447884997 -2.5131948914148864e-05 0 -0.0059349545555076174 -0.00018806062169078599 0 -0.0073020581089217849 0.0014562699847266907 0 -0.0069736080943874311 0.00052865333976486102 0 -0.0053046566737677634 5.5905737182025771e-05 0 -0.0053046291080201978 1.2183851450404097e-06 0 -0.0054123557447884997 -2.5131948914148864e-05 0 -0.0052952138918563475 5.7808754594186134e-05 0 -0.0054123557447884997 -2.5131948914148864e-05 0 -0.0053893538335797282 -3.274641534188639e-06 0 -0.0059349545555076174 -0.00018806062169078599 0 -0.0059727416916734088 0.00046556698069857275 0 -0.0052604467251262952 0.00017569241819590789 0 -0.0053893538335797282 -3.274641534188639e-06 0 -0.0059349545555076174 -0.00018806062169078599 0 -0.0052604467251262952 0.00017569241819590789 0 -0.0069736080943874311 0.00052865333976486102 0 -0.0072764626528339449 0.00066308582898230099 0 -0.0081082008350926351 0.0020655224911014791 0 -0.0080536236567901407 0.00170246765469065 0 -0.007687876241008273 0.001553632472943817 0 -0.0081843994186636057 0.0013615120980632581 0 -0.0082348202358237775 0.0019044329336327663 0 -0.0080536236567901407 0.00170246765469065 0 -0.0081843994186636057 0.0013615120980632581 0 -0.0080536236567901407 0.00170246765469065 0 -0.007687876241008273 0.001553632472943817 0 -0.0081843994186636057 0.0013615120980632581 0 -0.007687876241008273 0.001553632472943817 0 -0.0072371742783017773 0.00058647941383057429 0 -0.007687876241008273 0.001553632472943817 0 -0.007263302535144579 0.00092268617059439596 0 -0.0072371742783017773 0.00058647941383057429 0 -0.007687876241008273 0.001553632472943817 0 -0.007263302535144579 0.00092268617059439596 0 -0.0074068638702926518 0.0015484337332194668 0 -0.0076707141399649272 0.0018356904382135213 0 -0.007687876241008273 0.001553632472943817 0 -0.0074068638702926518 0.0015484337332194668 0 -0.0076707141399649272 0.0018356904382135213 0 -0.007647301902257873 0.002080045619635029 0 -0.0074068638702926518 0.0015484337332194668 0 -0.0072312838662887229 0.00059362910078733652 0 -0.0072371742783017773 0.00058647941383057429 0 -0.0072172157051676403 0.00063912148909229421 0 -0.0072371742783017773 0.00058647941383057429 0 -0.0064673650817571142 0.0011199517742378584 0 -0.0072172157051676403 0.00063912148909229421 0 -0.007263302535144579 0.00092268617059439596 0 -0.0072312838662887229 0.00059362910078733652 0 -0.0072371742783017773 0.00058647941383057429 0 -0.0072371742783017773 0.00058647941383057429 0 -0.0064673650817571142 0.0011199517742378584 0 -0.0059727416916734088 0.00046556698069857275 0 -0.0059349545555076174 -0.00018806062169078599 0 -0.0072371742783017773 0.00058647941383057429 0 -0.0059727416916734088 0.00046556698069857275 0 -0.0059727416916734088 0.00046556698069857275 0 -0.0052604467251262952 0.00017569241819590789 0 -0.0046264625573699215 0.00057028431497293023 0 -0.0021716889777235126 0.00020729146417220476 0 -0.0046264625573699215 0.00057028431497293023 0 -0.0043633020989947355 -0.00051345278806107252 0 -0.0043022188934231801 0.0006039986495295918 0 -0.0045934162902605278 0.00060485311807207287 0 -0.0064673650817571142 0.0011199517742378584 0 -0.0059727416916734088 0.00046556698069857275 0 -0.0046264625573699215 0.00057028431497293023 0 -0.0021716889777235126 0.00020729146417220476 0 -0.0030748655961125985 -0.0013436061005935218 0 -0.0043633020989947355 -0.00051345278806107252 0 -0.0030748655961125985 -0.0013436061005935218 0 -0.0014427311178388928 -0.0012212773563566345 0 -0.0020113151659412578 -0.0025052143051768542 0 -0.0021716889777235126 0.00020729146417220476 0 -0.0030748655961125985 -0.0013436061005935218 0 -0.0014427311178388928 -0.0012212773563566345 0 -0.0043022188934231801 0.0006039986495295918 0 -0.0036495023721548831 4.0261533769440952e-05 0 -0.0021716889777235126 0.00020729146417220476 0 -0.0014427311178388928 -0.0012212773563566345 0 -0.00011531530412662692 -0.00053219376832158943 0 -0.0014427311178388928 -0.0012212773563566345 0 -0.00011531530412662692 -0.00053219376832158943 0 2.8297295565676324e-05 -0.0021810987688161902 0 -0.0014427311178388928 -0.0012212773563566345 0 -0.0020113151659412578 -0.0025052143051768542 0 2.8297295565676324e-05 -0.0021810987688161902 0 -0.00011531530412662692 -0.00053219376832158943 0 0.00065986284883225318 -0.0018619771075736103 0 2.8297295565676324e-05 -0.0021810987688161902 0 -0.0036495023721548831 4.0261533769440952e-05 0 -0.0029953998706903685 -0.0007137604234148194 0 -0.0072312838662887229 0.00059362910078733652 0 -0.0072172157051676403 0.00063912148909229421 0 -0.0069868636216518605 -0.00017992834189159955 0 -0.0053762054787740814 3.1159713190488055e-05 0 -0.0054292287704398139 0.00012204992687976979 0 -0.0053931388953620983 -3.7225358125986511e-05 0 -0.0036460140963554153 0.00033031540350545802 0 -0.0030064380693562267 -0.0020997191894534966 0 -0.0053762054787740814 3.1159713190488055e-05 0 -0.0054292287704398139 0.00012204992687976979 0 -0.0053593104349305967 0.00017158601299143949 0 -0.0053762054787740814 3.1159713190488055e-05 0 -0.0053593104349305967 0.00017158601299143949 0 -0.0051969125429145299 0.00021532835403652995 0 -0.0045004918229499613 -0.00039257250757726564 0 -0.0030064380693562267 -0.0020997191894534966 0 -0.0015369505571966875 -0.00019844766441737323 0 -0.0016045401338395729 -0.00026925039928043447 0 -0.001699401378332995 -0.00019929199242974373 0 -0.0015369505571966875 -0.00019844766441737323 0 -0.0015318661718147252 -0.00028817213078540134 0 -0.0016045401338395729 -0.00026925039928043447 0 -0.0016197878823549191 0.00026519846236264417 0 -0.0015369505571966875 -0.00019844766441737323 0 -0.0017492277658870705 4.4640143829041206e-05 0 -0.0054351415611384813 0.00021704426797575181 0 -0.0054292287704398139 0.00012204992687976979 0 -0.0053964664550209887 0.00019975739188310234 0 -0.003405065174132191 0.00013928459593404429 0 -0.0036460140963554153 0.00033031540350545802 0 -0.0015369505571966875 -0.00019844766441737323 0 -0.001699401378332995 -0.00019929199242974373 0 -0.0017492277658870705 4.4640143829041206e-05 0 -0.005352889391204374 0.00021642772575869305 0 -0.0053964664550209887 0.00019975739188310234 0 -0.0053593104349305967 0.00017158601299143949 0 -0.0054292287704398139 0.00012204992687976979 0 -0.0053964664550209887 0.00019975739188310234 0 -0.0053593104349305967 0.00017158601299143949 0 -0.005352889391204374 0.00021642772575869305 0 -0.0053593104349305967 0.00017158601299143949 0 -0.0051969125429145299 0.00021532835403652995 0 -0.0051553581880112104 0.00017735219720443207 0 -0.005352889391204374 0.00021642772575869305 0 -0.0051969125429145299 0.00021532835403652995 0 -0.0051519306089556245 0.00016647713910732424 0 -0.0051553581880112104 0.00017735219720443207 0 -0.0049479152950765411 0.00033109634681113213 0 -0.0051553581880112104 0.00017735219720443207 0 -0.0051969125429145299 0.00021532835403652995 0 -0.0049479152950765411 0.00033109634681113213 0 -0.0052604467251262952 0.00017569241819590789 0 -0.0049479152950765411 0.00033109634681113213 0 -0.0046264625573699215 0.00057028431497293023 0 -0.0051519306089556245 0.00016647713910732424 0 -0.0052604467251262952 0.00017569241819590789 0 -0.0049479152950765411 0.00033109634681113213 0 -0.0049479152950765411 0.00033109634681113213 0 -0.0046264625573699215 0.00057028431497293023 0 -0.0049583424557083687 0.00012236922041493673 0 -0.0046264625573699215 0.00057028431497293023 0 -0.0049583424557083687 0.00012236922041493673 0 -0.0043633020989947355 -0.00051345278806107252 0 -0.0053762054787740814 3.1159713190488055e-05 0 -0.0051969125429145299 0.00021532835403652995 0 -0.0049583424557083687 0.00012236922041493673 0 -0.0053762054787740814 3.1159713190488055e-05 0 -0.0049583424557083687 0.00012236922041493673 0 -0.0050223283340453222 -0.00052872654422692999 0 -0.0051969125429145299 0.00021532835403652995 0 -0.0049479152950765411 0.00033109634681113213 0 -0.0049583424557083687 0.00012236922041493673 0 -0.0049583424557083687 0.00012236922041493673 0 -0.0050223283340453222 -0.00052872654422692999 0 -0.0043633020989947355 -0.00051345278806107252 0 -0.0050223283340453222 -0.00052872654422692999 0 -0.0043633020989947355 -0.00051345278806107252 0 -0.0042585752601815435 -0.0014766198544850916 0 -0.0030748655961125985 -0.0013436061005935218 0 -0.0043633020989947355 -0.00051345278806107252 0 -0.0042585752601815435 -0.0014766198544850916 0 -0.0030748655961125985 -0.0013436061005935218 0 -0.0042585752601815435 -0.0014766198544850916 0 -0.003668527252852747 -0.0024002179064191768 0 -0.0050223283340453222 -0.00052872654422692999 0 -0.0042585752601815435 -0.0014766198544850916 0 -0.0051805661437187853 -0.00132699406421802 0 -0.0042585752601815435 -0.0014766198544850916 0 -0.0051805661437187853 -0.00132699406421802 0 -0.0041720818352417085 -0.0022551838001746774 0 -0.0019767703895070426 -0.0056558594101543663 0 0.0015446106147763833 -0.0050409322826664715 0 -0.0014267043708524039 -0.0035600636046119087 0 -0.0019767703895070426 -0.0056558594101543663 0 -0.00028719811232696534 -0.0086314567345969605 0 0.0015446106147763833 -0.0050409322826664715 0 -0.0050223283340453222 -0.00052872654422692999 0 -0.0051805661437187853 -0.00132699406421802 0 -0.005641193469121464 -0.00039123283797860148 0 -0.0053762054787740814 3.1159713190488055e-05 0 -0.0050223283340453222 -0.00052872654422692999 0 -0.005641193469121464 -0.00039123283797860148 0 -0.0034393763348321334 -0.0038653852911993908 0 -0.0030064380693562267 -0.0020997191894534966 0 -0.0015318661718147252 -0.00028817213078540134 0 -0.0016045401338395729 -0.00026925039928043447 0 -0.0015533984054007142 -0.00034450421131331221 0 -0.0030064380693562267 -0.0020997191894534966 0 8.4738205408981464e-05 -0.003047909005495049 0 -0.0015533984054007142 -0.00034450421131331221 0 -0.0015885762532073014 -0.00033611086801398787 0 -0.0016300437653559007 -0.00027658761396837149 0 -0.0015885762532073014 -0.00033611086801398787 0 -0.0016300437653559007 -0.00027658761396837149 0 -0.0016170450002329295 -0.00034777960681771228 0 -0.0016300437653559007 -0.00027658761396837149 0 -0.0016706248837891899 -0.00030013201730289007 0 -0.0016170450002329295 -0.00034777960681771228 0 -0.0016300437653559007 -0.00027658761396837149 0 -0.0016647320913848725 -0.00021881348813952969 0 -0.0016801924976722756 -0.00022987206846207669 0 -0.0016045401338395729 -0.00026925039928043447 0 -0.0015533984054007142 -0.00034450421131331221 0 -0.0016300437653559007 -0.00027658761396837149 0 -0.0016045401338395729 -0.00026925039928043447 0 -0.0016300437653559007 -0.00027658761396837149 0 -0.0016647320913848725 -0.00021881348813952969 0 -0.001699401378332995 -0.00019929199242974373 0 -0.0016647320913848725 -0.00021881348813952969 0 -0.0016678052659316138 -0.0001983127547352852 0 -0.0016045401338395729 -0.00026925039928043447 0 -0.001699401378332995 -0.00019929199242974373 0 -0.0016647320913848725 -0.00021881348813952969 0 -0.0016647320913848725 -0.00021881348813952969 0 -0.0016678052659316138 -0.0001983127547352852 0 -0.0016801924976722756 -0.00022987206846207669 0 -0.0025430840071035739 -0.00019738375514346995 0 -0.0022288859012529038 0.00019444995058508742 0 -0.0028430551533749938 0.00023531541949444032 0 -0.001699401378332995 -0.00019929199242974373 0 -0.0025430840071035739 -0.00019738375514346995 0 -0.0022288859012529038 0.00019444995058508742 0 -0.0022288859012529038 0.00019444995058508742 0 -0.0017492277658870705 4.4640143829041206e-05 0 -0.0018449636743490157 0.00024314620906270166 0 -0.0017341950820562288 -0.00020409361335003187 0 -0.0020850187796855732 -0.00019048481308926241 0 -0.0016197878823549191 0.00026519846236264417 0 -0.0017492277658870705 4.4640143829041206e-05 0 -0.0018449636743490157 0.00024314620906270166 0 -0.001699401378332995 -0.00019929199242974373 0 -0.0022288859012529038 0.00019444995058508742 0 -0.0017492277658870705 4.4640143829041206e-05 0 -0.0033074571235495271 -0.00011688498136480215 0 -0.0028430551533749938 0.00023531541949444032 0 -0.0033117661765559971 0.00040961742914085385 0 -0.0033074571235495271 -0.00011688498136480215 0 -0.0037218268735329284 0.00034914318157540955 0 -0.0033117661765559971 0.00040961742914085385 0 -0.0025430840071035739 -0.00019738375514346995 0 -0.0033074571235495271 -0.00011688498136480215 0 -0.0028430551533749938 0.00023531541949444032 0 -0.0020850187796855732 -0.00019048481308926241 0 -0.0025952834394610434 -0.00014488384203389601 0 -0.0016678052659316138 -0.0001983127547352852 0 -0.0017278748397133576 -0.00014591108339186685 0 -0.0017072286561840865 -0.0001892480844193423 0 -0.0016678052659316138 -0.0001983127547352852 0 -0.0017072286561840865 -0.0001892480844193423 0 -0.0016801924976722756 -0.00022987206846207669 0 -0.0017072286561840865 -0.0001892480844193423 0 -0.0017234461550189408 -0.00021299484242547813 0 -0.0016801924976722756 -0.00022987206846207669 0 -0.0017278748397133576 -0.00014591108339186685 0 -0.0017072286561840865 -0.0001892480844193423 0 -0.0017508264340918391 -0.00016389620318916289 0 -0.0017072286561840865 -0.0001892480844193423 0 -0.0017234461550189408 -0.00021299484242547813 0 -0.0017508264340918391 -0.00016389620318916289 0 -0.0017234461550189408 -0.00021299484242547813 0 -0.0017508264340918391 -0.00016389620318916289 0 -0.0017577282444832826 -0.00017959521759959124 0 -0.0017234461550189408 -0.00021299484242547813 0 -0.0016801924976722756 -0.00022987206846207669 0 -0.0016706248837891899 -0.00030013201730289007 0 -0.0016300437653559007 -0.00027658761396837149 0 -0.0016801924976722756 -0.00022987206846207669 0 -0.0016706248837891899 -0.00030013201730289007 0 -0.0017234461550189408 -0.00021299484242547813 0 -0.0016706248837891899 -0.00030013201730289007 0 -0.0017292104150037888 -0.00030972452577069238 0 0.0026931893227943398 0.0012553627760391872 0 0.0019060061651248144 0.00093521120129097643 0 0.0026712848774538278 0.00026703366099050079 0 0.0030657548656068266 0.00060366178085820255 0 0.0026931893227943398 0.0012553627760391872 0 0.0026712848774538278 0.00026703366099050079 0 0.0007157052852640323 0.00020021998165406597 0 -0.00014264063745922563 8.9255077380693038e-05 0 -0.00014264063745922563 8.9255077380693038e-05 0 0.00034642606306898557 0.00055728791175090303 0 -0.0018808834563207642 -6.1863048590938023e-05 0 -0.0014361297691244889 7.9293258052092513e-05 0 -0.0017278954812200229 -0.00010131572386217944 0 -0.0018249841567262875 -0.00013759215324852771 0 -0.0018808834563207642 -6.1863048590938023e-05 0 -0.0017278954812200229 -0.00010131572386217944 0 -0.0012389174180998603 0.00027853550481825144 0 -0.00014264063745922563 8.9255077380693038e-05 0 -0.0017292104150037888 -0.00030972452577069238 0 -0.0017655579179365127 -0.00020256728611880848 0 -0.0017862862405889372 -0.00021642104942776825 0 -0.0017234461550189408 -0.00021299484242547813 0 -0.0017292104150037888 -0.00030972452577069238 0 -0.0017655579179365127 -0.00020256728611880848 0 -0.0018249841567262875 -0.00013759215324852771 0 -0.0017927497608068194 -0.00016771279987230566 0 -0.0017962153287256659 -0.00021135635699358267 0 -0.0017927497608068194 -0.00016771279987230566 0 -0.0017655579179365127 -0.00020256728611880848 0 -0.0017962153287256659 -0.00021135635699358267 0 -0.001419880645526534 -0.000380428371194797 0 -0.00014264063745922563 8.9255077380693038e-05 0 -0.0017234461550189408 -0.00021299484242547813 0 -0.0017655579179365127 -0.00020256728611880848 0 -0.0017577282444832826 -0.00017959521759959124 0 -0.0017927497608068194 -0.00016771279987230566 0 -0.0017655579179365127 -0.00020256728611880848 0 -0.0017577282444832826 -0.00017959521759959124 0 0.00034642606306898557 0.00055728791175090303 0 0.00016242970424237781 -3.2099569567379608e-08 0 -0.0014361297691244889 7.9293258052092513e-05 0 -0.0013053177892369287 -6.5978162832383263e-07 0 0.00016029629528200692 1.1106702709015342e-06 0 -0.0014361297691244889 7.9293258052092513e-05 0 -0.0017278954812200229 -0.00010131572386217944 0 -0.0013053177892369287 -6.5978162832383263e-07 0 -0.0013053177892369287 -6.5978162832383263e-07 0 -0.0018819688458833739 -0.00013377023011827674 0 -0.0027744729147992334 -3.7714017560565365e-07 0 -0.0017278954812200229 -0.00010131572386217944 0 -0.0013053177892369287 -6.5978162832383263e-07 0 -0.0018819688458833739 -0.00013377023011827674 0 -0.0017278954812200229 -0.00010131572386217944 0 -0.0018819688458833739 -0.00013377023011827674 0 -0.0017980289175189325 -0.00013500115822934634 0 -0.0018819688458833739 -0.00013377023011827674 0 -0.00185366517032739 -7.854837930467806e-05 0 -0.0017980289175189325 -0.00013500115822934634 0 -0.0020031750574861602 -0.0001758032053641985 0 -0.0022504334871994388 -6.6798428172544424e-05 0 -0.0018819688458833739 -0.00013377023011827674 0 -0.00185366517032739 -7.854837930467806e-05 0 -0.0019891096307997902 1.2344058399372156e-05 0 -0.00185366517032739 -7.854837930467806e-05 0 -0.0018856675723586376 1.7836751734307393e-06 0 -0.0019891096307997902 1.2344058399372156e-05 0 -0.0018819688458833739 -0.00013377023011827674 0 -0.0027744729147992334 -3.7714017560565365e-07 0 -0.0028184789277065016 -5.5568441043799776e-05 0 -0.0017278748397133576 -0.00014591108339186685 0 -0.0017919060532983143 -0.00012867054369051009 0 -0.0017508264340918391 -0.00016389620318916289 0 -0.0017919060532983143 -0.00012867054369051009 0 -0.0017830421211685395 -0.00015671321795110758 0 -0.0018059654809483223 -0.0001376326594852498 0 -0.0017919060532983143 -0.00012867054369051009 0 -0.0017508264340918391 -0.00016389620318916289 0 -0.0017830421211685395 -0.00015671321795110758 0 -0.0017508264340918391 -0.00016389620318916289 0 -0.0017577282444832826 -0.00017959521759959124 0 -0.0017830421211685395 -0.00015671321795110758 0 -0.0017927497608068194 -0.00016771279987230566 0 -0.0017577282444832826 -0.00017959521759959124 0 -0.0017830421211685395 -0.00015671321795110758 0 -0.0017927497608068194 -0.00016771279987230566 0 -0.0017830421211685395 -0.00015671321795110758 0 -0.0018059654809483223 -0.0001376326594852498 0 -0.0018249841567262875 -0.00013759215324852771 0 -0.0017927497608068194 -0.00016771279987230566 0 -0.0018059654809483223 -0.0001376326594852498 0 -0.0018249841567262875 -0.00013759215324852771 0 -0.0018059654809483223 -0.0001376326594852498 0 -0.0017980289175189325 -0.00013500115822934634 0 -0.0018249841567262875 -0.00013759215324852771 0 -0.0017278954812200229 -0.00010131572386217944 0 -0.0017980289175189325 -0.00013500115822934634 0 -0.00185366517032739 -7.854837930467806e-05 0 -0.0017980289175189325 -0.00013500115822934634 0 -0.0018006990606228234 -0.00011532052278335637 0 -0.0017919060532983143 -0.00012867054369051009 0 -0.0018059654809483223 -0.0001376326594852498 0 -0.0018006990606228234 -0.00011532052278335637 0 -0.0018059654809483223 -0.0001376326594852498 0 -0.0017980289175189325 -0.00013500115822934634 0 -0.0018006990606228234 -0.00011532052278335637 0 -0.0017620027146035033 -7.6386096269005798e-05 0 -0.0018105956876608559 -7.2637438247966782e-05 0 -0.001837333072895377 7.9313354631626885e-05 0 -0.0017919060532983143 -0.00012867054369051009 0 -0.0018006990606228234 -0.00011532052278335637 0 -0.0017892840230143339 -8.8404154622914694e-05 0 -0.0025283631095418288 5.6485217097247716e-05 0 -0.002926071484042819 0.00022076229117365103 0 -0.0018856675723586376 1.7836751734307393e-06 0 -0.0018105956876608559 -7.2637438247966782e-05 0 -0.001837333072895377 7.9313354631626885e-05 0 -0.0018006990606228234 -0.00011532052278335637 0 -0.0017892840230143339 -8.8404154622914694e-05 0 -0.0018105956876608559 -7.2637438247966782e-05 0 -0.0025283631095418288 5.6485217097247716e-05 0 -0.0019639530532619639 -1.1084086962974945e-05 0 -0.00185366517032739 -7.854837930467806e-05 0 -0.0018006990606228234 -0.00011532052278335637 0 -0.0018105956876608559 -7.2637438247966782e-05 0 -0.00185366517032739 -7.854837930467806e-05 0 -0.0018856675723586376 1.7836751734307393e-06 0 -0.0018105956876608559 -7.2637438247966782e-05 0 -0.0033074571235495271 -0.00011688498136480215 0 -0.0039580910750527916 -4.5320037912931292e-05 0 -0.0037218268735329284 0.00034914318157540955 0 -0.0025952834394610434 -0.00014488384203389601 0 -0.0025283631095418288 5.6485217097247716e-05 0 -0.0017278748397133576 -0.00014591108339186685 0 -0.0017919060532983143 -0.00012867054369051009 0 -0.0018063430070501378 -0.00010417607442214626 0 -0.0020473844750582048 -0.00024643749616540608 0 -0.0025283631095418288 5.6485217097247716e-05 0 -0.0037218268735329284 0.00034914318157540955 0 -0.003622991603518152 0.00069309962104042132 0 -0.0033117661765559971 0.00040961742914085385 0 -0.0037218268735329284 0.00034914318157540955 0 -0.0039745823204818424 0.0006606137034589159 0 -0.003622991603518152 0.00069309962104042132 0 -0.0039580910750527916 -4.5320037912931292e-05 0 -0.0037218268735329284 0.00034914318157540955 0 -0.0041898875615070689 0.00042222644084507788 0 -0.0037218268735329284 0.00034914318157540955 0 -0.0041898875615070689 0.00042222644084507788 0 -0.0039745823204818424 0.0006606137034589159 0 -0.0052429362547447185 0.00077105945451488639 0 -0.0046750727913824324 0.00024828885711919267 0 -0.0039745823204818424 0.0006606137034589159 0 -0.0039120905610367657 0.00096450288554590798 0 -0.0044225485396246385 0.00087200272224309961 0 -0.0041898875615070689 0.00042222644084507788 0 -0.0039745823204818424 0.0006606137034589159 0 -0.0044225485396246385 0.00087200272224309961 0 -0.0039120905610367657 0.00096450288554590798 0 -0.003622991603518152 0.00069309962104042132 0 -0.0034047872117089219 0.0010521102067516869 0 -0.0039745823204818424 0.0006606137034589159 0 -0.0039120905610367657 0.00096450288554590798 0 -0.003622991603518152 0.00069309962104042132 0 -0.0027744729147992334 -3.7714017560565365e-07 0 -0.0033904402747202936 -7.0198419568699209e-06 0 -0.0028184789277065016 -5.5568441043799776e-05 0 -0.0027744729147992334 -3.7714017560565365e-07 0 -0.0033904402747202936 -7.0198419568699209e-06 0 -0.0042410743411283027 8.8428324063441458e-07 0 -0.0033904402747202936 -7.0198419568699209e-06 0 -0.0028184789277065016 -5.5568441043799776e-05 0 -0.0035083681667520991 0.00023905513709444193 0 -0.0022504334871994388 -6.6798428172544424e-05 0 -0.0039721647598792613 0.00014591627718385833 0 -0.001837333072895377 7.9313354631626885e-05 0 -0.0019444084426040521 0.00011135085449177203 0 -0.0019413245557293028 0.00025745148066457359 0 -0.0019891096307997902 1.2344058399372156e-05 0 -0.0019444084426040521 0.00011135085449177203 0 -0.0020789366999276787 0.0002329846010804533 0 -0.0018856675723586376 1.7836751734307393e-06 0 -0.0019891096307997902 1.2344058399372156e-05 0 -0.0019444084426040521 0.00011135085449177203 0 -0.0018856675723586376 1.7836751734307393e-06 0 -0.001837333072895377 7.9313354631626885e-05 0 -0.0019444084426040521 0.00011135085449177203 0 -0.002926071484042819 0.00022076229117365103 0 -0.0046750727913824324 0.00024828885711919267 0 -0.0046750727913824324 0.00024828885711919267 0 -0.0039721647598792613 0.00014591627718385833 0 -0.0019444084426040521 0.00011135085449177203 0 -0.0019413245557293028 0.00025745148066457359 0 -0.0020789366999276787 0.0002329846010804533 0 -0.0046491884013188508 4.5118908882587224e-05 0 -0.004244223589582435 2.1174294444210959e-07 0 -0.005291192585672482 -2.8780707697638581e-05 0 -0.0039721647598792613 0.00014591627718385833 0 -0.0042429141537543855 9.0422044889079479e-08 0 -0.0033904402747202936 -7.0198419568699209e-06 0 -0.0035083681667520991 0.00023905513709444193 0 -0.0042410743411283027 8.8428324063441458e-07 0 -0.0056513711708780943 -0.00043414112308935845 0 -0.0058606582990990454 -0.0004705506579576915 0 -0.0059497565074946718 -0.00017377824133806024 0 -0.004244223589582435 2.1174294444210959e-07 0 -0.005291192585672482 -2.8780707697638581e-05 0 -0.0056075291162652431 -1.8937195157645861e-07 0 -0.0039721647598792613 0.00014591627718385833 0 -0.0057595361293981961 -0.00018757263652247966 0 -0.0064555462454872854 0.0005217564172261646 0 -0.0066585494818279982 0.00090418250341019689 0 -0.0063709697178028621 0.00072739377061607682 0 -0.0056513711708780943 -0.00043414112308935845 0 -0.0059497565074946718 -0.00017377824133806024 0 -0.0058676353440118099 -7.0702490608561238e-05 0 -0.0046750727913824324 0.00024828885711919267 0 -0.0064440747961940076 0.00038470692821911627 0 -0.0064713307018379792 0.0011151563748465808 0 -0.0063971857222382012 0.00090972306936350049 0 -0.0066585494818279982 0.00090418250341019689 0 -0.0063971857222382012 0.00090972306936350049 0 -0.0066585494818279982 0.00090418250341019689 0 -0.0063709697178028621 0.00072739377061607682 0 -0.0062302930594887512 -9.9204739771511878e-06 0 -0.0057595361293981961 -0.00018757263652247966 0 -0.0064557016736154025 -1.6006078281673087e-06 0 -0.0059497565074946718 -0.00017377824133806024 0 -0.0058676353440118099 -7.0702490608561238e-05 0 -0.0064557016736154025 -1.6006078281673087e-06 0 -0.005291192585672482 -2.8780707697638581e-05 0 -0.0056075291162652431 -1.8937195157645861e-07 0 -0.0052429362547447185 0.00077105945451488639 0 -0.004127357705697627 0.00089328302793519163 0 -0.006128902761278086 0.00057526183715501326 0 -0.0059707239928973154 0.00070646030904487618 0 -0.0057675935228440455 0.00063207631573354529 0 -0.0060843735526664791 0.00076977242682346107 0 -0.0059895853740144752 0.00081151160714955969 0 -0.0060536936656674445 0.00090438813073021442 0 -0.0060843735526664791 0.00076977242682346107 0 -0.0059895853740144752 0.00081151160714955969 0 -0.0059707239928973154 0.00070646030904487618 0 -0.0071142325989116901 0.001116633296565431 0 -0.005679024935935654 0.0011485576229147043 0 -0.0059895853740144752 0.00081151160714955969 0 -0.0060536936656674445 0.00090438813073021442 0 -0.005787120480486724 0.00078536331590026891 0 -0.0059895853740144752 0.00081151160714955969 0 -0.0059707239928973154 0.00070646030904487618 0 -0.005787120480486724 0.00078536331590026891 0 -0.006128902761278086 0.00057526183715501326 0 -0.0060843735526664791 0.00076977242682346107 0 -0.0059707239928973154 0.00070646030904487618 0 -0.006128902761278086 0.00057526183715501326 0 -0.0063709697178028621 0.00072739377061607682 0 -0.0062071178728413477 0.00075902170476543082 0 -0.006128902761278086 0.00057526183715501326 0 -0.0060843735526664791 0.00076977242682346107 0 -0.0062071178728413477 0.00075902170476543082 0 -0.006128902761278086 0.00057526183715501326 0 -0.0064555462454872854 0.0005217564172261646 0 -0.0063709697178028621 0.00072739377061607682 0 -0.0063709697178028621 0.00072739377061607682 0 -0.0062071178728413477 0.00075902170476543082 0 -0.006269991326616803 0.00086160508316014933 0 -0.0063971857222382012 0.00090972306936350049 0 -0.0063709697178028621 0.00072739377061607682 0 -0.006269991326616803 0.00086160508316014933 0 -0.0062071178728413477 0.00075902170476543082 0 -0.0061505795280484476 0.00087991609143815719 0 -0.006269991326616803 0.00086160508316014933 0 -0.0060843735526664791 0.00076977242682346107 0 -0.0062071178728413477 0.00075902170476543082 0 -0.0061505795280484476 0.00087991609143815719 0 -0.0064713307018379792 0.0011151563748465808 0 -0.0062007332301711104 0.00095921508068251722 0 -0.0060934725936653174 0.00096513624081199329 0 -0.0078156553853239389 0.0012820850658527565 0 -0.0080134178206889405 0.0011380784013354801 0 -0.0061505795280484476 0.00087991609143815719 0 -0.006269991326616803 0.00086160508316014933 0 -0.0062007332301711104 0.00095921508068251722 0 -0.0064713307018379792 0.0011151563748465808 0 -0.0063971857222382012 0.00090972306936350049 0 -0.0062007332301711104 0.00095921508068251722 0 -0.0063971857222382012 0.00090972306936350049 0 -0.006269991326616803 0.00086160508316014933 0 -0.0062007332301711104 0.00095921508068251722 0 -0.0093185872319243579 0.001401414584894828 0 -0.0080134178206889405 0.0011380784013354801 0 -0.0093185872319243579 0.001401414584894828 0 -0.0080220085027633767 0.0014819295184582085 0 -0.0081630615309475959 0.0019594303201641724 0 -0.0080614389147571873 0.0013056211729280591 0 -0.0073179567564939799 0.0011718214854715258 0 -0.0060843735526664791 0.00076977242682346107 0 -0.0061505795280484476 0.00087991609143815719 0 -0.0060536936656674445 0.00090438813073021442 0 -0.0061873693799444846 0.00081777359015106576 0 -0.0071142325989116901 0.001116633296565431 0 -0.0061505795280484476 0.00087991609143815719 0 -0.0062007332301711104 0.00095921508068251722 0 -0.0060536936656674445 0.00090438813073021442 0 -0.0062007332301711104 0.00095921508068251722 0 -0.0060934725936653174 0.00096513624081199329 0 -0.0060871713556405801 0.00090531316371080461 0 -0.0080134178206889405 0.0011380784013354801 0 -0.0071142325989116901 0.001116633296565431 0 -0.0079173382332552913 0.0010979973565183887 0 -0.0074269473599895075 0.0010467906615898035 0 -0.0072896252863019944 0.00078123293546687527 0 -0.0079420533376287124 0.0012709801528844183 0 -0.0079173382332552913 0.0010979973565183887 0 -0.0074269473599895075 0.0010467906615898035 0 -0.0080134178206889405 0.0011380784013354801 0 -0.007545819642090717 0.0010693321951740201 0 -0.0080614389147571873 0.0013056211729280591 0 -0.0074269473599895075 0.0010467906615898035 0 -0.0073179567564939799 0.0011718214854715258 0 -0.0080220085027633767 0.0014819295184582085 0 -0.005679024935935654 0.0011485576229147043 0 -0.0074269473599895075 0.0010467906615898035 0 -0.0073179567564939799 0.0011718214854715258 0 -0.0072896252863019944 0.00078123293546687527 0 -0.0066834887536102233 0.0018279682871301362 0 -0.0066251179336567108 0.0013145638762790699 0 -0.0056153500568661193 0.00082992129783942485 0 -0.0035666235467956796 0.0015910151600662574 0 -0.0029218240048099792 0.0012827313652876925 0 -0.0031275756539148551 0.0013310249376559506 0 -0.005679024935935654 0.0011485576229147043 0 -0.0051285952995797348 0.0014466286058520033 0 -0.0080220085027633767 0.0014819295184582085 0 -0.0051285952995797348 0.0014466286058520033 0 -0.004127357705697627 0.00089328302793519163 0 -0.0031035656912208206 0.0012440487979289837 0 -0.0035666235467956796 0.0015910151600662574 0 -0.0035328670519114745 0.001257198791111551 0 -0.0031275756539148551 0.0013310249376559506 0 -0.0034495367813499656 0.0012653759748335505 0 -0.0031275756539148551 0.0013310249376559506 0 -0.0031185037771403832 0.0010994235425092369 0 -0.005679024935935654 0.0011485576229147043 0 -0.004127357705697627 0.00089328302793519163 0 -0.0059707239928973154 0.00070646030904487618 0 -0.005787120480486724 0.00078536331590026891 0 -0.0057675935228440455 0.00063207631573354529 0 -0.0078758465751005598 0.0015909919470886767 0 -0.0080790803472819486 0.0012616870072351661 0 -0.0075748281595142122 0.00094500123261520889 0 -0.0084495125759923868 0.0017356820144095687 0 -0.0078758465751005598 0.0015909919470886767 0 -0.0080790803472819486 0.0012616870072351661 0 -0.0029218240048099792 0.0012827313652876925 0 -0.0031275756539148551 0.0013310249376559506 0 -0.0031185037771403832 0.0010994235425092369 0 -0.0084495125759923868 0.0017356820144095687 0 -0.0078758465751005598 0.0015909919470886767 0 -0.0080956729950514405 0.0018922609976272304 0 -0.008038242674146991 0.0018402185980015745 0 -0.0074790861005761822 0.0014008948790770019 0 -0.0078282597522076718 0.0020419814842668766 0 -0.0080956729950514405 0.0018922609976272304 0 -0.0076832266531597975 0.0011930804566479588 0 -0.0078758465751005598 0.0015909919470886767 0 -0.0080956729950514405 0.0018922609976272304 0 -0.0073240699046308571 0.0016245946508351311 0 -0.0067288642140427542 0.0016527684138667503 0 -0.0063677785257084474 0.00097015803009490741 0 -0.0076832266531597975 0.0011930804566479588 0 -0.0078282597522076718 0.0020419814842668766 0 -0.0067288642140427542 0.0016527684138667503 0 -0.0076832266531597975 0.0011930804566479588 0 -0.0077968377602075254 0.0020527243423870832 0 -0.0073921524037958049 0.0019368146894691738 0 -0.0063980328460846898 0.0011020356405336915 0 -0.0073240699046308571 0.0016245946508351311 0 -0.0066335269305332744 0.00085773438900535112 0 -0.0063677785257084474 0.00097015803009490741 0 -0.0066697940789890754 0.00038657677555831968 0 -0.0076832266531597975 0.0011930804566479588 0 -0.0065325559984973254 0.00075380680746329348 0 -0.0074790861005761822 0.0014008948790770019 0 -0.0073240699046308571 0.0016245946508351311 0 -0.0075748281595142122 0.00094500123261520889 0 -0.0069784799857356651 0.00077735509747745143 0 -0.0078758465751005598 0.0015909919470886767 0 -0.0073240699046308571 0.0016245946508351311 0 -0.0075748281595142122 0.00094500123261520889 0 -0.0054506240223121507 0.0014208804582439018 0 -0.0051949434932447251 0.00058991120912724963 0 -0.0051285952995797348 0.0014466286058520033 0 -0.0024259096045535574 0.00093347899667982684 0 -0.0041994317121679028 0.0022856821394263505 0 -0.0029933414452585558 0.0012020604235398011 0 -0.0031567822599815457 0.0018051073102058712 0 -0.0029933414452585558 0.0012020604235398011 0 -0.0031567822599815457 0.0018051073102058712 0 -0.0021689699365531447 0.0013155233239658737 0 -0.0075748281595142122 0.00094500123261520889 0 -0.0068876735752384224 0.00061570785203860564 0 -0.0069784799857356651 0.00077735509747745143 0 -0.0073240699046308571 0.0016245946508351311 0 -0.0066335269305332744 0.00085773438900535112 0 -0.0069784799857356651 0.00077735509747745143 0 -0.0051949434932447251 0.00058991120912724963 0 -0.0056217733521244087 0.00088336476146181719 0 -0.0063617374166929537 0.00064691223342511314 0 -0.0066335269305332744 0.00085773438900535112 0 -0.0068777798325417314 0.0006138810440323569 0 -0.0066335269305332744 0.00085773438900535112 0 -0.0068777798325417314 0.0006138810440323569 0 -0.0069784799857356651 0.00077735509747745143 0 -0.0016197878823549191 0.00026519846236264417 0 -0.0021689699365531447 0.0013155233239658737 0 -0.0018449636743490157 0.00024314620906270166 0 -0.003405065174132191 0.00013928459593404429 0 -0.0051949434932447251 0.00058991120912724963 0 -0.0029933414452585558 0.0012020604235398011 0 -0.0021689699365531447 0.0013155233239658737 0 -0.0018449636743490157 0.00024314620906270166 0 -0.0024259096045535574 0.00093347899667982684 0 -0.0019861392175989671 0.00032555530092810752 0 -0.0022288859012529038 0.00019444995058508742 0 -0.0023613579737051058 0.0007508468115129932 0 -0.0018449636743490157 0.00024314620906270166 0 -0.0022288859012529038 0.00019444995058508742 0 -0.0025834713555309228 0.00048131594162515351 0 -0.0028430551533749938 0.00023531541949444032 0 -0.0022288859012529038 0.00019444995058508742 0 -0.0023613579737051058 0.0007508468115129932 0 -0.0025834713555309228 0.00048131594162515351 0 -0.0023613579737051058 0.0007508468115129932 0 -0.0025834713555309228 0.00048131594162515351 0 -0.0029038907235251314 0.00074666319256369692 0 -0.0025834713555309228 0.00048131594162515351 0 -0.0028430551533749938 0.00023531541949444032 0 -0.0029038907235251314 0.00074666319256369692 0 -0.0028430551533749938 0.00023531541949444032 0 -0.0033117661765559971 0.00040961742914085385 0 -0.0029038907235251314 0.00074666319256369692 0 -0.0033117661765559971 0.00040961742914085385 0 -0.0031820502271094286 0.00088323554837544532 0 -0.0029038907235251314 0.00074666319256369692 0 -0.0034495367813499656 0.0012653759748335505 0 -0.0033117661765559971 0.00040961742914085385 0 -0.0031820502271094286 0.00088323554837544532 0 -0.004127357705697627 0.00089328302793519163 0 -0.0031496923543474589 0.00054662003936909701 0 -0.003622991603518152 0.00069309962104042132 0 -0.0034047872117089219 0.0010521102067516869 0 -0.0033117661765559971 0.00040961742914085385 0 -0.0034495367813499656 0.0012653759748335505 0 -0.0031820502271094286 0.00088323554837544532 0 -0.0031185037771403832 0.0010994235425092369 0 -0.0029218240048099792 0.0012827313652876925 0 -0.0031185037771403832 0.0010994235425092369 0 -0.0029038907235251314 0.00074666319256369692 0 -0.0051285952995797348 0.0014466286058520033 0 -0.0054506240223121507 0.0014208804582439018 0 -0.0029218240048099792 0.0012827313652876925 0 -0.0023613579737051058 0.0007508468115129932 0 -0.0029038907235251314 0.00074666319256369692 0 -0.0031820502271094286 0.00088323554837544532 0 -0.0031185037771403832 0.0010994235425092369 0 -0.0029038907235251314 0.00074666319256369692 0 -0.0042126498298964872 0.002567161513096237 0 -0.0042495934104084185 0.0024909786819377311 0 -0.004327192206054771 0.0025794555361932535 0 -0.0042126498298964872 0.002567161513096237 0 -0.0042495934104084185 0.0024909786819377311 0 -0.0041118029183131862 0.0024430543266671812 0 -0.0042126498298964872 0.002567161513096237 0 -0.0041118029183131862 0.0024430543266671812 0 -0.0040299569164785201 0.0026128522719723627 0 -0.0042495934104084185 0.0024909786819377311 0 -0.0042488592934262744 0.0023861861444771952 0 -0.0043344371358060687 0.0024645021945379638 0 -0.0042495934104084185 0.0024909786819377311 0 -0.0041118029183131862 0.0024430543266671812 0 -0.0042488592934262744 0.0023861861444771952 0 -0.0042488592934262744 0.0023861861444771952 0 -0.0043344371358060687 0.0024645021945379638 0 -0.0043506238426544389 0.0023715150999487999 0 -0.0043344371358060687 0.0024645021945379638 0 -0.0044437299968066524 0.0025049762670713007 0 -0.0043506238426544389 0.0023715150999487999 0 -0.0043344371358060687 0.0024645021945379638 0 -0.0043991145195048618 0.0025032133489955831 0 -0.004327192206054771 0.0025794555361932535 0 -0.0042495934104084185 0.0024909786819377311 0 -0.0043344371358060687 0.0024645021945379638 0 -0.004327192206054771 0.0025794555361932535 0 -0.0045148413017108485 0.0023900128486292384 0 -0.0065475923362506711 0.0031800388006985201 0 0.003526023575930634 -0.00097573587725216884 0 0.0035938684680940389 -0.00099647424632866755 0 0.0037873145403120186 -0.0008851757447046174 0 -0.004327192206054771 0.0025794555361932535 0 -0.0044067625215610745 0.0026543419251544012 0 -0.0043540630501449984 0.0026917217565547839 0 -0.0042126498298964872 0.002567161513096237 0 -0.004327192206054771 0.0025794555361932535 0 -0.0043540630501449984 0.0026917217565547839 0 -0.0043991145195048618 0.0025032133489955831 0 -0.004327192206054771 0.0025794555361932535 0 -0.0044067625215610745 0.0026543419251544012 0 -0.0054622443715597237 0.0019495301783997996 0 -0.0054833873492469111 0.0021417627382061327 0 -0.0056554761270809261 0.0020297521621354801 0 -0.0065475923362506711 0.0031800388006985201 0 -0.0027789416867310466 0.0013911738980057879 0 -0.0027789416867310466 0.0013911738980057879 0 -0.00031029842608095733 7.8305286677833344e-05 0 -0.0017212818835866388 0.00095753803195970449 0 -0.0017576453605401339 0.0012046195228126051 0 -0.0014779336514943451 0.0011265780508825179 0 -0.0027789416867310466 0.0013911738980057879 0 -0.00091606148584749171 0.0010060006112185085 0 -0.00031029842608095733 7.8305286677833344e-05 0 -0.00091606148584749171 0.0010060006112185085 0 0.00066073199351990991 0.00050373386621793996 0 -0.00020952660212673663 0.00075692724815319906 0 0.0002369094994517195 0.00019497464574926842 0 -0.0042126498298964872 0.002567161513096237 0 -0.0043540630501449984 0.0026917217565547839 0 -0.0040299569164785201 0.0026128522719723627 0 -0.00020952660212673663 0.00075692724815319906 0 0.0002369094994517195 0.00019497464574926842 0 -0.00012945124702784199 0.00025035287304246337 0 -0.00091606148584749171 0.0010060006112185085 0 -0.0014294319632578501 0.0016568462872446632 0 -0.00020952660212673663 0.00075692724815319906 0 -0.000421245796489001 0.00019426089904454855 0 -0.00012945124702784199 0.00025035287304246337 0 -0.0014294319632578501 0.0016568462872446632 0 -0.00034530415966557227 0.00098180133495126705 0 -0.00055243295656068998 0.00066024392967959484 0 -0.00010967048418663971 0.00091468901908814935 0 -0.00040704103469872346 0.00018266367594888636 0 -0.00055243295656068998 0.00066024392967959484 0 -0.00010967048418663971 0.00091468901908814935 0 -0.00090152500249033706 0.0011449649915314937 0 -0.0014294319632578501 0.0016568462872446632 0 -0.00041496976974132515 0.00012268227802211517 0 -0.00089635253217457155 0.00047559908912095232 0 -0.0010649053998434271 0.00015218913781447246 0 -0.0014406457817664892 0.00064262004182943564 0 -0.00055243295656068998 0.00066024392967959484 0 -0.00089635253217457155 0.00047559908912095232 0 -0.00040704103469872346 0.00018266367594888636 0 -0.00055243295656068998 0.00066024392967959484 0 -0.00089635253217457155 0.00047559908912095232 0 -0.00090152500249033706 0.0011449649915314937 0 -0.00089635253217457155 0.00047559908912095232 0 -0.00090152500249033706 0.0011449649915314937 0 -0.0014406457817664892 0.00064262004182943564 0 -0.00090152500249033706 0.0011449649915314937 0 -0.0015593872656424676 0.001336233252498363 0 -0.0014406457817664892 0.00064262004182943564 0 -0.00090152500249033706 0.0011449649915314937 0 -0.0011387759039894244 0.0017057439098570536 0 -0.0015593872656424676 0.001336233252498363 0 -0.00090152500249033706 0.0011449649915314937 0 -0.0011387759039894244 0.0017057439098570536 0 -0.00058792620224228532 0.0018534574968543276 0 -0.00014207018118325541 0.00096117930459979747 0 -0.00090152500249033706 0.0011449649915314937 0 -0.00033273574800687651 0.0014408406024429316 0 0.00011504770370014817 0.0016266207899338209 0 -0.00014207018118325541 0.00096117930459979747 0 -0.00033273574800687651 0.0014408406024429316 0 -0.0020300091280922024 0.002095467371015848 0 -0.0014294319632578501 0.0016568462872446632 0 -0.00090152500249033706 0.0011449649915314937 0 -0.00033273574800687651 0.0014408406024429316 0 -0.00058792620224228532 0.0018534574968543276 0 -0.00033273574800687651 0.0014408406024429316 0 -0.00017387601369457057 0.0020734659831340824 0 -0.00058792620224228532 0.0018534574968543276 0 0.00011504770370014817 0.0016266207899338209 0 -0.00033273574800687651 0.0014408406024429316 0 -0.00017387601369457057 0.0020734659831340824 0 -0.006206792796535656 0.0043596323446587672 0 -0.0064067739765912568 0.0043416917349956103 0 -0.0074826621462740312 0.0046769555947382942 0 -0.0034070581115058719 0.003597320926543403 0 -0.0039665705606564718 0.00261776648131642 0 -0.00017387601369457057 0.0020734659831340824 0 -0.00071965124885414039 0.0026556547203351482 0 0.0003577139359828778 0.0023007039526845969 0 -0.00017387601369457057 0.0020734659831340824 0 -0.00058792620224228532 0.0018534574968543276 0 -0.00062476229169575431 0.0022099704062562751 0 -0.00017387601369457057 0.0020734659831340824 0 -0.00062476229169575431 0.0022099704062562751 0 -0.00071965124885414039 0.0026556547203351482 0 -0.0010776806418021981 0.0022317894500498182 0 -0.00071965124885414039 0.0026556547203351482 0 -0.0019857157860582149 0.0030975842890558908 0 -0.0011387759039894244 0.0017057439098570536 0 -0.0010776806418021981 0.0022317894500498182 0 -0.0015915032428921643 0.0019837911286738662 0 -0.00058792620224228532 0.0018534574968543276 0 -0.00062476229169575431 0.0022099704062562751 0 -0.0010776806418021981 0.0022317894500498182 0 -0.0011387759039894244 0.0017057439098570536 0 -0.00058792620224228532 0.0018534574968543276 0 -0.0010776806418021981 0.0022317894500498182 0 -0.00062476229169575431 0.0022099704062562751 0 -0.0010776806418021981 0.0022317894500498182 0 -0.00071965124885414039 0.0026556547203351482 0 -0.006206792796535656 0.0043596323446587672 0 -0.0057220966341738361 0.0035901872491597938 0 -0.0049160981406876645 0.0040200910904445988 0 -0.0034070581115058719 0.003597320926543403 0 -0.0034766799102108319 0.0035384835693256264 0 -0.0057220966341738361 0.0035901872491597938 0 -0.0064067739765912568 0.0043416917349956103 0 -0.006399805776792649 0.0030478307364719334 0 -0.006206792796535656 0.0043596323446587672 0 -0.0057220966341738361 0.0035901872491597938 0 -0.0064067739765912568 0.0043416917349956103 0 -0.0064067739765912568 0.0043416917349956103 0 -0.0070076117266583892 0.003422290924264197 0 -0.0066049489801650891 0.0030687347745859614 0 -0.0064067739765912568 0.0043416917349956103 0 -0.0072859124182816657 0.003784771625339447 0 -0.0074826621462740312 0.0046769555947382942 0 -0.0064067739765912568 0.0043416917349956103 0 -0.0072859124182816657 0.003784771625339447 0 -0.0070076117266583892 0.003422290924264197 0 -0.0064183463824436428 0.0042778452907519223 0 -0.0064982976920040835 0.0030785284311467148 0 -0.0039665705606564718 0.00261776648131642 0 -0.0083634866558482974 0.0025809615897624668 0 -0.0042737807649805342 0.0022593241218352945 0 -0.0044185250031551224 0.0022193966015204934 0 -0.0044439494334202008 0.0020186014626375533 0 -0.0072859124182816657 0.003784771625339447 0 -0.0074826621462740312 0.0046769555947382942 0 -0.0080415429317945413 0.0033207366980168547 0 -0.0039665705606564718 0.00261776648131642 0 -0.0042602803028617495 0.0024715593999822326 0 -0.0042737807649805342 0.0022593241218352945 0 -0.0043439833253826774 0.0022852770753979349 0 -0.0044185250031551224 0.0022193966015204934 0 -0.0042488592934262744 0.0023861861444771952 0 -0.0042010771022369456 0.002245921618874212 0 -0.0043439833253826774 0.0022852770753979349 0 -0.0042488592934262744 0.0023861861444771952 0 -0.0043506238426544389 0.0023715150999487999 0 -0.0043439833253826774 0.0022852770753979349 0 -0.0041118029183131862 0.0024430543266671812 0 -0.0042488592934262744 0.0023861861444771952 0 -0.0042010771022369456 0.002245921618874212 0 0.00011504770370014817 0.0016266207899338209 0 -0.00017387601369457057 0.0020734659831340824 0 0.0003577139359828778 0.0023007039526845969 0 -0.0020300091280922024 0.002095467371015848 0 -0.0039665705606564718 0.00261776648131642 0 -0.0044437299968066524 0.0025049762670713007 0 -0.0043506238426544389 0.0023715150999487999 0 -0.0044185250031551224 0.0022193966015204934 0 -0.0065475923362506711 0.0031800388006985201 0 -0.007454783417454312 0.0022192838300235116 0 -0.010665317222396069 0.0037770414558093587 0 -0.010510373648009446 0.0025787265178684343 0 -0.011307989839445285 0.0032586139712433549 0 -0.0043506238426544389 0.0023715150999487999 0 -0.0043439833253826774 0.0022852770753979349 0 -0.0044185250031551224 0.0022193966015204934 0 -0.010510373648009446 0.0025787265178684343 0 -0.010896023618167633 0.0017394495890581834 0 -0.010356675433014691 0.0013999933569815589 0 -0.007454783417454312 0.0022192838300235116 0 -0.0083634866558482974 0.0025809615897624668 0 -0.010510373648009446 0.0025787265178684343 0 -0.010896023618167633 0.0017394495890581834 0 -0.011532526317081702 0.0024519888997020806 0 -0.011532526317081702 0.0024519888997020806 0 -0.012355186290704838 0.0022992227027725295 0 -0.011550678164465701 0.0013118967807164224 0 -0.010896023618167633 0.0017394495890581834 0 -0.011532526317081702 0.0024519888997020806 0 -0.011550678164465701 0.0013118967807164224 0 -0.012587091218010117 0.0016629485180836309 0 -0.012355186290704838 0.0022992227027725295 0 -0.011550678164465701 0.0013118967807164224 0 -0.012587091218010117 0.0016629485180836309 0 -0.012355186290704838 0.0022992227027725295 0 -0.0130260428294124 0.0021057884869111112 0 -0.011532526317081702 0.0024519888997020806 0 -0.012355186290704838 0.0022992227027725295 0 -0.012466334519282743 0.003385914047713625 0 -0.010510373648009446 0.0025787265178684343 0 -0.011532526317081702 0.0024519888997020806 0 -0.011307989839445285 0.0032586139712433549 0 -0.011532526317081702 0.0024519888997020806 0 -0.011307989839445285 0.0032586139712433549 0 -0.012466334519282743 0.003385914047713625 0 -0.013647179085259913 0.0020142207514729244 0 -0.013927755771955557 0.0021150306707883896 0 -0.014684282559164869 0.0018867369008520448 0 -0.011275164090397354 0.0011105776389668419 0 -0.015069572453177721 0.0014400220644371965 0 -0.015593845831652924 0.0025923310958813487 0 -0.015069572453177721 0.0014400220644371965 0 -0.018821972664203809 0.0040931312201468017 0 -0.019258146150786248 0.003631967062341692 0 -0.019414175193585546 0.0040011692567649667 0 -0.013927755771955557 0.0021150306707883896 0 -0.01356559191851262 0.0026568628842055975 0 -0.014684282559164869 0.0018867369008520448 0 -0.013645878480155407 0.0020199877056318962 0 -0.013927755771955557 0.0021150306707883896 0 -0.01356559191851262 0.0026568628842055975 0 -0.015593845831652924 0.0025923310958813487 0 -0.014448215827979278 0.0022087073746789275 0 -0.012355186290704838 0.0022992227027725295 0 -0.0130260428294124 0.0021057884869111112 0 -0.01356559191851262 0.0026568628842055975 0 -0.012587091218010117 0.0016629485180836309 0 -0.013664286174436775 0.0020257307397657351 0 -0.0130260428294124 0.0021057884869111112 0 -0.015518873850743809 0.0028505836113920987 0 -0.015593845831652924 0.0025923310958813487 0 -0.015593845831652924 0.0025923310958813487 0 -0.01287888457431342 0.0023551034969912601 0 -0.013645878480155407 0.0020199877056318962 0 -0.0130260428294124 0.0021057884869111112 0 -0.01356559191851262 0.0026568628842055975 0 -0.012355186290704838 0.0022992227027725295 0 -0.01356559191851262 0.0026568628842055975 0 -0.012466334519282743 0.003385914047713625 0 -0.0096845648441935654 -0.00023582968494272898 0 -0.0098295443127698369 -0.00044306047312380435 0 -0.0088853402207862558 0.00018909326399121218 0 -0.011275164090397354 0.0011105776389668419 0 -0.011098272454267784 0.0017630526896157857 0 -0.0096845648441935654 -0.00023582968494272898 0 -0.0094054862795553001 0.00033613077181365132 0 -0.0088853402207862558 0.00018909326399121218 0 -0.010468149024779898 5.5823762930896644e-05 0 -0.0098295443127698369 -0.00044306047312380435 0 -0.010761681059455137 -0.00105881084462365 0 -0.0096845648441935654 -0.00023582968494272898 0 -0.010468149024779898 5.5823762930896644e-05 0 -0.0098295443127698369 -0.00044306047312380435 0 -0.010468149024779898 5.5823762930896644e-05 0 -0.0098329959808880416 0.00070626066474874488 0 -0.010507408168008997 0.001084090774827334 0 -0.0096845648441935654 -0.00023582968494272898 0 -0.010468149024779898 5.5823762930896644e-05 0 -0.0098329959808880416 0.00070626066474874488 0 -0.0094054862795553001 0.00033613077181365132 0 -0.0088853402207862558 0.00018909326399121218 0 -0.0089395584682803678 0.0012235419069157535 0 -0.0096583003629397736 -0.00021958208574350468 0 -0.0099661713642332384 0.00082036159982644776 0 -0.0096845648441935654 -0.00023582968494272898 0 -0.0097520549152663519 0.00071759861809145569 0 -0.0094054862795553001 0.00033613077181365132 0 -0.0097520549152663519 0.00071759861809145569 0 -0.0094054862795553001 0.00033613077181365132 0 -0.0089395584682803678 0.0012235419069157535 0 -0.0097520549152663519 0.00071759861809145569 0 -0.0089395584682803678 0.0012235419069157535 0 -0.0098487289493763164 0.0016270125589191221 0 -0.0061383386160251234 0.00081147463824784993 0 -0.0075840645765984848 0.0012429905539328742 0 -0.0099661713642332384 0.00082036159982644776 0 -0.0075840645765984848 0.0012429905539328742 0 -0.0098329959808880416 0.00070626066474874488 0 -0.0099518316295547707 0.0016398270882635555 0 -0.010507408168008997 0.001084090774827334 0 -0.010665317222396069 0.0037770414558093587 0 -0.011307989839445285 0.0032586139712433549 0 -0.011378976431953135 0.0041026715827521812 0 -0.011307989839445285 0.0032586139712433549 0 -0.012466334519282743 0.003385914047713625 0 -0.011378976431953135 0.0041026715827521812 0 -0.0065475923362506711 0.0031800388006985201 0 -0.0073988058640133735 0.0016163575014319983 0 -0.011098272454267784 0.0017630526896157857 0 -0.0073988058640133735 0.0016163575014319983 0 -0.0088853402207862558 0.00018909326399121218 0 -0.0089395584682803678 0.0012235419069157535 0 -0.0079919601626703956 0.00080730612182769316 0 -0.0041264578651209853 0.00075857965026802649 0 -0.0036582588903197469 0.00075773790053645766 0 -0.0039292139723903748 0.00097832704230405238 0 -0.0061383386160251234 0.00081147463824784993 0 -0.0073988058640133735 0.0016163575014319983 0 -0.0033768118741017423 0.00082683582448793815 0 -0.0036582588903197469 0.00075773790053645766 0 -0.0039292139723903748 0.00097832704230405238 0 -0.0041264578651209853 0.00075857965026802649 0 -0.0036582588903197469 0.00075773790053645766 0 -0.0036428383745214779 0.00053923241802049534 0 -0.0033634104185955266 0.00072015697613531235 0 -0.0036582588903197469 0.00075773790053645766 0 -0.0036428383745214779 0.00053923241802049534 0 -0.0027789416867310466 0.0013911738980057879 0 -0.0073988058640133735 0.0016163575014319983 0 -0.0033634104185955266 0.00072015697613531235 0 -0.0033768118741017423 0.00082683582448793815 0 -0.0036582588903197469 0.00075773790053645766 0 -0.00031029842608095733 7.8305286677833344e-05 0 -0.0018564978024984647 0.00052016012756825358 0 0.0012309879094737832 -0.00017087778496841088 0 0.0008467507197345601 -0.00010807009496866226 0 0.00098483648498155318 0.00011977206662784058 0 0.0012309879094737832 -0.00017087778496841088 0 0.00098483648498155318 0.00011977206662784058 0 0.0011641040701352349 0.00023388907881602319 0 0.0008467507197345601 -0.00010807009496866226 0 0.00098483648498155318 0.00011977206662784058 0 0.00026970506669725776 5.6202053510860864e-05 0 0.0017592987093347065 5.2493285303347815e-05 0 -0.0013487080989254977 0.00047944566157144769 0 0.00092278521765095983 0.00022979762774361185 0 0.00098483648498155318 0.00011977206662784058 0 0.0010138291798380313 0.0003047574900407949 0 0.00092278521765095983 0.00022979762774361185 0 0.00098483648498155318 0.00011977206662784058 0 0.00084239622840980152 0.00017376746667287392 0 0.00098483648498155318 0.00011977206662784058 0 0.00073868194908939002 9.350951387805403e-05 0 0.00084239622840980152 0.00017376746667287392 0 0.00092278521765095983 0.00022979762774361185 0 0.00082372254551388118 0.00024056613415909001 0 0.00088876734979155634 0.00031087223384783412 0 0.00098483648498155318 0.00011977206662784058 0 0.0011641040701352349 0.00023388907881602319 0 0.0010138291798380313 0.0003047574900407949 0 -0.010357715725408438 0.0018251442401088685 0 -0.0099518316295547707 0.0016398270882635555 0 -0.010507408168008997 0.001084090774827334 0 -0.0076740126937862212 0.0007547497459458192 0 -0.0045772811664031533 0.0006522938227311333 0 -0.0076740126937862212 0.0007547497459458192 0 -0.0075840645765984848 0.0012429905539328742 0 -0.0069554153838000234 0.0006287168328470451 0 -0.0064295845462912929 0.00039531020276653165 0 -0.00647364485067853 0.00071664218105008397 0 -0.0075840645765984848 0.0012429905539328742 0 -0.0045772811664031533 0.0006522938227311333 0 -0.0034076093457538663 0.0005058295406773195 0 -0.0034962601761948956 0.0011256327435547229 0 -0.0021253585700790425 0.00073699422124885619 0 -0.0051248661857051705 0.00041387823458481892 0 -0.0049217813313368833 0.00045062758184114524 0 -0.0049317334097344753 0.000525941158385252 0 -0.0045772811664031533 0.0006522938227311333 0 -0.0013487080989254977 0.00047944566157144769 0 -0.0046085126746160873 0.00097310637200681191 0 -0.0046229604486515349 0.0010993392257148177 0 -0.0044684808360962273 0.0011268547823896917 0 -0.0045772811664031533 0.0006522938227311333 0 -0.0028738035119863213 0.00031875094005269381 0 -0.0028738035119863213 0.00031875094005269381 0 -0.0013487080989254977 0.00047944566157144769 0 -0.0041264578651209853 0.00075857965026802649 0 -0.0039292139723903748 0.00097832704230405238 0 -0.0044684808360962273 0.0011268547823896917 0 -0.0041264578651209853 0.00075857965026802649 0 -0.0046085126746160873 0.00097310637200681191 0 -0.0044684808360962273 0.0011268547823896917 0 -0.0018564978024984647 0.00052016012756825358 0 -0.0013487080989254977 0.00047944566157144769 0 0.00082372254551388118 0.00024056613415909001 0 0.00074091468383298651 0.00019427216755951701 0 0.00075181172865221551 0.00033481310585345414 0 0.00084239622840980152 0.00017376746667287392 0 0.00082372254551388118 0.00024056613415909001 0 0.00074091468383298651 0.00019427216755951701 0 0.00092278521765095983 0.00022979762774361185 0 0.00084239622840980152 0.00017376746667287392 0 0.00082372254551388118 0.00024056613415909001 0 0.00073868194908939002 9.350951387805403e-05 0 0.00084239622840980152 0.00017376746667287392 0 0.00074091468383298651 0.00019427216755951701 0 0.00074091468383298651 0.00019427216755951701 0 0.00066274210380697486 0.0002625177885848144 0 0.00075181172865221551 0.00033481310585345414 0 -0.0028738035119863213 0.00031875094005269381 0 -0.00051161759084955918 0.00048271228703980029 0 -0.0016692617196906769 0.00013768957591698668 0 -0.0017654030908367544 0.00088370029033503484 0 -0.0027242615172336738 0.00043810461497512538 0 0.00067074814934242339 0.00011080422221226578 0 0.00074091468383298651 0.00019427216755951701 0 0.00066274210380697486 0.0002625177885848144 0 0.00067074814934242339 0.00011080422221226578 0 0.00073868194908939002 9.350951387805403e-05 0 0.00074091468383298651 0.00019427216755951701 0 0.00066274210380697486 0.0002625177885848144 0 0.00075181172865221551 0.00033481310585345414 0 0.00065169978252552772 0.00041841015833161082 0 -0.00051161759084955918 0.00048271228703980029 0 -0.00051865367757311979 0.0010616974547800074 0 0.00075181172865221551 0.00033481310585345414 0 0.00071382283253942978 0.00043160753017030032 0 0.00065169978252552772 0.00041841015833161082 0 0.00075181172865221551 0.00033481310585345414 0 0.00084229901904473586 0.00042381492049423883 0 0.00071382283253942978 0.00043160753017030032 0 0.00082372254551388118 0.00024056613415909001 0 0.00075181172865221551 0.00033481310585345414 0 0.00088876734979155634 0.00031087223384783412 0 0.00075181172865221551 0.00033481310585345414 0 0.00084229901904473586 0.00042381492049423883 0 0.00088876734979155634 0.00031087223384783412 0 0.00084229901904473586 0.00042381492049423883 0 0.00081009009021404334 0.00055264907190169705 0 0.00093165522394405176 0.0005285538984645074 0 0.00084229901904473586 0.00042381492049423883 0 0.00081009009021404334 0.00055264907190169705 0 0.00071382283253942978 0.00043160753017030032 0 0.00071382283253942978 0.00043160753017030032 0 0.00065323049652605463 0.00040193917065885508 0 0.00067070075510511828 0.00055282189803181796 0 0.00034217273454822944 0.00096897636536900466 0 -0.00051865367757311979 0.0010616974547800074 0 0.00081009009021404334 0.00055264907190169705 0 0.00071382283253942978 0.00043160753017030032 0 0.00067070075510511828 0.00055282189803181796 0 0.00065323049652605463 0.00040193917065885508 0 0.00051122534528967947 0.00050771713791069348 0 0.00067070075510511828 0.00055282189803181796 0 0.0010138291798380313 0.0003047574900407949 0 0.00096641010867313756 0.00041281164917917392 0 0.0011549974497614534 0.00049898743653067586 0 0.0011641040701352349 0.00023388907881602319 0 0.0010138291798380313 0.0003047574900407949 0 0.0011549974497614534 0.00049898743653067586 0 0.0027461247953343665 -0.0003771473772345216 0 0.0022533149613530442 0.00017744380158577278 0 0.00092278521765095983 0.00022979762774361185 0 0.0010138291798380313 0.0003047574900407949 0 0.00088876734979155634 0.00031087223384783412 0 0.00084229901904473586 0.00042381492049423883 0 0.00088876734979155634 0.00031087223384783412 0 0.00096641010867313756 0.00041281164917917392 0 0.0010138291798380313 0.0003047574900407949 0 0.00088876734979155634 0.00031087223384783412 0 0.00096641010867313756 0.00041281164917917392 0 0.00096641010867313756 0.00041281164917917392 0 0.00093165522394405176 0.0005285538984645074 0 0.0011549974497614534 0.00049898743653067586 0 0.00084229901904473586 0.00042381492049423883 0 0.00096641010867313756 0.00041281164917917392 0 0.00093165522394405176 0.0005285538984645074 0 0.0034774769844789295 -0.00024322769951613381 0 0.003927482862062107 -0.00023973610310573884 0 0.0038234787643256492 -0.00051770563384426357 0 0.0035126729804683008 -0.0006125673220849677 0 0.0034774769844789295 -0.00024322769951613381 0 0.0038234787643256492 -0.00051770563384426357 0 0.0035126729804683008 -0.0006125673220849677 0 0.0038234787643256492 -0.00051770563384426357 0 0.0037248049293108977 -0.00075203176897978752 0 0.0038234787643256492 -0.00051770563384426357 0 0.0037248049293108977 -0.00075203176897978752 0 0.0039728736968026373 -0.00077111833235458851 0 0.0037248049293108977 -0.00075203176897978752 0 0.0037873145403120186 -0.0008851757447046174 0 0.0039728736968026373 -0.00077111833235458851 0 0.0021713903737020624 -0.00015645258286190949 0 0.0018119161129767217 0.00010916633599918513 0 0.0002369094994517195 0.00019497464574926842 0 -0.00012945124702784199 0.00025035287304246337 0 -0.00019551044832903438 -0.0001312929733076191 0 0.003526023575930634 -0.00097573587725216884 0 0.0037248049293108977 -0.00075203176897978752 0 0.0037873145403120186 -0.0008851757447046174 0 -0.00031029842608095733 7.8305286677833344e-05 0 0.0027461247953343665 -0.0003771473772345216 0 -0.00091606148584749171 0.0010060006112185085 0 0.0021713903737020624 -0.00015645258286190949 0 0.003526023575930634 -0.00097573587725216884 0 0.0035126729804683008 -0.0006125673220849677 0 0.0037248049293108977 -0.00075203176897978752 0 -0.00076242302932877381 -4.397318337407815e-05 0 -0.00040704103469872346 0.00018266367594888636 0 -0.00063330918172853725 -0.00038478979637958057 0 -0.00076242302932877381 -4.397318337407815e-05 0 -0.0010750336755089753 -0.00019758716681458221 0 -0.0010649053998434271 0.00015218913781447246 0 -0.00076242302932877381 -4.397318337407815e-05 0 -0.0010750336755089753 -0.00019758716681458221 0 -0.00084188828041352037 -0.000344342967692086 0 -0.00089635253217457155 0.00047559908912095232 0 -0.00076242302932877381 -4.397318337407815e-05 0 -0.0010649053998434271 0.00015218913781447246 0 -0.00089635253217457155 0.00047559908912095232 0 -0.00076242302932877381 -4.397318337407815e-05 0 -0.00040704103469872346 0.00018266367594888636 0 -0.000421245796489001 0.00019426089904454855 0 -0.00019551044832903438 -0.0001312929733076191 0 -0.00063330918172853725 -0.00038478979637958057 0 -0.00041496976974132515 0.00012268227802211517 0 -0.0006039698908462571 -0.0003041292140170777 0 -0.000421245796489001 0.00019426089904454855 0 -0.00012945124702784199 0.00025035287304246337 0 -0.00019551044832903438 -0.0001312929733076191 0 0.0021514866467499502 0.0010465783030246477 0 0.00080145915449792663 0.00011050265079410604 0 0.0013597404579307937 -0.001215136859371556 0 -0.00019551044832903438 -0.0001312929733076191 0 -0.00076026553326916048 -0.00052953472549919665 0 -0.00063330918172853725 -0.00038478979637958057 0 0.0018119161129767217 0.00010916633599918513 0 -9.1730474399556169e-05 -0.00026204946456340504 0 0.0018119161129767217 0.00010916633599918513 0 0.0029468060993564425 -0.00077947540399287947 0 0.0038234787643256492 -0.00051770563384426357 0 0.0039728736968026373 -0.00077111833235458851 0 0.0041389676442474474 -0.0004241275849322122 0 -0.00076026553326916048 -0.00052953472549919665 0 -0.000760824817413131 -0.00093508492783619143 0 -0.000954865203077382 -0.00049657530401261995 0 -0.00076242302932877381 -4.397318337407815e-05 0 -0.00063330918172853725 -0.00038478979637958057 0 -0.00084188828041352037 -0.000344342967692086 0 -0.00076026553326916048 -0.00052953472549919665 0 -0.00063330918172853725 -0.00038478979637958057 0 -0.00084188828041352037 -0.000344342967692086 0 -0.0010750336755089753 -0.00019758716681458221 0 -0.00084188828041352037 -0.000344342967692086 0 -0.000954865203077382 -0.00049657530401261995 0 -0.00076026553326916048 -0.00052953472549919665 0 -0.00084188828041352037 -0.000344342967692086 0 -0.000954865203077382 -0.00049657530401261995 0 0.00080145915449792663 0.00011050265079410604 0 0.00042499157213834207 -0.0010074559842577955 0 -0.000760824817413131 -0.00093508492783619143 0 0.00042499157213834207 -0.0010074559842577955 0 0.0013597404579307937 -0.001215136859371556 0 0.0002431430841217772 -0.001840593684479297 0 -9.1730474399556169e-05 -0.00026204946456340504 0 -0.00069902280389508124 -0.00084860868045235857 0 0.00080145915449792663 0.00011050265079410604 0 0.00042499157213834207 -0.0010074559842577955 0 0.0013597404579307937 -0.001215136859371556 0 0.003927482862062107 -0.00023973610310573884 0 0.0038234787643256492 -0.00051770563384426357 0 0.0041389676442474474 -0.0004241275849322122 0 0.003927482862062107 -0.00023973610310573884 0 0.0041389676442474474 -0.0004241275849322122 0 0.0043125150145529008 -5.3397721996380281e-05 0 0.0002431430841217772 -0.001840593684479297 0 0.00029690216524693103 -0.0026192609928439264 0 0.00081859445371636403 -0.003142781829765877 0 0.0029468060993564425 -0.00077947540399287947 0 0.0025460039226904117 -0.0016045716319532768 0 0.0013597404579307937 -0.001215136859371556 0 0.0002431430841217772 -0.001840593684479297 0 0.00081859445371636403 -0.003142781829765877 0 0.0002431430841217772 -0.001840593684479297 0 -0.00084549823013181137 -0.0019250146795715022 0 0.00029690216524693103 -0.0026192609928439264 0 0.0002431430841217772 -0.001840593684479297 0 -0.00084549823013181137 -0.0019250146795715022 0 -0.000760824817413131 -0.00093508492783619143 0 -0.00084549823013181137 -0.0019250146795715022 0 -0.000760824817413131 -0.00093508492783619143 0 -0.0018216205415968365 -0.00067393929065504791 0 0.00042499157213834207 -0.0010074559842577955 0 0.0002431430841217772 -0.001840593684479297 0 -0.000760824817413131 -0.00093508492783619143 0 -0.00098851039098946385 -0.001879743378305782 0 -0.0021040064506140689 -0.00039727241209342476 0 -0.00084549823013181137 -0.0019250146795715022 0 -0.0033281782239654402 -0.00099576769119277472 0 -0.0024472005067054225 -2.3319193146185597e-05 0 -0.00084549823013181137 -0.0019250146795715022 0 -0.0033281782239654402 -0.00099576769119277472 0 -0.0027278172012291727 -0.0029755938443017998 0 -0.004846484358403862 -0.0019634786200302167 0 -0.0033281782239654402 -0.00099576769119277472 0 -0.0027278172012291727 -0.0029755938443017998 0 -0.004846484358403862 -0.0019634786200302167 0 -0.0046583271833128461 -0.00015527375172819338 0 -0.0033281782239654402 -0.00099576769119277472 0 -0.0033281782239654402 -0.00099576769119277472 0 -0.0037920517153975306 0.00035785125658900223 0 -0.0024472005067054225 -2.3319193146185597e-05 0 -0.0046583271833128461 -0.00015527375172819338 0 -0.0033281782239654402 -0.00099576769119277472 0 -0.0037920517153975306 0.00035785125658900223 0 -0.0037920517153975306 0.00035785125658900223 0 -0.0037525299254396599 0.0010830063227935873 0 -0.0024472005067054225 -2.3319193146185597e-05 0 -0.0046583271833128461 -0.00015527375172819338 0 -0.0045423549990807957 0.00065290642070029727 0 -0.0054677273240009393 0.00064331609956621064 0 -0.0046583271833128461 -0.00015527375172819338 0 -0.0037920517153975306 0.00035785125658900223 0 -0.0045423549990807957 0.00065290642070029727 0 -0.0045423549990807957 0.00065290642070029727 0 -0.0054677273240009393 0.00064331609956621064 0 -0.005072356916578361 0.0011698050114252721 0 -0.0037920517153975306 0.00035785125658900223 0 -0.0045423549990807957 0.00065290642070029727 0 -0.0037525299254396599 0.0010830063227935873 0 -0.0045423549990807957 0.00065290642070029727 0 -0.0037525299254396599 0.0010830063227935873 0 -0.005072356916578361 0.0011698050114252721 0 -0.002717867403488645 0.00018064006361251579 0 -0.0015543449562182611 -0.0002621036166993303 0 -0.0020547023610025662 0.00045179063781521604 0 -0.0014517861571049853 0.00011816184838862996 0 -0.0015543449562182611 -0.0002621036166993303 0 -0.0020547023610025662 0.00045179063781521604 0 -0.0010649053998434271 0.00015218913781447246 0 -0.0014517861571049853 0.00011816184838862996 0 -0.0014406457817664892 0.00064262004182943564 0 -0.0010750336755089753 -0.00019758716681458221 0 -0.0010649053998434271 0.00015218913781447246 0 -0.0014517861571049853 0.00011816184838862996 0 -0.0010750336755089753 -0.00019758716681458221 0 -0.0014517861571049853 0.00011816184838862996 0 -0.0015543449562182611 -0.0002621036166993303 0 -0.000760824817413131 -0.00093508492783619143 0 -0.0015543449562182611 -0.0002621036166993303 0 -0.0018216205415968365 -0.00067393929065504791 0 -0.000760824817413131 -0.00093508492783619143 0 -0.0015543449562182611 -0.0002621036166993303 0 -0.000954865203077382 -0.00049657530401261995 0 -0.0010750336755089753 -0.00019758716681458221 0 -0.0015543449562182611 -0.0002621036166993303 0 -0.000954865203077382 -0.00049657530401261995 0 -0.002717867403488645 0.00018064006361251579 0 -0.0015543449562182611 -0.0002621036166993303 0 -0.0018216205415968365 -0.00067393929065504791 0 -0.0032272862152220969 0.00063315016380213805 0 -0.0021040064506140689 -0.00039727241209342476 0 -0.00011531530412662692 -0.00053219376832158943 0 0.000962719670760406 -0.0012602349259082735 0 0.00065986284883225318 -0.0018619771075736103 0 0.000962719670760406 -0.0012602349259082735 0 0.00065986284883225318 -0.0018619771075736103 0 0.0010453568822995278 -0.0021212690392566958 0 -0.0029953998706903685 -0.0007137604234148194 0 -0.0022579570997069498 -0.0014019371814385014 0 0.000962719670760406 -0.0012602349259082735 0 0.0016063433557818722 -0.0017541105792053457 0 0.0010453568822995278 -0.0021212690392566958 0 -0.0069868636216518605 -0.00017992834189159955 0 -0.0061509392630116474 -0.0010394546178738807 0 -0.0063999477266214735 0.00012679530309192048 0 -0.0061509392630116474 -0.0010394546178738807 0 -0.0056451446258222546 -0.00037589895377992987 0 -0.0063999477266214735 0.00012679530309192048 0 -0.004846484358403862 -0.0019634786200302167 0 -0.0061509392630116474 -0.0010394546178738807 0 -0.0056451446258222546 -0.00037589895377992987 0 -0.001349450493619014 -0.0021558452734041964 0 -0.0022579570997069498 -0.0014019371814385014 0 -0.004846484358403862 -0.0019634786200302167 0 -0.0046583271833128461 -0.00015527375172819338 0 -0.0056451446258222546 -0.00037589895377992987 0 -0.0046583271833128461 -0.00015527375172819338 0 -0.0056451446258222546 -0.00037589895377992987 0 -0.0054677273240009393 0.00064331609956621064 0 -0.0054677273240009393 0.00064331609956621064 0 -0.0058101865232664017 0.0012886838037747131 0 -0.005072356916578361 0.0011698050114252721 0 -0.0054677273240009393 0.00064331609956621064 0 -0.0064500494388922648 0.000925650091144138 0 -0.0058101865232664017 0.0012886838037747131 0 -0.0054677273240009393 0.00064331609956621064 0 -0.0064500494388922648 0.000925650091144138 0 -0.0063999477266214735 0.00012679530309192048 0 -0.0056451446258222546 -0.00037589895377992987 0 -0.0054677273240009393 0.00064331609956621064 0 -0.0063999477266214735 0.00012679530309192048 0 -0.0064500494388922648 0.000925650091144138 0 -0.0063999477266214735 0.00012679530309192048 0 -0.006948207112210586 0.00060285396639092408 0 -0.0069868636216518605 -0.00017992834189159955 0 -0.0063999477266214735 0.00012679530309192048 0 -0.006948207112210586 0.00060285396639092408 0 -0.0064500494388922648 0.000925650091144138 0 -0.006948207112210586 0.00060285396639092408 0 -0.0069701636970524649 0.0011457869563002673 0 -0.007263302535144579 0.00092268617059439596 0 -0.006948207112210586 0.00060285396639092408 0 -0.0069701636970524649 0.0011457869563002673 0 -0.007263302535144579 0.00092268617059439596 0 -0.0072312838662887229 0.00059362910078733652 0 -0.006948207112210586 0.00060285396639092408 0 -0.0072312838662887229 0.00059362910078733652 0 -0.0069868636216518605 -0.00017992834189159955 0 -0.006948207112210586 0.00060285396639092408 0 -0.0074068638702926518 0.0015484337332194668 0 -0.0069701636970524649 0.0011457869563002673 0 -0.0071480768551813109 0.0018062648002389187 0 -0.007647301902257873 0.002080045619635029 0 -0.0074068638702926518 0.0015484337332194668 0 -0.0071480768551813109 0.0018062648002389187 0 -0.007263302535144579 0.00092268617059439596 0 -0.0074068638702926518 0.0015484337332194668 0 -0.0069701636970524649 0.0011457869563002673 0 -0.0064500494388922648 0.000925650091144138 0 -0.0069701636970524649 0.0011457869563002673 0 -0.0066270791544471037 0.0014959884346056234 0 -0.0069701636970524649 0.0011457869563002673 0 -0.0071480768551813109 0.0018062648002389187 0 -0.0066270791544471037 0.0014959884346056234 0 -0.0071480768551813109 0.0018062648002389187 0 -0.0066270791544471037 0.0014959884346056234 0 -0.0066307349480150424 0.0019421419545179006 0 -0.0066270791544471037 0.0014959884346056234 0 -0.0058101865232664017 0.0012886838037747131 0 -0.0059727602393547406 0.0017858641248102696 0 -0.0066270791544471037 0.0014959884346056234 0 -0.0059727602393547406 0.0017858641248102696 0 -0.0066307349480150424 0.0019421419545179006 0 -0.0064500494388922648 0.000925650091144138 0 -0.0066270791544471037 0.0014959884346056234 0 -0.0058101865232664017 0.0012886838037747131 0 -0.0058101865232664017 0.0012886838037747131 0 -0.0059727602393547406 0.0017858641248102696 0 -0.0051467379897980788 0.001604799006849917 0 -0.0059727602393547406 0.0017858641248102696 0 -0.0062172317366393183 0.0023373689106629477 0 -0.0054634800929892558 0.0019869012402117035 0 -0.0059727602393547406 0.0017858641248102696 0 -0.0062172317366393183 0.0023373689106629477 0 -0.0066307349480150424 0.0019421419545179006 0 -0.0062172317366393183 0.0023373689106629477 0 -0.0069614894477141699 0.0024423216965019892 0 -0.0072434243133448154 0.0029349588358519867 0 -0.0069614894477141699 0.0024423216965019892 0 -0.0075165653550422745 0.0026648929543588809 0 -0.0072434243133448154 0.0029349588358519867 0 -0.0069614894477141699 0.0024423216965019892 0 -0.0066307349480150424 0.0019421419545179006 0 -0.0071113973671279715 0.0022007676636776425 0 -0.0062172317366393183 0.0023373689106629477 0 -0.0069614894477141699 0.0024423216965019892 0 -0.0066307349480150424 0.0019421419545179006 0 -0.0071480768551813109 0.0018062648002389187 0 -0.0066307349480150424 0.0019421419545179006 0 -0.0071113973671279715 0.0022007676636776425 0 -0.0071480768551813109 0.0018062648002389187 0 -0.0071113973671279715 0.0022007676636776425 0 -0.0075009673768358081 0.0022912236879205593 0 -0.0069614894477141699 0.0024423216965019892 0 -0.0071113973671279715 0.0022007676636776425 0 -0.0075165653550422745 0.0026648929543588809 0 -0.0071113973671279715 0.0022007676636776425 0 -0.0075165653550422745 0.0026648929543588809 0 -0.0075009673768358081 0.0022912236879205593 0 -0.0079198059759356416 0.0024354464899749555 0 -0.0077917431699418898 0.0026162229726708775 0 -0.0077260500249657152 0.002358085008439367 0 -0.0075165653550422745 0.0026648929543588809 0 -0.0075009673768358081 0.0022912236879205593 0 -0.0077917431699418898 0.0026162229726708775 0 -0.0075009673768358081 0.0022912236879205593 0 -0.0077917431699418898 0.0026162229726708775 0 -0.0077260500249657152 0.002358085008439367 0 -0.007647301902257873 0.002080045619635029 0 -0.0075009673768358081 0.0022912236879205593 0 -0.0077260500249657152 0.002358085008439367 0 -0.007647301902257873 0.002080045619635029 0 -0.0071480768551813109 0.0018062648002389187 0 -0.0075009673768358081 0.0022912236879205593 0 -0.002789876319028706 0.0011069041190814209 0 -0.0035299690275998712 0.0018985510790697244 0 -0.0024082073521438101 0.0018668586116033468 0 -0.002789876319028706 0.0011069041190814209 0 -0.0021419374956482902 0.0010832403565374917 0 -0.0024082073521438101 0.0018668586116033468 0 -0.0015593872656424676 0.001336233252498363 0 -0.0021419374956482902 0.0010832403565374917 0 -0.0024082073521438101 0.0018668586116033468 0 -0.0015593872656424676 0.001336233252498363 0 -0.0024082073521438101 0.0018668586116033468 0 -0.0015915032428921643 0.0019837911286738662 0 -0.0011387759039894244 0.0017057439098570536 0 -0.0015593872656424676 0.001336233252498363 0 -0.0015915032428921643 0.0019837911286738662 0 -0.0021419374956482902 0.0010832403565374917 0 -0.0014406457817664892 0.00064262004182943564 0 -0.0020547023610025662 0.00045179063781521604 0 -0.0015593872656424676 0.001336233252498363 0 -0.0021419374956482902 0.0010832403565374917 0 -0.0014406457817664892 0.00064262004182943564 0 -0.0014517861571049853 0.00011816184838862996 0 -0.0014406457817664892 0.00064262004182943564 0 -0.0020547023610025662 0.00045179063781521604 0 -0.002717867403488645 0.00018064006361251579 0 -0.002789876319028706 0.0011069041190814209 0 -0.0020547023610025662 0.00045179063781521604 0 -0.002789876319028706 0.0011069041190814209 0 -0.0021419374956482902 0.0010832403565374917 0 -0.0020547023610025662 0.00045179063781521604 0 -0.002717867403488645 0.00018064006361251579 0 -0.002789876319028706 0.0011069041190814209 0 -0.0037065526335438859 0.0013223703882990049 0 -0.0037525299254396599 0.0010830063227935873 0 -0.0051467379897980788 0.001604799006849917 0 -0.004657273632392424 0.0017765669758801335 0 -0.0032272862152220969 0.00063315016380213805 0 -0.0041740553723066832 0.0015456822921884996 0 -0.0037525299254396599 0.0010830063227935873 0 -0.005072356916578361 0.0011698050114252721 0 -0.0051467379897980788 0.001604799006849917 0 -0.0058101865232664017 0.0012886838037747131 0 -0.005072356916578361 0.0011698050114252721 0 -0.0051467379897980788 0.001604799006849917 0 -0.0059727602393547406 0.0017858641248102696 0 -0.0051467379897980788 0.001604799006849917 0 -0.0054634800929892558 0.0019869012402117035 0 -0.0051467379897980788 0.001604799006849917 0 -0.004657273632392424 0.0017765669758801335 0 -0.0054634800929892558 0.0019869012402117035 0 -0.002789876319028706 0.0011069041190814209 0 -0.0037065526335438859 0.0013223703882990049 0 -0.0035299690275998712 0.0018985510790697244 0 -0.0037065526335438859 0.0013223703882990049 0 -0.0035299690275998712 0.0018985510790697244 0 -0.0046863158927337618 0.0022901829688390394 0 -0.0041740553723066832 0.0015456822921884996 0 -0.0050237776383089744 0.0023787226421941136 0 -0.004657273632392424 0.0017765669758801335 0 -0.0054634800929892558 0.0019869012402117035 0 -0.0053283556881629683 0.0024117209100657545 0 -0.0062172317366393183 0.0023373689106629477 0 -0.0054634800929892558 0.0019869012402117035 0 -0.0053283556881629683 0.0024117209100657545 0 -0.0046863158927337618 0.0022901829688390394 0 -0.0042710951647647894 0.0027822262814489046 0 -0.0057891084699184438 0.0031827386076295292 0 -0.0062172317366393183 0.0023373689106629477 0 -0.0053283556881629683 0.0024117209100657545 0 -0.0057891084699184438 0.0031827386076295292 0 -0.0050237776383089744 0.0023787226421941136 0 -0.0057055611802207485 0.0031841310798699594 0 -0.0035299690275998712 0.0018985510790697244 0 -0.0036152172953846642 0.0035136428098770734 0 -0.0036739515822128994 0.0036194654595140445 0 -0.0035813097697696122 0.001952606595056743 0 -0.0040119779789709823 0.0031124153747905761 0 -0.0035299690275998712 0.0018985510790697244 0 -0.0046863158927337618 0.0022901829688390394 0 -0.0042710951647647894 0.0027822262814489046 0 -0.0036152172953846642 0.0035136428098770734 0 -0.0049160981406876645 0.0040200910904445988 0 -0.0045043840590596931 0.0031426853824061628 0 -0.0036019038764640984 0.0035332418274171451 0 -0.0034766799102108319 0.0035384835693256264 0 -0.0035299690275998712 0.0018985510790697244 0 -0.0036152172953846642 0.0035136428098770734 0 -0.0029259119390707264 0.0027130310024959269 0 -0.0036152172953846642 0.0035136428098770734 0 -0.0029259119390707264 0.0027130310024959269 0 -0.0019857157860582149 0.0030975842890558908 0 -0.0029259119390707264 0.0027130310024959269 0 -0.0024082073521438101 0.0018668586116033468 0 -0.0019857157860582149 0.0030975842890558908 0 -0.0035299690275998712 0.0018985510790697244 0 -0.0029259119390707264 0.0027130310024959269 0 -0.0024082073521438101 0.0018668586116033468 0 -0.0010776806418021981 0.0022317894500498182 0 -0.0015915032428921643 0.0019837911286738662 0 -0.0019857157860582149 0.0030975842890558908 0 -0.0024082073521438101 0.0018668586116033468 0 -0.0015915032428921643 0.0019837911286738662 0 -0.0019857157860582149 0.0030975842890558908 0 -0.0057220966341738361 0.0035901872491597938 0 -0.0049160981406876645 0.0040200910904445988 0 -0.0045043840590596931 0.0031426853824061628 0 -0.0057220966341738361 0.0035901872491597938 0 -0.0052782580244609681 0.0024311390218457202 0 -0.0045043840590596931 0.0031426853824061628 0 -0.0052782580244609681 0.0024311390218457202 0 -0.0045843904876812155 0.0021465654624895645 0 -0.0045043840590596931 0.0031426853824061628 0 -0.0052782580244609681 0.0024311390218457202 0 -0.0045843904876812155 0.0021465654624895645 0 -0.0050990046455640396 0.0017343155195073496 0 -0.0045843904876812155 0.0021465654624895645 0 -0.0045043840590596931 0.0031426853824061628 0 -0.0036732568274667494 0.0021829703112291854 0 -0.0045043840590596931 0.0031426853824061628 0 -0.0036739515822128994 0.0036194654595140445 0 -0.0036732568274667494 0.0021829703112291854 0 -0.0036152172953846642 0.0035136428098770734 0 -0.0045043840590596931 0.0031426853824061628 0 -0.0036739515822128994 0.0036194654595140445 0 -0.0040119779789709823 0.0031124153747905761 0 -0.0035775624278917241 0.003302372667530903 0 -0.0057891084699184438 0.0031827386076295292 0 -0.0045276115591388714 0.0041848384318644615 0 -0.0062234715042115106 0.0051168706693029671 0 -0.0042710951647647894 0.0027822262814489046 0 -0.0057891084699184438 0.0031827386076295292 0 -0.0045276115591388714 0.0041848384318644615 0 -0.0035775624278917241 0.003302372667530903 0 -0.0080685643285814002 0.0028105222761538066 0 -0.0045276115591388714 0.0041848384318644615 0 -0.0046839178282830993 0.0058615026853389568 0 -0.0062234715042115106 0.0051168706693029671 0 -0.012557191312822021 0.0029293467533074405 0 -0.011031315502926483 0.0036014421493841195 0 -0.01183976511845081 0.0023111467062916966 0 -0.0080685643285814002 0.0028105222761538066 0 -0.0086741137012781855 0.0045300013790582922 0 -0.003678299244395731 0.00081739358240540735 0 -0.0044903832887862325 0.0013153549965655392 0 -0.0046411063147982776 0.00032437848342675761 0 -0.0080685643285814002 0.0028105222761538066 0 -0.0078564845993006512 0.00095291844527699602 0 -0.0053290996215585489 0.0011322864587394084 0 -0.0044903832887862325 0.0013153549965655392 0 -0.0046411063147982776 0.00032437848342675761 0 -0.0053290996215585489 0.0011322864587394084 0 -0.0046411063147982776 0.00032437848342675761 0 -0.0057689582624635104 0.00058190024777098049 0 -0.0045843904876812155 0.0021465654624895645 0 -0.0050990046455640396 0.0017343155195073496 0 -0.0044903832887862325 0.0013153549965655392 0 -0.0053290996215585489 0.0011322864587394084 0 -0.0050990046455640396 0.0017343155195073496 0 -0.0044903832887862325 0.0013153549965655392 0 -0.0053290996215585489 0.0011322864587394084 0 -0.0050990046455640396 0.0017343155195073496 0 -0.0057689999816176946 0.001740952064621126 0 -0.0052782580244609681 0.0024311390218457202 0 -0.0050990046455640396 0.0017343155195073496 0 -0.0057689999816176946 0.001740952064621126 0 -0.0045843904876812155 0.0021465654624895645 0 -0.0036732568274667494 0.0021829703112291854 0 -0.0044903832887862325 0.0013153549965655392 0 -0.0036732568274667494 0.0021829703112291854 0 -0.003678299244395731 0.00081739358240540735 0 -0.0044903832887862325 0.0013153549965655392 0 -0.0082396420898295745 0.0032236552212973773 0 -0.0080574133506882192 0.0032903807684636203 0 -0.0085408356380967838 0.0033904217025338369 0 -0.0082396420898295745 0.0032236552212973773 0 -0.008081331207850732 0.003029152468092558 0 -0.0080574133506882192 0.0032903807684636203 0 -0.0082036073542349295 0.0029284143440297585 0 -0.0082396420898295745 0.0032236552212973773 0 -0.008081331207850732 0.003029152468092558 0 -0.0080353598290216783 0.0027426461487819469 0 -0.008081331207850732 0.003029152468092558 0 -0.0079048389382762162 0.0028979616236302994 0 -0.0080353598290216783 0.0027426461487819469 0 -0.0077917431699418898 0.0026162229726708775 0 -0.0079048389382762162 0.0028979616236302994 0 -0.0075165653550422745 0.0026648929543588809 0 -0.0077917431699418898 0.0026162229726708775 0 -0.0079048389382762162 0.0028979616236302994 0 -0.008081331207850732 0.003029152468092558 0 -0.0079048389382762162 0.0028979616236302994 0 -0.0080574133506882192 0.0032903807684636203 0 -0.0075165653550422745 0.0026648929543588809 0 -0.0079048389382762162 0.0028979616236302994 0 -0.0080574133506882192 0.0032903807684636203 0 -0.0075165653550422745 0.0026648929543588809 0 -0.0080574133506882192 0.0032903807684636203 0 -0.0072434243133448154 0.0029349588358519867 0 -0.0080574133506882192 0.0032903807684636203 0 -0.0083367719501855741 0.0039171939271490219 0 -0.0085408356380967838 0.0033904217025338369 0 -0.0057891084699184438 0.0031827386076295292 0 -0.0062234715042115106 0.0051168706693029671 0 -0.0083367719501855741 0.0039171939271490219 0 -0.0080574133506882192 0.0032903807684636203 0 -0.0072434243133448154 0.0029349588358519867 0 -0.0083367719501855741 0.0039171939271490219 0 -0.0062172317366393183 0.0023373689106629477 0 -0.0057891084699184438 0.0031827386076295292 0 -0.0072434243133448154 0.0029349588358519867 0 -0.0057891084699184438 0.0031827386076295292 0 -0.0072434243133448154 0.0029349588358519867 0 -0.0083367719501855741 0.0039171939271490219 0 -0.0086741137012781855 0.0045300013790582922 0 -0.0084155138208800492 0.0039200124834657896 0 -0.011031315502926483 0.0036014421493841195 0 -0.0095527271940385253 0.0031824495027160467 0 -0.0083367719501855741 0.0039171939271490219 0 -0.011031315502926483 0.0036014421493841195 0 -0.0095527271940385253 0.0031824495027160467 0 -0.010587985688291508 0.0022946179024892228 0 -0.011031315502926483 0.0036014421493841195 0 -0.010587985688291508 0.0022946179024892228 0 -0.01183976511845081 0.0023111467062916966 0 -0.0095527271940385253 0.0031824495027160467 0 -0.009401993572302373 0.0026817909171999691 0 -0.010587985688291508 0.0022946179024892228 0 -0.0095527271940385253 0.0031824495027160467 0 -0.0083367719501855741 0.0039171939271490219 0 -0.0085408356380967838 0.0033904217025338369 0 -0.0095527271940385253 0.0031824495027160467 0 -0.0085408356380967838 0.0033904217025338369 0 -0.009401993572302373 0.0026817909171999691 0 -0.0085215346960387985 0.0025590472345043227 0 -0.0082760524339491187 0.0032565237963027563 0 -0.0085408356380967838 0.0033904217025338369 0 -0.0085215346960387985 0.0025590472345043227 0 -0.0085408356380967838 0.0033904217025338369 0 -0.009401993572302373 0.0026817909171999691 0 -0.0082760524339491187 0.0032565237963027563 0 -0.0082396420898295745 0.0032236552212973773 0 -0.0085408356380967838 0.0033904217025338369 0 -0.0088606271522623115 0.0014872587908870624 0 -0.0085215346960387985 0.0025590472345043227 0 -0.0094414138602389609 0.002024020806277125 0 -0.0085215346960387985 0.0025590472345043227 0 -0.0094414138602389609 0.002024020806277125 0 -0.009401993572302373 0.0026817909171999691 0 -0.0094414138602389609 0.002024020806277125 0 -0.009401993572302373 0.0026817909171999691 0 -0.010306656388515922 0.0017936366163884487 0 -0.0094414138602389609 0.002024020806277125 0 -0.010306656388515922 0.0017936366163884487 0 -0.010399600405327175 0.0012462739667420716 0 -0.010306656388515922 0.0017936366163884487 0 -0.010587985688291508 0.0022946179024892228 0 -0.011156023228685093 0.001458792047579209 0 -0.010306656388515922 0.0017936366163884487 0 -0.011156023228685093 0.001458792047579209 0 -0.011043325133377723 0.0010807633184959065 0 -0.009401993572302373 0.0026817909171999691 0 -0.010306656388515922 0.0017936366163884487 0 -0.010587985688291508 0.0022946179024892228 0 -0.010587985688291508 0.0022946179024892228 0 -0.01183976511845081 0.0023111467062916966 0 -0.011485610451357917 0.0017224025557694242 0 -0.011156023228685093 0.001458792047579209 0 -0.011485610451357917 0.0017224025557694242 0 -0.011831113764607507 0.0012157144680063332 0 -0.010587985688291508 0.0022946179024892228 0 -0.011156023228685093 0.001458792047579209 0 -0.011485610451357917 0.0017224025557694242 0 -0.011156023228685093 0.001458792047579209 0 -0.011704672539909533 0.00080910664352965966 0 -0.011043325133377723 0.0010807633184959065 0 -0.011156023228685093 0.001458792047579209 0 -0.011704672539909533 0.00080910664352965966 0 -0.011831113764607507 0.0012157144680063332 0 -0.011704672539909533 0.00080910664352965966 0 -0.012035974829108611 0.00052152818989806488 0 -0.012201674665414103 0.00062404073519842381 0 -0.012035974829108611 0.00052152818989806488 0 -0.012005956625008878 0.00042087941664770682 0 -0.012159667460906912 0.00039272777252858222 0 -0.012035974829108611 0.00052152818989806488 0 -0.012174510652758905 0.00042444344965160099 0 -0.012159667460906912 0.00039272777252858222 0 -0.011704672539909533 0.00080910664352965966 0 -0.012005956625008878 0.00042087941664770682 0 -0.011635898896948276 0.00049256712631625028 0 -0.011704672539909533 0.00080910664352965966 0 -0.012035974829108611 0.00052152818989806488 0 -0.012005956625008878 0.00042087941664770682 0 -0.012005956625008878 0.00042087941664770682 0 -0.011635898896948276 0.00049256712631625028 0 -0.012200797090814423 0.00032325975629253994 0 -0.011635898896948276 0.00049256712631625028 0 -0.011536587416409097 0.00017819418766427502 0 -0.011992128807420113 0.00029795979766086351 0 -0.010306656388515922 0.0017936366163884487 0 -0.011043325133377723 0.0010807633184959065 0 -0.010399600405327175 0.0012462739667420716 0 -0.011635898896948276 0.00049256712631625028 0 -0.011043325133377723 0.0010807633184959065 0 -0.010798579376239591 0.00073636488607336614 0 -0.011704672539909533 0.00080910664352965966 0 -0.011635898896948276 0.00049256712631625028 0 -0.011043325133377723 0.0010807633184959065 0 -0.0094414138602389609 0.002024020806277125 0 -0.010399600405327175 0.0012462739667420716 0 -0.0096841498738870543 0.00092618942657540001 0 -0.010399600405327175 0.0012462739667420716 0 -0.010798579376239591 0.00073636488607336614 0 -0.0096841498738870543 0.00092618942657540001 0 -0.011043325133377723 0.0010807633184959065 0 -0.010399600405327175 0.0012462739667420716 0 -0.010798579376239591 0.00073636488607336614 0 -0.011427894941156974 8.3018183502969625e-05 0 -0.01100145945036397 -2.0972573544159774e-06 0 -0.011635898896948276 0.00049256712631625028 0 -0.010798579376239591 0.00073636488607336614 0 -0.011536587416409097 0.00017819418766427502 0 -0.010798579376239591 0.00073636488607336614 0 -0.011536587416409097 0.00017819418766427502 0 -0.0098773043071133052 0.00031462957232838485 0 -0.010798579376239591 0.00073636488607336614 0 -0.0098773043071133052 0.00031462957232838485 0 -0.0096841498738870543 0.00092618942657540001 0 -0.011536587416409097 0.00017819418766427502 0 -0.012801215086575883 -6.5193725720840434e-05 0 -0.012339459037784058 0.00049672329937195607 0 -0.0098773043071133052 0.00031462957232838485 0 -0.0093490801809960663 0.00010533648733045981 0 -0.0096841498738870543 0.00092618942657540001 0 -0.011536587416409097 0.00017819418766427502 0 -0.0098773043071133052 0.00031462957232838485 0 -0.0089841255137220431 -0.00021566448243975027 0 -0.009769826005741505 -0.00012957548979412588 0 -0.01100145945036397 -2.0972573544159774e-06 0 -0.013002330891173084 0.00017020751086473508 0 -0.013009188120243237 2.9237702352067315e-05 0 -0.012801215086575883 -6.5193725720840434e-05 0 -0.012214034622422642 -0.00038497921250844354 0 -0.012192580869689605 5.0792511721683587e-07 0 -0.01140542652389062 -0.00035470681825161977 0 -0.01272315915391369 -1.5981600774134015e-05 0 -0.01100145945036397 -2.0972573544159774e-06 0 -0.011272129822032127 0.00043517986997386319 0 -0.01100145945036397 -2.0972573544159774e-06 0 -0.0090822331103214329 0.00012060933171120009 0 -0.0093490801809960663 0.00010533648733045981 0 -0.0096841498738870543 0.00092618942657540001 0 -0.0088606271522623115 0.0014872587908870624 0 -0.0090822331103214329 0.00012060933171120009 0 -0.0096841498738870543 0.00092618942657540001 0 -0.0088606271522623115 0.0014872587908870624 0 -0.0094414138602389609 0.002024020806277125 0 -0.0096841498738870543 0.00092618942657540001 0 -0.011183867099782268 0.0017253990213575092 0 -0.011147116269267615 0.0018179036395930474 0 -0.011086997988927063 0.0017668352897526468 0 -0.011183867099782268 0.0017253990213575092 0 -0.011086997988927063 0.0017668352897526468 0 -0.01112311385614055 0.001684751708161499 0 -0.011183867099782268 0.0017253990213575092 0 -0.011147116269267615 0.0018179036395930474 0 -0.011224892460325266 0.0017715409546854607 0 -0.011183867099782268 0.0017253990213575092 0 -0.011255033619445185 0.0017263152692388061 0 -0.011224892460325266 0.0017715409546854607 0 -0.0078564845993006512 0.00095291844527699602 0 -0.0083590648024624986 0.00084567887387401795 0 -0.0046411063147982776 0.00032437848342675761 0 -0.0056167188973220176 -0.00015775224243496735 0 -0.0057689582624635104 0.00058190024777098049 0 -0.01105110231338738 0.0018719604852652379 0 -0.011147116269267615 0.0018179036395930474 0 -0.011086997988927063 0.0017668352897526468 0 -0.0080685643285814002 0.0028105222761538066 0 -0.012126342315256031 0.0017138389628525942 0 -0.012557191312822021 0.0029293467533074405 0 -0.01183976511845081 0.0023111467062916966 0 -0.012506621516565479 0.0017615128267349455 0 -0.01183976511845081 0.0023111467062916966 0 -0.01202405018163886 0.0016177824853198294 0 -0.012506621516565479 0.0017615128267349455 0 -0.01183976511845081 0.0023111467062916966 0 -0.011485610451357917 0.0017224025557694242 0 -0.01202405018163886 0.0016177824853198294 0 -0.01202405018163886 0.0016177824853198294 0 -0.012331183311203971 0.0012603887728269121 0 -0.011831113764607507 0.0012157144680063332 0 -0.011485610451357917 0.0017224025557694242 0 -0.01202405018163886 0.0016177824853198294 0 -0.011831113764607507 0.0012157144680063332 0 -0.012506621516565479 0.0017615128267349455 0 -0.01245689014357274 0.0010112775070119497 0 -0.012331183311203971 0.0012603887728269121 0 -0.012126342315256031 0.0017138389628525942 0 -0.011590422197267598 0.0013441155685452095 0 -0.01202405018163886 0.0016177824853198294 0 -0.012506621516565479 0.0017615128267349455 0 -0.012331183311203971 0.0012603887728269121 0 -0.01245689014357274 0.0010112775070119497 0 -0.012331183311203971 0.0012603887728269121 0 -0.012204206713966215 0.00078746480926695085 0 -0.011704672539909533 0.00080910664352965966 0 -0.011831113764607507 0.0012157144680063332 0 -0.012201674665414103 0.00062404073519842381 0 -0.012371251699191479 0.0012579823193167557 0 -0.012074750846934528 0.00058209675714704248 0 -0.012331183311203971 0.0012603887728269121 0 -0.011831113764607507 0.0012157144680063332 0 -0.012201674665414103 0.00062404073519842381 0 -0.012074750846934528 0.00058209675714704248 0 -0.013448202504950877 0.00073193969685190856 0 -0.012174510652758905 0.00042444344965160099 0 -0.012201674665414103 0.00062404073519842381 0 -0.012272724437359141 0.00031303690135672677 0 -0.012204206713966215 0.00078746480926695085 0 -0.012073267833892672 0.00045384810169992769 0 -0.012435486258437562 0.00056363659086056225 0 -0.012035974829108611 0.00052152818989806488 0 -0.012174510652758905 0.00042444344965160099 0 -0.012201674665414103 0.00062404073519842381 0 -0.011590422197267598 0.0013441155685452095 0 -0.013837942870253696 0.0011444983385759248 0 -0.01112311385614055 0.001684751708161499 0 -0.011212742733227232 0.0016442961795838081 0 -0.011151877168685697 0.0016186598901894059 0 -0.01245689014357274 0.0010112775070119497 0 -0.012204206713966215 0.00078746480926695085 0 -0.012435486258437562 0.00056363659086056225 0 -0.01624307249614091 0.00085884329813597118 0 -0.016232333809711057 0.00093654317457416683 0 -0.016261323730559284 0.00091298103170993599 0 -0.013609955593589122 0.0012791810716213524 0 -0.013837942870253696 0.0011444983385759248 0 -0.011183867099782268 0.0017253990213575092 0 -0.01112311385614055 0.001684751708161499 0 -0.011212742733227232 0.0016442961795838081 0 -0.011183867099782268 0.0017253990213575092 0 -0.011230888159440252 0.0016899940533312355 0 -0.011255033619445185 0.0017263152692388061 0 -0.011183867099782268 0.0017253990213575092 0 -0.011230888159440252 0.0016899940533312355 0 -0.011212742733227232 0.0016442961795838081 0 -0.011230888159440252 0.0016899940533312355 0 -0.011212742733227232 0.0016442961795838081 0 -0.011284989829900421 0.0016691638187008365 0 -0.01624307249614091 0.00085884329813597118 0 -0.016032350404739677 0.00081503418872674849 0 -0.016179829271505967 0.00091360969550789326 0 -0.013609955593589122 0.0012791810716213524 0 -0.014075142347866268 0.0010401604387944401 0 -0.01624307249614091 0.00085884329813597118 0 -0.016255544413460294 0.00089623328566604374 0 -0.016179829271505967 0.00091360969550789326 0 -0.016247320445500188 0.0011819951003983768 0 -0.016197608221559384 0.0011082996618480211 0 -0.016366704374684845 0.0012461049446195354 0 -0.015441039390651468 0.0013305011734187774 0 -0.016299099194451244 0.0010766083769513828 0 -0.01624307249614091 0.00085884329813597118 0 -0.016032350404739677 0.00081503418872674849 0 -0.016000218661262808 0.00076554091193508701 0 -0.016491823813044041 0.0015627587574967969 0 -0.015441039390651468 0.0013305011734187774 0 -0.016491823813044041 0.0015627587574967969 0 -0.016064033759334545 0.0017189036104855021 0 -0.015087168947169691 0.0018766047082054481 0 -0.014646745903558548 0.0014890653772750432 0 -0.014423683816163661 0.0015773344295621342 0 -0.015337238013301946 0.0022883895882254424 0 -0.015087168947169691 0.0018766047082054481 0 -0.014423683816163661 0.0015773344295621342 0 -0.015441039390651468 0.0013305011734187774 0 -0.014497248937121298 0.0011739022430169261 0 -0.015003450726700647 0.0013922418691938497 0 -0.014459225581102511 0.00088888793100073483 0 -0.014765404262016684 0.00098837644380891845 0 -0.015441039390651468 0.0013305011734187774 0 -0.014075142347866268 0.0010401604387944401 0 -0.017276364315345377 0.0014857617964208487 0 -0.017670401318244038 0.0014524592111658441 0 -0.017697073139133462 0.0018177367071632732 0 -0.017670401318244038 0.0014524592111658441 0 -0.017952663161296109 0.0016494114308305686 0 -0.018138750706864663 0.0013633227689789462 0 -0.017952663161296109 0.0016494114308305686 0 -0.017697073139133462 0.0018177367071632732 0 -0.018074819191644199 0.0018991344153676997 0 -0.017670401318244038 0.0014524592111658441 0 -0.017952663161296109 0.0016494114308305686 0 -0.017697073139133462 0.0018177367071632732 0 -0.014631679922950025 0.0014887748723187463 0 -0.014545421230423298 0.0014637926961566289 0 -0.013928224074068789 0.0008884737042239788 0 -0.014497248937121298 0.0011739022430169261 0 -0.014009102072048699 0.00095202312500685901 0 -0.014100494801702147 0.00084238440954632074 0 -0.014359370691441376 0.0012134541533352797 0 -0.014102022233799487 0.00076746542644650793 0 -0.014545421230423298 0.0014637926961566289 0 -0.014423683816163661 0.0015773344295621342 0 -0.013928224074068789 0.0008884737042239788 0 -0.014075142347866268 0.0010401604387944401 0 -0.011214575762506602 0.0010468969691131539 0 -0.014260961535997289 0.0011805527476529071 0 -0.014100494801702147 0.00084238440954632074 0 -0.014359370691441376 0.0012134541533352797 0 -0.014497248937121298 0.0011739022430169261 0 -0.014511669576535312 0.0011858884190738559 0 -0.014646745903558548 0.0014890653772750432 0 -0.014545421230423298 0.0014637926961566289 0 -0.014423683816163661 0.0015773344295621342 0 -0.017697073139133462 0.0018177367071632732 0 -0.018074819191644199 0.0018991344153676997 0 -0.018105007714886656 0.0021327060031819077 0 -0.016064033759334545 0.0017189036104855021 0 -0.016051686082446344 0.001313646630438686 0 -0.014423683816163661 0.0015773344295621342 0 -0.013928224074068789 0.0008884737042239788 0 -0.013663519033062576 0.00096735815565726125 0 -0.013928224074068789 0.0008884737042239788 0 -0.014100494801702147 0.00084238440954632074 0 -0.014111417231462383 0.00074714601064523921 0 -0.014260961535997289 0.0011805527476529071 0 -0.013928224074068789 0.0008884737042239788 0 -0.014100494801702147 0.00084238440954632074 0 -0.011284989829900421 0.0016691638187008365 0 -0.011255033619445185 0.0017263152692388061 0 -0.011296802658687669 0.0017171798753440142 0 -0.011230888159440252 0.0016899940533312355 0 -0.011284989829900421 0.0016691638187008365 0 -0.011255033619445185 0.0017263152692388061 0 -0.014497248937121298 0.0011739022430169261 0 -0.014075142347866268 0.0010401604387944401 0 -0.018629580318031736 0.0014227239597354889 0 -0.017094268975643499 0.00080772022167940709 0 -0.018629580318031736 0.0014227239597354889 0 -0.018571001250504229 0.0015903655151072765 0 -0.018914416479333979 0.0015718126717389886 0 -0.018459914727977447 0.001634461164410454 0 -0.018565993613410936 0.0012884555956859918 0 -0.018797832173840231 0.0015706934019331846 0 -0.018459914727977447 0.001634461164410454 0 -0.018727129271218421 0.0019292799784429622 0 -0.018459914727977447 0.001634461164410454 0 -0.018179460161746732 0.0017046732006254295 0 -0.018294673365117663 0.001906372097316164 0 -0.018459914727977447 0.001634461164410454 0 -0.018565993613410936 0.0012884555956859918 0 -0.018138750706864663 0.0013633227689789462 0 -0.018459914727977447 0.001634461164410454 0 -0.018179460161746732 0.0017046732006254295 0 -0.018138750706864663 0.0013633227689789462 0 -0.017952663161296109 0.0016494114308305686 0 -0.018179460161746732 0.0017046732006254295 0 -0.018138750706864663 0.0013633227689789462 0 -0.017952663161296109 0.0016494114308305686 0 -0.018179460161746732 0.0017046732006254295 0 -0.018074819191644199 0.0018991344153676997 0 -0.015119336311305553 0.00049024399513858516 0 -0.015511397981844033 0.00030366063437970727 0 -0.015188485141729716 0.00054602073066555197 0 -0.018202897470678239 0.0021966986026952283 0 -0.018294673365117663 0.001906372097316164 0 -0.018727129271218421 0.0019292799784429622 0 -0.018074819191644199 0.0018991344153676997 0 -0.018110676740205223 0.0021261151182522123 0 -0.018294673365117663 0.001906372097316164 0 -0.017144240762101491 0.002122848653794601 0 -0.016051686082446344 0.001313646630438686 0 -0.018179460161746732 0.0017046732006254295 0 -0.018074819191644199 0.0018991344153676997 0 -0.018294673365117663 0.001906372097316164 0 -0.018110676740205223 0.0021261151182522123 0 -0.018202897470678239 0.0021966986026952283 0 -0.018294673365117663 0.001906372097316164 0 -0.016051686082446344 0.001313646630438686 0 -0.014722828915718397 0.00066003630533288714 0 -0.013928224074068789 0.0008884737042239788 0 -0.013663519033062576 0.00096735815565726125 0 -0.0136655387426076 0.00078872935992454346 0 -0.015500435437194282 0.00095728095347975351 0 -0.01513140315566322 0.00066312313923696348 0 -0.015429712131249588 0.00051272165314129588 0 -0.015965710972775569 0.00081544436486148404 0 -0.014722828915718397 0.00066003630533288714 0 -0.016051686082446344 0.001313646630438686 0 -0.015965710972775569 0.00081544436486148404 0 -0.015965710972775569 0.00081544436486148404 0 -0.017094268975643499 0.00080772022167940709 0 -0.018459914727977447 0.001634461164410454 0 -0.018294673365117663 0.001906372097316164 0 -0.018727129271218421 0.0019292799784429622 0 -0.017094268975643499 0.00080772022167940709 0 -0.015996854595375289 0.00093177958961728694 0 -0.015511397981844033 0.00030366063437970727 0 -0.015247886330327337 0.00071179550611772562 0 -0.015188485141729716 0.00054602073066555197 0 -0.015511397981844033 0.00030366063437970727 0 -0.015247886330327337 0.00071179550611772562 0 -0.015383518565789863 0.00082519598963682553 0 -0.012153286592222985 0.00038276374683500442 0 -0.012164964338600669 0.00052373431670563566 0 -0.012046855565142055 0.00043012057142017261 0 -0.015188485141729716 0.00054602073066555197 0 -0.015065600460307813 0.00051829560810348759 0 -0.015101997130873823 0.00082223905642365991 0 -0.014722828915718397 0.00066003630533288714 0 -0.013612675825613664 0.00067129421322356057 0 -0.015247886330327337 0.00071179550611772562 0 -0.015188485141729716 0.00054602073066555197 0 -0.015101997130873823 0.00082223905642365991 0 -0.015965710972775569 0.00081544436486148404 0 -0.015593903449718656 0.00058456442915545475 0 -0.015119497392596276 0.00049188711060331946 0 -0.015188485141729716 0.00054602073066555197 0 -0.015065600460307813 0.00051829560810348759 0 -0.012164964338600669 0.00052373431670563566 0 -0.012114081852851682 0.00054650273559737732 0 -0.012046855565142055 0.00043012057142017261 0 -0.015101997130873823 0.00082223905642365991 0 -0.01522545697451996 0.00096482839003797526 0 -0.015136712559834797 0.0011244571826347415 0 -0.013612675825613664 0.00067129421322356057 0 -0.011716461090487405 0.00084779224885939456 0 -0.012164964338600669 0.00052373431670563566 0 -0.012114081852851682 0.00054650273559737732 0 -0.012179550798777479 0.00066365373176969589 0 -0.0096937124667627016 0.00021479284722611703 0 -0.011716461090487405 0.00084779224885939456 0 -0.015247886330327337 0.00071179550611772562 0 -0.015101997130873823 0.00082223905642365991 0 -0.01522545697451996 0.00096482839003797526 0 -0.015996854595375289 0.00093177958961728694 0 -0.014614083773308379 0.0015287172195287059 0 -0.01522545697451996 0.00096482839003797526 0 -0.015383518565789863 0.00082519598963682553 0 -0.015257367200851486 0.0013402834126002704 0 -0.016542987100859569 0.0011850252594299221 0 -0.016918884064746648 0.0017829494892791945 0 -0.017022480959596211 0.0013281388102269131 0 -0.015247886330327337 0.00071179550611772562 0 -0.01522545697451996 0.00096482839003797526 0 -0.015383518565789863 0.00082519598963682553 0 -0.0092628882678408783 0.00042921979806550474 0 -0.0083590648024624986 0.00084567887387401795 0 -0.011255033619445185 0.0017263152692388061 0 -0.011293157342358223 0.0017304074811958182 0 -0.011224892460325266 0.0017715409546854607 0 -0.011255033619445185 0.0017263152692388061 0 -0.011296802658687669 0.0017171798753440142 0 -0.011293157342358223 0.0017304074811958182 0 -0.011450251447603456 0.00095857598916864286 0 -0.011214575762506602 0.0010468969691131539 0 -0.010397264729095218 0.00082206596497272908 0 -0.010430607534732773 -9.2647828535455585e-05 0 -0.0099881912734174679 0.00013038322864642699 0 -0.011214575762506602 0.0010468969691131539 0 -0.0092628882678408783 0.00042921979806550474 0 -0.0092628882678408783 0.00042921979806550474 0 -0.010589824271702991 0.00035711899213465288 0 -0.014722828915718397 0.00066003630533288714 0 -0.010589824271702991 0.00035711899213465288 0 -0.013928224074068789 0.0008884737042239788 0 -0.0136655387426076 0.00078872935992454346 0 -0.014055072337067197 0.00062492716441129833 0 -0.013928224074068789 0.0008884737042239788 0 -0.014111417231462383 0.00074714601064523921 0 -0.014055072337067197 0.00062492716441129833 0 -0.011214575762506602 0.0010468969691131539 0 -0.010589824271702991 0.00035711899213465288 0 -0.007356346119110329 0.00039873223975251862 0 -0.0070105064460124983 -4.0017649073734193e-05 0 -0.0070942623689593141 -8.0142201193735777e-05 0 -0.0096937124667627016 0.00021479284722611703 0 -0.010589824271702991 0.00035711899213465288 0 -0.0092628882678408783 0.00042921979806550474 0 -0.0064382515777397249 0.00058742492179070845 0 -0.007356346119110329 0.00039873223975251862 0 -0.0069102337952054718 0.00089205495405904876 0 -0.0076482090098369459 0.0008933612828809582 0 -0.007356346119110329 0.00039873223975251862 0 -0.0070105064460124983 -4.0017649073734193e-05 0 -0.0069102337952054718 0.00089205495405904876 0 -0.0056167188973220176 -0.00015775224243496735 0 -0.0057689582624635104 0.00058190024777098049 0 -0.0065091237124310806 0.00058817733078604575 0 -0.0065914745450592468 -0.00063168353659011323 0 -0.0056167188973220176 -0.00015775224243496735 0 -0.0065091237124310806 0.00058817733078604575 0 -0.0057689582624635104 0.00058190024777098049 0 -0.0059744015345910666 0.0011678717870264336 0 -0.0065091237124310806 0.00058817733078604575 0 -0.0053290996215585489 0.0011322864587394084 0 -0.0057689582624635104 0.00058190024777098049 0 -0.0059744015345910666 0.0011678717870264336 0 -0.0053290996215585489 0.0011322864587394084 0 -0.0059744015345910666 0.0011678717870264336 0 -0.0057689999816176946 0.001740952064621126 0 -0.0059744015345910666 0.0011678717870264336 0 -0.0057689999816176946 0.001740952064621126 0 -0.0064386022214052959 0.0018073822538480562 0 -0.0057689999816176946 0.001740952064621126 0 -0.0064386022214052959 0.0018073822538480562 0 -0.006001470056925846 0.0023964394055837304 0 -0.006774134746773919 0.0019181446697875333 0 -0.0073585522444516386 0.0019048427880858317 0 -0.0070753289671973271 0.0025230106590922157 0 -0.0070813830559927696 0.0015097325980597918 0 -0.0072982464730077957 0.0013359340631048206 0 -0.0073585522444516386 0.0019048427880858317 0 -0.006774134746773919 0.0019181446697875333 0 -0.0070813830559927696 0.0015097325980597918 0 -0.0073585522444516386 0.0019048427880858317 0 -0.0066359250464100997 0.0018985300509446845 0 -0.0064382515777397249 0.00058742492179070845 0 -0.006774134746773919 0.0019181446697875333 0 -0.0070813830559927696 0.0015097325980597918 0 -0.0069102337952054718 0.00089205495405904876 0 -0.0059744015345910666 0.0011678717870264336 0 -0.0064386022214052959 0.0018073822538480562 0 -0.0065091237124310806 0.00058817733078604575 0 -0.0070813830559927696 0.0015097325980597918 0 -0.0069102337952054718 0.00089205495405904876 0 -0.0072982464730077957 0.0013359340631048206 0 -0.0069102337952054718 0.00089205495405904876 0 -0.0076482090098369459 0.0008933612828809582 0 -0.0072982464730077957 0.0013359340631048206 0 -0.011716461090487405 0.00084779224885939456 0 -0.010615960997547141 0.0018756003777835293 0 -0.0076482090098369459 0.0008933612828809582 0 -0.0072982464730077957 0.0013359340631048206 0 -0.0077691375339888269 0.0016661343784103398 0 -0.011980288706400114 0.0011003825599904288 0 -0.012125622243912582 0.0013444141354376682 0 -0.012044420940601158 0.0015193046696090327 0 -0.01522545697451996 0.00096482839003797526 0 -0.015136712559834797 0.0011244571826347415 0 -0.015257367200851486 0.0013402834126002704 0 -0.011716461090487405 0.00084779224885939456 0 -0.014614083773308379 0.0015287172195287059 0 -0.014614083773308379 0.0015287172195287059 0 -0.013068979476139676 0.0015380149310799357 0 -0.01556012218317075 0.0017388181727613368 0 -0.017225394576137538 0.0018831757509774963 0 -0.016384071484578135 0.0019354189489742186 0 -0.016455250241398017 0.0020571544350049442 0 -0.016918884064746648 0.0017829494892791945 0 -0.017109560643407327 0.0024837129426140666 0 -0.016775944310493746 0.0023775230179677604 0 -0.017336417901895225 0.0020474130989296649 0 -0.016542987100859569 0.0011850252594299221 0 -0.016384071484578135 0.0019354189489742186 0 -0.016918884064746648 0.0017829494892791945 0 -0.014614083773308379 0.0015287172195287059 0 -0.01556012218317075 0.0017388181727613368 0 -0.017109560643407327 0.0024837129426140666 0 -0.016775944310493746 0.0023775230179677604 0 -0.017051679613282227 0.0028342893757889566 0 -0.01556012218317075 0.0017388181727613368 0 -0.01688347020812454 0.0026326331364271258 0 -0.014078655807183251 0.0016568395886873046 0 -0.013906248485328005 0.0013651604160671588 0 -0.014162228491334306 0.0012077938551717368 0 -0.01556012218317075 0.0017388181727613368 0 -0.013068979476139676 0.0015380149310799357 0 -0.01667464102475379 0.0022559740276977135 0 -0.015606738821068684 0.0018841383535838072 0 -0.016224973146296055 0.0025093589000312593 0 -0.016023334641808922 0.0011678751352576745 0 -0.01667464102475379 0.0022559740276977135 0 -0.015606738821068684 0.0018841383535838072 0 -0.017109560643407327 0.0024837129426140666 0 -0.017051679613282227 0.0028342893757889566 0 -0.017380011298802213 0.0025885750461267514 0 -0.0077998683338415592 0.0016406977331787915 0 -0.0073585522444516386 0.0019048427880858317 0 -0.0075610050494527735 0.0023785624202283741 0 -0.0077998683338415592 0.0016406977331787915 0 -0.007831490499414626 0.0018837321546894669 0 -0.0075610050494527735 0.0023785624202283741 0 -0.0072982464730077957 0.0013359340631048206 0 -0.0077691375339888269 0.0016661343784103398 0 -0.0073585522444516386 0.0019048427880858317 0 -0.010615960997547141 0.0018756003777835293 0 -0.0074301371517120915 0.0024839552490039528 0 -0.016023334641808922 0.0011678751352576745 0 -0.015719953592672187 0.0013516905689878323 0 -0.015606738821068684 0.0018841383535838072 0 -0.012125622243912582 0.0013444141354376682 0 -0.012095543441505171 0.0014886270981697503 0 -0.012044420940601158 0.0015193046696090327 0 -0.013068979476139676 0.0015380149310799357 0 -0.010615960997547141 0.0018756003777835293 0 -0.010615960997547141 0.0018756003777835293 0 -0.011738294521545664 0.0019080958890064547 0 -0.013068979476139676 0.0015380149310799357 0 -0.011738294521545664 0.0019080958890064547 0 -0.012010218860195329 0.00244965926979005 0 -0.012271515015030664 0.0022896857799552845 0 -0.012171703081360154 0.0016738917823456907 0 -0.0073585522444516386 0.0019048427880858317 0 -0.0075610050494527735 0.0023785624202283741 0 -0.0070753289671973271 0.0025230106590922157 0 -0.007831490499414626 0.0018837321546894669 0 -0.0075610050494527735 0.0023785624202283741 0 -0.0079683811756742027 0.0028382151600742402 0 -0.011738294521545664 0.0019080958890064547 0 -0.010548828174696046 0.0032632369075715284 0 -0.0075610050494527735 0.0023785624202283741 0 -0.0077281649263695237 0.0027534154812992951 0 -0.0079683811756742027 0.0028382151600742402 0 -0.008798852971406557 0.0027559659903764419 0 -0.010548828174696046 0.0032632369075715284 0 -0.0075610050494527735 0.0023785624202283741 0 -0.0077281649263695237 0.0027534154812992951 0 -0.0074243513131653201 0.0026487720558880665 0 -0.0077281649263695237 0.0027534154812992951 0 -0.0074243513131653201 0.0026487720558880665 0 -0.0073372735454539807 0.0029436969224246657 0 -0.0075610050494527735 0.0023785624202283741 0 -0.0074243513131653201 0.0026487720558880665 0 -0.0070753289671973271 0.0025230106590922157 0 -0.0074243513131653201 0.0026487720558880665 0 -0.0073372735454539807 0.0029436969224246657 0 -0.0070753289671973271 0.0025230106590922157 0 -0.015606738821068684 0.0018841383535838072 0 -0.016106608000717903 0.0028937514181553632 0 -0.015858431340972378 0.0035225574592183955 0 -0.01667464102475379 0.0022559740276977135 0 -0.016581347438715827 0.0028927400806947165 0 -0.016224973146296055 0.0025093589000312593 0 -0.01667464102475379 0.0022559740276977135 0 -0.016581347438715827 0.0028927400806947165 0 -0.01723875524159393 0.003261264006909109 0 -0.01688347020812454 0.0026326331364271258 0 -0.017186230058285481 0.0031457973807986895 0 -0.015606738821068684 0.0018841383535838072 0 -0.016224973146296055 0.0025093589000312593 0 -0.016106608000717903 0.0028937514181553632 0 -0.016581347438715827 0.0028927400806947165 0 -0.016224973146296055 0.0025093589000312593 0 -0.016106608000717903 0.0028937514181553632 0 -0.016106608000717903 0.0028937514181553632 0 -0.015858431340972378 0.0035225574592183955 0 -0.016247613385237777 0.0036671287453022552 0 -0.016581347438715827 0.0028927400806947165 0 -0.016106608000717903 0.0028937514181553632 0 -0.016247613385237777 0.0036671287453022552 0 -0.015400575838991971 0.0025436567402703815 0 -0.01297454165621283 0.0028642624267759104 0 -0.016581347438715827 0.0028927400806947165 0 -0.016967846209887623 0.0033915696425749278 0 -0.01723875524159393 0.003261264006909109 0 -0.016581347438715827 0.0028927400806947165 0 -0.016967846209887623 0.0033915696425749278 0 -0.016449327155355142 0.0035067818091513319 0 -0.010896023618167633 0.0017394495890581834 0 -0.010537876903779471 0.00096558963774868274 0 -0.011550678164465701 0.0013118967807164224 0 -0.01297454165621283 0.0028642624267759104 0 -0.014552684542484739 0.0024917023462845988 0 -0.016967846209887623 0.0033915696425749278 0 -0.016449327155355142 0.0035067818091513319 0 -0.017505146207541546 0.003741877786138546 0 -0.010548828174696046 0.0032632369075715284 0 -0.0083634866558482974 0.0025809615897624668 0 -0.01297454165621283 0.0028642624267759104 0 -0.0083634866558482974 0.0025809615897624668 0 -0.010261954694904497 0.003372089350501021 0 -0.0099361530732658045 0.0032529386067688664 0 -0.010146887026104608 0.0026874733003960927 0 -0.010548828174696046 0.0032632369075715284 0 -0.01297454165621283 0.0028642624267759104 0 -0.010896023618167633 0.0017394495890581834 0 -0.010537876903779471 0.00096558963774868274 0 -0.010356675433014691 0.0013999933569815589 0 -0.0073372735454539807 0.0029436969224246657 0 -0.0077385728027785598 0.0030512288469989571 0 -0.0074971498571179927 0.0032898003955894083 0 -0.0077281649263695237 0.0027534154812992951 0 -0.0073372735454539807 0.0029436969224246657 0 -0.0077385728027785598 0.0030512288469989571 0 -0.007964999153591933 0.002837116977627088 0 -0.0080415429317945413 0.0033207366980168547 0 -0.0077385728027785598 0.0030512288469989571 0 -0.0077281649263695237 0.0027534154812992951 0 -0.007964999153591933 0.002837116977627088 0 -0.0077385728027785598 0.0030512288469989571 0 -0.0072859124182816657 0.003784771625339447 0 -0.0080415429317945413 0.0033207366980168547 0 -0.0074971498571179927 0.0032898003955894083 0 -0.0080415429317945413 0.0033207366980168547 0 -0.0077385728027785598 0.0030512288469989571 0 -0.0074971498571179927 0.0032898003955894083 0 -0.0073372735454539807 0.0029436969224246657 0 -0.0074971498571179927 0.0032898003955894083 0 -0.0070076117266583892 0.003422290924264197 0 -0.0072859124182816657 0.003784771625339447 0 -0.0074971498571179927 0.0032898003955894083 0 -0.0070076117266583892 0.003422290924264197 0 -0.0073372735454539807 0.0029436969224246657 0 -0.0066049489801650891 0.0030687347745859614 0 -0.0070753289671973271 0.0025230106590922157 0 -0.0073372735454539807 0.0029436969224246657 0 -0.0070076117266583892 0.003422290924264197 0 -0.0066049489801650891 0.0030687347745859614 0 -0.0057220966341738361 0.0035901872491597938 0 -0.006399805776792649 0.0030478307364719334 0 -0.006001470056925846 0.0023964394055837304 0 -0.0057220966341738361 0.0035901872491597938 0 -0.0052782580244609681 0.0024311390218457202 0 -0.006001470056925846 0.0023964394055837304 0 -0.0052782580244609681 0.0024311390218457202 0 -0.0057689999816176946 0.001740952064621126 0 -0.006001470056925846 0.0023964394055837304 0 -0.0066359250464100997 0.0018985300509446845 0 -0.0064982976920040835 0.0030785284311467148 0 -0.006774134746773919 0.0019181446697875333 0 -0.0066049489801650891 0.0030687347745859614 0 -0.0070753289671973271 0.0025230106590922157 0 -0.0064386022214052959 0.0018073822538480562 0 -0.006399805776792649 0.0030478307364719334 0 -0.006001470056925846 0.0023964394055837304 0 -0.01838362641938791 0.0032870984541559464 0 -0.018777740105698711 0.0028983048279302061 0 -0.018200171776871353 0.0028728226780264411 0 -0.01838362641938791 0.0032870984541559464 0 -0.018777740105698711 0.0028983048279302061 0 -0.018853431092614507 0.0034886829536928182 0 -0.018777740105698711 0.0028983048279302061 0 -0.018853431092614507 0.0034886829536928182 0 -0.019460341451753137 0.0031393197602716748 0 -0.018777740105698711 0.0028983048279302061 0 -0.01930031218276233 0.0026029746270511481 0 -0.019460341451753137 0.0031393197602716748 0 -0.019258146150786248 0.003631967062341692 0 -0.018853431092614507 0.0034886829536928182 0 -0.019460341451753137 0.0031393197602716748 0 -0.018821972664203809 0.0040931312201468017 0 -0.019258146150786248 0.003631967062341692 0 -0.018853431092614507 0.0034886829536928182 0 -0.018196759944572666 0.0039097175953882119 0 -0.01838362641938791 0.0032870984541559464 0 -0.018853431092614507 0.0034886829536928182 0 -0.018196759944572666 0.0039097175953882119 0 -0.018821972664203809 0.0040931312201468017 0 -0.018853431092614507 0.0034886829536928182 0 -0.018196759944572666 0.0039097175953882119 0 -0.01838362641938791 0.0032870984541559464 0 -0.017842568916210128 0.0032579090152763915 0 -0.015518873850743809 0.0028505836113920987 0 -0.014552684542484739 0.0024917023462845988 0 -0.018196759944572666 0.0039097175953882119 0 -0.017505146207541546 0.003741877786138546 0 -0.017842568916210128 0.0032579090152763915 0 -0.017505146207541546 0.003741877786138546 0 -0.01723875524159393 0.003261264006909109 0 -0.017842568916210128 0.0032579090152763915 0 -0.016967846209887623 0.0033915696425749278 0 -0.017505146207541546 0.003741877786138546 0 -0.01723875524159393 0.003261264006909109 0 -0.017394531913424147 0.0029276706959130575 0 -0.017842568916210128 0.0032579090152763915 0 -0.017756676834887419 0.0027385440849850666 0 -0.01723875524159393 0.003261264006909109 0 -0.017394531913424147 0.0029276706959130575 0 -0.017842568916210128 0.0032579090152763915 0 -0.017051679613282227 0.0028342893757889566 0 -0.01723875524159393 0.003261264006909109 0 -0.017394531913424147 0.0029276706959130575 0 -0.017842568916210128 0.0032579090152763915 0 -0.018200171776871353 0.0028728226780264411 0 -0.017756676834887419 0.0027385440849850666 0 -0.01838362641938791 0.0032870984541559464 0 -0.017842568916210128 0.0032579090152763915 0 -0.018200171776871353 0.0028728226780264411 0 -0.018200171776871353 0.0028728226780264411 0 -0.018099743979317285 0.0024476325900764139 0 -0.017756676834887419 0.0027385440849850666 0 -0.018099743979317285 0.0024476325900764139 0 -0.017756676834887419 0.0027385440849850666 0 -0.017732115826730926 0.0024137347830041141 0 -0.018200171776871353 0.0028728226780264411 0 -0.018099743979317285 0.0024476325900764139 0 -0.018466410767405992 0.0025013126396790457 0 -0.017109560643407327 0.0024837129426140666 0 -0.017380011298802213 0.0025885750461267514 0 -0.017336417901895225 0.0020474130989296649 0 -0.017051679613282227 0.0028342893757889566 0 -0.017394531913424147 0.0029276706959130575 0 -0.017380011298802213 0.0025885750461267514 0 -0.017394531913424147 0.0029276706959130575 0 -0.017756676834887419 0.0027385440849850666 0 -0.017380011298802213 0.0025885750461267514 0 -0.017756676834887419 0.0027385440849850666 0 -0.017732115826730926 0.0024137347830041141 0 -0.017380011298802213 0.0025885750461267514 0 -0.017336417901895225 0.0020474130989296649 0 -0.017963101623464661 0.0021237315833600671 0 -0.017946011515720995 0.0016929037065145089 0 -0.017732115826730926 0.0024137347830041141 0 -0.017380011298802213 0.0025885750461267514 0 -0.017336417901895225 0.0020474130989296649 0 -0.017225394576137538 0.0018831757509774963 0 -0.017862368211757466 0.0017393639748767846 0 -0.017732115826730926 0.0024137347830041141 0 -0.017336417901895225 0.0020474130989296649 0 -0.017963101623464661 0.0021237315833600671 0 -0.018099743979317285 0.0024476325900764139 0 -0.01846167729963074 0.0020493869208786145 0 -0.018466410767405992 0.0025013126396790457 0 -0.018099743979317285 0.0024476325900764139 0 -0.017963101623464661 0.0021237315833600671 0 -0.01846167729963074 0.0020493869208786145 0 -0.018099743979317285 0.0024476325900764139 0 -0.017732115826730926 0.0024137347830041141 0 -0.017963101623464661 0.0021237315833600671 0 -0.017938462661968142 0.0020439375653786905 0 -0.017862368211757466 0.0017393639748767846 0 -0.017963101623464661 0.0021237315833600671 0 -0.01846167729963074 0.0020493869208786145 0 -0.017984358818593341 0.0017813891649338903 0 -0.01846167729963074 0.0020493869208786145 0 -0.018930387972822076 0.0023104817478231321 0 -0.019155305315530322 0.0018223434400864073 0 -0.01846167729963074 0.0020493869208786145 0 -0.018466410767405992 0.0025013126396790457 0 -0.018930387972822076 0.0023104817478231321 0 -0.018777740105698711 0.0028983048279302061 0 -0.018200171776871353 0.0028728226780264411 0 -0.018466410767405992 0.0025013126396790457 0 -0.018777740105698711 0.0028983048279302061 0 -0.018466410767405992 0.0025013126396790457 0 -0.018930387972822076 0.0023104817478231321 0 -0.018777740105698711 0.0028983048279302061 0 -0.01930031218276233 0.0026029746270511481 0 -0.018930387972822076 0.0023104817478231321 0 -0.01930031218276233 0.0026029746270511481 0 -0.018930387972822076 0.0023104817478231321 0 -0.019478034490652534 0.0021463141782740564 0 -0.018930387972822076 0.0023104817478231321 0 -0.019155305315530322 0.0018223434400864073 0 -0.019478034490652534 0.0021463141782740564 0 -0.019155305315530322 0.0018223434400864073 0 -0.018651737471022958 0.0014839162924347618 0 -0.019565729506518456 0.0013716900085863726 0 -0.01846167729963074 0.0020493869208786145 0 -0.019155305315530322 0.0018223434400864073 0 -0.018651737471022958 0.0014839162924347618 0 -0.018651737471022958 0.0014839162924347618 0 -0.01867772868557389 0.00096938985733895295 0 -0.018038700214239797 0.0010401766123958047 0 -0.018651737471022958 0.0014839162924347618 0 -0.01867772868557389 0.00096938985733895295 0 -0.019565729506518456 0.0013716900085863726 0 -0.01867772868557389 0.00096938985733895295 0 -0.019072474012390872 0.00058551074250989398 0 -0.019565729506518456 0.0013716900085863726 0 -0.017022480959596211 0.0013281388102269131 0 -0.017375642996128933 0.0015096746842637109 0 -0.017349723458101065 0.00081715835098401183 0 -0.016918884064746648 0.0017829494892791945 0 -0.017022480959596211 0.0013281388102269131 0 -0.017375642996128933 0.0015096746842637109 0 -0.01846167729963074 0.0020493869208786145 0 -0.018651737471022958 0.0014839162924347618 0 -0.017984358818593341 0.0017813891649338903 0 -0.0186397404470885 0.0015008349414746965 0 -0.017862368211757466 0.0017393639748767846 0 -0.018651737471022958 0.0014839162924347618 0 -0.018065696302365892 0.0018364486267497728 0 -0.018038700214239797 0.0010401766123958047 0 -0.017862368211757466 0.0017393639748767846 0 -0.017651178984910688 0.00088025228039853771 0 -0.016697243572451666 0.00044293059333526391 0 -0.016542987100859569 0.0011850252594299221 0 -0.017349723458101065 0.00081715835098401183 0 -0.016542987100859569 0.0011850252594299221 0 -0.017022480959596211 0.0013281388102269131 0 -0.017349723458101065 0.00081715835098401183 0 -0.016697243572451666 0.00044293059333526391 0 -0.017349723458101065 0.00081715835098401183 0 -0.017328309574928164 0.00013001686319575502 0 -0.01867772868557389 0.00096938985733895295 0 -0.018038700214239797 0.0010401766123958047 0 -0.018400155869169096 0.00043214992302499172 0 -0.017651178984910688 0.00088025228039853771 0 -0.017931052004135403 0.00033693504682103724 0 -0.018038700214239797 0.0010401766123958047 0 -0.018400155869169096 0.00043214992302499172 0 -0.018016305953240361 0.0002254088486977312 0 -0.018342060560554346 0.0001324666748541607 0 -0.018010334848734679 1.7196747870761003e-05 0 -0.018636732427917566 -0.00010390530213151557 0 -0.0187611582478002 0.00086794616334712974 0 -0.019336261086773082 0.00070981712418720084 0 -0.018400155869169096 0.00043214992302499172 0 -0.018342060560554346 0.0001324666748541607 0 -0.01808187463856618 0.00019319159493395404 0 -0.018342060560554346 0.0001324666748541607 0 -0.01808187463856618 0.00019319159493395404 0 -0.018010334848734679 1.7196747870761003e-05 0 -0.0187611582478002 0.00086794616334712974 0 -0.017931052004135403 0.00033693504682103724 0 -0.01808187463856618 0.00019319159493395404 0 -0.018010334848734679 1.7196747870761003e-05 0 -0.018017372863719721 0.00022590933453041535 0 -0.018400155869169096 0.00043214992302499172 0 -0.01808187463856618 0.00019319159493395404 0 -0.018016305953240361 0.0002254088486977312 0 -0.017957648810183822 0.0003202162861782622 0 -0.017931052004135403 0.00033693504682103724 0 -0.018629580318031736 0.0014227239597354889 0 -0.0187611582478002 0.00086794616334712974 0 -0.01895454750244641 0.0014786154262378403 0 -0.019451041422988022 0.0013824646355555788 0 -0.019250660632682975 0.0011833293960701722 0 -0.017865057657419598 0.00076465396716682667 0 -0.018332446967656502 0.00067514094807658639 0 -0.01833693287698767 0.00082838376680686532 0 -0.017094268975643499 0.00080772022167940709 0 -0.017931052004135403 0.00033693504682103724 0 -0.017865057657419598 0.00076465396716682667 0 -0.017795918499065276 0.0010985053632490962 0 -0.01833693287698767 0.00082838376680686532 0 -0.019661044639917663 0.0011501542892032777 0 -0.019565729506518456 0.0013716900085863726 0 -0.019873537731331381 0.0011493017495933847 0 -0.019309764307673592 0.00080791894727548226 0 -0.019593473473037908 0.0013771267336141677 0 -0.019661044639917663 0.0011501542892032777 0 -0.019818632127972302 0.001020067169276679 0 -0.019873537731331381 0.0011493017495933847 0 -0.01867772868557389 0.00096938985733895295 0 -0.018400155869169096 0.00043214992302499172 0 -0.019072474012390872 0.00058551074250989398 0 -0.018400155869169096 0.00043214992302499172 0 -0.018342060560554346 0.0001324666748541607 0 -0.018636732427917566 -0.00010390530213151557 0 -0.019309764307673592 0.00080791894727548226 0 -0.019336261086773082 0.00070981712418720084 0 -0.018400155869169096 0.00043214992302499172 0 -0.019072474012390872 0.00058551074250989398 0 -0.018636732427917566 -0.00010390530213151557 0 -0.019661044639917663 0.0011501542892032777 0 -0.019818632127972302 0.001020067169276679 0 -0.019513604907879529 0.00089332233649074369 0 -0.019818632127972302 0.001020067169276679 0 -0.019513604907879529 0.00089332233649074369 0 -0.019959137601513844 0.0008570557580016981 0 -0.019743100976010879 0.00090502000932673424 0 -0.01985895904399821 0.0007313965379378369 0 -0.019959137601513844 0.0008570557580016981 0 -0.019336261086773082 0.00070981712418720084 0 -0.020062878369740966 0.00090301588741721638 0 -0.019743100976010879 0.00090502000932673424 0 -0.019740533411933964 0.00076291133192263349 0 -0.019621514237589351 0.00076730271960664617 0 -0.019336261086773082 0.00070981712418720084 0 -0.019666614963069599 0.00089943959958983745 0 -0.019743100976010879 0.00090502000932673424 0 -0.019740533411933964 0.00076291133192263349 0 -0.01985895904399821 0.0007313965379378369 0 -0.019732769640621883 0.00063014509013837629 0 -0.01985895904399821 0.0007313965379378369 0 -0.019918442849800835 0.00049461540703189843 0 -0.019740533411933964 0.00076291133192263349 0 -0.019732769640621883 0.00063014509013837629 0 -0.019621514237589351 0.00076730271960664617 0 -0.019740533411933964 0.00076291133192263349 0 -0.019732769640621883 0.00063014509013837629 0 -0.01985895904399821 0.0007313965379378369 0 -0.019998327846054587 0.00060990173101708783 0 -0.01985895904399821 0.0007313965379378369 0 -0.019918442849800835 0.00049461540703189843 0 -0.019998327846054587 0.00060990173101708783 0 -0.01985895904399821 0.0007313965379378369 0 -0.019959137601513844 0.0008570557580016981 0 -0.019918442849800835 0.00049461540703189843 0 -0.020023035693103423 0.00029311957277660229 0 -0.020136718796440533 0.00036922570175020562 0 -0.019998327846054587 0.00060990173101708783 0 -0.019918442849800835 0.00049461540703189843 0 -0.020136718796440533 0.00036922570175020562 0 -0.019732769640621883 0.00063014509013837629 0 -0.019918442849800835 0.00049461540703189843 0 -0.019738573506744475 0.00034205862861883928 0 -0.019738573506744475 0.00034205862861883928 0 -0.020023035693103423 0.00029311957277660229 0 -0.019934981513946959 0.00013633258460617957 0 -0.019738573506744475 0.00034205862861883928 0 -0.019934981513946959 0.00013633258460617957 0 -0.019640428432962109 -8.3180929448197355e-06 0 -0.019918442849800835 0.00049461540703189843 0 -0.019738573506744475 0.00034205862861883928 0 -0.020023035693103423 0.00029311957277660229 0 -0.020023035693103423 0.00029311957277660229 0 -0.020211926393668971 0.00010698514461785818 0 -0.020136718796440533 0.00036922570175020562 0 -0.020023035693103423 0.00029311957277660229 0 -0.020211926393668971 0.00010698514461785818 0 -0.019934981513946959 0.00013633258460617957 0 -0.019335352483781532 0.00023889205939069325 0 -0.018951026130146046 0.0003086684480934926 0 -0.019168972027036789 -0.00011281199872373476 0 -0.019738573506744475 0.00034205862861883928 0 -0.019335352483781532 0.00023889205939069325 0 -0.019640428432962109 -8.3180929448197355e-06 0 -0.019732769640621883 0.00063014509013837629 0 -0.019738573506744475 0.00034205862861883928 0 -0.019449499649432694 0.00057456085555718695 0 -0.019738573506744475 0.00034205862861883928 0 -0.019335352483781532 0.00023889205939069325 0 -0.019449499649432694 0.00057456085555718695 0 -0.019335352483781532 0.00023889205939069325 0 -0.019449499649432694 0.00057456085555718695 0 -0.01914375635587055 0.00053260237688399826 0 -0.019335352483781532 0.00023889205939069325 0 -0.01914375635587055 0.00053260237688399826 0 -0.018951026130146046 0.0003086684480934926 0 -0.01914375635587055 0.00053260237688399826 0 -0.019344841198927275 0.00076569751526882693 0 -0.019131418713662588 0.00081917296418902664 0 -0.019449499649432694 0.00057456085555718695 0 -0.01914375635587055 0.00053260237688399826 0 -0.019344841198927275 0.00076569751526882693 0 -0.019344841198927275 0.00076569751526882693 0 -0.019131418713662588 0.00081917296418902664 0 -0.019243017967602149 0.00097879737244599917 0 -0.019344841198927275 0.00076569751526882693 0 -0.019430022647509586 0.00095913964093770191 0 -0.019243017967602149 0.00097879737244599917 0 -0.019449499649432694 0.00057456085555718695 0 -0.019344841198927275 0.00076569751526882693 0 -0.019622228656357908 0.00089691197592620456 0 -0.019450965726029161 0.00056884695585804801 0 -0.019666614963069599 0.00089943959958983745 0 -0.019732769640621883 0.00063014509013837629 0 -0.019449499649432694 0.00057456085555718695 0 -0.019621514237589351 0.00076730271960664617 0 -0.019344841198927275 0.00076569751526882693 0 -0.019622228656357908 0.00089691197592620456 0 -0.019430022647509586 0.00095913964093770191 0 -0.0187611582478002 0.00086794616334712974 0 -0.019416845033174032 0.0011512485603304839 0 -0.019773621304407688 0.0011733698045713345 0 -0.019622228656357908 0.00089691197592620456 0 -0.019569680138638756 0.0010828581391477046 0 -0.019443466222567166 0.0012357074357316551 0 -0.019430022647509586 0.00095913964093770191 0 -0.019569680138638756 0.0010828581391477046 0 -0.019443466222567166 0.0012357074357316551 0 -0.019773621304407688 0.0011733698045713345 0 -0.019569680138638756 0.0010828581391477046 0 -0.019622228656357908 0.00089691197592620456 0 -0.019430022647509586 0.00095913964093770191 0 -0.019569680138638756 0.0010828581391477046 0 -0.019451041422988022 0.0013824646355555788 0 -0.019430022647509586 0.00095913964093770191 0 -0.019250660632682975 0.0011833293960701722 0 -0.019027698820332589 0.0011151483706283282 0 -0.019243017967602149 0.00097879737244599917 0 -0.019250660632682975 0.0011833293960701722 0 -0.019131418713662588 0.00081917296418902664 0 -0.019027698820332589 0.0011151483706283282 0 -0.019243017967602149 0.00097879737244599917 0 -0.019430022647509586 0.00095913964093770191 0 -0.019243017967602149 0.00097879737244599917 0 -0.019250660632682975 0.0011833293960701722 0 -0.01895454750244641 0.0014786154262378403 0 -0.019027698820332589 0.0011151483706283282 0 -0.019250660632682975 0.0011833293960701722 0 -0.019027698820332589 0.0011151483706283282 0 -0.018565993613410936 0.0012884555956859918 0 -0.018311032341980091 0.00075442445440913463 0 -0.018914416479333979 0.0015718126717389886 0 -0.019027698820332589 0.0011151483706283282 0 -0.018565993613410936 0.0012884555956859918 0 -0.018629580318031736 0.0014227239597354889 0 -0.01898115259484329 0.0011762087518310271 0 -0.018565993613410936 0.0012884555956859918 0 -0.018138750706864663 0.0013633227689789462 0 -0.018311032341980091 0.00075442445440913463 0 -0.018138750706864663 0.0013633227689789462 0 -0.018311032341980091 0.00075442445440913463 0 -0.017827835822944206 0.0010967374137724325 0 -0.01914375635587055 0.00053260237688399826 0 -0.019131418713662588 0.00081917296418902664 0 -0.018665328111124712 0.00084725172807675138 0 -0.019131418713662588 0.00081917296418902664 0 -0.019027698820332589 0.0011151483706283282 0 -0.018311032341980091 0.00075442445440913463 0 -0.019086711914446962 0.00081765782723026168 0 -0.018497115406441011 0.00080421980914009597 0 -0.017474277513565728 0.0011645669364462367 0 -0.017556454487922566 0.00073996946181299858 0 -0.017055092236096581 0.001101069878600588 0 -0.017276364315345377 0.0014857617964208487 0 -0.017474277513565728 0.0011645669364462367 0 -0.017055092236096581 0.001101069878600588 0 -0.016491823813044041 0.0015627587574967969 0 -0.017169701442588399 0.0011234315342717935 0 -0.017276364315345377 0.0014857617964208487 0 -0.017670401318244038 0.0014524592111658441 0 -0.017474277513565728 0.0011645669364462367 0 -0.017670401318244038 0.0014524592111658441 0 -0.018138750706864663 0.0013633227689789462 0 -0.017827835822944206 0.0010967374137724325 0 -0.017474277513565728 0.0011645669364462367 0 -0.017827835822944206 0.0010967374137724325 0 -0.017556454487922566 0.00073996946181299858 0 -0.017670401318244038 0.0014524592111658441 0 -0.017474277513565728 0.0011645669364462367 0 -0.017827835822944206 0.0010967374137724325 0 -0.018311032341980091 0.00075442445440913463 0 -0.017827835822944206 0.0010967374137724325 0 -0.017556454487922566 0.00073996946181299858 0 -0.018497115406441011 0.00080421980914009597 0 -0.01778765912300391 0.00080041275839971631 0 -0.018665328111124712 0.00084725172807675138 0 -0.018063605101936667 0.00087426781310666031 0 -0.018264331703541348 0.00050815856018780303 0 -0.01778765912300391 0.00080041275839971631 0 -0.017191355441094194 0.00083463725027109784 0 -0.017556454487922566 0.00073996946181299858 0 -0.017055092236096581 0.001101069878600588 0 -0.016833945144349428 0.00072132741921868831 0 -0.018063605101936667 0.00087426781310666031 0 -0.017683061279935436 0.00048571050873635289 0 -0.017376446280103756 0.00086891958020357367 0 -0.017683061279935436 0.00048571050873635289 0 -0.018264331703541348 0.00050815856018780303 0 -0.017905738073380927 0.0001456450374042266 0 -0.018063605101936667 0.00087426781310666031 0 -0.017683061279935436 0.00048571050873635289 0 -0.018264331703541348 0.00050815856018780303 0 -0.018264331703541348 0.00050815856018780303 0 -0.017905738073380927 0.0001456450374042266 0 -0.018492398264831175 0.00015779323274884004 0 -0.017905738073380927 0.0001456450374042266 0 -0.018492398264831175 0.00015779323274884004 0 -0.018073882650826743 -0.00022640071723508803 0 -0.017905738073380927 0.0001456450374042266 0 -0.018073882650826743 -0.00022640071723508803 0 -0.017559613964106251 -0.00020580210278611807 0 -0.01914375635587055 0.00053260237688399826 0 -0.018665328111124712 0.00084725172807675138 0 -0.018716649981478001 0.00047328956576383021 0 -0.01914375635587055 0.00053260237688399826 0 -0.018716649981478001 0.00047328956576383021 0 -0.018951026130146046 0.0003086684480934926 0 -0.018264331703541348 0.00050815856018780303 0 -0.018716649981478001 0.00047328956576383021 0 -0.018492398264831175 0.00015779323274884004 0 -0.018665328111124712 0.00084725172807675138 0 -0.018264331703541348 0.00050815856018780303 0 -0.018716649981478001 0.00047328956576383021 0 -0.018716649981478001 0.00047328956576383021 0 -0.018492398264831175 0.00015779323274884004 0 -0.018951026130146046 0.0003086684480934926 0 -0.018492398264831175 0.00015779323274884004 0 -0.018951026130146046 0.0003086684480934926 0 -0.018836161766728761 -3.8323206604574166e-05 0 -0.018951026130146046 0.0003086684480934926 0 -0.018836161766728761 -3.8323206604574166e-05 0 -0.019168972027036789 -0.00011281199872373476 0 -0.018836161766728761 -3.8323206604574166e-05 0 -0.018915527050436746 -0.00030481697993687125 0 -0.019168972027036789 -0.00011281199872373476 0 -0.018492398264831175 0.00015779323274884004 0 -0.018836161766728761 -3.8323206604574166e-05 0 -0.018633131210480068 -0.00027293812574159159 0 -0.018836161766728761 -3.8323206604574166e-05 0 -0.018633131210480068 -0.00027293812574159159 0 -0.018915527050436746 -0.00030481697993687125 0 -0.018633131210480068 -0.00027293812574159159 0 -0.018756702492286319 -0.00050183477506350604 0 -0.018915527050436746 -0.00030481697993687125 0 -0.018633131210480068 -0.00027293812574159159 0 -0.018756702492286319 -0.00050183477506350604 0 -0.018426951858099283 -0.0004008086550032611 0 -0.018915527050436746 -0.00030481697993687125 0 -0.019215217999032762 -0.00060169135196095356 0 -0.019168972027036789 -0.00011281199872373476 0 -0.018756702492286319 -0.00050183477506350604 0 -0.018915527050436746 -0.00030481697993687125 0 -0.019215217999032762 -0.00060169135196095356 0 -0.018073882650826743 -0.00022640071723508803 0 -0.017557799107882577 -0.00057382484065831066 0 -0.017559613964106251 -0.00020580210278611807 0 -0.018073882650826743 -0.00022640071723508803 0 -0.018149659948773423 -0.00066653259359748579 0 -0.017557799107882577 -0.00057382484065831066 0 -0.018492398264831175 0.00015779323274884004 0 -0.018633131210480068 -0.00027293812574159159 0 -0.018073882650826743 -0.00022640071723508803 0 -0.018633131210480068 -0.00027293812574159159 0 -0.018073882650826743 -0.00022640071723508803 0 -0.018149659948773423 -0.00066653259359748579 0 -0.021183483923543873 0.00092137671957737491 0 -0.01913768753458955 0.00026835102297994499 0 -0.023216616668823402 0.0022153574341396056 0 -0.022006494896305798 0.0025915126606875873 0 -0.022507791615996076 0.0019908904844002334 0 -0.0182432517130704 -0.00055547068369144468 0 -0.01913768753458955 0.00026835102297994499 0 -0.016952139761911608 -0.00040779306443734163 0 -0.016781339014908851 -0.00038550308943743715 0 -0.016754283671510085 -0.00047739409021380465 0 -0.01913768753458955 0.00026835102297994499 0 -0.016882351069114416 -0.00049975856037034431 0 -0.01913768753458955 0.00026835102297994499 0 -0.018913673186649015 0.00083417294524066828 0 -0.021798800867690423 0.0016140260856922011 0 -0.021319621505522638 0.00085594938250086155 0 -0.020836640199788325 0.0018355802880876415 0 -0.022006494896305798 0.0025915126606875873 0 -0.021798800867690423 0.0016140260856922011 0 -0.020836640199788325 0.0018355802880876415 0 -0.022006494896305798 0.0025915126606875873 0 -0.021798800867690423 0.0016140260856922011 0 -0.022507791615996076 0.0019908904844002334 0 -0.021798800867690423 0.0016140260856922011 0 -0.022507791615996076 0.0019908904844002334 0 -0.022955227098583785 0.0010284757841026741 0 -0.021798800867690423 0.0016140260856922011 0 -0.021319621505522638 0.00085594938250086155 0 -0.022955227098583785 0.0010284757841026741 0 -0.021183483923543873 0.00092137671957737491 0 -0.021637895819032044 0.00057993283297683249 0 -0.023216616668823402 0.0022153574341396056 0 -0.023540605587020612 0.0015395001532062615 0 -0.024175845231485926 0.0017676938427199039 0 -0.023540605587020612 0.0015395001532062615 0 -0.024007668305569947 0.00097430261864488285 0 -0.024175845231485926 0.0017676938427199039 0 -0.023216616668823402 0.0022153574341396056 0 -0.022507791615996076 0.0019908904844002334 0 -0.023540605587020612 0.0015395001532062615 0 -0.022507791615996076 0.0019908904844002334 0 -0.023540605587020612 0.0015395001532062615 0 -0.022955227098583785 0.0010284757841026741 0 -0.023540605587020612 0.0015395001532062615 0 -0.022955227098583785 0.0010284757841026741 0 -0.024007668305569947 0.00097430261864488285 0 -0.024007668305569947 0.00097430261864488285 0 -0.024486637663556254 0.0011076893325555331 0 -0.024175845231485926 0.0017676938427199039 0 -0.021637895819032044 0.00057993283297683249 0 -0.022273677514404396 0.00038501276799678987 0 -0.019215217999032762 -0.00060169135196095356 0 -0.019696044348277725 -0.00073944588268433332 0 -0.019500225574320629 -0.00034959091867754597 0 -0.024486637663556254 0.0011076893325555331 0 -0.024175845231485926 0.0017676938427199039 0 -0.02480363792645475 0.0014241990569975507 0 -0.024486637663556254 0.0011076893325555331 0 -0.02480363792645475 0.0014241990569975507 0 -0.024867199864316639 0.00090488235540331721 0 -0.02480363792645475 0.0014241990569975507 0 -0.025324059144185427 0.0012058444251130669 0 -0.024867199864316639 0.00090488235540331721 0 -0.025324059144185427 0.0012058444251130669 0 -0.025229865178329262 0.00069977747617039321 0 -0.024867199864316639 0.00090488235540331721 0 -0.0248794252816349 -0.00025751874269113216 0 -0.024906689599928641 -0.00020126502121936839 0 -0.02487319737069604 -0.00022571068674303202 0 -0.022673109695103513 -0.00024010657969866518 0 -0.025286517508555643 0.00044853514362344491 0 -0.022673109695103513 -0.00024010657969866518 0 -0.020243945343720541 -0.0010167937609540784 0 -0.020332958308979476 -0.001442422212485825 0 -0.020395705235391502 -0.0005128572616855643 0 -0.020842638829727606 -0.00095896479255109309 0 -0.020298210463038882 -0.00094875859368145747 0 -0.020395705235391502 -0.0005128572616855643 0 -0.020050397744849808 -0.00056854560049212364 0 -0.020332958308979476 -0.001442422212485825 0 -0.020842638829727606 -0.00095896479255109309 0 -0.021174969402319808 -0.0012649118767834315 0 -0.020395705235391502 -0.0005128572616855643 0 -0.020842638829727606 -0.00095896479255109309 0 -0.02102668078688584 -0.00066625192446132962 0 -0.022273677514404396 0.00038501276799678987 0 -0.022673109695103513 -0.00024010657969866518 0 -0.019696044348277725 -0.00073944588268433332 0 -0.020298210463038882 -0.00094875859368145747 0 -0.020050397744849808 -0.00056854560049212364 0 -0.019696044348277725 -0.00073944588268433332 0 -0.020050397744849808 -0.00056854560049212364 0 -0.019818678197470723 -0.00033338824422672652 0 -0.020050397744849808 -0.00056854560049212364 0 -0.019818678197470723 -0.00033338824422672652 0 -0.02010040754377657 -0.00028304665332776598 0 -0.019818678197470723 -0.00033338824422672652 0 -0.02010040754377657 -0.00028304665332776598 0 -0.020025951326990105 -4.6191076577133454e-05 0 -0.020395705235391502 -0.0005128572616855643 0 -0.02031504569160875 -3.470830548750463e-05 0 -0.021179191299164735 -0.00034349477271781992 0 -0.020395705235391502 -0.0005128572616855643 0 -0.020050397744849808 -0.00056854560049212364 0 -0.02010040754377657 -0.00028304665332776598 0 -0.020395705235391502 -0.0005128572616855643 0 -0.02010040754377657 -0.00028304665332776598 0 -0.02031504569160875 -3.470830548750463e-05 0 -0.02010040754377657 -0.00028304665332776598 0 -0.02031504569160875 -3.470830548750463e-05 0 -0.020025951326990105 -4.6191076577133454e-05 0 -0.020211926393668971 0.00010698514461785818 0 -0.019934981513946959 0.00013633258460617957 0 -0.020025951326990105 -4.6191076577133454e-05 0 -0.02031504569160875 -3.470830548750463e-05 0 -0.020211926393668971 0.00010698514461785818 0 -0.020025951326990105 -4.6191076577133454e-05 0 -0.019818678197470723 -0.00033338824422672652 0 -0.020025951326990105 -4.6191076577133454e-05 0 -0.019640428432962109 -8.3180929448197355e-06 0 -0.019934981513946959 0.00013633258460617957 0 -0.020025951326990105 -4.6191076577133454e-05 0 -0.019640428432962109 -8.3180929448197355e-06 0 -0.019640428432962109 -8.3180929448197355e-06 0 -0.019168972027036789 -0.00011281199872373476 0 -0.019500225574320629 -0.00034959091867754597 0 -0.019335352483781532 0.00023889205939069325 0 -0.019640428432962109 -8.3180929448197355e-06 0 -0.019168972027036789 -0.00011281199872373476 0 -0.019215217999032762 -0.00060169135196095356 0 -0.019168972027036789 -0.00011281199872373476 0 -0.019500225574320629 -0.00034959091867754597 0 -0.019696044348277725 -0.00073944588268433332 0 -0.019818678197470723 -0.00033338824422672652 0 -0.019500225574320629 -0.00034959091867754597 0 -0.019818678197470723 -0.00033338824422672652 0 -0.019640428432962109 -8.3180929448197355e-06 0 -0.019500225574320629 -0.00034959091867754597 0 -0.012973299714539342 -0.0012263650131633091 0 -0.012086990250980874 -0.00031940999113635072 0 -0.012139844569580342 -0.0015203340936935372 0 -0.014291275964126061 -0.0012209483474170811 0 -0.016715851670599191 -0.00081305433669004066 0 -0.012973299714539342 -0.0012263650131633091 0 -0.012906981020923372 -0.0002400160863903234 0 -0.012086990250980874 -0.00031940999113635072 0 -0.015527684132861548 -0.00055515882130862109 0 -0.016715851670599191 -0.00081305433669004066 0 -0.014291275964126061 -0.0012209483474170811 0 -0.014978590674308715 -0.00078261361994449421 0 -0.012973299714539342 -0.0012263650131633091 0 -0.013603708570139161 -0.0004264403214907407 0 -0.014770709319987274 -0.00076876683905275592 0 -0.012973299714539342 -0.0012263650131633091 0 -0.013603708570139161 -0.0004264403214907407 0 -0.012906981020923372 -0.0002400160863903234 0 -0.013603708570139161 -0.0004264403214907407 0 -0.012906981020923372 -0.0002400160863903234 0 -0.013716669524233472 1.4114980703655617e-05 0 -0.012906981020923372 -0.0002400160863903234 0 -0.012924084721923254 0.00027714579191410115 0 -0.013716669524233472 1.4114980703655617e-05 0 -0.012906981020923372 -0.0002400160863903234 0 -0.012537937849515577 0.00016331244970377754 0 -0.012924084721923254 0.00027714579191410115 0 -0.012906981020923372 -0.0002400160863903234 0 -0.012537937849515577 0.00016331244970377754 0 -0.012086990250980874 -0.00031940999113635072 0 -0.012537937849515577 0.00016331244970377754 0 -0.012086990250980874 -0.00031940999113635072 0 -0.012228139837228036 0.00039596278111535163 0 -0.015527684132861548 -0.00055515882130862109 0 -0.015766700281643044 -3.2123313018951102e-05 0 -0.012537937849515577 0.00016331244970377754 0 -0.012228139837228036 0.00039596278111535163 0 -0.012516668878086449 0.0004096668336493299 0 -0.012228139837228036 0.00039596278111535163 0 -0.012339459037784058 0.00049672329937195607 0 -0.012516668878086449 0.0004096668336493299 0 -0.012250857799028625 0.00053716189834555016 0 -0.012228139837228036 0.00039596278111535163 0 -0.012339459037784058 0.00049672329937195607 0 -0.013840708155695172 -0.00017324853937614673 0 -0.015766700281643044 -3.2123313018951102e-05 0 -0.013840708155695172 -0.00017324853937614673 0 -0.01201208393128835 0.00065491090360225463 0 -0.013002330891173084 0.00017020751086473508 0 -0.012801215086575883 -6.5193725720840434e-05 0 -0.012339459037784058 0.00049672329937195607 0 -0.011536587416409097 0.00017819418766427502 0 -0.012348931909497913 0.00040972297209110027 0 -0.011992128807420113 0.00029795979766086351 0 -0.011536587416409097 0.00017819418766427502 0 -0.012339459037784058 0.00049672329937195607 0 -0.012348931909497913 0.00040972297209110027 0 -0.012339459037784058 0.00049672329937195607 0 -0.012348931909497913 0.00040972297209110027 0 -0.012516668878086449 0.0004096668336493299 0 -0.012348931909497913 0.00040972297209110027 0 -0.012516668878086449 0.0004096668336493299 0 -0.012924084721923254 0.00027714579191410115 0 -0.012537937849515577 0.00016331244970377754 0 -0.012516668878086449 0.0004096668336493299 0 -0.012924084721923254 0.00027714579191410115 0 -0.012348931909497913 0.00040972297209110027 0 -0.012924084721923254 0.00027714579191410115 0 -0.013282808732781846 0.00026255128510161867 0 -0.012348931909497913 0.00040972297209110027 0 -0.013282808732781846 0.00026255128510161867 0 -0.012838370836666523 0.00030241785022664698 0 -0.013282808732781846 0.00026255128510161867 0 -0.012838370836666523 0.00030241785022664698 0 -0.01304023888905469 0.00032875880952603243 0 -0.013282808732781846 0.00026255128510161867 0 -0.01304023888905469 0.00032875880952603243 0 -0.013746788079030898 0.0001448563975166502 0 -0.012348931909497913 0.00040972297209110027 0 -0.012838370836666523 0.00030241785022664698 0 -0.012200797090814423 0.00032325975629253994 0 -0.012838370836666523 0.00030241785022664698 0 -0.012200797090814423 0.00032325975629253994 0 -0.012545129832628234 0.00030597556712100272 0 -0.011635898896948276 0.00049256712631625028 0 -0.012200797090814423 0.00032325975629253994 0 -0.011992128807420113 0.00029795979766086351 0 -0.012348931909497913 0.00040972297209110027 0 -0.012200797090814423 0.00032325975629253994 0 -0.011992128807420113 0.00029795979766086351 0 -0.012174510652758905 0.00042444344965160099 0 -0.01227006749834425 0.00034032590779096891 0 -0.012272724437359141 0.00031303690135672677 0 -0.01227006749834425 0.00034032590779096891 0 -0.012320094696404812 0.00032634213214364816 0 -0.012395469979796294 0.00032276605736821813 0 -0.01227006749834425 0.00034032590779096891 0 -0.012395469979796294 0.00032276605736821813 0 -0.012291077095877088 0.00032402588783570635 0 -0.01227006749834425 0.00034032590779096891 0 -0.012291077095877088 0.00032402588783570635 0 -0.012272724437359141 0.00031303690135672677 0 -0.012174510652758905 0.00042444344965160099 0 -0.01227006749834425 0.00034032590779096891 0 -0.012159667460906912 0.00039272777252858222 0 -0.01227006749834425 0.00034032590779096891 0 -0.012159667460906912 0.00039272777252858222 0 -0.012320094696404812 0.00032634213214364816 0 -0.012005956625008878 0.00042087941664770682 0 -0.012159667460906912 0.00039272777252858222 0 -0.012320094696404812 0.00032634213214364816 0 -0.012005956625008878 0.00042087941664770682 0 -0.012200797090814423 0.00032325975629253994 0 -0.012320094696404812 0.00032634213214364816 0 -0.012200797090814423 0.00032325975629253994 0 -0.012320094696404812 0.00032634213214364816 0 -0.012545129832628234 0.00030597556712100272 0 -0.012320094696404812 0.00032634213214364816 0 -0.012545129832628234 0.00030597556712100272 0 -0.01257096156104935 0.00032278845923030782 0 -0.012320094696404812 0.00032634213214364816 0 -0.01257096156104935 0.00032278845923030782 0 -0.012395469979796294 0.00032276605736821813 0 -0.01257096156104935 0.00032278845923030782 0 -0.012395469979796294 0.00032276605736821813 0 -0.012291077095877088 0.00032402588783570635 0 -0.01257096156104935 0.00032278845923030782 0 -0.012291077095877088 0.00032402588783570635 0 -0.012235290098203816 0.00033320689228006598 0 -0.015420240188375414 0.00071312030969901917 0 -0.015792832779392415 0.0008499212468964447 0 -0.015743135178285666 0.0010818550509360751 0 -0.014288772591206395 0.00041120368454786545 0 -0.013448202504950877 0.00073193969685190856 0 -0.01257096156104935 0.00032278845923030782 0 -0.01304023888905469 0.00032875880952603243 0 -0.012235290098203816 0.00033320689228006598 0 -0.012838370836666523 0.00030241785022664698 0 -0.012545129832628234 0.00030597556712100272 0 -0.01304023888905469 0.00032875880952603243 0 -0.012545129832628234 0.00030597556712100272 0 -0.01257096156104935 0.00032278845923030782 0 -0.01304023888905469 0.00032875880952603243 0 -0.015697249043678033 0.00024231838465507374 0 -0.014731824199140839 -0.00019245096372297592 0 -0.015749937968672922 -0.00026753541401781667 0 -0.014288772591206395 0.00041120368454786545 0 -0.014502321900980074 -0.0001987796546697816 0 -0.01304023888905469 0.00032875880952603243 0 -0.013746788079030898 0.0001448563975166502 0 -0.014731824199140839 -0.00019245096372297592 0 -0.015420240188375414 0.00071312030969901917 0 -0.015697249043678033 0.00024231838465507374 0 -0.014731824199140839 -0.00019245096372297592 0 -0.012924084721923254 0.00027714579191410115 0 -0.013282808732781846 0.00026255128510161867 0 -0.013716669524233472 1.4114980703655617e-05 0 -0.013282808732781846 0.00026255128510161867 0 -0.013746788079030898 0.0001448563975166502 0 -0.013716669524233472 1.4114980703655617e-05 0 -0.013603708570139161 -0.0004264403214907407 0 -0.013716669524233472 1.4114980703655617e-05 0 -0.014770709319987274 -0.00076876683905275592 0 -0.013716669524233472 1.4114980703655617e-05 0 -0.014731824199140839 -0.00019245096372297592 0 -0.014770709319987274 -0.00076876683905275592 0 -0.013746788079030898 0.0001448563975166502 0 -0.013716669524233472 1.4114980703655617e-05 0 -0.014731824199140839 -0.00019245096372297592 0 -0.014770709319987274 -0.00076876683905275592 0 -0.015294719023556115 -0.00058940998466124484 0 -0.015647244588672869 -0.00066576400389471312 0 -0.014731824199140839 -0.00019245096372297592 0 -0.014770709319987274 -0.00076876683905275592 0 -0.015294719023556115 -0.00058940998466124484 0 -0.016277778405577811 -0.0010356348218960192 0 -0.014770709319987274 -0.00076876683905275592 0 -0.015647244588672869 -0.00066576400389471312 0 -0.015294719023556115 -0.00058940998466124484 0 -0.015749937968672922 -0.00026753541401781667 0 -0.01582081087586484 -0.00056973563123508919 0 -0.014731824199140839 -0.00019245096372297592 0 -0.015294719023556115 -0.00058940998466124484 0 -0.015749937968672922 -0.00026753541401781667 0 -0.015749937968672922 -0.00026753541401781667 0 -0.016353818088295263 -0.00041386110542290805 0 -0.01582081087586484 -0.00056973563123508919 0 -0.015749937968672922 -0.00026753541401781667 0 -0.016169508395114891 0.00016499121746442341 0 -0.016353818088295263 -0.00041386110542290805 0 -0.016725185587742986 -6.6083412671551428e-05 0 -0.016169508395114891 0.00016499121746442341 0 -0.016353818088295263 -0.00041386110542290805 0 -0.016725185587742986 -6.6083412671551428e-05 0 -0.016169508395114891 0.00016499121746442341 0 -0.016824485300054419 0.00030326872575360428 0 -0.016169508395114891 0.00016499121746442341 0 -0.015973910275765207 0.00064144112840012265 0 -0.016338976450213941 0.00064357221834992996 0 -0.016169508395114891 0.00016499121746442341 0 -0.016685261206676832 0.00069423604220918915 0 -0.016824485300054419 0.00030326872575360428 0 -0.016177353539397359 0.00022108920089179064 0 -0.016490827215646695 0.00063999646405897526 0 -0.015697249043678033 0.00024231838465507374 0 -0.016169508395114891 0.00016499121746442341 0 -0.015973910275765207 0.00064144112840012265 0 -0.015697249043678033 0.00024231838465507374 0 -0.015749937968672922 -0.00026753541401781667 0 -0.016169508395114891 0.00016499121746442341 0 -0.015420240188375414 0.00071312030969901917 0 -0.015973910275765207 0.00064144112840012265 0 -0.015792832779392415 0.0008499212468964447 0 -0.015420240188375414 0.00071312030969901917 0 -0.015697249043678033 0.00024231838465507374 0 -0.015973910275765207 0.00064144112840012265 0 -0.015973910275765207 0.00064144112840012265 0 -0.015792832779392415 0.0008499212468964447 0 -0.016002139724129668 0.00092933357544304289 0 -0.015973910275765207 0.00064144112840012265 0 -0.016002139724129668 0.00092933357544304289 0 -0.016172375927975494 0.0008092526601918967 0 -0.016002139724129668 0.00092933357544304289 0 -0.015743135178285666 0.0010818550509360751 0 -0.016198108581224387 0.0011649554918584167 0 -0.015792832779392415 0.0008499212468964447 0 -0.016002139724129668 0.00092933357544304289 0 -0.015743135178285666 0.0010818550509360751 0 -0.013448202504950877 0.00073193969685190856 0 -0.013837942870253696 0.0011444983385759248 0 -0.013325386790846981 0.00069144135463243951 0 -0.013448202504950877 0.00073193969685190856 0 -0.016232333809711057 0.00093654317457416683 0 -0.016202631773896508 0.00094469203606154244 0 -0.016261323730559284 0.00091298103170993599 0 -0.013837942870253696 0.0011444983385759248 0 -0.01518979862009809 0.0010141652081954416 0 -0.016002139724129668 0.00092933357544304289 0 -0.016198108581224387 0.0011649554918584167 0 -0.016202631773896508 0.00094469203606154244 0 -0.016002139724129668 0.00092933357544304289 0 -0.016202631773896508 0.00094469203606154244 0 -0.016172375927975494 0.0008092526601918967 0 -0.016202631773896508 0.00094469203606154244 0 -0.016273762235881773 0.0008621806912858783 0 -0.016172375927975494 0.0008092526601918967 0 -0.016202631773896508 0.00094469203606154244 0 -0.016273762235881773 0.0008621806912858783 0 -0.016261323730559284 0.00091298103170993599 0 -0.016273762235881773 0.0008621806912858783 0 -0.016172375927975494 0.0008092526601918967 0 -0.016338976450213941 0.00064357221834992996 0 -0.016273762235881773 0.0008621806912858783 0 -0.016338976450213941 0.00064357221834992996 0 -0.01630675355520125 0.00082850715523015905 0 -0.015973910275765207 0.00064144112840012265 0 -0.016172375927975494 0.0008092526601918967 0 -0.016338976450213941 0.00064357221834992996 0 -0.016685261206676832 0.00069423604220918915 0 -0.017070821756320066 0.00086068820097876138 0 -0.017151653902078467 0.0005003000226130235 0 -0.017070821756320066 0.00086068820097876138 0 -0.017354534088409073 0.00087046984247882272 0 -0.017151653902078467 0.0005003000226130235 0 -0.017070821756320066 0.00086068820097876138 0 -0.017035245320368479 0.00097263025408803982 0 -0.01709824194608113 0.0010150663017506703 0 -0.017070821756320066 0.00086068820097876138 0 -0.01709824194608113 0.0010150663017506703 0 -0.017221976534112927 0.00088759951515784041 0 -0.016618166461661341 0.00096364164128385197 0 -0.016614650922776048 0.0010883226587425651 0 -0.016338976450213941 0.00064357221834992996 0 -0.016317271177716895 0.00087148692972853861 0 -0.01630675355520125 0.00082850715523015905 0 -0.016490827215646695 0.00063999646405897526 0 -0.016618166461661341 0.00096364164128385197 0 -0.016685261206676832 0.00069423604220918915 0 -0.017070821756320066 0.00086068820097876138 0 -0.017035245320368479 0.00097263025408803982 0 -0.016317271177716895 0.00087148692972853861 0 -0.01630675355520125 0.00082850715523015905 0 -0.016291647908089266 0.00088794127218287222 0 -0.016273762235881773 0.0008621806912858783 0 -0.01630675355520125 0.00082850715523015905 0 -0.016291647908089266 0.00088794127218287222 0 -0.016273762235881773 0.0008621806912858783 0 -0.016291647908089266 0.00088794127218287222 0 -0.016261323730559284 0.00091298103170993599 0 -0.016317271177716895 0.00087148692972853861 0 -0.016291647908089266 0.00088794127218287222 0 -0.016289834405037871 0.00089630960558452022 0 -0.016291647908089266 0.00088794127218287222 0 -0.016289834405037871 0.00089630960558452022 0 -0.016255544413460294 0.00089623328566604374 0 -0.01624307249614091 0.00085884329813597118 0 -0.016255544413460294 0.00089623328566604374 0 -0.016261323730559284 0.00091298103170993599 0 -0.016291647908089266 0.00088794127218287222 0 -0.016255544413460294 0.00089623328566604374 0 -0.016261323730559284 0.00091298103170993599 0 -0.016247320445500188 0.0011819951003983768 0 -0.016366704374684845 0.0012461049446195354 0 -0.016391289329128991 0.0012823262946057845 0 -0.016491823813044041 0.0015627587574967969 0 -0.016838802913301573 0.001249286640556858 0 -0.017381272256509969 0.0012383589611955812 0 -0.017263439727447982 0.0011334957558031685 0 -0.017311059098977604 0.0010885040346950779 0 -0.016289834405037871 0.00089630960558452022 0 -0.016255544413460294 0.00089623328566604374 0 -0.016179829271505967 0.00091360969550789326 0 -0.016534453432034954 0.0013803855789615651 0 -0.016366704374684845 0.0012461049446195354 0 -0.016391289329128991 0.0012823262946057845 0 -0.016614650922776048 0.0010883226587425651 0 -0.016299099194451244 0.0010766083769513828 0 -0.016614650922776048 0.0010883226587425651 0 -0.016838802913301573 0.001249286640556858 0 -0.01709824194608113 0.0010150663017506703 0 -0.017263439727447982 0.0011334957558031685 0 -0.017220018060888596 0.0010328789034412373 0 -0.017220018060888596 0.0010328789034412373 0 -0.017311059098977604 0.0010885040346950779 0 -0.017221976534112927 0.00088759951515784041 0 -0.017263439727447982 0.0011334957558031685 0 -0.017220018060888596 0.0010328789034412373 0 -0.017311059098977604 0.0010885040346950779 0 -0.017169701442588399 0.0011234315342717935 0 -0.017191355441094194 0.00083463725027109784 0 -0.01713689373160009 0.00085275844104003014 0 -0.017191355441094194 0.00083463725027109784 0 -0.01709824194608113 0.0010150663017506703 0 -0.017220018060888596 0.0010328789034412373 0 -0.017221976534112927 0.00088759951515784041 0 -0.017191355441094194 0.00083463725027109784 0 -0.017186541104677194 0.00058698601966217581 0 -0.017683061279935436 0.00048571050873635289 0 -0.017376446280103756 0.00086891958020357367 0 -0.017151653902078467 0.0005003000226130235 0 -0.017683061279935436 0.00048571050873635289 0 -0.017151653902078467 0.0005003000226130235 0 -0.017288005436354285 0.00011434111381884421 0 -0.017683061279935436 0.00048571050873635289 0 -0.017905738073380927 0.0001456450374042266 0 -0.017288005436354285 0.00011434111381884421 0 -0.016685261206676832 0.00069423604220918915 0 -0.017151653902078467 0.0005003000226130235 0 -0.016824485300054419 0.00030326872575360428 0 -0.017151653902078467 0.0005003000226130235 0 -0.016824485300054419 0.00030326872575360428 0 -0.017288005436354285 0.00011434111381884421 0 -0.016725185587742986 -6.6083412671551428e-05 0 -0.017288005436354285 0.00011434111381884421 0 -0.016946253982903395 -0.00049471625913163756 0 -0.016725185587742986 -6.6083412671551428e-05 0 -0.016824485300054419 0.00030326872575360428 0 -0.017288005436354285 0.00011434111381884421 0 -0.017905738073380927 0.0001456450374042266 0 -0.017288005436354285 0.00011434111381884421 0 -0.017559613964106251 -0.00020580210278611807 0 -0.017288005436354285 0.00011434111381884421 0 -0.017559613964106251 -0.00020580210278611807 0 -0.016946253982903395 -0.00049471625913163756 0 -0.016882351069114416 -0.00049975856037034431 0 -0.016853300432002276 -0.00045770253492820047 0 -0.017557799107882577 -0.00057382484065831066 0 -0.017559613964106251 -0.00020580210278611807 0 -0.016946253982903395 -0.00049471625913163756 0 -0.016781339014908851 -0.00038550308943743715 0 -0.016668628650437126 -0.00040163740723919879 0 -0.016695340009442537 -0.00046351039720513471 0 -0.016668628650437126 -0.00040163740723919879 0 -0.016695340009442537 -0.00046351039720513471 0 -0.0166318871929515 -0.00051407834090058039 0 -0.016781339014908851 -0.00038550308943743715 0 -0.016695340009442537 -0.00046351039720513471 0 -0.016754283671510085 -0.00047739409021380465 0 -0.021319621505522638 0.00085594938250086155 0 -0.020836640199788325 0.0018355802880876415 0 -0.020520267282040705 0.00071093645667261412 0 -0.020836640199788325 0.0018355802880876415 0 -0.020520267282040705 0.00071093645667261412 0 -0.019874481399808932 0.0011025630543616766 0 -0.020520267282040705 0.00071093645667261412 0 -0.019874481399808932 0.0011025630543616766 0 -0.019760749167290977 6.0650252775013334e-05 0 -0.018913673186649015 0.00083417294524066828 0 -0.018266316980152551 0.00029896511272504023 0 -0.016695340009442537 -0.00046351039720513471 0 -0.016707130600641069 -0.0003829995742468749 0 -0.0166318871929515 -0.00051407834090058039 0 -0.016695340009442537 -0.00046351039720513471 0 -0.016754283671510085 -0.00047739409021380465 0 -0.016707130600641069 -0.0003829995742468749 0 -0.016707130600641069 -0.0003829995742468749 0 -0.017027520005790723 -0.0004034342846618344 0 -0.0166318871929515 -0.00051407834090058039 0 -0.016707130600641069 -0.0003829995742468749 0 -0.017027520005790723 -0.0004034342846618344 0 -0.017815916886757592 -0.00027114422330784088 0 -0.019874481399808932 0.0011025630543616766 0 -0.018868644449273803 -0.00022360110741974476 0 -0.019760749167290977 6.0650252775013334e-05 0 -0.019874481399808932 0.0011025630543616766 0 -0.017815916886757592 -0.00027114422330784088 0 -0.018868644449273803 -0.00022360110741974476 0 -0.018266316980152551 0.00029896511272504023 0 -0.017816060946402482 -0.00020248541199415474 0 -0.017027520005790723 -0.0004034342846618344 0 -0.016778264470726095 -0.00027898400724386905 0 -0.017815916886757592 -0.00027114422330784088 0 -0.017027520005790723 -0.0004034342846618344 0 -0.016624610759859968 -0.0004274360628727895 0 -0.0166318871929515 -0.00051407834090058039 0 -0.017027520005790723 -0.0004034342846618344 0 -0.016624610759859968 -0.0004274360628727895 0 -0.016778264470726095 -0.00027898400724386905 0 -0.016624610759859968 -0.0004274360628727895 0 -0.016321653766616838 -0.00052491728760881281 0 -0.0166318871929515 -0.00051407834090058039 0 -0.016624610759859968 -0.0004274360628727895 0 -0.016321653766616838 -0.00052491728760881281 0 -0.016190370379804774 -0.00050793855188049496 0 -0.016725185587742986 -6.6083412671551428e-05 0 -0.016946253982903395 -0.00049471625913163756 0 -0.016353818088295263 -0.00041386110542290805 0 -0.016853300432002276 -0.00045770253492820047 0 -0.01637187704922511 -0.00039748923957498014 0 -0.016668628650437126 -0.00040163740723919879 0 -0.0166318871929515 -0.00051407834090058039 0 -0.016353818088295263 -0.00041386110542290805 0 -0.016321653766616838 -0.00052491728760881281 0 -0.0166318871929515 -0.00051407834090058039 0 -0.016353818088295263 -0.00041386110542290805 0 -0.016321653766616838 -0.00052491728760881281 0 -0.016353818088295263 -0.00041386110542290805 0 -0.01582081087586484 -0.00056973563123508919 0 -0.01582081087586484 -0.00056973563123508919 0 -0.015647244588672869 -0.00066576400389471312 0 -0.016190370379804774 -0.00050793855188049496 0 -0.016321653766616838 -0.00052491728760881281 0 -0.01582081087586484 -0.00056973563123508919 0 -0.016190370379804774 -0.00050793855188049496 0 -0.015294719023556115 -0.00058940998466124484 0 -0.01582081087586484 -0.00056973563123508919 0 -0.015647244588672869 -0.00066576400389471312 0 -0.016273675310983643 -0.00059463247554040804 0 -0.016190370379804774 -0.00050793855188049496 0 -0.016403956394707354 -0.00024984370869065512 0 -0.015647244588672869 -0.00066576400389471312 0 -0.016273675310983643 -0.00059463247554040804 0 -0.016190370379804774 -0.00050793855188049496 0 -0.016190370379804774 -0.00050793855188049496 0 -0.016497711367178185 -0.0003609809974398936 0 -0.016403956394707354 -0.00024984370869065512 0 -0.016624610759859968 -0.0004274360628727895 0 -0.016497711367178185 -0.0003609809974398936 0 -0.016778264470726095 -0.00027898400724386905 0 -0.016624610759859968 -0.0004274360628727895 0 -0.016190370379804774 -0.00050793855188049496 0 -0.016497711367178185 -0.0003609809974398936 0 -0.016497711367178185 -0.0003609809974398936 0 -0.016778264470726095 -0.00027898400724386905 0 -0.016403956394707354 -0.00024984370869065512 0 -0.016778264470726095 -0.00027898400724386905 0 -0.016529601136802238 -0.00076702133861501515 0 -0.017815916886757592 -0.00027114422330784088 0 -0.016778264470726095 -0.00027898400724386905 0 -0.016369180777290548 -0.0005503140686331855 0 -0.016529601136802238 -0.00076702133861501515 0 -0.016778264470726095 -0.00027898400724386905 0 -0.016369180777290548 -0.0005503140686331855 0 -0.016403956394707354 -0.00024984370869065512 0 -0.016556015749563033 -0.00014816324759406798 0 -0.016378521491141499 0.00010032581557333826 0 -0.016369180777290548 -0.0005503140686331855 0 -0.016403956394707354 -0.00024984370869065512 0 -0.016301342559002962 -0.00059701895649557496 0 -0.016273675310983643 -0.00059463247554040804 0 -0.016403956394707354 -0.00024984370869065512 0 -0.017075052784815851 -0.00050019731400464669 0 -0.016403956394707354 -0.00024984370869065512 0 -0.017075052784815851 -0.00050019731400464669 0 -0.017185779882696869 5.2461800989277948e-05 0 -0.017075052784815851 -0.00050019731400464669 0 -0.017185779882696869 5.2461800989277948e-05 0 -0.017872593521810063 -7.3736064905183333e-05 0 -0.016403956394707354 -0.00024984370869065512 0 -0.017185779882696869 5.2461800989277948e-05 0 -0.017116133547234284 0.0008968340593366479 0 -0.017185779882696869 5.2461800989277948e-05 0 -0.017879146307208552 0.00051177718515302154 0 -0.017116133547234284 0.0008968340593366479 0 -0.018419195582081091 0.00032633979757219707 0 -0.018859288644888887 0.00087674543686561905 0 -0.018832217364645163 -1.7294620150660514e-05 0 -0.018419195582081091 0.00032633979757219707 0 -0.018859288644888887 0.00087674543686561905 0 -0.018425704878216181 0.00076418727585941804 0 -0.018425704878216181 0.00076418727585941804 0 -0.017879146307208552 0.00051177718515302154 0 -0.01838508427096151 0.0014238648424857304 0 -0.018419195582081091 0.00032633979757219707 0 -0.018425704878216181 0.00076418727585941804 0 -0.017879146307208552 0.00051177718515302154 0 -0.018419195582081091 0.00032633979757219707 0 -0.017879146307208552 0.00051177718515302154 0 -0.017872593521810063 -7.3736064905183333e-05 0 -0.017185779882696869 5.2461800989277948e-05 0 -0.017879146307208552 0.00051177718515302154 0 -0.017872593521810063 -7.3736064905183333e-05 0 -0.018419195582081091 0.00032633979757219707 0 -0.017872593521810063 -7.3736064905183333e-05 0 -0.018832217364645163 -1.7294620150660514e-05 0 -0.017872593521810063 -7.3736064905183333e-05 0 -0.018832217364645163 -1.7294620150660514e-05 0 -0.018212681302987522 -0.00046376189612474622 0 -0.01919228250055913 -0.00046795141502318854 0 -0.018832217364645163 -1.7294620150660514e-05 0 -0.018212681302987522 -0.00046376189612474622 0 -0.018127406907132236 -0.00037207612305149873 0 -0.018043165773561898 -0.00083389345878034059 0 -0.017075052784815851 -0.00050019731400464669 0 -0.018212681302987522 -0.00046376189612474622 0 -0.017234136492729861 -0.00066691860319668071 0 -0.018920017235230034 -0.00072263596466459962 0 -0.018212681302987522 -0.00046376189612474622 0 -0.018694274895667388 -0.00099070138430547511 0 -0.017075052784815851 -0.00050019731400464669 0 -0.017872593521810063 -7.3736064905183333e-05 0 -0.018212681302987522 -0.00046376189612474622 0 -0.018922873721422317 -0.00094175819568692012 0 -0.018694274895667388 -0.00099070138430547511 0 -0.018733007274425895 -0.0012412673511871376 0 -0.017075052784815851 -0.00050019731400464669 0 -0.017234136492729861 -0.00066691860319668071 0 -0.016646545406051795 -0.00073692329490748624 0 -0.016273675310983643 -0.00059463247554040804 0 -0.017075052784815851 -0.00050019731400464669 0 -0.016646545406051795 -0.00073692329490748624 0 -0.016277778405577811 -0.0010356348218960192 0 -0.015647244588672869 -0.00066576400389471312 0 -0.016646545406051795 -0.00073692329490748624 0 -0.015647244588672869 -0.00066576400389471312 0 -0.016273675310983643 -0.00059463247554040804 0 -0.016646545406051795 -0.00073692329490748624 0 -0.016277778405577811 -0.0010356348218960192 0 -0.016646545406051795 -0.00073692329490748624 0 -0.016987156618727274 -0.00098283080178786122 0 -0.017234136492729861 -0.00066691860319668071 0 -0.016646545406051795 -0.00073692329490748624 0 -0.016987156618727274 -0.00098283080178786122 0 -0.018043165773561898 -0.00083389345878034059 0 -0.016715851670599191 -0.00081305433669004066 0 -0.024396921213785696 0.0013027619935001983 0 -0.024808320225204985 0.0014589938319107998 0 -0.024845728183517934 0.00038622558446646635 0 -0.0245048828293634 0.0017911304397102922 0 -0.024885824151483407 0.0014190434363506191 0 -0.02473054810976371 0.002614791059267197 0 -0.02267149296563958 0.00061537759974377999 0 -0.022668072788620593 0.00058244782465717527 0 -0.022619699350787035 0.00054295204359121861 0 -0.024337772370189491 0.0013564823831638472 0 -0.024264721929165348 0.0010395654789186921 0 -0.02267149296563958 0.00061537759974377999 0 -0.022668072788620593 0.00058244782465717527 0 -0.022782124347351423 0.00030606939401955994 0 -0.022668072788620593 0.00058244782465717527 0 -0.022243202164322556 0.00053648589879631402 0 -0.022619699350787035 0.00054295204359121861 0 -0.022243202164322556 0.00053648589879631402 0 -0.022583608260895584 0.00031951298125766235 0 -0.022619699350787035 0.00054295204359121861 0 -0.022243202164322556 0.00053648589879631402 0 -0.022348346020692508 -5.3140577581870233e-05 0 -0.021052151412696118 -3.9801384743930556e-05 0 -0.022243202164322556 0.00053648589879631402 0 -0.022583608260895584 0.00031951298125766235 0 -0.022348346020692508 -5.3140577581870233e-05 0 -0.022583608260895584 0.00031951298125766235 0 -0.022930245670634897 0.00038250507675177296 0 -0.022684931660688835 0.00012106186495829863 0 -0.022583608260895584 0.00031951298125766235 0 -0.022684931660688835 0.00012106186495829863 0 -0.022348346020692508 -5.3140577581870233e-05 0 -0.024264721929165348 0.0010395654789186921 0 -0.023804084227696986 0.001440927638138026 0 -0.02267149296563958 0.00061537759974377999 0 -0.022619699350787035 0.00054295204359121861 0 -0.022930245670634897 0.00038250507675177296 0 -0.022583608260895584 0.00031951298125766235 0 -0.022619699350787035 0.00054295204359121861 0 -0.022930245670634897 0.00038250507675177296 0 -0.022930245670634897 0.00038250507675177296 0 -0.022859662088089615 -5.3805577515546802e-05 0 -0.022684931660688835 0.00012106186495829863 0 -0.01970777712054295 0.00088291555138114686 0 -0.019066816758336474 -0.00082941813936143142 0 -0.023141381193031191 -0.0002291472360607521 0 -0.022930245670634897 0.00038250507675177296 0 -0.022859662088089615 -5.3805577515546802e-05 0 -0.022859662088089615 -5.3805577515546802e-05 0 -0.023039976346272702 -0.00034458424543423348 0 -0.022348346020692508 -5.3140577581870233e-05 0 -0.021586265414324287 0.0017893140983427961 0 -0.023804084227696986 0.001440927638138026 0 -0.022859662088089615 -5.3805577515546802e-05 0 -0.022684931660688835 0.00012106186495829863 0 -0.022348346020692508 -5.3140577581870233e-05 0 -0.023141381193031191 -0.0002291472360607521 0 -0.022859662088089615 -5.3805577515546802e-05 0 -0.023039976346272702 -0.00034458424543423348 0 -0.021086787862682286 0.0014523626450880229 0 -0.021118678121076769 0.0012107032386969672 0 -0.020721231439597452 0.0011230489945503997 0 -0.021586265414324287 0.0017893140983427961 0 -0.01970777712054295 0.00088291555138114686 0 -0.020729252932224419 0.0017646687553444463 0 -0.01970777712054295 0.00088291555138114686 0 -0.019079445223327572 0.0028069036439057468 0 -0.018859288644888887 0.00087674543686561905 0 -0.01838508427096151 0.0014238648424857304 0 -0.01877728862354295 0.0027253272979173683 0 -0.01838508427096151 0.0014238648424857304 0 -0.017116133547234284 0.0008968340593366479 0 -0.019079445223327572 0.0028069036439057468 0 -0.01877728862354295 0.0027253272979173683 0 -0.01838508427096151 0.0014238648424857304 0 -0.01970777712054295 0.00088291555138114686 0 -0.016378521491141499 0.00010032581557333826 0 -0.017879146307208552 0.00051177718515302154 0 -0.01838508427096151 0.0014238648424857304 0 -0.017116133547234284 0.0008968340593366479 0 -0.018859288644888887 0.00087674543686561905 0 -0.018425704878216181 0.00076418727585941804 0 -0.01838508427096151 0.0014238648424857304 0 -0.016369180777290548 -0.0005503140686331855 0 -0.016308538738777641 -0.00058555604883602722 0 -0.016301342559002962 -0.00059701895649557496 0 -0.016504814661700881 -0.00048920526769082788 0 -0.016308538738777641 -0.00058555604883602722 0 -0.016301342559002962 -0.00059701895649557496 0 -0.023039976346272702 -0.00034458424543423348 0 -0.021852703314652829 -0.00074595231719673744 0 -0.022348346020692508 -5.3140577581870233e-05 0 -0.021852703314652829 -0.00074595231719673744 0 -0.022348346020692508 -5.3140577581870233e-05 0 -0.021052151412696118 -3.9801384743930556e-05 0 -0.021852703314652829 -0.00074595231719673744 0 -0.021052151412696118 -3.9801384743930556e-05 0 -0.020464872721402089 -0.00084134359575149624 0 -0.019066816758336474 -0.00082941813936143142 0 -0.018560710797920106 -0.0007143576636302265 0 -0.016369180777290548 -0.0005503140686331855 0 -0.016308538738777641 -0.00058555604883602722 0 -0.016529601136802238 -0.00076702133861501515 0 -0.020464872721402089 -0.00084134359575149624 0 -0.020222174694672794 -0.00017919048803293044 0 -0.019732562817926697 -0.00030890054075033999 0 -0.021052151412696118 -3.9801384743930556e-05 0 -0.020464872721402089 -0.00084134359575149624 0 -0.020222174694672794 -0.00017919048803293044 0 -0.021052151412696118 -3.9801384743930556e-05 0 -0.020222174694672794 -0.00017919048803293044 0 -0.020218213343121214 0.00013502394235667464 0 -0.021052151412696118 -3.9801384743930556e-05 0 -0.020728471464242965 0.00053868310266994371 0 -0.020218213343121214 0.00013502394235667464 0 -0.022310955170993664 0.00050887031876224373 0 -0.022145323641816605 0.00059998112638247835 0 -0.022243202164322556 0.00053648589879631402 0 -0.021052151412696118 -3.9801384743930556e-05 0 -0.020728471464242965 0.00053868310266994371 0 -0.022668072788620593 0.00058244782465717527 0 -0.022243202164322556 0.00053648589879631402 0 -0.023443277121090629 0.0008072129285737502 0 -0.022668072788620593 0.00058244782465717527 0 -0.023443277121090629 0.0008072129285737502 0 -0.023552189332159818 0.00035379388363354701 0 -0.020728471464242965 0.00053868310266994371 0 -0.020218213343121214 0.00013502394235667464 0 -0.020150375121766591 -1.9871471762647762e-06 0 -0.022145323641816605 0.00059998112638247835 0 -0.022308532340821544 0.00025413379296574176 0 -0.020121478146606055 -0.00010380289388261366 0 -0.020218213343121214 0.00013502394235667464 0 -0.020150375121766591 -1.9871471762647762e-06 0 -0.020121478146606055 -0.00010380289388261366 0 -0.020250392737976859 -0.00025560713098706612 0 -0.020388041346584347 -0.00040017326368073098 0 -0.020121478146606055 -0.00010380289388261366 0 -0.020010084192571068 -0.00017906127801926755 0 -0.020250392737976859 -0.00025560713098706612 0 -0.020121478146606055 -0.00010380289388261366 0 -0.020010084192571068 -0.00017906127801926755 0 -0.019874068644746775 -0.00012604480818118855 0 -0.020222174694672794 -0.00017919048803293044 0 -0.020218213343121214 0.00013502394235667464 0 -0.019874068644746775 -0.00012604480818118855 0 -0.020121478146606055 -0.00010380289388261366 0 -0.020218213343121214 0.00013502394235667464 0 -0.019874068644746775 -0.00012604480818118855 0 -0.019874068644746775 -0.00012604480818118855 0 -0.019732562817926697 -0.00030890054075033999 0 -0.01943621459055456 -0.00023131203595818284 0 -0.020222174694672794 -0.00017919048803293044 0 -0.019874068644746775 -0.00012604480818118855 0 -0.019732562817926697 -0.00030890054075033999 0 -0.018560710797920106 -0.0007143576636302265 0 -0.018892287963032436 -0.00032273994539206287 0 -0.016529601136802238 -0.00076702133861501515 0 -0.017815916886757592 -0.00027114422330784088 0 -0.018868644449273803 -0.00022360110741974476 0 -0.020464872721402089 -0.00084134359575149624 0 -0.019732562817926697 -0.00030890054075033999 0 -0.018868644449273803 -0.00022360110741974476 0 -0.019732562817926697 -0.00030890054075033999 0 -0.018868644449273803 -0.00022360110741974476 0 -0.01943621459055456 -0.00023131203595818284 0 -0.018868644449273803 -0.00022360110741974476 0 -0.01943621459055456 -0.00023131203595818284 0 -0.019760749167290977 6.0650252775013334e-05 0 -0.01943621459055456 -0.00023131203595818284 0 -0.019832467108666683 -0.00016924502001457116 0 -0.019760749167290977 6.0650252775013334e-05 0 -0.019874068644746775 -0.00012604480818118855 0 -0.01943621459055456 -0.00023131203595818284 0 -0.019832467108666683 -0.00016924502001457116 0 -0.020010084192571068 -0.00017906127801926755 0 -0.019874068644746775 -0.00012604480818118855 0 -0.019832467108666683 -0.00016924502001457116 0 -0.020010084192571068 -0.00017906127801926755 0 -0.019832467108666683 -0.00016924502001457116 0 -0.020328295167737875 -0.00016987748797804485 0 -0.019832467108666683 -0.00016924502001457116 0 -0.020328295167737875 -0.00016987748797804485 0 -0.020244041328759597 7.9265691400582167e-05 0 -0.019832467108666683 -0.00016924502001457116 0 -0.020244041328759597 7.9265691400582167e-05 0 -0.019760749167290977 6.0650252775013334e-05 0 -0.020520267282040705 0.00071093645667261412 0 -0.020244041328759597 7.9265691400582167e-05 0 -0.019760749167290977 6.0650252775013334e-05 0 -0.021319621505522638 0.00085594938250086155 0 -0.020520267282040705 0.00071093645667261412 0 -0.020793792385599117 0.00019715754073980438 0 -0.020520267282040705 0.00071093645667261412 0 -0.020244041328759597 7.9265691400582167e-05 0 -0.020793792385599117 0.00019715754073980438 0 -0.020328295167737875 -0.00016987748797804485 0 -0.020622223654603786 -0.00031543634773966936 0 -0.021000165424382509 -0.00010639930903259464 0 -0.020328295167737875 -0.00016987748797804485 0 -0.020793792385599117 0.00019715754073980438 0 -0.021000165424382509 -0.00010639930903259464 0 -0.020328295167737875 -0.00016987748797804485 0 -0.020244041328759597 7.9265691400582167e-05 0 -0.020793792385599117 0.00019715754073980438 0 -0.020622223654603786 -0.00031543634773966936 0 -0.021000165424382509 -0.00010639930903259464 0 -0.021002772484286558 -0.00037549271173556599 0 -0.020622223654603786 -0.00031543634773966936 0 -0.020773537756833091 -0.00045000638356489602 0 -0.021002772484286558 -0.00037549271173556599 0 -0.020622223654603786 -0.00031543634773966936 0 -0.020501088405585229 -0.00037870388945205442 0 -0.020773537756833091 -0.00045000638356489602 0 -0.020010084192571068 -0.00017906127801926755 0 -0.020328295167737875 -0.00016987748797804485 0 -0.020284749847867187 -0.00024872530861372012 0 -0.020328295167737875 -0.00016987748797804485 0 -0.020622223654603786 -0.00031543634773966936 0 -0.020284749847867187 -0.00024872530861372012 0 -0.020010084192571068 -0.00017906127801926755 0 -0.020284749847867187 -0.00024872530861372012 0 -0.020250392737976859 -0.00025560713098706612 0 -0.020284749847867187 -0.00024872530861372012 0 -0.020501088405585229 -0.00037870388945205442 0 -0.020250392737976859 -0.00025560713098706612 0 -0.020622223654603786 -0.00031543634773966936 0 -0.020284749847867187 -0.00024872530861372012 0 -0.020501088405585229 -0.00037870388945205442 0 -0.020501088405585229 -0.00037870388945205442 0 -0.020388041346584347 -0.00040017326368073098 0 -0.020710722143856164 -0.00056085290125296693 0 -0.020501088405585229 -0.00037870388945205442 0 -0.020250392737976859 -0.00025560713098706612 0 -0.020388041346584347 -0.00040017326368073098 0 -0.020773537756833091 -0.00045000638356489602 0 -0.020710722143856164 -0.00056085290125296693 0 -0.020868096591460467 -0.00054764591110369393 0 -0.020501088405585229 -0.00037870388945205442 0 -0.020773537756833091 -0.00045000638356489602 0 -0.020710722143856164 -0.00056085290125296693 0 -0.020710722143856164 -0.00056085290125296693 0 -0.020539068398682084 -0.000601643548000246 0 -0.020748245344418336 -0.00070888070432687965 0 -0.020710722143856164 -0.00056085290125296693 0 -0.020748245344418336 -0.00070888070432687965 0 -0.020931625799345065 -0.00066085117992595538 0 -0.020388041346584347 -0.00040017326368073098 0 -0.020710722143856164 -0.00056085290125296693 0 -0.020539068398682084 -0.000601643548000246 0 -0.020388041346584347 -0.00040017326368073098 0 -0.020539068398682084 -0.000601643548000246 0 -0.020269684153269803 -0.00051281204068638056 0 -0.020539068398682084 -0.000601643548000246 0 -0.020578709856946265 -0.00083369098604689853 0 -0.020269684153269803 -0.00051281204068638056 0 -0.023304307880012677 -0.00037589073166442841 0 -0.022465910096289732 -0.00011416037520416921 0 -0.024982610879346591 4.9220810986989084e-05 0 -0.024811696734380047 2.1656735534702238e-05 0 -0.024835518151781515 0.00021815816422852247 0 -0.020539068398682084 -0.000601643548000246 0 -0.020578709856946265 -0.00083369098604689853 0 -0.020748245344418336 -0.00070888070432687965 0 -0.023304307880012677 -0.00037589073166442841 0 -0.021620926160895993 -0.0010540073281968846 0 -0.022861610295052116 -0.0010101774600590422 0 -0.022921143996958371 -0.00096233743359590664 0 -0.022945308270382728 -0.0010315007172998457 0 -0.024952377080527877 -7.1921441993079538e-05 0 -0.024917149096853573 -5.1570626332201458e-05 0 -0.024957487774059053 -1.6930100958932639e-05 0 -0.022861610295052116 -0.0010101774600590422 0 -0.022932728870731858 -0.0010705240337914085 0 -0.022945308270382728 -0.0010315007172998457 0 -0.023304307880012677 -0.00037589073166442841 0 -0.0242998551744916 -0.00032915452437179746 0 -0.0242998551744916 -0.00032915452437179746 0 -0.02503850153539432 6.8431143462847311e-05 0 -0.024995826620037308 -1.8069933643292773e-05 0 -0.025001309444811052 -6.3096760811686187e-06 0 -0.024996982279960112 -9.368130089172225e-06 0 -0.025001309444811052 -6.3096760811686187e-06 0 -0.02500000442620252 -6.712924400101653e-10 0 -0.024996982279960112 -9.368130089172225e-06 0 -0.025001309444811052 -6.3096760811686187e-06 0 -0.025000005350314363 -5.788851255831871e-09 0 -0.02500000442620252 -6.712924400101653e-10 0 -0.024957487774059053 -1.6930100958932639e-05 0 -0.024999910173952408 1.0255644587860714e-08 0 -0.025003687346900401 -1.8992332391948032e-05 0 -0.02503850153539432 6.8431143462847311e-05 0 -0.024999937524817339 -6.7984886863529145e-08 0 -0.023304307880012677 -0.00037589073166442841 0 -0.025205154469763475 0.00010012069370157361 0 -0.024982610879346591 4.9220810986989084e-05 0 -0.024821253932492369 -5.5426903078214939e-05 0 -0.024811696734380047 2.1656735534702238e-05 0 -0.024952377080527877 -7.1921441993079538e-05 0 -0.024957487774059053 -1.6930100958932639e-05 0 -0.025003687346900401 -1.8992332391948032e-05 0 -0.024821253932492369 -5.5426903078214939e-05 0 -0.024781422501902357 -5.0516452809800969e-05 0 -0.024811696734380047 2.1656735534702238e-05 0 -0.024999910173952408 1.0255644587860714e-08 0 -0.025003687346900401 -1.8992332391948032e-05 0 -0.025000064052359883 -1.4337422988086317e-08 0 -0.024821253932492369 -5.5426903078214939e-05 0 -0.024998784968107382 -3.5409617315613047e-07 0 -0.024781422501902357 -5.0516452809800969e-05 0 -0.025205154469763475 0.00010012069370157361 0 -0.024999592885434557 -2.9706781745879425e-07 0 -0.024998784968107382 -3.5409617315613047e-07 0 -0.024781422501902357 -5.0516452809800969e-05 0 -0.024876312292000588 -7.0257165806477721e-05 0 -0.024781422501902357 -5.0516452809800969e-05 0 -0.024543179863946458 3.9291189344826555e-05 0 -0.024876312292000588 -7.0257165806477721e-05 0 -0.024781422501902357 -5.0516452809800969e-05 0 -0.024543179863946458 3.9291189344826555e-05 0 -0.024811696734380047 2.1656735534702238e-05 0 -0.024543179863946458 3.9291189344826555e-05 0 -0.024811696734380047 2.1656735534702238e-05 0 -0.024835518151781515 0.00021815816422852247 0 -0.020121478146606055 -0.00010380289388261366 0 -0.020388041346584347 -0.00040017326368073098 0 -0.020269684153269803 -0.00051281204068638056 0 -0.020121478146606055 -0.00010380289388261366 0 -0.020269684153269803 -0.00051281204068638056 0 -0.020150375121766591 -1.9871471762647762e-06 0 -0.024543179863946458 3.9291189344826555e-05 0 -0.024835518151781515 0.00021815816422852247 0 -0.024365812676340373 0.00055153295705267786 0 -0.022465910096289732 -0.00011416037520416921 0 -0.022308532340821544 0.00025413379296574176 0 -0.024999893870380346 1.0821682601220555e-07 0 -0.024998784968107382 -3.5409617315613047e-07 0 -0.024876312292000588 -7.0257165806477721e-05 0 -0.024999893870380346 1.0821682601220555e-07 0 -0.024876312292000588 -7.0257165806477721e-05 0 -0.024933650448445848 5.5379644247145655e-05 0 -0.023443277121090629 0.0008072129285737502 0 -0.024365812676340373 0.00055153295705267786 0 -0.023552189332159818 0.00035379388363354701 0 -0.024543179863946458 3.9291189344826555e-05 0 -0.024365812676340373 0.00055153295705267786 0 -0.023552189332159818 0.00035379388363354701 0 -0.023552189332159818 0.00035379388363354701 0 -0.023748207618232875 -0.00011697626892263762 0 -0.022782124347351423 0.00030606939401955994 0 -0.02434905966667408 2.3812240287201528e-05 0 -0.023811295942817438 0.00027241437832808296 0 -0.024543179863946458 3.9291189344826555e-05 0 -0.023552189332159818 0.00035379388363354701 0 -0.023748207618232875 -0.00011697626892263762 0 -0.024543179863946458 3.9291189344826555e-05 0 -0.023748207618232875 -0.00011697626892263762 0 -0.024876312292000588 -7.0257165806477721e-05 0 -0.024951438344608497 5.5293985127608504e-05 0 -0.024876312292000588 -7.0257165806477721e-05 0 -0.024933650448445848 5.5379644247145655e-05 0 -0.02434905966667408 2.3812240287201528e-05 0 -0.024780832958943712 -7.2073157632251706e-05 0 -0.024735097157528106 6.9947950464387208e-05 0 -0.024999893870380346 1.0821682601220555e-07 0 -0.024933650448445848 5.5379644247145655e-05 0 -0.024933650448445848 5.5379644247145655e-05 0 -0.02495694494935569 0.00032825976941554675 0 -0.024845728183517934 0.00038622558446646635 0 -0.024735097157528106 6.9947950464387208e-05 0 -0.024933650448445848 5.5379644247145655e-05 0 -0.024845728183517934 0.00038622558446646635 0 -0.024951438344608497 5.5293985127608504e-05 0 -0.024933650448445848 5.5379644247145655e-05 0 -0.02495694494935569 0.00032825976941554675 0 -0.022668072788620593 0.00058244782465717527 0 -0.023552189332159818 0.00035379388363354701 0 -0.022782124347351423 0.00030606939401955994 0 -0.024264721929165348 0.0010395654789186921 0 -0.023811295942817438 0.00027241437832808296 0 -0.024264721929165348 0.0010395654789186921 0 -0.024903094376291297 0.00041428649230637837 0 -0.024818067588932288 0.00053615461214178708 0 -0.02495694494935569 0.00032825976941554675 0 -0.024845728183517934 0.00038622558446646635 0 -0.024575258060446838 6.7138798890948762e-05 0 -0.024864216028611299 0.00011754997178036494 0 -0.024511144836454713 0.000499868051851351 0 -0.024575258060446838 6.7138798890948762e-05 0 -0.024511144836454713 0.000499868051851351 0 -0.024089174126105381 4.3355482656192839e-05 0 -0.024575258060446838 6.7138798890948762e-05 0 -0.024786248706900986 -2.9893287407417794e-05 0 -0.024604532956118665 -5.5979737337457448e-05 0 -0.024575258060446838 6.7138798890948762e-05 0 -0.024786248706900986 -2.9893287407417794e-05 0 -0.024864216028611299 0.00011754997178036494 0 -0.024786248706900986 -2.9893287407417794e-05 0 -0.024944472162114026 -4.6841992163188042e-06 0 -0.024864216028611299 0.00011754997178036494 0 -0.024926196502659453 -0.00011147266879782305 0 -0.024904838036447212 -0.00012649619650179704 0 -0.024917539501648354 -0.00010165888712158438 0 -0.024926196502659453 -0.00011147266879782305 0 -0.024904838036447212 -0.00012649619650179704 0 -0.024925143190997558 -0.00015087725428639294 0 -0.024904838036447212 -0.00012649619650179704 0 -0.024925143190997558 -0.00015087725428639294 0 -0.024859597281716276 -0.00017455179579724264 0 -0.024944472162114026 -4.6841992163188042e-06 0 -0.024864216028611299 0.00011754997178036494 0 -0.025086223140028133 0.00025267602189186497 0 -0.024864216028611299 0.00011754997178036494 0 -0.025086223140028133 0.00025267602189186497 0 -0.02490810493069159 0.00047305304227777175 0 -0.024942770152689312 -4.3679211428100823e-05 0 -0.024981663368264941 1.4499449072794069e-05 0 -0.025086223140028133 0.00025267602189186497 0 -0.02490810493069159 0.00047305304227777175 0 -0.025229865178329262 0.00069977747617039321 0 -0.024925143190997558 -0.00015087725428639294 0 -0.024906689599928641 -0.00020126502121936839 0 -0.024859597281716276 -0.00017455179579724264 0 -0.024981663368264941 1.4499449072794069e-05 0 -0.025286517508555643 0.00044853514362344491 0 -0.02490810493069159 0.00047305304227777175 0 -0.025229865178329262 0.00069977747617039321 0 -0.024867199864316639 0.00090488235540331721 0 -0.02490810493069159 0.00047305304227777175 0 -0.024867199864316639 0.00090488235540331721 0 -0.024511144836454713 0.000499868051851351 0 -0.024486637663556254 0.0011076893325555331 0 -0.024867199864316639 0.00090488235540331721 0 -0.024511144836454713 0.000499868051851351 0 -0.024864216028611299 0.00011754997178036494 0 -0.02490810493069159 0.00047305304227777175 0 -0.024511144836454713 0.000499868051851351 0 -0.024007668305569947 0.00097430261864488285 0 -0.024486637663556254 0.0011076893325555331 0 -0.024511144836454713 0.000499868051851351 0 -0.022955227098583785 0.0010284757841026741 0 -0.024007668305569947 0.00097430261864488285 0 -0.023751100143522809 0.00054809869616967769 0 -0.024007668305569947 0.00097430261864488285 0 -0.024511144836454713 0.000499868051851351 0 -0.023751100143522809 0.00054809869616967769 0 -0.022955227098583785 0.0010284757841026741 0 -0.023751100143522809 0.00054809869616967769 0 -0.023168088557496955 0.0004465816091089744 0 -0.023751100143522809 0.00054809869616967769 0 -0.023168088557496955 0.0004465816091089744 0 -0.024089174126105381 4.3355482656192839e-05 0 -0.024511144836454713 0.000499868051851351 0 -0.023751100143522809 0.00054809869616967769 0 -0.024089174126105381 4.3355482656192839e-05 0 -0.021319621505522638 0.00085594938250086155 0 -0.020793792385599117 0.00019715754073980438 0 -0.021492684270300183 0.00023257695058332092 0 -0.021319621505522638 0.00085594938250086155 0 -0.022955227098583785 0.0010284757841026741 0 -0.021492684270300183 0.00023257695058332092 0 -0.022955227098583785 0.0010284757841026741 0 -0.021492684270300183 0.00023257695058332092 0 -0.022019539786999383 -2.5354445084882902e-05 0 -0.022941163333151826 0.0010231453934590499 0 -0.022611912399202627 0.0002702886912263646 0 -0.022611912399202627 0.0002702886912263646 0 -0.022126230284224318 -0.00034049171844701217 0 -0.020793792385599117 0.00019715754073980438 0 -0.021492684270300183 0.00023257695058332092 0 -0.021000165424382509 -0.00010639930903259464 0 -0.022019539786999383 -2.5354445084882902e-05 0 -0.021000165424382509 -0.00010639930903259464 0 -0.021002772484286558 -0.00037549271173556599 0 -0.021492684270300183 0.00023257695058332092 0 -0.022019539786999383 -2.5354445084882902e-05 0 -0.021000165424382509 -0.00010639930903259464 0 -0.020773537756833091 -0.00045000638356489602 0 -0.021002772484286558 -0.00037549271173556599 0 -0.02100644957603276 -0.0005004169156210904 0 -0.021002772484286558 -0.00037549271173556599 0 -0.021326690981072417 -0.00046482162604225582 0 -0.02100644957603276 -0.0005004169156210904 0 -0.022019539786999383 -2.5354445084882902e-05 0 -0.021002772484286558 -0.00037549271173556599 0 -0.021326690981072417 -0.00046482162604225582 0 -0.023168088557496955 0.0004465816091089744 0 -0.023049063262648061 -0.00024120551872641659 0 -0.023459807796329453 -0.00014282442184524542 0 -0.023049063262648061 -0.00024120551872641659 0 -0.023278765981937361 -0.00039806473989892235 0 -0.023459807796329453 -0.00014282442184524542 0 -0.023278765981937361 -0.00039806473989892235 0 -0.023459807796329453 -0.00014282442184524542 0 -0.023422370100797313 -0.00062521758280144129 0 -0.023278765981937361 -0.00039806473989892235 0 -0.023166893739711623 -0.00061603549660203328 0 -0.023422370100797313 -0.00062521758280144129 0 -0.023049063262648061 -0.00024120551872641659 0 -0.023278765981937361 -0.00039806473989892235 0 -0.023166893739711623 -0.00061603549660203328 0 -0.020868096591460467 -0.00054764591110369393 0 -0.02100644957603276 -0.0005004169156210904 0 -0.020931625799345065 -0.00066085117992595538 0 -0.021326690981072417 -0.00046482162604225582 0 -0.02100644957603276 -0.0005004169156210904 0 -0.020931625799345065 -0.00066085117992595538 0 -0.023049063262648061 -0.00024120551872641659 0 -0.023166893739711623 -0.00061603549660203328 0 -0.022857016906619489 -0.00090779813500775056 0 -0.022126230284224318 -0.00034049171844701217 0 -0.022502740191841751 -0.00083487331331991079 0 -0.020773537756833091 -0.00045000638356489602 0 -0.020868096591460467 -0.00054764591110369393 0 -0.02100644957603276 -0.0005004169156210904 0 -0.024089174126105381 4.3355482656192839e-05 0 -0.023459807796329453 -0.00014282442184524542 0 -0.023422370100797313 -0.00062521758280144129 0 -0.023168088557496955 0.0004465816091089744 0 -0.024089174126105381 4.3355482656192839e-05 0 -0.023459807796329453 -0.00014282442184524542 0 -0.024116045885398677 2.0098446694478881e-05 0 -0.024039384897036654 -0.00029546497705915456 0 -0.024089174126105381 4.3355482656192839e-05 0 -0.024541666575898964 -3.6963192557913664e-05 0 -0.024616130197010304 -6.4818776226208271e-05 0 -0.024089174126105381 4.3355482656192839e-05 0 -0.024541666575898964 -3.6963192557913664e-05 0 -0.024604532956118665 -5.5979737337457448e-05 0 -0.024575258060446838 6.7138798890948762e-05 0 -0.024089174126105381 4.3355482656192839e-05 0 -0.024604532956118665 -5.5979737337457448e-05 0 -0.024541666575898964 -3.6963192557913664e-05 0 -0.024694262394623429 -3.9707136133059311e-05 0 -0.024604532956118665 -5.5979737337457448e-05 0 -0.024694262394623429 -3.9707136133059311e-05 0 -0.02477924567144665 -5.62673154431803e-05 0 -0.024604532956118665 -5.5979737337457448e-05 0 -0.024541666575898964 -3.6963192557913664e-05 0 -0.024694262394623429 -3.9707136133059311e-05 0 -0.024709249046657365 -2.6630922935636415e-05 0 -0.024541666575898964 -3.6963192557913664e-05 0 -0.024616130197010304 -6.4818776226208271e-05 0 -0.024709249046657365 -2.6630922935636415e-05 0 -0.024694262394623429 -3.9707136133059311e-05 0 -0.024783443250108141 -2.0096149289342683e-05 0 -0.024816021786468436 -3.2107154114338142e-05 0 -0.024694262394623429 -3.9707136133059311e-05 0 -0.024709249046657365 -2.6630922935636415e-05 0 -0.024783443250108141 -2.0096149289342683e-05 0 -0.024709249046657365 -2.6630922935636415e-05 0 -0.024783443250108141 -2.0096149289342683e-05 0 -0.024798686828269884 -1.2486039319518845e-05 0 -0.024783443250108141 -2.0096149289342683e-05 0 -0.024838411657684287 -1.0974412001086248e-05 0 -0.024853084162164214 -1.8894777390245732e-05 0 -0.024783443250108141 -2.0096149289342683e-05 0 -0.024816021786468436 -3.2107154114338142e-05 0 -0.024853084162164214 -1.8894777390245732e-05 0 -0.024694262394623429 -3.9707136133059311e-05 0 -0.024816021786468436 -3.2107154114338142e-05 0 -0.02477924567144665 -5.62673154431803e-05 0 -0.023166893739711623 -0.00061603549660203328 0 -0.023010347466644727 -0.00077853180314114989 0 -0.02308314070043159 -0.00089438019061917849 0 -0.021620926160895993 -0.0010540073281968846 0 -0.022502740191841751 -0.00083487331331991079 0 -0.020710722143856164 -0.00056085290125296693 0 -0.020868096591460467 -0.00054764591110369393 0 -0.020931625799345065 -0.00066085117992595538 0 -0.023197993600752195 -0.00056920560211328808 0 -0.022502740191841751 -0.00083487331331991079 0 -0.023166893739711623 -0.00061603549660203328 0 -0.023422370100797313 -0.00062521758280144129 0 -0.02308314070043159 -0.00089438019061917849 0 -0.024039384897036654 -0.00029546497705915456 0 -0.023875408524367009 -0.00051924512145304401 0 -0.024616130197010304 -6.4818776226208271e-05 0 -0.024709249046657365 -2.6630922935636415e-05 0 -0.02481992047783747 -2.9066286956335693e-05 0 -0.024709249046657365 -2.6630922935636415e-05 0 -0.024798686828269884 -1.2486039319518845e-05 0 -0.02481992047783747 -2.9066286956335693e-05 0 -0.024798686828269884 -1.2486039319518845e-05 0 -0.02481992047783747 -2.9066286956335693e-05 0 -0.024841540519534713 -6.7413831513629984e-06 0 -0.024783443250108141 -2.0096149289342683e-05 0 -0.024798686828269884 -1.2486039319518845e-05 0 -0.024838411657684287 -1.0974412001086248e-05 0 -0.024798686828269884 -1.2486039319518845e-05 0 -0.024841540519534713 -6.7413831513629984e-06 0 -0.024838411657684287 -1.0974412001086248e-05 0 -0.023078506038805173 -0.00099968914222373995 0 -0.022502740191841751 -0.00083487331331991079 0 -0.0242998551744916 -0.00032915452437179746 0 -0.023875408524367009 -0.00051924512145304401 0 -0.022921143996958371 -0.00096233743359590664 0 -0.022945308270382728 -0.0010315007172998457 0 -0.022965436310373191 -0.00091199166225362479 0 -0.022945308270382728 -0.0010315007172998457 0 -0.023010347466644727 -0.00077853180314114989 0 -0.02308314070043159 -0.00089438019061917849 0 -0.024849344911973017 -9.3862390632026594e-06 0 -0.02481992047783747 -2.9066286956335693e-05 0 -0.024841540519534713 -6.7413831513629984e-06 0 -0.022932728870731858 -0.0010705240337914085 0 -0.022945308270382728 -0.0010315007172998457 0 -0.02308314070043159 -0.00089438019061917849 0 -0.024849344911973017 -9.3862390632026594e-06 0 -0.024852832807745816 -1.3384591568096274e-05 0 -0.024841540519534713 -6.7413831513629984e-06 0 -0.0242998551744916 -0.00032915452437179746 0 -0.024959113285288447 -6.0111773522514454e-05 0 -0.024995826620037308 -1.8069933643292773e-05 0 -0.024988695561791847 -1.6281474982836343e-05 0 -0.024996982279960112 -9.368130089172225e-06 0 -0.024852832807745816 -1.3384591568096274e-05 0 -0.024885014074756788 -8.7418648070251518e-06 0 -0.024841540519534713 -6.7413831513629984e-06 0 -0.024885014074756788 -8.7418648070251518e-06 0 -0.024841540519534713 -6.7413831513629984e-06 0 -0.024838411657684287 -1.0974412001086248e-05 0 -0.024885014074756788 -8.7418648070251518e-06 0 -0.024838411657684287 -1.0974412001086248e-05 0 -0.024911910369227457 -1.4523579953614846e-05 0 -0.024955382135263882 -1.3856595031548037e-05 0 -0.024911910369227457 -1.4523579953614846e-05 0 -0.0249998328196793 -1.1687944659816314e-08 0 -0.024955382135263882 -1.3856595031548037e-05 0 -0.024983731294693279 -4.4603416045157381e-06 0 -0.0249998328196793 -1.1687944659816314e-08 0 -0.024983731294693279 -4.4603416045157381e-06 0 -0.02500000442620252 -6.712924400101653e-10 0 -0.0249998328196793 -1.1687944659816314e-08 0 -0.024885014074756788 -8.7418648070251518e-06 0 -0.024955382135263882 -1.3856595031548037e-05 0 -0.024911910369227457 -1.4523579953614846e-05 0 -0.024988695561791847 -1.6281474982836343e-05 0 -0.024955382135263882 -1.3856595031548037e-05 0 -0.024983731294693279 -4.4603416045157381e-06 0 -0.024852832807745816 -1.3384591568096274e-05 0 -0.024885014074756788 -8.7418648070251518e-06 0 -0.024955382135263882 -1.3856595031548037e-05 0 -0.024959113285288447 -6.0111773522514454e-05 0 -0.024927037469297607 -6.3275955827955262e-06 0 -0.024988695561791847 -1.6281474982836343e-05 0 -0.024983731294693279 -4.4603416045157381e-06 0 -0.024996982279960112 -9.368130089172225e-06 0 -0.024983731294693279 -4.4603416045157381e-06 0 -0.02500000442620252 -6.712924400101653e-10 0 -0.024996982279960112 -9.368130089172225e-06 0 -0.024816021786468436 -3.2107154114338142e-05 0 -0.024912801165909517 -1.8279790544378107e-05 0 -0.024901702792546443 -3.6136355033158181e-05 0 -0.024816021786468436 -3.2107154114338142e-05 0 -0.024901702792546443 -3.6136355033158181e-05 0 -0.02477924567144665 -5.62673154431803e-05 0 -0.024816021786468436 -3.2107154114338142e-05 0 -0.024853084162164214 -1.8894777390245732e-05 0 -0.024912801165909517 -1.8279790544378107e-05 0 -0.024838411657684287 -1.0974412001086248e-05 0 -0.024853084162164214 -1.8894777390245732e-05 0 -0.024911910369227457 -1.4523579953614846e-05 0 -0.024853084162164214 -1.8894777390245732e-05 0 -0.024911910369227457 -1.4523579953614846e-05 0 -0.024912801165909517 -1.8279790544378107e-05 0 -0.024912801165909517 -1.8279790544378107e-05 0 -0.0249998328196793 -1.1687944659816314e-08 0 -0.024999855454037066 -1.9141481200119591e-08 0 -0.024911910369227457 -1.4523579953614846e-05 0 -0.024912801165909517 -1.8279790544378107e-05 0 -0.0249998328196793 -1.1687944659816314e-08 0 -0.024912801165909517 -1.8279790544378107e-05 0 -0.024999855454037066 -1.9141481200119591e-08 0 -0.024901702792546443 -3.6136355033158181e-05 0 -0.024999855454037066 -1.9141481200119591e-08 0 -0.024999910685912407 -5.0536491925733516e-08 0 -0.024901702792546443 -3.6136355033158181e-05 0 -0.024999910685912407 -5.0536491925733516e-08 0 -0.024887203575875209 -6.1827673880107914e-05 0 -0.024952861265980682 -4.7204353400294248e-05 0 -0.024999910685912407 -5.0536491925733516e-08 0 -0.024887203575875209 -6.1827673880107914e-05 0 -0.024901702792546443 -3.6136355033158181e-05 0 -0.024887203575875209 -6.1827673880107914e-05 0 -0.024901702792546443 -3.6136355033158181e-05 0 -0.02477924567144665 -5.62673154431803e-05 0 -0.024887203575875209 -6.1827673880107914e-05 0 -0.02477924567144665 -5.62673154431803e-05 0 -0.024791070642325067 -6.8807320008931795e-05 0 -0.024887203575875209 -6.1827673880107914e-05 0 -0.024791070642325067 -6.8807320008931795e-05 0 -0.02491315784930196 -8.2915621712089933e-05 0 -0.024786248706900986 -2.9893287407417794e-05 0 -0.024791070642325067 -6.8807320008931795e-05 0 -0.02491315784930196 -8.2915621712089933e-05 0 -0.02477924567144665 -5.62673154431803e-05 0 -0.024791070642325067 -6.8807320008931795e-05 0 -0.024604532956118665 -5.5979737337457448e-05 0 -0.024786248706900986 -2.9893287407417794e-05 0 -0.024791070642325067 -6.8807320008931795e-05 0 -0.024604532956118665 -5.5979737337457448e-05 0 -0.024926196502659453 -0.00011147266879782305 0 -0.024917539501648354 -0.00010165888712158438 0 -0.02491315784930196 -8.2915621712089933e-05 0 -0.024942770152689312 -4.3679211428100823e-05 0 -0.024915629434649363 -8.7580371518819112e-05 0 -0.024786248706900986 -2.9893287407417794e-05 0 -0.024944472162114026 -4.6841992163188042e-06 0 -0.02491315784930196 -8.2915621712089933e-05 0 -0.02491315784930196 -8.2915621712089933e-05 0 -0.024952861265980682 -4.7204353400294248e-05 0 -0.024957125778947091 -5.6520766141630783e-05 0 -0.024887203575875209 -6.1827673880107914e-05 0 -0.02491315784930196 -8.2915621712089933e-05 0 -0.024952861265980682 -4.7204353400294248e-05 0 -0.024917539501648354 -0.00010165888712158438 0 -0.02491315784930196 -8.2915621712089933e-05 0 -0.024957125778947091 -5.6520766141630783e-05 0 -0.024952861265980682 -4.7204353400294248e-05 0 -0.024999955990209016 -3.6006791096182599e-08 0 -0.024957125778947091 -5.6520766141630783e-05 0 -0.024999910685912407 -5.0536491925733516e-08 0 -0.024952861265980682 -4.7204353400294248e-05 0 -0.024999955990209016 -3.6006791096182599e-08 0 -0.024999939399714538 -1.1059602656896487e-08 0 -0.024930497101562307 -3.1291976205476863e-05 0 -0.024957125778947091 -5.6520766141630783e-05 0 -0.024999955990209016 -3.6006791096182599e-08 0 -0.024999939399714538 -1.1059602656896487e-08 0 -0.024957125778947091 -5.6520766141630783e-05 0 -0.024999939399714538 -1.1059602656896487e-08 0 -0.024930497101562307 -3.1291976205476863e-05 0 -0.024999808959850777 6.287562318864696e-09 0 -0.024930497101562307 -3.1291976205476863e-05 0 -0.024836115331757669 -6.588497890098834e-05 0 -0.024916105504227001 -0.00011470102778173512 0 -0.024930497101562307 -3.1291976205476863e-05 0 -0.024957125778947091 -5.6520766141630783e-05 0 -0.024916105504227001 -0.00011470102778173512 0 -0.024904838328001038 -1.7381984309167094e-05 0 -0.024999808959850777 6.287562318864696e-09 0 -0.02487170919544595 -3.3393851748788481e-05 0 -0.024904838328001038 -1.7381984309167094e-05 0 -0.024999808959850777 6.287562318864696e-09 0 -0.024999797908485215 -2.727643744532098e-08 0 -0.024930497101562307 -3.1291976205476863e-05 0 -0.024999808959850777 6.287562318864696e-09 0 -0.02487170919544595 -3.3393851748788481e-05 0 -0.024930497101562307 -3.1291976205476863e-05 0 -0.024836115331757669 -6.588497890098834e-05 0 -0.02487170919544595 -3.3393851748788481e-05 0 -0.024836115331757669 -6.588497890098834e-05 0 -0.02487170919544595 -3.3393851748788481e-05 0 -0.024757777558889693 -8.3674060722719305e-05 0 -0.024777409570618331 -5.5660742773663728e-05 0 -0.024678611485184902 -8.6586971446289216e-05 0 -0.024860424572954214 -2.801662006875566e-05 0 -0.024904838328001038 -1.7381984309167094e-05 0 -0.02487170919544595 -3.3393851748788481e-05 0 -0.024777409570618331 -5.5660742773663728e-05 0 -0.02487170919544595 -3.3393851748788481e-05 0 -0.024777409570618331 -5.5660742773663728e-05 0 -0.024757777558889693 -8.3674060722719305e-05 0 -0.024777409570618331 -5.5660742773663728e-05 0 -0.024704823713143993 -9.4629151111496192e-05 0 -0.024757777558889693 -8.3674060722719305e-05 0 -0.024904838328001038 -1.7381984309167094e-05 0 -0.024777409570618331 -5.5660742773663728e-05 0 -0.024860424572954214 -2.801662006875566e-05 0 -0.024704823713143993 -9.4629151111496192e-05 0 -0.024668094855433018 -8.6709598727422363e-05 0 -0.024622678927544838 -0.00017797937754727059 0 -0.024777409570618331 -5.5660742773663728e-05 0 -0.024668094855433018 -8.6709598727422363e-05 0 -0.024678611485184902 -8.6586971446289216e-05 0 -0.024668094855433018 -8.6709598727422363e-05 0 -0.024622678927544838 -0.00017797937754727059 0 -0.024654691599447397 -8.1261423813670905e-05 0 -0.024777409570618331 -5.5660742773663728e-05 0 -0.024704823713143993 -9.4629151111496192e-05 0 -0.024668094855433018 -8.6709598727422363e-05 0 -0.024546866661399051 -0.00015622739284319032 0 -0.024528612319689714 -0.00015759049022149468 0 -0.024704823713143993 -9.4629151111496192e-05 0 -0.024757777558889693 -8.3674060722719305e-05 0 -0.024622678927544838 -0.00017797937754727059 0 -0.024836115331757669 -6.588497890098834e-05 0 -0.024751328387130282 -0.00015463504469774954 0 -0.024916105504227001 -0.00011470102778173512 0 -0.024757777558889693 -8.3674060722719305e-05 0 -0.024622678927544838 -0.00017797937754727059 0 -0.024751328387130282 -0.00015463504469774954 0 -0.024836115331757669 -6.588497890098834e-05 0 -0.024757777558889693 -8.3674060722719305e-05 0 -0.024751328387130282 -0.00015463504469774954 0 -0.024751328387130282 -0.00015463504469774954 0 -0.024916105504227001 -0.00011470102778173512 0 -0.024623249896814539 -0.00041796765325796578 0 -0.024622678927544838 -0.00017797937754727059 0 -0.024751328387130282 -0.00015463504469774954 0 -0.024623249896814539 -0.00041796765325796578 0 -0.024622678927544838 -0.00017797937754727059 0 -0.024623249896814539 -0.00041796765325796578 0 -0.024335240846516771 -0.00044449137781473922 0 -0.024105654533417811 -0.00067921341334429544 0 -0.024528612319689714 -0.00015759049022149468 0 -0.024622678927544838 -0.00017797937754727059 0 -0.024335240846516771 -0.00044449137781473922 0 -0.024654691599447397 -8.1261423813670905e-05 0 -0.024917539501648354 -0.00010165888712158438 0 -0.024957125778947091 -5.6520766141630783e-05 0 -0.024916105504227001 -0.00011470102778173512 0 -0.024916105504227001 -0.00011470102778173512 0 -0.024910744477061993 -0.00059103129727942926 0 -0.024623249896814539 -0.00041796765325796578 0 -0.024920109508549931 -0.00012252077097210575 0 -0.02486769872366372 -0.00035774208340785715 0 -0.024917539501648354 -0.00010165888712158438 0 -0.024916105504227001 -0.00011470102778173512 0 -0.024888951010758255 -0.00011931857887698218 0 -0.024904838036447212 -0.00012649619650179704 0 -0.024917539501648354 -0.00010165888712158438 0 -0.024888951010758255 -0.00011931857887698218 0 -0.024904838036447212 -0.00012649619650179704 0 -0.024888951010758255 -0.00011931857887698218 0 -0.024859597281716276 -0.00017455179579724264 0 -0.024910744477061993 -0.00059103129727942926 0 -0.024569049177760132 -0.00091609223749065927 0 -0.024916979736744761 -0.0012416046492372012 0 -0.02486769872366372 -0.00035774208340785715 0 -0.025106579572632872 -0.00068278851470128705 0 -0.024910744477061993 -0.00059103129727942926 0 -0.024623249896814539 -0.00041796765325796578 0 -0.024569049177760132 -0.00091609223749065927 0 -0.024105654533417811 -0.00067921341334429544 0 -0.024093256658904168 -0.0010543117092098426 0 -0.024623249896814539 -0.00041796765325796578 0 -0.024335240846516771 -0.00044449137781473922 0 -0.024058308133896689 -0.0010742398514285993 0 -0.024623249896814539 -0.00041796765325796578 0 -0.024058308133896689 -0.0010742398514285993 0 -0.024569049177760132 -0.00091609223749065927 0 -0.024058308133896689 -0.0010742398514285993 0 -0.024569049177760132 -0.00091609223749065927 0 -0.024347558876202716 -0.0013208007428594634 0 -0.024058308133896689 -0.0010742398514285993 0 -0.023729669629080182 -0.0016262106995025615 0 -0.023705880485625844 -0.0013595840640532517 0 -0.024058308133896689 -0.0010742398514285993 0 -0.024347558876202716 -0.0013208007428594634 0 -0.023729669629080182 -0.0016262106995025615 0 -0.024347558876202716 -0.0013208007428594634 0 -0.023729669629080182 -0.0016262106995025615 0 -0.02443744417570826 -0.0018568465347564946 0 -0.023684126441563647 -0.0016667853133831242 0 -0.023485950426167614 -0.0018161609076837034 0 -0.024916979736744761 -0.0012416046492372012 0 -0.024966494630158296 -0.0020028523629210255 0 -0.02443744417570826 -0.0018568465347564946 0 -0.024347558876202716 -0.0013208007428594634 0 -0.024916979736744761 -0.0012416046492372012 0 -0.02443744417570826 -0.0018568465347564946 0 -0.02487319737069604 -0.00022571068674303202 0 -0.024859597281716276 -0.00017455179579724264 0 -0.024838414755375147 -0.0002478389615064688 0 -0.025106579572632872 -0.00068278851470128705 0 -0.02340922982226968 -0.0012970403606678946 0 -0.024906689599928641 -0.00020126502121936839 0 -0.02487319737069604 -0.00022571068674303202 0 -0.024859597281716276 -0.00017455179579724264 0 -0.024569049177760132 -0.00091609223749065927 0 -0.024347558876202716 -0.0013208007428594634 0 -0.024916979736744761 -0.0012416046492372012 0 -0.023277725633391973 -0.0013524072183341608 0 -0.023523577656097264 -0.0014523553866343233 0 -0.023507699602433065 -0.0012596616507020717 0 -0.023277725633391973 -0.0013524072183341608 0 -0.023507699602433065 -0.0012596616507020717 0 -0.023344936643878426 -0.0010874360297246136 0 -0.023451513775659554 -0.00086585705199300738 0 -0.023400998626560317 -0.00091262833185264472 0 -0.023457374823105004 -0.00068782371160640168 0 -0.023476531894226139 -0.00067034456452996717 0 -0.023432655358787403 -0.00067270032434639396 0 -0.023451513775659554 -0.00086585705199300738 0 -0.023411122856729364 -0.00068323376699972241 0 -0.023443244838298606 -0.00067656608149382718 0 -0.023432655358787403 -0.00067270032434639396 0 -0.023336125860378514 -0.0007160935279681346 0 -0.023451513775659554 -0.00086585705199300738 0 -0.023393690118340957 -0.00071825956498317012 0 -0.023476687292892366 -0.00067745483691866064 0 -0.023563726522738825 -0.00082268932781147321 0 -0.023371634404129572 -0.00079824835916299177 0 -0.023443244838298606 -0.00067656608149382718 0 -0.023336125860378514 -0.0007160935279681346 0 -0.023371634404129572 -0.00079824835916299177 0 -0.023476687292892366 -0.00067745483691866064 0 -0.023619330173781906 -0.00078785214422984824 0 -0.023563726522738825 -0.00082268932781147321 0 -0.023451513775659554 -0.00086585705199300738 0 -0.023560033816759456 -0.001134121540651917 0 -0.023523577656097264 -0.0014523553866343233 0 -0.023768700613283344 -0.0015289381836117294 0 -0.023705880485625844 -0.0013595840640532517 0 -0.023560033816759456 -0.001134121540651917 0 -0.023674023591346616 -0.0012353313664213122 0 -0.023729669629080182 -0.0016262106995025615 0 -0.023768700613283344 -0.0015289381836117294 0 -0.023705880485625844 -0.0013595840640532517 0 -0.023523577656097264 -0.0014523553866343233 0 -0.023705880485625844 -0.0013595840640532517 0 -0.023507699602433065 -0.0012596616507020717 0 -0.023705880485625844 -0.0013595840640532517 0 -0.023507699602433065 -0.0012596616507020717 0 -0.023685466069039516 -0.0010168308947602707 0 -0.023507699602433065 -0.0012596616507020717 0 -0.023685466069039516 -0.0010168308947602707 0 -0.023344936643878426 -0.0010874360297246136 0 -0.023942599483833444 -0.00079543206243342485 0 -0.024058308133896689 -0.0010742398514285993 0 -0.023685466069039516 -0.0010168308947602707 0 -0.024058308133896689 -0.0010742398514285993 0 -0.023705880485625844 -0.0013595840640532517 0 -0.023685466069039516 -0.0010168308947602707 0 -0.023942599483833444 -0.00079543206243342485 0 -0.023685466069039516 -0.0010168308947602707 0 -0.023692767184087412 -0.00083082844690226686 0 -0.023685466069039516 -0.0010168308947602707 0 -0.023692767184087412 -0.00083082844690226686 0 -0.023437816774712218 -0.00082457182298200347 0 -0.02347567098711744 -0.00073997467011403849 0 -0.023400998626560317 -0.00091262833185264472 0 -0.023685466069039516 -0.0010168308947602707 0 -0.023437816774712218 -0.00082457182298200347 0 -0.023344936643878426 -0.0010874360297246136 0 -0.023476531894226139 -0.00067034456452996717 0 -0.023484304218475523 -0.00067730136962437207 0 -0.023476996167189339 -0.00066587652865546124 0 -0.023476531894226139 -0.00067034456452996717 0 -0.023476996167189339 -0.00066587652865546124 0 -0.023432655358787403 -0.00067270032434639396 0 -0.023504867122630065 -0.00067249888862697604 0 -0.023476531894226139 -0.00067034456452996717 0 -0.023484304218475523 -0.00067730136962437207 0 -0.023504867122630065 -0.00067249888862697604 0 -0.023484304218475523 -0.00067730136962437207 0 -0.023499974404298032 -0.00064439705820597824 0 -0.023484304218475523 -0.00067730136962437207 0 -0.023499974404298032 -0.00064439705820597824 0 -0.023475052255390497 -0.00064844831788452018 0 -0.02347567098711744 -0.00073997467011403849 0 -0.023531872914457064 -0.00062740772958586749 0 -0.023504867122630065 -0.00067249888862697604 0 -0.023499974404298032 -0.00064439705820597824 0 -0.023544815456396171 -0.0006138526631699299 0 -0.023437816774712218 -0.00082457182298200347 0 -0.023544815456396171 -0.0006138526631699299 0 -0.023588342749462931 -0.00073031672952507539 0 -0.023544815456396171 -0.0006138526631699299 0 -0.023509407232642124 -0.00058413088822403304 0 -0.023620982087232043 -0.00052793749012903114 0 -0.023509407232642124 -0.00058413088822403304 0 -0.023620982087232043 -0.00052793749012903114 0 -0.023483027307891133 -0.00055699838269532862 0 -0.023499974404298032 -0.00064439705820597824 0 -0.023544815456396171 -0.0006138526631699299 0 -0.023509407232642124 -0.00058413088822403304 0 -0.024253929097082422 -0.00028679308237970845 0 -0.02439603363442976 -0.00027558509907084529 0 -0.023907749017631208 -0.00026503407677232101 0 -0.02439603363442976 -0.00027558509907084529 0 -0.02439603363442976 -0.00027558509907084529 0 -0.023648247447146165 -0.0005910668822042824 0 -0.024019846760395959 -0.00038011024913572043 0 -0.024019526366976698 -0.00038858392986091761 0 -0.024013876174579868 -0.0003837472960014641 0 -0.023499974404298032 -0.00064439705820597824 0 -0.023509407232642124 -0.00058413088822403304 0 -0.023475052255390497 -0.00064844831788452018 0 -0.023509407232642124 -0.00058413088822403304 0 -0.023499514642166836 -0.00057018612149612954 0 -0.023475052255390497 -0.00064844831788452018 0 -0.024019846760395959 -0.00038011024913572043 0 -0.0240096300569798 -0.00039218261111880127 0 -0.024013876174579868 -0.0003837472960014641 0 -0.023942599483833444 -0.00079543206243342485 0 -0.023742616696728853 -0.00069992751119040731 0 -0.023860860690648342 -0.00052222087069505414 0 -0.023942599483833444 -0.00079543206243342485 0 -0.023692767184087412 -0.00083082844690226686 0 -0.023742616696728853 -0.00069992751119040731 0 -0.023692767184087412 -0.00083082844690226686 0 -0.023437816774712218 -0.00082457182298200347 0 -0.023588342749462931 -0.00073031672952507539 0 -0.023742616696728853 -0.00069992751119040731 0 -0.023588342749462931 -0.00073031672952507539 0 -0.023667539440732493 -0.00061821707506452947 0 -0.023692767184087412 -0.00083082844690226686 0 -0.023742616696728853 -0.00069992751119040731 0 -0.023588342749462931 -0.00073031672952507539 0 -0.023544815456396171 -0.0006138526631699299 0 -0.023588342749462931 -0.00073031672952507539 0 -0.023667539440732493 -0.00061821707506452947 0 -0.023544815456396171 -0.0006138526631699299 0 -0.023620982087232043 -0.00052793749012903114 0 -0.023667539440732493 -0.00061821707506452947 0 -0.023620982087232043 -0.00052793749012903114 0 -0.023667539440732493 -0.00061821707506452947 0 -0.023860860690648342 -0.00052222087069505414 0 -0.023742616696728853 -0.00069992751119040731 0 -0.023667539440732493 -0.00061821707506452947 0 -0.023860860690648342 -0.00052222087069505414 0 -0.024253929097082422 -0.00028679308237970845 0 -0.024528612319689714 -0.00015759049022149468 0 -0.024988673929975207 -2.3198798342993985e-05 0 -0.024999780757000177 -2.2292726127220671e-05 0 -0.025002050194908046 -1.0050623916293152e-05 0 -0.024528612319689714 -0.00015759049022149468 0 -0.024932804872000142 -2.8454982849695248e-05 0 -0.024988673929975207 -2.3198798342993985e-05 0 -0.025002050194908046 -1.0050623916293152e-05 0 -0.024993387463882282 -9.9983838225988648e-06 0 -0.024993387463882282 -9.9983838225988648e-06 0 -0.024979548851062836 -1.6324097382572172e-05 0 -0.024995440249589738 -8.0944821884940319e-07 0 -0.024988673929975207 -2.3198798342993985e-05 0 -0.024993387463882282 -9.9983838225988648e-06 0 -0.024979548851062836 -1.6324097382572172e-05 0 -0.024999977819708454 -3.9780685203150101e-10 0 -0.02499770928962728 -2.655146664361532e-06 0 -0.025000011693828587 -4.6273952992827187e-09 0 -0.025002050194908046 -1.0050623916293152e-05 0 -0.024993387463882282 -9.9983838225988648e-06 0 -0.02499770928962728 -2.655146664361532e-06 0 -0.024993387463882282 -9.9983838225988648e-06 0 -0.02499770928962728 -2.655146664361532e-06 0 -0.024995440249589738 -8.0944821884940319e-07 0 -0.024999977819708454 -3.9780685203150101e-10 0 -0.02499770928962728 -2.655146664361532e-06 0 -0.024995440249589738 -8.0944821884940319e-07 0 -0.025002050194908046 -1.0050623916293152e-05 0 -0.02499770928962728 -2.655146664361532e-06 0 -0.025000011693828587 -4.6273952992827187e-09 0 -0.024904838328001038 -1.7381984309167094e-05 0 -0.024860424572954214 -2.801662006875566e-05 0 -0.024999797908485215 -2.727643744532098e-08 0 -0.024932804872000142 -2.8454982849695248e-05 0 -0.02499996690064913 -3.5610000974908597e-08 0 -0.02499446874376356 -8.845907483939083e-07 0 -0.024997299595035317 -6.8029060244073832e-07 0 -0.024998795475381815 -8.3742720863840824e-07 0 -0.025156032422306372 -0.00018101861412732744 0 -0.025104193698976113 -0.00010763361678768576 0 -0.0250629915616912 -0.00017640964541363219 0 -0.02439603363442976 -0.00027558509907084529 0 -0.024578614658523488 -0.00029167136377012765 0 -0.02439603363442976 -0.00027558509907084529 0 -0.025115541442226906 -7.6100322294523419e-05 0 -0.024988673929975207 -2.3198798342993985e-05 0 -0.02495903051693537 -2.5155668477010941e-05 0 -0.024979548851062836 -1.6324097382572172e-05 0 -0.02495903051693537 -2.5155668477010941e-05 0 -0.024979548851062836 -1.6324097382572172e-05 0 -0.024995440249589738 -8.0944821884940319e-07 0 -0.02439603363442976 -0.00027558509907084529 0 -0.025203668177603691 0.00014330469100163573 0 -0.02499446874376356 -8.845907483939083e-07 0 -0.024995440249589738 -8.0944821884940319e-07 0 -0.024997299595035317 -6.8029060244073832e-07 0 -0.024999977819708454 -3.9780685203150101e-10 0 -0.024995440249589738 -8.0944821884940319e-07 0 -0.024999999867400879 -2.8436952831241529e-09 0 -0.024995440249589738 -8.0944821884940319e-07 0 -0.024999999867400879 -2.8436952831241529e-09 0 -0.024997299595035317 -6.8029060244073832e-07 0 -0.024999999867400879 -2.8436952831241529e-09 0 -0.024997299595035317 -6.8029060244073832e-07 0 -0.024998795475381815 -8.3742720863840824e-07 0 -0.024999970279584796 2.8176526781478552e-08 0 -0.025115541442226906 -7.6100322294523419e-05 0 -0.024999999867400879 -2.8436952831241529e-09 0 -0.02499999882260865 7.9973730523195939e-10 0 -0.024998795475381815 -8.3742720863840824e-07 0 -0.025000242335299797 -1.1263510465561941e-07 0 -0.025104193698976113 -0.00010763361678768576 0 -0.025019797612398673 -9.7251884290461448e-05 0 -0.025104193698976113 -0.00010763361678768576 0 -0.0250629915616912 -0.00017640964541363219 0 -0.025019797612398673 -9.7251884290461448e-05 0 -0.0250629915616912 -0.00017640964541363219 0 -0.024972686450400176 -0.00021718282858145617 0 -0.025019797612398673 -9.7251884290461448e-05 0 -0.024578614658523488 -0.00029167136377012765 0 -0.024501332043531467 -0.00031474621542905651 0 -0.024972686450400176 -0.00021718282858145617 0 -0.025019797612398673 -9.7251884290461448e-05 0 -0.024999885411238706 -1.9585244545538549e-08 0 -0.025000242335299797 -1.1263510465561941e-07 0 -0.025019797612398673 -9.7251884290461448e-05 0 -0.024999885411238706 -1.9585244545538549e-08 0 -0.024972686450400176 -0.00021718282858145617 0 -0.024999885411238706 -1.9585244545538549e-08 0 -0.02485310346802995 -8.3858357136991661e-05 0 -0.024999885411238706 -1.9585244545538549e-08 0 -0.02485310346802995 -8.3858357136991661e-05 0 -0.024999380623789282 8.500924326770839e-10 0 -0.024999744379954926 -1.9085493702393036e-08 0 -0.024790796137593177 2.0186159291453427e-05 0 -0.024919790976316684 2.1424050333966943e-06 0 -0.024999853070870832 -1.1241799700366304e-07 0 -0.024610358353335308 -0.00017933013947248335 0 -0.02485310346802995 -8.3858357136991661e-05 0 -0.024999380623789282 8.500924326770839e-10 0 -0.024509799490903837 -0.00031715447126970332 0 -0.024999380623789282 8.500924326770839e-10 0 -0.024509799490903837 -0.00031715447126970332 0 -0.024413873895984203 -0.00035075434625324759 0 -0.024509799490903837 -0.00031715447126970332 0 -0.024413873895984203 -0.00035075434625324759 0 -0.02418362909601492 -0.00033603789926754668 0 -0.024972686450400176 -0.00021718282858145617 0 -0.02485310346802995 -8.3858357136991661e-05 0 -0.024509799490903837 -0.00031715447126970332 0 -0.024501332043531467 -0.00031474621542905651 0 -0.024492795121509536 -0.0003172104136965744 0 -0.024064422653066891 -0.00042739589544143206 0 -0.024509799490903837 -0.00031715447126970332 0 -0.02418362909601492 -0.00033603789926754668 0 -0.02418362909601492 -0.00033603789926754668 0 -0.023888001484410983 -0.00042282371485846204 0 -0.024005476804708693 -0.00036498495254543337 0 -0.024413873895984203 -0.00035075434625324759 0 -0.02418362909601492 -0.00033603789926754668 0 -0.023947193746106245 -0.0003736867673960829 0 -0.024610358353335308 -0.00017933013947248335 0 -0.024290598272532299 -0.00013903684725428132 0 -0.024790796137593177 2.0186159291453427e-05 0 -0.024618818698109213 0.0001289848047230622 0 -0.024719296585162476 7.7939126091074444e-05 0 -0.024618818698109213 0.0001289848047230622 0 -0.024719296585162476 7.7939126091074444e-05 0 -0.024608509290713777 0.00015151341887257157 0 -0.02418362909601492 -0.00033603789926754668 0 -0.023947193746106245 -0.0003736867673960829 0 -0.023888001484410983 -0.00042282371485846204 0 -0.023888001484410983 -0.00042282371485846204 0 -0.024005476804708693 -0.00036498495254543337 0 -0.023980315229510614 -0.00044927149460580765 0 -0.023484304218475523 -0.00067730136962437207 0 -0.023475052255390497 -0.00064844831788452018 0 -0.023515808363607324 -0.00070481429758985099 0 -0.023648247447146165 -0.0005910668822042824 0 -0.023762588386378219 -0.0005499621073526968 0 -0.024019526366976698 -0.00038858392986091761 0 -0.024005476804708693 -0.00036498495254543337 0 -0.023980315229510614 -0.00044927149460580765 0 -0.0240096300569798 -0.00039218261111880127 0 -0.024010619677860792 -0.00037878004417562686 0 -0.024005476804708693 -0.00036498495254543337 0 -0.024019526366976698 -0.00038858392986091761 0 -0.024010619677860792 -0.00037878004417562686 0 -0.024005476804708693 -0.00036498495254543337 0 -0.024019526366976698 -0.00038858392986091761 0 -0.024010619677860792 -0.00037878004417562686 0 -0.024013876174579868 -0.0003837472960014641 0 -0.0240096300569798 -0.00039218261111880127 0 -0.024010619677860792 -0.00037878004417562686 0 -0.024013876174579868 -0.0003837472960014641 0 -0.024064422653066891 -0.00042739589544143206 0 -0.02418362909601492 -0.00033603789926754668 0 -0.024005476804708693 -0.00036498495254543337 0 -0.0240096300569798 -0.00039218261111880127 0 -0.024064422653066891 -0.00042739589544143206 0 -0.024005476804708693 -0.00036498495254543337 0 -0.024955063910421439 9.8790704224290303e-06 0 -0.024914503928975346 2.938517312665947e-05 0 -0.024902400904339376 3.6982616549129696e-05 0 -0.024999819312191054 6.1981802933877662e-08 0 -0.024955063910421439 9.8790704224290303e-06 0 -0.024902400904339376 3.6982616549129696e-05 0 -0.024999969889815697 -9.9060849600508728e-10 0 -0.024932121034146899 1.9185346253010808e-05 0 -0.024999819312191054 6.1981802933877662e-08 0 -0.024955063910421439 9.8790704224290303e-06 0 -0.024999930494683159 -1.7576261141547893e-08 0 -0.024955063910421439 9.8790704224290303e-06 0 -0.024854767960325357 2.5205523563969401e-05 0 -0.024914503928975346 2.938517312665947e-05 0 -0.024955063910421439 9.8790704224290303e-06 0 -0.024919790976316684 2.1424050333966943e-06 0 -0.024854767960325357 2.5205523563969401e-05 0 -0.024955063910421439 9.8790704224290303e-06 0 -0.024999930494683159 -1.7576261141547893e-08 0 -0.024919790976316684 2.1424050333966943e-06 0 -0.024999744379954926 -1.9085493702393036e-08 0 -0.024999930494683159 -1.7576261141547893e-08 0 -0.024919790976316684 2.1424050333966943e-06 0 -0.024790796137593177 2.0186159291453427e-05 0 -0.024919790976316684 2.1424050333966943e-06 0 -0.024854767960325357 2.5205523563969401e-05 0 -0.024719296585162476 7.7939126091074444e-05 0 -0.024831417685102719 6.2103358775344474e-05 0 -0.024854767960325357 2.5205523563969401e-05 0 -0.024790796137593177 2.0186159291453427e-05 0 -0.024719296585162476 7.7939126091074444e-05 0 -0.024854767960325357 2.5205523563969401e-05 0 -0.024719296585162476 7.7939126091074444e-05 0 -0.024608509290713777 0.00015151341887257157 0 -0.024831417685102719 6.2103358775344474e-05 0 -0.024296098251418805 9.8492970698824562e-05 0 -0.025272738537949122 0.00021889120321107899 0 -0.024608509290713777 0.00015151341887257157 0 -0.024831417685102719 6.2103358775344474e-05 0 -0.024873211888958677 0.00011301340419372246 0 -0.024831417685102719 6.2103358775344474e-05 0 -0.024854767960325357 2.5205523563969401e-05 0 -0.024914503928975346 2.938517312665947e-05 0 -0.024831417685102719 6.2103358775344474e-05 0 -0.024914503928975346 2.938517312665947e-05 0 -0.024916260431831365 3.4916240350583676e-05 0 -0.024916260431831365 3.4916240350583676e-05 0 -0.02490491855227937 3.9251177655632292e-05 0 -0.024873211888958677 0.00011301340419372246 0 -0.024831417685102719 6.2103358775344474e-05 0 -0.024916260431831365 3.4916240350583676e-05 0 -0.024873211888958677 0.00011301340419372246 0 -0.024916260431831365 3.4916240350583676e-05 0 -0.024924983089232196 -2.9940340587814856e-05 0 -0.024865820635149034 5.0472417171121345e-05 0 -0.024916260431831365 3.4916240350583676e-05 0 -0.024924983089232196 -2.9940340587814856e-05 0 -0.02490491855227937 3.9251177655632292e-05 0 -0.024914503928975346 2.938517312665947e-05 0 -0.024889335368159779 4.4198052121953407e-05 0 -0.024902400904339376 3.6982616549129696e-05 0 -0.024916260431831365 3.4916240350583676e-05 0 -0.024889335368159779 4.4198052121953407e-05 0 -0.024865820635149034 5.0472417171121345e-05 0 -0.024914503928975346 2.938517312665947e-05 0 -0.024916260431831365 3.4916240350583676e-05 0 -0.024889335368159779 4.4198052121953407e-05 0 -0.0211383720498549 0.00024647581741423527 0 -0.017774499175351632 -0.0005359294635474864 0 -0.012287771655129788 -0.0009986555710209961 0 -0.012291738324827156 -0.0011833282522899613 0 -0.012233658841956811 -0.0010096447459187624 0 -0.012287771655129788 -0.0009986555710209961 0 -0.012291738324827156 -0.0011833282522899613 0 -0.012351597026790477 -0.0010911831448664991 0 -0.024887887362758498 -0.0008451114138031975 0 -0.0211383720498549 0.00024647581741423527 0 -0.024924983089232196 -2.9940340587814856e-05 0 -0.025232053976666557 -0.00050415203048844988 0 -0.024694077911340265 -0.00031355285023325959 0 -0.0211383720498549 0.00024647581741423527 0 -0.025272738537949122 0.00021889120321107899 0 -0.023963076550759591 0.00014056826869196623 0 -0.02413974852093332 7.9393511915942853e-05 0 -0.024239952863788678 0.0001879139215014772 0 -0.02413974852093332 7.9393511915942853e-05 0 -0.024123385757464793 -4.4958497253260214e-05 0 -0.024339655478988493 3.5241579793582709e-05 0 -0.023963076550759591 0.00014056826869196623 0 -0.02413974852093332 7.9393511915942853e-05 0 -0.024123385757464793 -4.4958497253260214e-05 0 -0.024123385757464793 -4.4958497253260214e-05 0 -0.024339655478988493 3.5241579793582709e-05 0 -0.024309301885769772 -6.3234783658466649e-05 0 -0.02413974852093332 7.9393511915942853e-05 0 -0.024339655478988493 3.5241579793582709e-05 0 -0.024239952863788678 0.0001879139215014772 0 -0.024608509290713777 0.00015151341887257157 0 -0.024339655478988493 3.5241579793582709e-05 0 -0.024239952863788678 0.0001879139215014772 0 -0.024608509290713777 0.00015151341887257157 0 -0.024339655478988493 3.5241579793582709e-05 0 -0.024492494754335712 2.4403886207329874e-05 0 -0.024339655478988493 3.5241579793582709e-05 0 -0.024309301885769772 -6.3234783658466649e-05 0 -0.024492494754335712 2.4403886207329874e-05 0 -0.024256472118420743 -0.00010565176025637186 0 -0.02419959627571764 -0.00010874998814295277 0 -0.024210730743580586 -9.7012997411997055e-05 0 -0.024309301885769772 -6.3234783658466649e-05 0 -0.024256472118420743 -0.00010565176025637186 0 -0.02419959627571764 -0.00010874998814295277 0 -0.018237490073399816 -0.00058578015109638849 0 -0.01809599799718864 -0.0005372164095498724 0 -0.024123385757464793 -4.4958497253260214e-05 0 -0.024309301885769772 -6.3234783658466649e-05 0 -0.02419959627571764 -0.00010874998814295277 0 -0.017774499175351632 -0.0005359294635474864 0 -0.018237490073399816 -0.00058578015109638849 0 -0.012233658841956811 -0.0010096447459187624 0 -0.012177042384959577 -0.0010354137531617086 0 -0.012230987317611866 -0.0009961727568762414 0 -0.012177042384959577 -0.0010354137531617086 0 -0.012209132992447141 -0.00099041491408630926 0 -0.012162743711137449 -0.0010021110175692923 0 -0.012177042384959577 -0.0010354137531617086 0 -0.012209132992447141 -0.00099041491408630926 0 -0.012230987317611866 -0.0009961727568762414 0 -0.012287771655129788 -0.0009986555710209961 0 -0.012233658841956811 -0.0010096447459187624 0 -0.012230987317611866 -0.0009961727568762414 0 -0.012287771655129788 -0.0009986555710209961 0 -0.012230987317611866 -0.0009961727568762414 0 -0.012264482632756042 -0.00096880218322522834 0 -0.012209132992447141 -0.00099041491408630926 0 -0.012230987317611866 -0.0009961727568762414 0 -0.012264482632756042 -0.00096880218322522834 0 -0.023669425074921268 -0.00063176173995075518 0 -0.023556099776578375 -0.00066573077157240038 0 -0.023496481008736452 -0.00065840957324307333 0 -0.023669425074921268 -0.00063176173995075518 0 -0.023476996167189339 -0.00066587652865546124 0 -0.023496481008736452 -0.00065840957324307333 0 -0.023484304218475523 -0.00067730136962437207 0 -0.023476996167189339 -0.00066587652865546124 0 -0.023515808363607324 -0.00070481429758985099 0 -0.023888001484410983 -0.00042282371485846204 0 -0.023669425074921268 -0.00063176173995075518 0 -0.023980315229510614 -0.00044927149460580765 0 -0.023669425074921268 -0.00063176173995075518 0 -0.023476996167189339 -0.00066587652865546124 0 -0.023515808363607324 -0.00070481429758985099 0 -0.023681436308733241 -0.0006281302340278936 0 -0.023762588386378219 -0.0005499621073526968 0 -0.023888001484410983 -0.00042282371485846204 0 -0.023669425074921268 -0.00063176173995075518 0 -0.023649253011424901 -0.00058692578550035744 0 -0.023947193746106245 -0.0003736867673960829 0 -0.023888001484410983 -0.00042282371485846204 0 -0.023649253011424901 -0.00058692578550035744 0 -0.024618818698109213 0.0001289848047230622 0 -0.024608509290713777 0.00015151341887257157 0 -0.024492494754335712 2.4403886207329874e-05 0 -0.024290598272532299 -0.00013903684725428132 0 -0.024075688070213461 -0.00028369417631316152 0 -0.023669425074921268 -0.00063176173995075518 0 -0.023649253011424901 -0.00058692578550035744 0 -0.023556099776578375 -0.00066573077157240038 0 -0.023649253011424901 -0.00058692578550035744 0 -0.023556099776578375 -0.00066573077157240038 0 -0.023487047713067897 -0.00070442588830966601 0 -0.023556099776578375 -0.00066573077157240038 0 -0.023487047713067897 -0.00070442588830966601 0 -0.023414490981516933 -0.00070921264225475629 0 -0.024309301885769772 -6.3234783658466649e-05 0 -0.024492494754335712 2.4403886207329874e-05 0 -0.024334695005347955 -9.1664955873639934e-05 0 -0.024075688070213461 -0.00028369417631316152 0 -0.023904208709472598 -0.00039221274156486422 0 -0.024309301885769772 -6.3234783658466649e-05 0 -0.024256472118420743 -0.00010565176025637186 0 -0.024334695005347955 -9.1664955873639934e-05 0 -0.024256472118420743 -0.00010565176025637186 0 -0.024334695005347955 -9.1664955873639934e-05 0 -0.024181313420296328 -9.9002968052820127e-05 0 -0.023904208709472598 -0.00039221274156486422 0 -0.02388423478961756 -0.00040188957474739063 0 -0.023487047713067897 -0.00070442588830966601 0 -0.023418028701137204 -0.00071190243871094511 0 -0.023383088199872462 -0.0007304337261916879 0 -0.023487047713067897 -0.00070442588830966601 0 -0.023414490981516933 -0.00070921264225475629 0 -0.023383088199872462 -0.0007304337261916879 0 -0.023414490981516933 -0.00070921264225475629 0 -0.023336125860378514 -0.0007160935279681346 0 -0.023275375253062322 -0.00075874559835884328 0 -0.023414490981516933 -0.00070921264225475629 0 -0.023275375253062322 -0.00075874559835884328 0 -0.023383088199872462 -0.0007304337261916879 0 -0.023414490981516933 -0.00070921264225475629 0 -0.023496481008736452 -0.00065840957324307333 0 -0.023420648499625971 -0.00068957208792856715 0 -0.023556099776578375 -0.00066573077157240038 0 -0.023414490981516933 -0.00070921264225475629 0 -0.023496481008736452 -0.00065840957324307333 0 -0.023476996167189339 -0.00066587652865546124 0 -0.023496481008736452 -0.00065840957324307333 0 -0.023432655358787403 -0.00067270032434639396 0 -0.023496481008736452 -0.00065840957324307333 0 -0.023420648499625971 -0.00068957208792856715 0 -0.023432655358787403 -0.00067270032434639396 0 -0.023420648499625971 -0.00068957208792856715 0 -0.023432655358787403 -0.00067270032434639396 0 -0.023336125860378514 -0.0007160935279681346 0 -0.023414490981516933 -0.00070921264225475629 0 -0.023420648499625971 -0.00068957208792856715 0 -0.023336125860378514 -0.0007160935279681346 0 -0.023336125860378514 -0.0007160935279681346 0 -0.023121516113515591 -0.00084740335145627092 0 -0.023275375253062322 -0.00075874559835884328 0 -0.023336125860378514 -0.0007160935279681346 0 -0.023121516113515591 -0.00084740335145627092 0 -0.023371634404129572 -0.00079824835916299177 0 -0.023121516113515591 -0.00084740335145627092 0 -0.023180395631858298 -0.00072291190214320402 0 -0.023275375253062322 -0.00075874559835884328 0 -0.023121516113515591 -0.00084740335145627092 0 -0.023038129874930955 -0.00064054949538460803 0 -0.022717812316307231 -0.00055966871789350347 0 -0.023121516113515591 -0.00084740335145627092 0 -0.023038129874930955 -0.00064054949538460803 0 -0.023180395631858298 -0.00072291190214320402 0 -0.023038129874930955 -0.00064054949538460803 0 -0.023144573315801786 -0.00057614712095196258 0 -0.022933967337662682 -0.00044795400545866127 0 -0.023038129874930955 -0.00064054949538460803 0 -0.022717812316307231 -0.00055966871789350347 0 -0.022933967337662682 -0.00044795400545866127 0 -0.023144573315801786 -0.00057614712095196258 0 -0.023306202262642291 -0.00069938545680317727 0 -0.023275412760971278 -0.00051401401995912542 0 -0.023038129874930955 -0.00064054949538460803 0 -0.023144573315801786 -0.00057614712095196258 0 -0.023180395631858298 -0.00072291190214320402 0 -0.023144573315801786 -0.00057614712095196258 0 -0.023180395631858298 -0.00072291190214320402 0 -0.023306202262642291 -0.00069938545680317727 0 -0.023180395631858298 -0.00072291190214320402 0 -0.023306202262642291 -0.00069938545680317727 0 -0.023275375253062322 -0.00075874559835884328 0 -0.023306202262642291 -0.00069938545680317727 0 -0.023275375253062322 -0.00075874559835884328 0 -0.023383088199872462 -0.0007304337261916879 0 -0.023306202262642291 -0.00069938545680317727 0 -0.023418028701137204 -0.00071190243871094511 0 -0.023383088199872462 -0.0007304337261916879 0 -0.024256472118420743 -0.00010565176025637186 0 -0.024181313420296328 -9.9002968052820127e-05 0 -0.024210730743580586 -9.7012997411997055e-05 0 -0.024181313420296328 -9.9002968052820127e-05 0 -0.024138972235466613 -3.0193946736378038e-05 0 -0.024210730743580586 -9.7012997411997055e-05 0 -0.024181313420296328 -9.9002968052820127e-05 0 -0.024061769048125646 -1.1343654075002381e-05 0 -0.024138972235466613 -3.0193946736378038e-05 0 -0.023306202262642291 -0.00069938545680317727 0 -0.023418028701137204 -0.00071190243871094511 0 -0.023397576384134592 -0.00059755631267862654 0 -0.02388423478961756 -0.00040188957474739063 0 -0.023107017262713518 -0.00024938467405699426 0 -0.023418028701137204 -0.00071190243871094511 0 -0.023397576384134592 -0.00059755631267862654 0 -0.023426151921742674 -0.00050833477440512937 0 -0.023306202262642291 -0.00069938545680317727 0 -0.023397576384134592 -0.00059755631267862654 0 -0.023275412760971278 -0.00051401401995912542 0 -0.023275412760971278 -0.00051401401995912542 0 -0.023455694321091625 -0.00041895580729881129 0 -0.023160966780549727 -0.00031403021648556724 0 -0.023455694321091625 -0.00041895580729881129 0 -0.023255104403830124 -0.00014694258183586763 0 -0.023160966780549727 -0.00031403021648556724 0 -0.023107017262713518 -0.00024938467405699426 0 -0.018359314197984582 0.00028264041738941493 0 -0.023397576384134592 -0.00059755631267862654 0 -0.023275412760971278 -0.00051401401995912542 0 -0.023455694321091625 -0.00041895580729881129 0 -0.023310359940229685 -0.00057324040303396312 0 -0.023107017262713518 -0.00024938467405699426 0 -0.017875756180095403 -0.00049441899780006864 0 -0.018359314197984582 0.00028264041738941493 0 -0.024061769048125646 -1.1343654075002381e-05 0 -0.024138972235466613 -3.0193946736378038e-05 0 -0.024023630350666621 7.3303880467587876e-05 0 -0.011729536826360189 -0.00081749428115552062 0 -0.011511982482896291 -0.0005438635828945755 0 -0.011718658446827797 -0.00051397365457131808 0 -0.023255104403830124 -0.00014694258183586763 0 -0.022998958161225155 1.6411385030337416e-05 0 -0.023388924712299669 0.00015022119140323389 0 -0.02099677417846213 -0.00017918769671726049 0 -0.02113014616874432 0.00049359018348847888 0 -0.020886670668722573 0.00087732748244153291 0 -0.023455694321091625 -0.00041895580729881129 0 -0.023255104403830124 -0.00014694258183586763 0 -0.023388924712299669 0.00015022119140323389 0 -0.023107017262713518 -0.00024938467405699426 0 -0.020250222479667502 0.00092938690371909948 0 -0.018359314197984582 0.00028264041738941493 0 -0.020250222479667502 0.00092938690371909948 0 -0.023255104403830124 -0.00014694258183586763 0 -0.022998958161225155 1.6411385030337416e-05 0 -0.023160966780549727 -0.00031403021648556724 0 -0.022998958161225155 1.6411385030337416e-05 0 -0.022861253029096258 -0.00022629802539320676 0 -0.023160966780549727 -0.00031403021648556724 0 -0.022998958161225155 1.6411385030337416e-05 0 -0.022751775142433726 -3.3743782773150646e-06 0 -0.022861253029096258 -0.00022629802539320676 0 -0.022998958161225155 1.6411385030337416e-05 0 -0.022751775142433726 -3.3743782773150646e-06 0 -0.022715884693304069 0.00022632612959958383 0 -0.022751775142433726 -3.3743782773150646e-06 0 -0.022715884693304069 0.00022632612959958383 0 -0.022453006163804898 6.1976748382319322e-05 0 -0.022751775142433726 -3.3743782773150646e-06 0 -0.022636693727541488 -0.00025156871129613346 0 -0.022453006163804898 6.1976748382319322e-05 0 -0.022751775142433726 -3.3743782773150646e-06 0 -0.022861253029096258 -0.00022629802539320676 0 -0.022636693727541488 -0.00025156871129613346 0 -0.022861253029096258 -0.00022629802539320676 0 -0.022636693727541488 -0.00025156871129613346 0 -0.022933967337662682 -0.00044795400545866127 0 -0.022717812316307231 -0.00055966871789350347 0 -0.022636693727541488 -0.00025156871129613346 0 -0.022933967337662682 -0.00044795400545866127 0 -0.023144573315801786 -0.00057614712095196258 0 -0.022933967337662682 -0.00044795400545866127 0 -0.023160966780549727 -0.00031403021648556724 0 -0.023144573315801786 -0.00057614712095196258 0 -0.023275412760971278 -0.00051401401995912542 0 -0.023160966780549727 -0.00031403021648556724 0 -0.022861253029096258 -0.00022629802539320676 0 -0.022933967337662682 -0.00044795400545866127 0 -0.023160966780549727 -0.00031403021648556724 0 -0.012135603480826552 -0.00092951528831426364 0 -0.012134316463359643 -0.00099671605886620849 0 -0.012169121298516317 -0.00099485779068181693 0 -0.012209132992447141 -0.00099041491408630926 0 -0.012162743711137449 -0.0010021110175692923 0 -0.012169121298516317 -0.00099485779068181693 0 -0.012162743711137449 -0.0010021110175692923 0 -0.012135603480826552 -0.00092951528831426364 0 -0.012169121298516317 -0.00099485779068181693 0 -0.012135603480826552 -0.00092951528831426364 0 -0.01200048918292076 -0.0010290165779733252 0 -0.011916583984649865 -0.00073697754249655092 0 -0.012177042384959577 -0.0010354137531617086 0 -0.012162743711137449 -0.0010021110175692923 0 -0.01200048918292076 -0.0010290165779733252 0 -0.012162743711137449 -0.0010021110175692923 0 -0.012135603480826552 -0.00092951528831426364 0 -0.01200048918292076 -0.0010290165779733252 0 -0.011729536826360189 -0.00081749428115552062 0 -0.01200048918292076 -0.0010290165779733252 0 -0.011916583984649865 -0.00073697754249655092 0 -0.017875756180095403 -0.00049441899780006864 0 -0.01809599799718864 -0.0005372164095498724 0 -0.011729536826360189 -0.00081749428115552062 0 -0.011718658446827797 -0.00051397365457131808 0 -0.011916583984649865 -0.00073697754249655092 0 -0.011718658446827797 -0.00051397365457131808 0 -0.011916583984649865 -0.00073697754249655092 0 -0.011857226881689073 -0.00046437523268590835 0 -0.011916583984649865 -0.00073697754249655092 0 -0.012073034932542725 -0.0005555300387046321 0 -0.011857226881689073 -0.00046437523268590835 0 -0.012135603480826552 -0.00092951528831426364 0 -0.011916583984649865 -0.00073697754249655092 0 -0.012073034932542725 -0.0005555300387046321 0 -0.012125804522319875 -0.00092310032039968144 0 -0.012138655708200252 -0.00083515152666647683 0 -0.012135603480826552 -0.00092951528831426364 0 -0.012170740306821592 -0.0010595703308318653 0 -0.012134316463359643 -0.00099671605886620849 0 -0.012170740306821592 -0.0010595703308318653 0 -0.012117620214644673 -0.001066215309683084 0 -0.012134316463359643 -0.00099671605886620849 0 -0.012170740306821592 -0.0010595703308318653 0 -0.012117620214644673 -0.001066215309683084 0 -0.012133244816192199 -0.0011138268621497492 0 -0.012117620214644673 -0.001066215309683084 0 -0.012134316463359643 -0.00099671605886620849 0 -0.012119002900742241 -0.0010200387097833111 0 -0.012143352230716609 -0.001145580969716685 0 -0.012133244816192199 -0.0011138268621497492 0 -0.012096891628612856 -0.0011198238336331515 0 -0.011922422344228769 -0.0011518876657852634 0 -0.011920607244659386 -0.001155135959621034 0 -0.011922048593503706 -0.0011526224821977529 0 -0.011922422344228769 -0.0011518876657852634 0 -0.011921727486968349 -0.0011519239800644838 0 -0.011922048593503706 -0.0011526224821977529 0 -0.011975929098230203 -0.00077059570483384104 0 -0.012041428230147682 -0.0011868342815997556 0 -0.011900592359791587 -0.00064932797302577443 0 -0.011975929098230203 -0.00077059570483384104 0 -0.011922422344228769 -0.0011518876657852634 0 -0.011923513082535085 -0.0011456924367611368 0 -0.011921727486968349 -0.0011519239800644838 0 -0.011930990840007731 -0.00022555809736689067 0 -0.011804595105871656 -0.00029790341372810134 0 -0.011837413230356662 -0.0001852313778939044 0 -0.011790617730615271 -0.0010019890385037184 0 -0.011900592359791587 -0.00064932797302577443 0 -0.011804595105871656 -0.00029790341372810134 0 -0.011753737142037399 -0.00025935596129230971 0 -0.011837413230356662 -0.0001852313778939044 0 -0.011913173287301638 -0.00061021454269026077 0 -0.011935082825116263 -0.00059786312617424316 0 -0.011930712652695484 -0.00062301866856221094 0 -0.011975929098230203 -0.00077059570483384104 0 -0.011839382963733918 -0.00034699985717988758 0 -0.012143352230716609 -0.001145580969716685 0 -0.012133244816192199 -0.0011138268621497492 0 -0.012156955895626433 -0.0011389437466021275 0 -0.011975929098230203 -0.00077059570483384104 0 -0.011955469419088255 -0.00056066935648057181 0 -0.012117620214644673 -0.001066215309683084 0 -0.012133244816192199 -0.0011138268621497492 0 -0.012096891628612856 -0.0011198238336331515 0 -0.012138655708200252 -0.00083515152666647683 0 -0.011955469419088255 -0.00056066935648057181 0 -0.012073034932542725 -0.0005555300387046321 0 -0.0118799044563031 -0.00026460430183890499 0 -0.01204065609394279 -0.00017525461959337014 0 -0.012170740306821592 -0.0010595703308318653 0 -0.012133244816192199 -0.0011138268621497492 0 -0.012156955895626433 -0.0011389437466021275 0 -0.012073034932542725 -0.0005555300387046321 0 -0.0118799044563031 -0.00026460430183890499 0 -0.011857226881689073 -0.00046437523268590835 0 -0.0118799044563031 -0.00026460430183890499 0 -0.011849215735833337 -0.00019517879276321335 0 -0.011828531328911656 -0.00019137334140388999 0 -0.0118799044563031 -0.00026460430183890499 0 -0.011828531328911656 -0.00019137334140388999 0 -0.011776853528161414 -0.00019222915349253019 0 -0.011945054540338007 -0.00028147939680121201 0 -0.011955469419088255 -0.00056066935648057181 0 -0.011849215735833337 -0.00019517879276321335 0 -0.011829798172725003 -0.00017228517386666398 0 -0.011828531328911656 -0.00019137334140388999 0 -0.011849215735833337 -0.00019517879276321335 0 -0.011829798172725003 -0.00017228517386666398 0 -0.011851147370622369 -0.00016517475138456178 0 -0.011955469419088255 -0.00056066935648057181 0 -0.011839382963733918 -0.00034699985717988758 0 -0.011829798172725003 -0.00017228517386666398 0 -0.011851147370622369 -0.00016517475138456178 0 -0.011823356339188452 -0.00014491896149132299 0 -0.011839382963733918 -0.00034699985717988758 0 -0.011809030951226807 -0.00029756186026224518 0 -0.011829798172725003 -0.00017228517386666398 0 -0.011823356339188452 -0.00014491896149132299 0 -0.011797706444051663 -0.00014739912639525878 0 -0.011762476442542587 -0.00013985580087256494 0 -0.011828531328911656 -0.00019137334140388999 0 -0.011776853528161414 -0.00019222915349253019 0 -0.011797706444051663 -0.00014739912639525878 0 -0.011762476442542587 -0.00013985580087256494 0 -0.011828531328911656 -0.00019137334140388999 0 -0.011829798172725003 -0.00017228517386666398 0 -0.011797706444051663 -0.00014739912639525878 0 -0.011828531328911656 -0.00019137334140388999 0 -0.0118799044563031 -0.00026460430183890499 0 -0.011714561862748015 -0.00026669650328888005 0 -0.011776853528161414 -0.00019222915349253019 0 -0.011714561862748015 -0.00026669650328888005 0 -0.011776853528161414 -0.00019222915349253019 0 -0.011673436303840467 -0.00011183109036329835 0 -0.011762476442542587 -0.00013985580087256494 0 -0.011776853528161414 -0.00019222915349253019 0 -0.011673436303840467 -0.00011183109036329835 0 -0.0118799044563031 -0.00026460430183890499 0 -0.011714561862748015 -0.00026669650328888005 0 -0.011857226881689073 -0.00046437523268590835 0 -0.011718658446827797 -0.00051397365457131808 0 -0.011714561862748015 -0.00026669650328888005 0 -0.011857226881689073 -0.00046437523268590835 0 -0.011718658446827797 -0.00051397365457131808 0 -0.011714561862748015 -0.00026669650328888005 0 -0.011498381374742612 -0.00028496696913389862 0 -0.011714561862748015 -0.00026669650328888005 0 -0.011587166442951316 -0.00013722962316873552 0 -0.011498381374742612 -0.00028496696913389862 0 -0.011714561862748015 -0.00026669650328888005 0 -0.011587166442951316 -0.00013722962316873552 0 -0.011673436303840467 -0.00011183109036329835 0 -0.011548736372392935 8.4494348625291936e-06 0 -0.011506151702387449 0.00010158908500360576 0 -0.011482198032005262 -5.8371609121289622e-05 0 -0.011587166442951316 -0.00013722962316873552 0 -0.011548736372392935 8.4494348625291936e-06 0 -0.011482198032005262 -5.8371609121289622e-05 0 -0.011587166442951316 -0.00013722962316873552 0 -0.011548736372392935 8.4494348625291936e-06 0 -0.011673436303840467 -0.00011183109036329835 0 -0.011506151702387449 0.00010158908500360576 0 -0.011477388897022652 0.00012253095466964564 0 -0.011482198032005262 -5.8371609121289622e-05 0 -0.012074824426974651 0.00031147905704275456 0 -0.012642149055705834 0.00010650931734665795 0 -0.011506151702387449 0.00010158908500360576 0 -0.011529324568211463 0.00013708201663061121 0 -0.011516843866240994 0.00012155250007362405 0 -0.012511864787413717 5.492540660624203e-05 0 -0.012642149055705834 0.00010650931734665795 0 -0.011506151702387449 0.00010158908500360576 0 -0.011529324568211463 0.00013708201663061121 0 -0.011466061887550189 9.0390994882607836e-05 0 -0.011506151702387449 0.00010158908500360576 0 -0.011514612498465662 6.2232899300018063e-05 0 -0.011466061887550189 9.0390994882607836e-05 0 -0.011548736372392935 8.4494348625291936e-06 0 -0.011506151702387449 0.00010158908500360576 0 -0.011514612498465662 6.2232899300018063e-05 0 -0.011548736372392935 8.4494348625291936e-06 0 -0.011514612498465662 6.2232899300018063e-05 0 -0.011544461719090774 4.0118195126851408e-05 0 -0.011544461719090774 4.0118195126851408e-05 0 -0.011466061887550189 9.0390994882607836e-05 0 -0.011565399325509984 5.7571747449985174e-05 0 -0.011544461719090774 4.0118195126851408e-05 0 -0.011565399325509984 5.7571747449985174e-05 0 -0.011634315215822453 -3.1004587673409464e-05 0 -0.011514612498465662 6.2232899300018063e-05 0 -0.011544461719090774 4.0118195126851408e-05 0 -0.011466061887550189 9.0390994882607836e-05 0 -0.011466061887550189 9.0390994882607836e-05 0 -0.011513620682375356 0.00014147862578905003 0 -0.011565399325509984 5.7571747449985174e-05 0 -0.011513620682375356 0.00014147862578905003 0 -0.011565399325509984 5.7571747449985174e-05 0 -0.01163770251356523 0.00010630406684941404 0 -0.011565399325509984 5.7571747449985174e-05 0 -0.011649500247005527 2.1255235466504963e-05 0 -0.01163770251356523 0.00010630406684941404 0 -0.011565399325509984 5.7571747449985174e-05 0 -0.011634315215822453 -3.1004587673409464e-05 0 -0.011649500247005527 2.1255235466504963e-05 0 -0.011634315215822453 -3.1004587673409464e-05 0 -0.011707537158929885 -8.4760670184688691e-05 0 -0.011704354877890458 -3.7179084066458673e-05 0 -0.011634315215822453 -3.1004587673409464e-05 0 -0.011704354877890458 -3.7179084066458673e-05 0 -0.011649500247005527 2.1255235466504963e-05 0 -0.011548736372392935 8.4494348625291936e-06 0 -0.011634315215822453 -3.1004587673409464e-05 0 -0.011673436303840467 -0.00011183109036329835 0 -0.011548736372392935 8.4494348625291936e-06 0 -0.011544461719090774 4.0118195126851408e-05 0 -0.011634315215822453 -3.1004587673409464e-05 0 -0.011762476442542587 -0.00013985580087256494 0 -0.011673436303840467 -0.00011183109036329835 0 -0.011707537158929885 -8.4760670184688691e-05 0 -0.011634315215822453 -3.1004587673409464e-05 0 -0.011673436303840467 -0.00011183109036329835 0 -0.011707537158929885 -8.4760670184688691e-05 0 -0.011823356339188452 -0.00014491896149132299 0 -0.0117641769337782 -5.6923208069009827e-05 0 -0.011818296861681274 -1.5000136055340907e-05 0 -0.011848594113448995 -0.00016302011626183305 0 -0.011823356339188452 -0.00014491896149132299 0 -0.011818296861681274 -1.5000136055340907e-05 0 -0.011707537158929885 -8.4760670184688691e-05 0 -0.011762443729189912 -0.00010095332953162106 0 -0.011704354877890458 -3.7179084066458673e-05 0 -0.011762476442542587 -0.00013985580087256494 0 -0.011707537158929885 -8.4760670184688691e-05 0 -0.011762443729189912 -0.00010095332953162106 0 -0.011797706444051663 -0.00014739912639525878 0 -0.011762476442542587 -0.00013985580087256494 0 -0.011762443729189912 -0.00010095332953162106 0 -0.011823356339188452 -0.00014491896149132299 0 -0.011797706444051663 -0.00014739912639525878 0 -0.011762443729189912 -0.00010095332953162106 0 -0.011823356339188452 -0.00014491896149132299 0 -0.011762443729189912 -0.00010095332953162106 0 -0.0117641769337782 -5.6923208069009827e-05 0 -0.0117641769337782 -5.6923208069009827e-05 0 -0.011709917055289685 2.4436342852934175e-05 0 -0.011818296861681274 -1.5000136055340907e-05 0 -0.0117641769337782 -5.6923208069009827e-05 0 -0.011704354877890458 -3.7179084066458673e-05 0 -0.011709917055289685 2.4436342852934175e-05 0 -0.011762443729189912 -0.00010095332953162106 0 -0.0117641769337782 -5.6923208069009827e-05 0 -0.011704354877890458 -3.7179084066458673e-05 0 -0.011704354877890458 -3.7179084066458673e-05 0 -0.011649500247005527 2.1255235466504963e-05 0 -0.011709917055289685 2.4436342852934175e-05 0 -0.011649500247005527 2.1255235466504963e-05 0 -0.011709917055289685 2.4436342852934175e-05 0 -0.01163770251356523 0.00010630406684941404 0 -0.011513620682375356 0.00014147862578905003 0 -0.01163770251356523 0.00010630406684941404 0 -0.011545523094845161 0.00021325381151562328 0 -0.01163770251356523 0.00010630406684941404 0 -0.011754978668071108 9.2646494178480452e-05 0 -0.01174106819626811 0.00016204416866571564 0 -0.01163770251356523 0.00010630406684941404 0 -0.01174106819626811 0.00016204416866571564 0 -0.011660907731438203 0.00022172168431915161 0 -0.011709917055289685 2.4436342852934175e-05 0 -0.01163770251356523 0.00010630406684941404 0 -0.011754978668071108 9.2646494178480452e-05 0 -0.011709917055289685 2.4436342852934175e-05 0 -0.011754978668071108 9.2646494178480452e-05 0 -0.011818296861681274 -1.5000136055340907e-05 0 -0.011940151006274382 4.1359636370455882e-06 0 -0.011787264103160267 -4.1565719967318862e-05 0 -0.011883330228620547 0.00017818162852346994 0 -0.011807857179242447 -2.2862110215528947e-06 0 -0.011822438524307198 0.00015498065780920488 0 -0.011787264103160267 -4.1565719967318862e-05 0 -0.011883330228620547 0.00017818162852346994 0 -0.011823571070944399 0.00018873402049777332 0 -0.011754978668071108 9.2646494178480452e-05 0 -0.011818296861681274 -1.5000136055340907e-05 0 -0.011823571070944399 0.00018873402049777332 0 -0.011754978668071108 9.2646494178480452e-05 0 -0.01174106819626811 0.00016204416866571564 0 -0.011823571070944399 0.00018873402049777332 0 -0.011940151006274382 4.1359636370455882e-06 0 -0.011898843173308308 -0.00010230053924646884 0 -0.011964686735236079 -9.1950011406905137e-05 0 -0.011839382963733918 -0.00034699985717988758 0 -0.011807857179242447 -2.2862110215528947e-06 0 -0.011753737142037399 -0.00025935596129230971 0 -0.011787264103160267 -4.1565719967318862e-05 0 -0.011837413230356662 -0.0001852313778939044 0 -0.011940151006274382 4.1359636370455882e-06 0 -0.011898843173308308 -0.00010230053924646884 0 -0.011787264103160267 -4.1565719967318862e-05 0 -0.011898843173308308 -0.00010230053924646884 0 -0.011787264103160267 -4.1565719967318862e-05 0 -0.011837413230356662 -0.0001852313778939044 0 -0.011930990840007731 -0.00022555809736689067 0 -0.011898843173308308 -0.00010230053924646884 0 -0.011964686735236079 -9.1950011406905137e-05 0 -0.011930990840007731 -0.00022555809736689067 0 -0.011898843173308308 -0.00010230053924646884 0 -0.011837413230356662 -0.0001852313778939044 0 -0.022989866363836636 0.00068754183148689882 0 -0.02259152120795373 0.00062146800665588398 0 -0.022950799300898463 0.00033236826351667581 0 -0.02259152120795373 0.00062146800665588398 0 -0.022202650559712538 0.0009490834945026981 0 -0.022280030068165275 0.00064153393670061975 0 -0.02259152120795373 0.00062146800665588398 0 -0.022280030068165275 0.00064153393670061975 0 -0.022367088996510832 0.0003727028913095111 0 -0.02259152120795373 0.00062146800665588398 0 -0.022715884693304069 0.00022632612959958383 0 -0.022367088996510832 0.0003727028913095111 0 -0.022715884693304069 0.00022632612959958383 0 -0.022367088996510832 0.0003727028913095111 0 -0.022453006163804898 6.1976748382319322e-05 0 -0.02259152120795373 0.00062146800665588398 0 -0.022715884693304069 0.00022632612959958383 0 -0.022950799300898463 0.00033236826351667581 0 -0.022998958161225155 1.6411385030337416e-05 0 -0.022950799300898463 0.00033236826351667581 0 -0.023388924712299669 0.00015022119140323389 0 -0.022998958161225155 1.6411385030337416e-05 0 -0.022715884693304069 0.00022632612959958383 0 -0.022950799300898463 0.00033236826351667581 0 -0.021841439100828818 0.0014720029824645394 0 -0.020250222479667502 0.00092938690371909948 0 -0.015704833073861408 0.00077849889940414532 0 -0.015637106442112522 0.00074308064291404646 0 -0.015679217990019836 0.00070492160214591295 0 -0.020250222479667502 0.00092938690371909948 0 -0.017655374739016461 0.0016192757127785047 0 -0.022989866363836636 0.00068754183148689882 0 -0.022950799300898463 0.00033236826351667581 0 -0.023388924712299669 0.00015022119140323389 0 -0.011511982482896291 -0.0005438635828945755 0 -0.011718658446827797 -0.00051397365457131808 0 -0.011498381374742612 -0.00028496696913389862 0 -0.015700141455062506 0.00080526496530078243 0 -0.015704833073861408 0.00077849889940414532 0 -0.015637106442112522 0.00074308064291404646 0 -0.018359314197984582 0.00028264041738941493 0 -0.013144065096994232 4.9423380544643978e-05 0 -0.013144065096994232 4.9423380544643978e-05 0 -0.013651865793105705 0.00041731455449881862 0 -0.011587166442951316 -0.00013722962316873552 0 -0.011498381374742612 -0.00028496696913389862 0 -0.011482198032005262 -5.8371609121289622e-05 0 -0.015637106442112522 0.00074308064291404646 0 -0.015679217990019836 0.00070492160214591295 0 -0.015575636549389064 0.00066432804341330491 0 -0.020219921396688635 0.0022896526184654092 0 -0.020176784905730032 0.0022677434290777482 0 -0.020177112789674358 0.0022776238978948495 0 -0.015679217990019836 0.00070492160214591295 0 -0.015594528409894882 0.0006078790298778455 0 -0.015665169866145776 0.00060143522195924275 0 -0.020219921396688635 0.0022896526184654092 0 -0.020177112789674358 0.0022776238978948495 0 -0.020137480475493328 0.0021864525104613652 0 -0.017655374739016461 0.0016192757127785047 0 -0.018239934152985041 0.0014531681753012359 0 -0.015679217990019836 0.00070492160214591295 0 -0.015575636549389064 0.00066432804341330491 0 -0.015594528409894882 0.0006078790298778455 0 -0.015523789054517319 0.00056432824308547461 0 -0.015575636549389064 0.00066432804341330491 0 -0.015594528409894882 0.0006078790298778455 0 -0.015594528409894882 0.0006078790298778455 0 -0.015665169866145776 0.00060143522195924275 0 -0.015594331809736219 0.00052688872063426655 0 -0.015523789054517319 0.00056432824308547461 0 -0.015594528409894882 0.0006078790298778455 0 -0.015594331809736219 0.00052688872063426655 0 -0.012642149055705834 0.00010650931734665795 0 -0.013651865793105705 0.00041731455449881862 0 -0.020137480475493328 0.0021864525104613652 0 -0.020366458864513524 0.0022045091347085064 0 -0.020314306899405631 0.0020170324157870018 0 -0.022989866363836636 0.00068754183148689882 0 -0.02259152120795373 0.00062146800665588398 0 -0.022500897746110349 0.0011879281391853351 0 -0.021841439100828818 0.0014720029824645394 0 -0.02140291126156562 0.001697894289750742 0 -0.020219921396688635 0.0022896526184654092 0 -0.020137480475493328 0.0021864525104613652 0 -0.020366458864513524 0.0022045091347085064 0 -0.02259152120795373 0.00062146800665588398 0 -0.022500897746110349 0.0011879281391853351 0 -0.022202650559712538 0.0009490834945026981 0 -0.022500897746110349 0.0011879281391853351 0 -0.021888596878125752 0.0012821528968880048 0 -0.021949811509124187 0.0016010881555548763 0 -0.022500897746110349 0.0011879281391853351 0 -0.021888596878125752 0.0012821528968880048 0 -0.022202650559712538 0.0009490834945026981 0 -0.021572139595876859 0.0012759817434097147 0 -0.021798362156137643 0.00091541587647147172 0 -0.02131823524573347 0.0011361252107301969 0 -0.021888596878125752 0.0012821528968880048 0 -0.021572139595876859 0.0012759817434097147 0 -0.021798362156137643 0.00091541587647147172 0 -0.021798362156137643 0.00091541587647147172 0 -0.021685202488587033 0.00057909982966332678 0 -0.021399988348890939 0.00079981072894128253 0 -0.021888596878125752 0.0012821528968880048 0 -0.021798362156137643 0.00091541587647147172 0 -0.022202650559712538 0.0009490834945026981 0 -0.021798362156137643 0.00091541587647147172 0 -0.022202650559712538 0.0009490834945026981 0 -0.022280030068165275 0.00064153393670061975 0 -0.021798362156137643 0.00091541587647147172 0 -0.022280030068165275 0.00064153393670061975 0 -0.021999099160589029 0.00050915055817603511 0 -0.022280030068165275 0.00064153393670061975 0 -0.021999099160589029 0.00050915055817603511 0 -0.022367088996510832 0.0003727028913095111 0 -0.021999099160589029 0.00050915055817603511 0 -0.021685202488587033 0.00057909982966332678 0 -0.021714709543388302 0.00025144199657520407 0 -0.021798362156137643 0.00091541587647147172 0 -0.021999099160589029 0.00050915055817603511 0 -0.021685202488587033 0.00057909982966332678 0 -0.021714709543388302 0.00025144199657520407 0 -0.022122042833462908 0.00024448436273919827 0 -0.02205806684999909 4.2015072061198149e-06 0 -0.021999099160589029 0.00050915055817603511 0 -0.021714709543388302 0.00025144199657520407 0 -0.022122042833462908 0.00024448436273919827 0 -0.022122042833462908 0.00024448436273919827 0 -0.022367088996510832 0.0003727028913095111 0 -0.022453006163804898 6.1976748382319322e-05 0 -0.021999099160589029 0.00050915055817603511 0 -0.022122042833462908 0.00024448436273919827 0 -0.022367088996510832 0.0003727028913095111 0 -0.021252930749093568 0.00023768877470239889 0 -0.020895708039315331 0.0002009409722425205 0 -0.021155813979101323 5.2965347276641944e-05 0 -0.021252930749093568 0.00023768877470239889 0 -0.021387797280113884 0.00050573794704009297 0 -0.020984361378117294 0.00047093051306527152 0 -0.021252930749093568 0.00023768877470239889 0 -0.020984361378117294 0.00047093051306527152 0 -0.020895708039315331 0.0002009409722425205 0 -0.021714709543388302 0.00025144199657520407 0 -0.021252930749093568 0.00023768877470239889 0 -0.021387797280113884 0.00050573794704009297 0 -0.021714709543388302 0.00025144199657520407 0 -0.021252930749093568 0.00023768877470239889 0 -0.021447614962396548 -1.9775855942878789e-05 0 -0.021685202488587033 0.00057909982966332678 0 -0.021714709543388302 0.00025144199657520407 0 -0.021387797280113884 0.00050573794704009297 0 -0.021685202488587033 0.00057909982966332678 0 -0.021387797280113884 0.00050573794704009297 0 -0.021399988348890939 0.00079981072894128253 0 -0.021387797280113884 0.00050573794704009297 0 -0.021140424361093806 0.00069257901518328705 0 -0.021399988348890939 0.00079981072894128253 0 -0.021140424361093806 0.00069257901518328705 0 -0.020984361378117294 0.00047093051306527152 0 -0.020797344743653613 0.00073007092266931235 0 -0.021387797280113884 0.00050573794704009297 0 -0.021140424361093806 0.00069257901518328705 0 -0.020984361378117294 0.00047093051306527152 0 -0.021140424361093806 0.00069257901518328705 0 -0.02107591625067929 0.00096635547515239813 0 -0.020797344743653613 0.00073007092266931235 0 -0.021140424361093806 0.00069257901518328705 0 -0.02107591625067929 0.00096635547515239813 0 -0.021399988348890939 0.00079981072894128253 0 -0.02107591625067929 0.00096635547515239813 0 -0.021399988348890939 0.00079981072894128253 0 -0.02131823524573347 0.0011361252107301969 0 -0.021798362156137643 0.00091541587647147172 0 -0.021399988348890939 0.00079981072894128253 0 -0.02131823524573347 0.0011361252107301969 0 -0.021572139595876859 0.0012759817434097147 0 -0.02131823524573347 0.0011361252107301969 0 -0.021277551711917485 0.001474773005094496 0 -0.02107591625067929 0.00096635547515239813 0 -0.02131823524573347 0.0011361252107301969 0 -0.020928236969102655 0.0014210344252293433 0 -0.02107591625067929 0.00096635547515239813 0 -0.020814762795615512 0.0010893488667386745 0 -0.020928236969102655 0.0014210344252293433 0 -0.020814762795615512 0.0010893488667386745 0 -0.020658869804702017 0.0013109291073810279 0 -0.020928236969102655 0.0014210344252293433 0 -0.020814762795615512 0.0010893488667386745 0 -0.020588327062175053 0.00098826632344118292 0 -0.020658869804702017 0.0013109291073810279 0 -0.020308366548410419 0.00088089897454799902 0 -0.020347130064094391 0.0012216556621493276 0 -0.020588327062175053 0.00098826632344118292 0 -0.020317701379090499 0.00084982528740367433 0 -0.020349576259502955 0.0014204157103280821 0 -0.020588327062175053 0.00098826632344118292 0 -0.020349576259502955 0.0014204157103280821 0 -0.020658869804702017 0.0013109291073810279 0 -0.020588327062175053 0.00098826632344118292 0 -0.020317701379090499 0.00084982528740367433 0 -0.020558394271054551 0.00066253150918906282 0 -0.020317701379090499 0.00084982528740367433 0 -0.020558394271054551 0.00066253150918906282 0 -0.020355349669276608 0.00062145107728335091 0 -0.020814762795615512 0.0010893488667386745 0 -0.020588327062175053 0.00098826632344118292 0 -0.020797344743653613 0.00073007092266931235 0 -0.02107591625067929 0.00096635547515239813 0 -0.020814762795615512 0.0010893488667386745 0 -0.020797344743653613 0.00073007092266931235 0 -0.020588327062175053 0.00098826632344118292 0 -0.020558394271054551 0.00066253150918906282 0 -0.020797344743653613 0.00073007092266931235 0 -0.019959137601513844 0.0008570557580016981 0 -0.020156398065584263 0.0008233488193450302 0 -0.020131353273899769 0.00097275075811784073 0 -0.020317701379090499 0.00084982528740367433 0 -0.020131353273899769 0.00097275075811784073 0 -0.020323919174279163 0.0010195307802939905 0 -0.020317701379090499 0.00084982528740367433 0 -0.020156398065584263 0.0008233488193450302 0 -0.020131353273899769 0.00097275075811784073 0 -0.020156398065584263 0.0008233488193450302 0 -0.020160875339093155 0.00061034086089210512 0 -0.020355349669276608 0.00062145107728335091 0 -0.020317701379090499 0.00084982528740367433 0 -0.020156398065584263 0.0008233488193450302 0 -0.020355349669276608 0.00062145107728335091 0 -0.019998327846054587 0.00060990173101708783 0 -0.019959137601513844 0.0008570557580016981 0 -0.020160875339093155 0.00061034086089210512 0 -0.019959137601513844 0.0008570557580016981 0 -0.020156398065584263 0.0008233488193450302 0 -0.020160875339093155 0.00061034086089210512 0 -0.020160875339093155 0.00061034086089210512 0 -0.020365927547194202 0.00033134238662882725 0 -0.020136718796440533 0.00036922570175020562 0 -0.019998327846054587 0.00060990173101708783 0 -0.020160875339093155 0.00061034086089210512 0 -0.020136718796440533 0.00036922570175020562 0 -0.020160875339093155 0.00061034086089210512 0 -0.020355349669276608 0.00062145107728335091 0 -0.020365927547194202 0.00033134238662882725 0 -0.020365927547194202 0.00033134238662882725 0 -0.02027209237522842 0.0001800877167830012 0 -0.020449532577891717 2.827251418014081e-05 0 -0.020211926393668971 0.00010698514461785818 0 -0.020136718796440533 0.00036922570175020562 0 -0.02027209237522842 0.0001800877167830012 0 -0.020365927547194202 0.00033134238662882725 0 -0.020136718796440533 0.00036922570175020562 0 -0.02027209237522842 0.0001800877167830012 0 -0.020984361378117294 0.00047093051306527152 0 -0.020797344743653613 0.00073007092266931235 0 -0.020627618172759137 0.00045060673665263038 0 -0.020558394271054551 0.00066253150918906282 0 -0.020797344743653613 0.00073007092266931235 0 -0.020627618172759137 0.00045060673665263038 0 -0.020355349669276608 0.00062145107728335091 0 -0.020365927547194202 0.00033134238662882725 0 -0.020627618172759137 0.00045060673665263038 0 -0.020558394271054551 0.00066253150918906282 0 -0.020355349669276608 0.00062145107728335091 0 -0.020627618172759137 0.00045060673665263038 0 -0.020365927547194202 0.00033134238662882725 0 -0.020627618172759137 0.00045060673665263038 0 -0.020616323202564384 0.00018627093482203366 0 -0.020365927547194202 0.00033134238662882725 0 -0.020616323202564384 0.00018627093482203366 0 -0.020449532577891717 2.827251418014081e-05 0 -0.020984361378117294 0.00047093051306527152 0 -0.020627618172759137 0.00045060673665263038 0 -0.020895708039315331 0.0002009409722425205 0 -0.020627618172759137 0.00045060673665263038 0 -0.020616323202564384 0.00018627093482203366 0 -0.020895708039315331 0.0002009409722425205 0 -0.020895708039315331 0.0002009409722425205 0 -0.020800617605707492 -0.00019608609258859726 0 -0.021155813979101323 5.2965347276641944e-05 0 -0.020616323202564384 0.00018627093482203366 0 -0.020895708039315331 0.0002009409722425205 0 -0.020800617605707492 -0.00019608609258859726 0 -0.020526567784593702 0.00012041631755251372 0 -0.020819414144490334 -1.9616731052377096e-06 0 -0.020416174626611747 -1.4221977772413201e-06 0 -0.020616323202564384 0.00018627093482203366 0 -0.020449532577891717 2.827251418014081e-05 0 -0.020800617605707492 -0.00019608609258859726 0 -0.020342360821968216 0.00011163781063487992 0 -0.021566452720907951 -0.00016131519705250204 0 -0.022715994191574492 -0.00036879573647424264 0 -0.023352160574478122 -0.00016394343266583992 0 -0.02315606050274999 -0.00057650426073852597 0 -0.021566452720907951 -0.00016131519705250204 0 -0.021389131306355856 6.0485726739719796e-05 0 -0.022715994191574492 -0.00036879573647424264 0 -0.023352160574478122 -0.00016394343266583992 0 -0.022157779012067585 0.00013483624314339742 0 -0.023352160574478122 -0.00016394343266583992 0 -0.023493637476624842 -0.00072032273520074026 0 -0.02315606050274999 -0.00057650426073852597 0 -0.020211926393668971 0.00010698514461785818 0 -0.02027209237522842 0.0001800877167830012 0 -0.020416174626611747 -1.4221977772413201e-06 0 -0.02031504569160875 -3.470830548750463e-05 0 -0.020211926393668971 0.00010698514461785818 0 -0.020416174626611747 -1.4221977772413201e-06 0 -0.020350125983413566 0.00014773916765998925 0 -0.020342360821968216 0.00011163781063487992 0 -0.02027209237522842 0.0001800877167830012 0 -0.020526567784593702 0.00012041631755251372 0 -0.020416174626611747 -1.4221977772413201e-06 0 -0.022157779012067585 0.00013483624314339742 0 -0.021739062145766187 -0.000351833170380186 0 -0.021179191299164735 -0.00034349477271781992 0 -0.022715994191574492 -0.00036879573647424264 0 -0.022157779012067585 0.00013483624314339742 0 -0.022124514217868256 -0.00055508381256016114 0 -0.022157779012067585 0.00013483624314339742 0 -0.021739062145766187 -0.000351833170380186 0 -0.022124514217868256 -0.00055508381256016114 0 -0.020312012651580749 -2.5300881612750564e-05 0 -0.021389131306355856 6.0485726739719796e-05 0 -0.02031504569160875 -3.470830548750463e-05 0 -0.022157779012067585 0.00013483624314339742 0 -0.021179191299164735 -0.00034349477271781992 0 -0.021739062145766187 -0.000351833170380186 0 -0.021179191299164735 -0.00034349477271781992 0 -0.021493299886075404 -0.00062021837115412172 0 -0.021205074065132494 -0.00091142876245901372 0 -0.020842638829727606 -0.00095896479255109309 0 -0.021174969402319808 -0.0012649118767834315 0 -0.020395705235391502 -0.0005128572616855643 0 -0.021179191299164735 -0.00034349477271781992 0 -0.02102668078688584 -0.00066625192446132962 0 -0.021205074065132494 -0.00091142876245901372 0 -0.020842638829727606 -0.00095896479255109309 0 -0.02102668078688584 -0.00066625192446132962 0 -0.021205074065132494 -0.00091142876245901372 0 -0.021493299886075404 -0.00062021837115412172 0 -0.021484929449188717 -0.0010564303130134445 0 -0.021205074065132494 -0.00091142876245901372 0 -0.02102668078688584 -0.00066625192446132962 0 -0.021493299886075404 -0.00062021837115412172 0 -0.021179191299164735 -0.00034349477271781992 0 -0.02102668078688584 -0.00066625192446132962 0 -0.021493299886075404 -0.00062021837115412172 0 -0.021493299886075404 -0.00062021837115412172 0 -0.021484929449188717 -0.0010564303130134445 0 -0.021784718909244698 -0.00084660508481554646 0 -0.021484929449188717 -0.0010564303130134445 0 -0.021784718909244698 -0.00084660508481554646 0 -0.021713061344213233 -0.0012784939947478758 0 -0.021205074065132494 -0.00091142876245901372 0 -0.021484929449188717 -0.0010564303130134445 0 -0.021174969402319808 -0.0012649118767834315 0 -0.021484929449188717 -0.0010564303130134445 0 -0.021454921158274819 -0.0012829583165586426 0 -0.021174969402319808 -0.0012649118767834315 0 -0.021484929449188717 -0.0010564303130134445 0 -0.021713061344213233 -0.0012784939947478758 0 -0.021454921158274819 -0.0012829583165586426 0 -0.022093374260024067 -0.0010534910053944442 0 -0.021784718909244698 -0.00084660508481554646 0 -0.021713061344213233 -0.0012784939947478758 0 -0.022093374260024067 -0.0010534910053944442 0 -0.021784718909244698 -0.00084660508481554646 0 -0.022124514217868256 -0.00055508381256016114 0 -0.021739062145766187 -0.000351833170380186 0 -0.021493299886075404 -0.00062021837115412172 0 -0.022124514217868256 -0.00055508381256016114 0 -0.021493299886075404 -0.00062021837115412172 0 -0.021784718909244698 -0.00084660508481554646 0 -0.022124514217868256 -0.00055508381256016114 0 -0.022093374260024067 -0.0010534910053944442 0 -0.022124514217868256 -0.00055508381256016114 0 -0.022638623227062702 -0.00077899989669232787 0 -0.022093374260024067 -0.0010534910053944442 0 -0.022638623227062702 -0.00077899989669232787 0 -0.022674769318127567 -0.0011994059682550384 0 -0.02340922982226968 -0.0012970403606678946 0 -0.023485950426167614 -0.0018161609076837034 0 -0.021958617228200229 -0.0014787094098052647 0 -0.021483958829907054 -0.0016849577621258901 0 -0.022604384830400549 -0.0017470274535309276 0 -0.022093374260024067 -0.0010534910053944442 0 -0.021958617228200229 -0.0014787094098052647 0 -0.022674769318127567 -0.0011994059682550384 0 -0.021958617228200229 -0.0014787094098052647 0 -0.022674769318127567 -0.0011994059682550384 0 -0.022604384830400549 -0.0017470274535309276 0 -0.022093374260024067 -0.0010534910053944442 0 -0.021958617228200229 -0.0014787094098052647 0 -0.021713061344213233 -0.0012784939947478758 0 -0.021958617228200229 -0.0014787094098052647 0 -0.021713061344213233 -0.0012784939947478758 0 -0.021650693519679388 -0.0014921620878242988 0 -0.020332958308979476 -0.001442422212485825 0 -0.021460071397758625 -0.0017076938325622116 0 -0.021174969402319808 -0.0012649118767834315 0 -0.022673109695103513 -0.00024010657969866518 0 -0.02340922982226968 -0.0012970403606678946 0 -0.0248794252816349 -0.00025751874269113216 0 -0.02487319737069604 -0.00022571068674303202 0 -0.024838414755375147 -0.0002478389615064688 0 -0.021442399687735061 -0.0015240103710882479 0 -0.021460071397758625 -0.0017076938325622116 0 -0.021174969402319808 -0.0012649118767834315 0 -0.021958617228200229 -0.0014787094098052647 0 -0.021650693519679388 -0.0014921620878242988 0 -0.021483958829907054 -0.0016849577621258901 0 -0.021713061344213233 -0.0012784939947478758 0 -0.021454921158274819 -0.0012829583165586426 0 -0.021442399687735061 -0.0015240103710882479 0 -0.021454921158274819 -0.0012829583165586426 0 -0.021442399687735061 -0.0015240103710882479 0 -0.021174969402319808 -0.0012649118767834315 0 -0.023196460819196033 -0.0013428356570996784 0 -0.02340922982226968 -0.0012970403606678946 0 -0.021442399687735061 -0.0015240103710882479 0 -0.021650693519679388 -0.0014921620878242988 0 -0.021483958829907054 -0.0016849577621258901 0 -0.021713061344213233 -0.0012784939947478758 0 -0.021442399687735061 -0.0015240103710882479 0 -0.021650693519679388 -0.0014921620878242988 0 -0.023267952096441759 -0.00091953930376407838 0 -0.023493637476624842 -0.00072032273520074026 0 -0.023592946241574861 -0.00099124128213134793 0 -0.023267952096441759 -0.00091953930376407838 0 -0.023493637476624842 -0.00072032273520074026 0 -0.02315606050274999 -0.00057650426073852597 0 -0.022715994191574492 -0.00036879573647424264 0 -0.02315606050274999 -0.00057650426073852597 0 -0.022638623227062702 -0.00077899989669232787 0 -0.023267952096441759 -0.00091953930376407838 0 -0.02315606050274999 -0.00057650426073852597 0 -0.022638623227062702 -0.00077899989669232787 0 -0.022715994191574492 -0.00036879573647424264 0 -0.022124514217868256 -0.00055508381256016114 0 -0.022638623227062702 -0.00077899989669232787 0 -0.023267952096441759 -0.00091953930376407838 0 -0.022638623227062702 -0.00077899989669232787 0 -0.022674769318127567 -0.0011994059682550384 0 -0.023267952096441759 -0.00091953930376407838 0 -0.022674769318127567 -0.0011994059682550384 0 -0.023455220624113718 -0.001240255559762713 0 -0.023729669629080182 -0.0016262106995025615 0 -0.022604384830400549 -0.0017470274535309276 0 -0.023455220624113718 -0.001240255559762713 0 -0.022674769318127567 -0.0011994059682550384 0 -0.022604384830400549 -0.0017470274535309276 0 -0.023455220624113718 -0.001240255559762713 0 -0.023674023591346616 -0.0012353313664213122 0 -0.023457123883046008 -0.0012189592272897349 0 -0.023729669629080182 -0.0016262106995025615 0 -0.023768700613283344 -0.0015289381836117294 0 -0.023455220624113718 -0.001240255559762713 0 -0.02365134522861739 -0.00096451128497049342 0 -0.023455220624113718 -0.001240255559762713 0 -0.023592946241574861 -0.00099124128213134793 0 -0.023267952096441759 -0.00091953930376407838 0 -0.023455220624113718 -0.001240255559762713 0 -0.023592946241574861 -0.00099124128213134793 0 -0.02365134522861739 -0.00096451128497049342 0 -0.023657372908503355 -0.00085349507367723132 0 -0.023664599497526535 -0.0008784741800186228 0 -0.02365134522861739 -0.00096451128497049342 0 -0.023592946241574861 -0.00099124128213134793 0 -0.023657372908503355 -0.00085349507367723132 0 -0.023493637476624842 -0.00072032273520074026 0 -0.023592946241574861 -0.00099124128213134793 0 -0.023657372908503355 -0.00085349507367723132 0 -0.023493637476624842 -0.00072032273520074026 0 -0.023657372908503355 -0.00085349507367723132 0 -0.023725246126207421 -0.00073846338050844471 0 -0.023657372908503355 -0.00085349507367723132 0 -0.023664599497526535 -0.0008784741800186228 0 -0.023725246126207421 -0.00073846338050844471 0 -0.022809972625336485 -0.00083023405421900798 0 -0.022641540611285038 -0.00063635047788079585 0 -0.023664599497526535 -0.0008784741800186228 0 -0.023572575206097134 -0.00094199940524260369 0 -0.023725246126207421 -0.00073846338050844471 0 -0.023619330173781906 -0.00078785214422984824 0 -0.02365134522861739 -0.00096451128497049342 0 -0.023664599497526535 -0.0008784741800186228 0 -0.023664599497526535 -0.0008784741800186228 0 -0.023563726522738825 -0.00082268932781147321 0 -0.023572575206097134 -0.00094199940524260369 0 -0.023619330173781906 -0.00078785214422984824 0 -0.023664599497526535 -0.0008784741800186228 0 -0.023563726522738825 -0.00082268932781147321 0 -0.023563726522738825 -0.00082268932781147321 0 -0.023371634404129572 -0.00079824835916299177 0 -0.023572575206097134 -0.00094199940524260369 0 -0.023121516113515591 -0.00084740335145627092 0 -0.023371634404129572 -0.00079824835916299177 0 -0.023572575206097134 -0.00094199940524260369 0 -0.023121516113515591 -0.00084740335145627092 0 -0.022717812316307231 -0.00055966871789350347 0 -0.022103419108692037 -0.00077970883464001817 0 -0.023093294617225698 -0.00086126948206472387 0 -0.022809972625336485 -0.00083023405421900798 0 -0.022717812316307231 -0.00055966871789350347 0 -0.022103419108692037 -0.00077970883464001817 0 -0.022377591089545217 -0.00040884477764429038 0 -0.022103419108692037 -0.00077970883464001817 0 -0.022066109851916465 -0.00030041307522530426 0 -0.021772667677155251 -0.0003892288004450222 0 -0.022066109851916465 -0.00030041307522530426 0 -0.021772667677155251 -0.0003892288004450222 0 -0.021779384170747939 -0.0001106764692330453 0 -0.022103419108692037 -0.00077970883464001817 0 -0.022066109851916465 -0.00030041307522530426 0 -0.022377591089545217 -0.00040884477764429038 0 -0.022717812316307231 -0.00055966871789350347 0 -0.022636693727541488 -0.00025156871129613346 0 -0.022377591089545217 -0.00040884477764429038 0 -0.022066109851916465 -0.00030041307522530426 0 -0.022377591089545217 -0.00040884477764429038 0 -0.022313935830399947 -0.00018426488694773941 0 -0.022636693727541488 -0.00025156871129613346 0 -0.022377591089545217 -0.00040884477764429038 0 -0.022313935830399947 -0.00018426488694773941 0 -0.022313935830399947 -0.00018426488694773941 0 -0.022453006163804898 6.1976748382319322e-05 0 -0.02205806684999909 4.2015072061198149e-06 0 -0.022122042833462908 0.00024448436273919827 0 -0.022453006163804898 6.1976748382319322e-05 0 -0.02205806684999909 4.2015072061198149e-06 0 -0.022636693727541488 -0.00025156871129613346 0 -0.022313935830399947 -0.00018426488694773941 0 -0.022453006163804898 6.1976748382319322e-05 0 -0.022066109851916465 -0.00030041307522530426 0 -0.022313935830399947 -0.00018426488694773941 0 -0.02205806684999909 4.2015072061198149e-06 0 -0.021714709543388302 0.00025144199657520407 0 -0.021779384170747939 -0.0001106764692330453 0 -0.02205806684999909 4.2015072061198149e-06 0 -0.022066109851916465 -0.00030041307522530426 0 -0.021779384170747939 -0.0001106764692330453 0 -0.02205806684999909 4.2015072061198149e-06 0 -0.021714709543388302 0.00025144199657520407 0 -0.021779384170747939 -0.0001106764692330453 0 -0.021447614962396548 -1.9775855942878789e-05 0 -0.021779384170747939 -0.0001106764692330453 0 -0.021447614962396548 -1.9775855942878789e-05 0 -0.021518696575503961 -0.00024758326882656453 0 -0.021447614962396548 -1.9775855942878789e-05 0 -0.021220818912546683 -0.00022226464752153816 0 -0.021518696575503961 -0.00024758326882656453 0 -0.021252930749093568 0.00023768877470239889 0 -0.021447614962396548 -1.9775855942878789e-05 0 -0.021155813979101323 5.2965347276641944e-05 0 -0.020800617605707492 -0.00019608609258859726 0 -0.021155813979101323 5.2965347276641944e-05 0 -0.021220818912546683 -0.00022226464752153816 0 -0.021447614962396548 -1.9775855942878789e-05 0 -0.021155813979101323 5.2965347276641944e-05 0 -0.021220818912546683 -0.00022226464752153816 0 -0.023352160574478122 -0.00016394343266583992 0 -0.023493637476624842 -0.00072032273520074026 0 -0.023725246126207421 -0.00073846338050844471 0 -0.021566452720907951 -0.00016131519705250204 0 -0.020899972252576594 -0.00023459925802125675 0 -0.020774135632852835 -0.00024301134139055876 0 -0.021220818912546683 -0.00022226464752153816 0 -0.021381535288655034 -0.0005163020430741385 0 -0.021566452720907951 -0.00016131519705250204 0 -0.022641540611285038 -0.00063635047788079585 0 -0.022103419108692037 -0.00077970883464001817 0 -0.021772667677155251 -0.0003892288004450222 0 -0.021381535288655034 -0.0005163020430741385 0 -0.021772667677155251 -0.0003892288004450222 0 -0.021381535288655034 -0.0005163020430741385 0 -0.021518696575503961 -0.00024758326882656453 0 -0.021772667677155251 -0.0003892288004450222 0 -0.021779384170747939 -0.0001106764692330453 0 -0.021518696575503961 -0.00024758326882656453 0 -0.021220818912546683 -0.00022226464752153816 0 -0.021381535288655034 -0.0005163020430741385 0 -0.021518696575503961 -0.00024758326882656453 0 -0.020403163434883905 4.1408497085605966e-06 0 -0.020316504822174904 -0.00060494561410223615 0 -0.020930961622758745 -0.00025905941707140201 0 -0.020403163434883905 4.1408497085605966e-06 0 -0.020930961622758745 -0.00025905941707140201 0 -0.020642305352906513 0.0003141852775933181 0 -0.020403163434883905 4.1408497085605966e-06 0 -0.019641817533169577 -1.1842993895448298e-06 0 -0.020316504822174904 -0.00060494561410223615 0 -0.020403163434883905 4.1408497085605966e-06 0 -0.019641817533169577 -1.1842993895448298e-06 0 -0.020599528060047799 9.6537621081862071e-07 0 -0.019636729212025136 -1.3415751018939344e-06 0 -0.017998202809805696 -0.00031298897165842477 0 -0.0182007009401258 -1.1955020038365248e-07 0 -0.019638178857081211 -7.3516468618585711e-08 0 -0.019303797182285354 -0.00044742799631712578 0 -0.019303797182285354 -0.00044742799631712578 0 -0.017974157578802327 -0.00085774972156505043 0 -0.020316504822174904 -0.00060494561410223615 0 -0.020930961622758745 -0.00025905941707140201 0 -0.020730135458104468 -0.00097974025978373206 0 -0.021505601666352507 -0.00090995886354207855 0 -0.020930961622758745 -0.00025905941707140201 0 -0.020730135458104468 -0.00097974025978373206 0 -0.018608993777089806 -0.0012501768434989562 0 -0.017974157578802327 -0.00085774972156505043 0 -0.021505601666352507 -0.00090995886354207855 0 -0.020930961622758745 -0.00025905941707140201 0 -0.021876351509752773 -0.00017550126346490129 0 -0.020930961622758745 -0.00025905941707140201 0 -0.021574326089848748 0.00061576858401763421 0 -0.020642305352906513 0.0003141852775933181 0 -0.020930961622758745 -0.00025905941707140201 0 -0.021574326089848748 0.00061576858401763421 0 -0.021876351509752773 -0.00017550126346490129 0 -0.023264832626363249 -0.00015307773134911281 0 -0.024069899644167381 -0.00010375650278559955 0 -0.023352461220928298 -0.00025509482756413211 0 -0.02327567659967145 -0.00020854884739781378 0 -0.0227724398888693 -0.0004074756501090628 0 -0.023352461220928298 -0.00025509482756413211 0 -0.02327567659967145 -0.00020854884739781378 0 -0.023636398985960438 1.6427654883635582e-05 0 -0.02327567659967145 -0.00020854884739781378 0 -0.023065196931640414 -5.0799250860554686e-05 0 -0.023273229325561282 3.646377260622242e-05 0 -0.0227724398888693 -0.0004074756501090628 0 -0.022903044824890521 8.0852819237604219e-05 0 -0.023065196931640414 -5.0799250860554686e-05 0 -0.022313938863796418 0.00019697554570488908 0 -0.021764819915261274 -1.4462660210713552e-05 0 -0.02327567659967145 -0.00020854884739781378 0 -0.0227724398888693 -0.0004074756501090628 0 -0.023065196931640414 -5.0799250860554686e-05 0 -0.020605618119385979 -1.5933562116387896e-06 0 -0.02224006017271005 3.4795684808177343e-05 0 -0.023185784250752538 5.8125019647362103e-07 0 -0.0227724398888693 -0.0004074756501090628 0 -0.02224006017271005 3.4795684808177343e-05 0 -0.022903044824890521 8.0852819237604219e-05 0 -0.021764819915261274 -1.4462660210713552e-05 0 -0.020603002492111663 -2.6016146989953468e-08 0 -0.020403163434883905 4.1408497085605966e-06 0 -0.020642305352906513 0.0003141852775933181 0 -0.020599528060047799 9.6537621081862071e-07 0 -0.0227724398888693 -0.0004074756501090628 0 -0.020605618119385979 -1.5933562116387896e-06 0 -0.02224006017271005 3.4795684808177343e-05 0 -0.02224006017271005 3.4795684808177343e-05 0 -0.022903044824890521 8.0852819237604219e-05 0 -0.023185784250752538 5.8125019647362103e-07 0 -0.024998350847922082 1.1527824755390841e-08 0 -0.024408748396676939 9.1883538115019694e-05 0 -0.024999226860109136 4.2435190189456809e-07 0 -0.022903044824890521 8.0852819237604219e-05 0 -0.023567710868191545 -7.3046075117127313e-05 0 -0.023065143040170308 7.3838245413504372e-05 0 -0.022903044824890521 8.0852819237604219e-05 0 -0.023567710868191545 -7.3046075117127313e-05 0 -0.023185784250752538 5.8125019647362103e-07 0 -0.023567710868191545 -7.3046075117127313e-05 0 -0.023185784250752538 5.8125019647362103e-07 0 -0.024408748396676939 9.1883538115019694e-05 0 -0.023185784250752538 5.8125019647362103e-07 0 -0.024998350847922082 1.1527824755390841e-08 0 -0.024408748396676939 9.1883538115019694e-05 0 -0.023567710868191545 -7.3046075117127313e-05 0 -0.024408748396676939 9.1883538115019694e-05 0 -0.024509149497031389 2.9698680744490298e-05 0 -0.024408748396676939 9.1883538115019694e-05 0 -0.024509149497031389 2.9698680744490298e-05 0 -0.024999226860109136 4.2435190189456809e-07 0 -0.024509149497031389 2.9698680744490298e-05 0 -0.024814029736807918 -4.4970405131964182e-05 0 -0.024999226860109136 4.2435190189456809e-07 0 -0.025011499228162863 -3.7557021316483646e-05 0 -0.024069899644167381 -0.00010375650278559955 0 -0.024509149497031389 2.9698680744490298e-05 0 -0.024814029736807918 -4.4970405131964182e-05 0 -0.024368861192998168 -0.00044251234368490464 0 -0.024814029736807918 -4.4970405131964182e-05 0 -0.024368861192998168 -0.00044251234368490464 0 -0.024712578124194896 -0.00058789718478574637 0 -0.023574712238334426 -9.0906327462516982e-05 0 -0.023722524234642068 -0.00017868841973330322 0 -0.023567710868191545 -7.3046075117127313e-05 0 -0.024509149497031389 2.9698680744490298e-05 0 -0.024368861192998168 -0.00044251234368490464 0 -0.022903044824890521 8.0852819237604219e-05 0 -0.023065143040170308 7.3838245413504372e-05 0 -0.023065196931640414 -5.0799250860554686e-05 0 -0.023065143040170308 7.3838245413504372e-05 0 -0.023065196931640414 -5.0799250860554686e-05 0 -0.023273229325561282 3.646377260622242e-05 0 -0.02327567659967145 -0.00020854884739781378 0 -0.023336367583261488 0.00014339020615473518 0 -0.023636398985960438 1.6427654883635582e-05 0 -0.023722524234642068 -0.00017868841973330322 0 -0.024069899644167381 -0.00010375650278559955 0 -0.024998327870299309 4.8195138429558169e-05 0 -0.024985266626197083 5.6862932297281956e-05 0 -0.024987683307168444 3.8871262599186442e-05 0 -0.024985266626197083 5.6862932297281956e-05 0 -0.024975168072698329 5.0069848214136229e-05 0 -0.024987683307168444 3.8871262599186442e-05 0 -0.024069899644167381 -0.00010375650278559955 0 -0.024384898923756702 1.0459827806212752e-06 0 -0.024975168072698329 5.0069848214136229e-05 0 -0.024960824074373847 5.2357150709344351e-05 0 -0.024968142332771909 6.8937770733673099e-05 0 -0.024985266626197083 5.6862932297281956e-05 0 -0.024975168072698329 5.0069848214136229e-05 0 -0.024968142332771909 6.8937770733673099e-05 0 -0.024975168072698329 5.0069848214136229e-05 0 -0.024972187639740639 3.6499780692820195e-05 0 -0.024960824074373847 5.2357150709344351e-05 0 -0.024975168072698329 5.0069848214136229e-05 0 -0.024972187639740639 3.6499780692820195e-05 0 -0.024987683307168444 3.8871262599186442e-05 0 -0.024972187639740639 3.6499780692820195e-05 0 -0.024987683307168444 3.8871262599186442e-05 0 -0.024987672593119969 2.3460417226629513e-05 0 -0.025002184147331713 2.0282947895662027e-05 0 -0.024987683307168444 3.8871262599186442e-05 0 -0.024987672593119969 2.3460417226629513e-05 0 -0.025002184147331713 2.0282947895662027e-05 0 -0.024998327870299309 4.8195138429558169e-05 0 -0.024987683307168444 3.8871262599186442e-05 0 -0.025002184147331713 2.0282947895662027e-05 0 -0.024987672593119969 2.3460417226629513e-05 0 -0.024994844343635528 7.9405713485876449e-06 0 -0.024972187639740639 3.6499780692820195e-05 0 -0.024987672593119969 2.3460417226629513e-05 0 -0.024981077014965769 1.6658573008005572e-05 0 -0.024987672593119969 2.3460417226629513e-05 0 -0.024994844343635528 7.9405713485876449e-06 0 -0.024981077014965769 1.6658573008005572e-05 0 -0.024994844343635528 7.9405713485876449e-06 0 -0.024999981165323679 3.567210665099189e-09 0 -0.025000010909299094 7.1860814707462457e-09 0 -0.024994844343635528 7.9405713485876449e-06 0 -0.024999981165323679 3.567210665099189e-09 0 -0.024981077014965769 1.6658573008005572e-05 0 -0.025002184147331713 2.0282947895662027e-05 0 -0.024994844343635528 7.9405713485876449e-06 0 -0.025000010909299094 7.1860814707462457e-09 0 -0.025011499228162863 -3.7557021316483646e-05 0 -0.024999918553968478 6.8121273399527286e-08 0 -0.024971220372317773 1.1034572185384554e-05 0 -0.024999902489506991 5.9297409667947552e-09 0 -0.0249409880992871 1.9464980651545684e-05 0 -0.024999981165323679 3.567210665099189e-09 0 -0.024971220372317773 1.1034572185384554e-05 0 -0.024999902489506991 5.9297409667947552e-09 0 -0.024999981165323679 3.567210665099189e-09 0 -0.024971220372317773 1.1034572185384554e-05 0 -0.024981077014965769 1.6658573008005572e-05 0 -0.024971220372317773 1.1034572185384554e-05 0 -0.024981077014965769 1.6658573008005572e-05 0 -0.024951488421261946 3.1051458560784896e-05 0 -0.024971220372317773 1.1034572185384554e-05 0 -0.024878438666579565 3.7074003761256353e-05 0 -0.0249409880992871 1.9464980651545684e-05 0 -0.024971220372317773 1.1034572185384554e-05 0 -0.02485617425850906 4.2753020811066556e-05 0 -0.024878438666579565 3.7074003761256353e-05 0 -0.024956899523662701 5.1873321908807147e-06 0 -0.024901171905035897 3.6180253939566168e-05 0 -0.02485617425850906 4.2753020811066556e-05 0 -0.024792032942284457 4.4829139993826888e-05 0 -0.024878438666579565 3.7074003761256353e-05 0 -0.024951488421261946 3.1051458560784896e-05 0 -0.024952345552233478 4.7059876985245367e-05 0 -0.024937954247337094 6.0837729077408879e-05 0 -0.02485617425850906 4.2753020811066556e-05 0 -0.024792032942284457 4.4829139993826888e-05 0 -0.024700493288732341 3.7300080616036001e-05 0 -0.024901171905035897 3.6180253939566168e-05 0 -0.024844214229326936 9.560151702851683e-06 0 -0.024972187639740639 3.6499780692820195e-05 0 -0.024951488421261946 3.1051458560784896e-05 0 -0.024952345552233478 4.7059876985245367e-05 0 -0.024972187639740639 3.6499780692820195e-05 0 -0.024981077014965769 1.6658573008005572e-05 0 -0.024951488421261946 3.1051458560784896e-05 0 -0.024960824074373847 5.2357150709344351e-05 0 -0.024935855334520893 6.2858722520420975e-05 0 -0.024968142332771909 6.8937770733673099e-05 0 -0.024972187639740639 3.6499780692820195e-05 0 -0.024960824074373847 5.2357150709344351e-05 0 -0.024952345552233478 4.7059876985245367e-05 0 -0.024960824074373847 5.2357150709344351e-05 0 -0.024952345552233478 4.7059876985245367e-05 0 -0.024935855334520893 6.2858722520420975e-05 0 -0.024792032942284457 4.4829139993826888e-05 0 -0.024700493288732341 3.7300080616036001e-05 0 -0.024720054857435603 4.0617788753119379e-05 0 -0.024952345552233478 4.7059876985245367e-05 0 -0.024935855334520893 6.2858722520420975e-05 0 -0.024937954247337094 6.0837729077408879e-05 0 -0.024700493288732341 3.7300080616036001e-05 0 -0.024627179194794607 2.5651457222553921e-05 0 -0.024720054857435603 4.0617788753119379e-05 0 -0.024844214229326936 9.560151702851683e-06 0 -0.024429961875634187 0.00014205496267696548 0 -0.024937954247337094 6.0837729077408879e-05 0 -0.024933934089897747 4.6891422782710766e-05 0 -0.024942029787711536 3.0712132079423536e-05 0 -0.024700493288732341 3.7300080616036001e-05 0 -0.024627179194794607 2.5651457222553921e-05 0 -0.024520711281425134 1.4089813370671154e-05 0 -0.024935855334520893 6.2858722520420975e-05 0 -0.024937954247337094 6.0837729077408879e-05 0 -0.024933934089897747 4.6891422782710766e-05 0 -0.024429961875634187 0.00014205496267696548 0 -0.024069324614217485 0.00038900709402193263 0 -0.024933934089897747 4.6891422782710766e-05 0 -0.024942029787711536 3.0712132079423536e-05 0 -0.024907584085788855 3.1338069572095891e-05 0 -0.024627179194794607 2.5651457222553921e-05 0 -0.024520711281425134 1.4089813370671154e-05 0 -0.024535780845998272 1.5694477177359599e-05 0 -0.024394366952319842 1.7980335255120991e-05 0 -0.024132145425290089 0.00014907613875948485 0 -0.024061095892825544 -8.7487841559475912e-05 0 -0.024429961875634187 0.00014205496267696548 0 -0.024210460897759769 2.612431772503571e-05 0 -0.024394366952319842 1.7980335255120991e-05 0 -0.024520711281425134 1.4089813370671154e-05 0 -0.024535780845998272 1.5694477177359599e-05 0 -0.024402337696475374 9.7349076926964276e-05 0 -0.024429961875634187 0.00014205496267696548 0 -0.024026746357995368 0.00043554804670737707 0 -0.024061095892825544 -8.7487841559475912e-05 0 -0.023507661953695545 0.00016685683594538334 0 -0.024061095892825544 -8.7487841559475912e-05 0 -0.023507661953695545 0.00016685683594538334 0 -0.023661906643285793 -0.00023740716400127518 0 -0.024061095892825544 -8.7487841559475912e-05 0 -0.024118516275341048 -0.00029372898765211183 0 -0.024397345930300959 -0.00013838545028005932 0 -0.024394366952319842 1.7980335255120991e-05 0 -0.024061095892825544 -8.7487841559475912e-05 0 -0.024397345930300959 -0.00013838545028005932 0 -0.023507661953695545 0.00016685683594538334 0 -0.022934451265285098 0.00035787349803165312 0 -0.023095069949649945 -0.00023684864432388115 0 -0.023507661953695545 0.00016685683594538334 0 -0.023661906643285793 -0.00023740716400127518 0 -0.023095069949649945 -0.00023684864432388115 0 -0.024026746357995368 0.00043554804670737707 0 -0.023507661953695545 0.00016685683594538334 0 -0.023324288207775684 0.00072087487772975588 0 -0.023507661953695545 0.00016685683594538334 0 -0.023324288207775684 0.00072087487772975588 0 -0.022934451265285098 0.00035787349803165312 0 -0.023324288207775684 0.00072087487772975588 0 -0.022686563744254536 0.00095843301770864799 0 -0.022934451265285098 0.00035787349803165312 0 -0.024935855334520893 6.2858722520420975e-05 0 -0.024907584085788855 3.1338069572095891e-05 0 -0.02483869888341424 5.7696298544368112e-05 0 -0.025262784255608916 9.8259600086872916e-05 0 -0.02399281471599397 0.00019498593667769776 0 -0.024935855334520893 6.2858722520420975e-05 0 -0.024933934089897747 4.6891422782710766e-05 0 -0.024907584085788855 3.1338069572095891e-05 0 -0.024069324614217485 0.00038900709402193263 0 -0.02399281471599397 0.00019498593667769776 0 -0.022686563744254536 0.00095843301770864799 0 -0.022309673366355212 0.00032867516519579764 0 -0.022934451265285098 0.00035787349803165312 0 -0.024384898923756702 1.0459827806212752e-06 0 -0.02399281471599397 0.00019498593667769776 0 -0.023352461220928298 -0.00025509482756413211 0 -0.023636398985960438 1.6427654883635582e-05 0 -0.023939382567807362 -0.00011013931863724778 0 -0.022313938863796418 0.00019697554570488908 0 -0.02399281471599397 0.00019498593667769776 0 -0.021574326089848748 0.00061576858401763421 0 -0.022686563744254536 0.00095843301770864799 0 -0.022309673366355212 0.00032867516519579764 0 -0.021574326089848748 0.00061576858401763421 0 -0.022309673366355212 0.00032867516519579764 0 -0.021876351509752773 -0.00017550126346490129 0 -0.022309673366355212 0.00032867516519579764 0 -0.022545499992015522 -8.4485836562592109e-05 0 -0.021876351509752773 -0.00017550126346490129 0 -0.022309673366355212 0.00032867516519579764 0 -0.022934451265285098 0.00035787349803165312 0 -0.022545499992015522 -8.4485836562592109e-05 0 -0.022934451265285098 0.00035787349803165312 0 -0.022545499992015522 -8.4485836562592109e-05 0 -0.023095069949649945 -0.00023684864432388115 0 -0.022545499992015522 -8.4485836562592109e-05 0 -0.022411925618825979 -0.00085781223189723514 0 -0.023095069949649945 -0.00023684864432388115 0 -0.022545499992015522 -8.4485836562592109e-05 0 -0.021876351509752773 -0.00017550126346490129 0 -0.022411925618825979 -0.00085781223189723514 0 -0.015426479082534608 -0.0015522218841055044 0 -0.014492781006806395 -0.0018599609225472074 0 -0.014775118053025303 -0.0010005066344685419 0 -0.018608993777089806 -0.0012501768434989562 0 -0.018443205489572713 -0.0013534463366967021 0 -0.021505601666352507 -0.00090995886354207855 0 -0.021876351509752773 -0.00017550126346490129 0 -0.022411925618825979 -0.00085781223189723514 0 -0.018443205489572713 -0.0013534463366967021 0 -0.018460214478272882 -0.0013919338856497843 0 -0.014492781006806395 -0.0018599609225472074 0 -0.013474886913018253 -0.00209298755026359 0 -0.01337545232814347 -0.0014166487367488609 0 -0.013474886913018253 -0.00209298755026359 0 -0.012849483696251069 -0.0016589292779568823 0 -0.01337545232814347 -0.0014166487367488609 0 -0.013474886913018253 -0.00209298755026359 0 -0.012774283323600949 -0.002156008173401142 0 -0.012849483696251069 -0.0016589292779568823 0 -0.024118516275341048 -0.00029372898765211183 0 -0.023536005925925366 -0.00073275317690456071 0 -0.024435236797450976 -0.00034447402789361363 0 -0.018460214478272882 -0.0013919338856497843 0 -0.018857261866072714 -0.0013161503804714942 0 -0.024118516275341048 -0.00029372898765211183 0 -0.023661906643285793 -0.00023740716400127518 0 -0.023536005925925366 -0.00073275317690456071 0 -0.024061095892825544 -8.7487841559475912e-05 0 -0.024118516275341048 -0.00029372898765211183 0 -0.023661906643285793 -0.00023740716400127518 0 -0.022411925618825979 -0.00085781223189723514 0 -0.023095069949649945 -0.00023684864432388115 0 -0.023536005925925366 -0.00073275317690456071 0 -0.023661906643285793 -0.00023740716400127518 0 -0.023095069949649945 -0.00023684864432388115 0 -0.023536005925925366 -0.00073275317690456071 0 -0.012774283323600949 -0.002156008173401142 0 -0.01236559613611357 -0.0017611316627181594 0 -0.012218178779281509 -0.0022372327030382609 0 -0.018857261866072714 -0.0013161503804714942 0 -0.016701013094199565 -0.00053693406352075764 0 -0.024444593173500662 -0.00032239440733427258 0 -0.024435236797450976 -0.00034447402789361363 0 -0.023936665954996009 -0.00032412114236869644 0 -0.024118516275341048 -0.00029372898765211183 0 -0.024444593173500662 -0.00032239440733427258 0 -0.024435236797450976 -0.00034447402789361363 0 -0.012774283323600949 -0.002156008173401142 0 -0.012849483696251069 -0.0016589292779568823 0 -0.01236559613611357 -0.0017611316627181594 0 -0.01236559613611357 -0.0017611316627181594 0 -0.011946812899988057 -0.0017927314813755268 0 -0.012074996714940797 -0.0014587417254764549 0 -0.01153012603031092 -0.0012930580503413924 0 -0.01195089722268282 -0.0012372969285786596 0 -0.012014514138071192 -0.00094580890642477261 0 -0.012041490426154208 -0.00093554840815530981 0 -0.012007942473854522 -0.00096694699216255599 0 -0.012014514138071192 -0.00094580890642477261 0 -0.012007942473854522 -0.00096694699216255599 0 -0.011953037371779093 -0.00099599147465126068 0 -0.012014514138071192 -0.00094580890642477261 0 -0.012048298859573795 -0.00092107581862623672 0 -0.012041490426154208 -0.00093554840815530981 0 -0.012014514138071192 -0.00094580890642477261 0 -0.012068487976613983 -0.00093342019390303113 0 -0.012048298859573795 -0.00092107581862623672 0 -0.01236559613611357 -0.0017611316627181594 0 -0.011946812899988057 -0.0017927314813755268 0 -0.012218178779281509 -0.0022372327030382609 0 -0.01153012603031092 -0.0012930580503413924 0 -0.016701013094199565 -0.00053693406352075764 0 -0.019344363791805538 -0.00021259549956716313 0 -0.018778420473584308 -0.0013284338136571232 0 -0.017581972552575462 -0.00066591680085910745 0 -0.016701013094199565 -0.00053693406352075764 0 -0.014216284402680593 -0.00088781446379678679 0 -0.019344363791805538 -0.00021259549956716313 0 -0.018778420473584308 -0.0013284338136571232 0 -0.019802468004226075 -0.00093431550253699326 0 -0.021592854880435951 -0.00086455589863119911 0 -0.022832064899928992 -0.00085235581420180239 0 -0.021592854880435951 -0.00086455589863119911 0 -0.019438534207648503 -0.0013184852256310808 0 -0.020332785238166284 -0.0013225546930282486 0 -0.021275848540444245 -0.0013855379921629749 0 -0.021702973355132611 -0.00077099635275378975 0 -0.018778420473584308 -0.0013284338136571232 0 -0.017581972552575462 -0.00066591680085910745 0 -0.017302049280063344 -0.0012177905611432454 0 -0.017581972552575462 -0.00066591680085910745 0 -0.017302049280063344 -0.0012177905611432454 0 -0.015849465908346978 -0.0011067530084402188 0 -0.024830336788738767 -5.2327875063773371e-05 0 -0.024879077477780405 1.3262291333558866e-05 0 -0.024915341725603089 2.407941597359923e-07 0 -0.021592854880435951 -0.00086455589863119911 0 -0.023523646317658735 -0.00032597156262326264 0 -0.024879077477780405 1.3262291333558866e-05 0 -0.02491144204898579 2.1403666030204758e-05 0 -0.024915341725603089 2.407941597359923e-07 0 -0.024830336788738767 -5.2327875063773371e-05 0 -0.024879077477780405 1.3262291333558866e-05 0 -0.024827106358155271 -5.971415855208657e-06 0 -0.024830336788738767 -5.2327875063773371e-05 0 -0.024827106358155271 -5.971415855208657e-06 0 -0.024786536008299016 -2.8634032808133052e-05 0 -0.024879077477780405 1.3262291333558866e-05 0 -0.024827106358155271 -5.971415855208657e-06 0 -0.024839544482370378 2.2894023804033941e-05 0 -0.024827106358155271 -5.971415855208657e-06 0 -0.024790810585193803 5.2673958587273961e-06 0 -0.024839544482370378 2.2894023804033941e-05 0 -0.024790810585193803 5.2673958587273961e-06 0 -0.024788317169777037 3.184700607204114e-05 0 -0.024839544482370378 2.2894023804033941e-05 0 -0.024728000469040615 1.4108273343422474e-05 0 -0.024720940331901819 3.150025313061294e-05 0 -0.024788317169777037 3.184700607204114e-05 0 -0.024790810585193803 5.2673958587273961e-06 0 -0.024728000469040615 1.4108273343422474e-05 0 -0.024788317169777037 3.184700607204114e-05 0 -0.024790810585193803 5.2673958587273961e-06 0 -0.024728000469040615 1.4108273343422474e-05 0 -0.024759253738532917 -1.128419115115166e-05 0 -0.024728000469040615 1.4108273343422474e-05 0 -0.024759253738532917 -1.128419115115166e-05 0 -0.024717902344107989 -6.2795148371065535e-06 0 -0.024728000469040615 1.4108273343422474e-05 0 -0.024717902344107989 -6.2795148371065535e-06 0 -0.024669628626744992 -2.0094992387836918e-06 0 -0.024759253738532917 -1.128419115115166e-05 0 -0.024737432481732432 -1.964543857284614e-05 0 -0.024717902344107989 -6.2795148371065535e-06 0 -0.024759253738532917 -1.128419115115166e-05 0 -0.024737432481732432 -1.964543857284614e-05 0 -0.024748465484351508 -3.8953303866625043e-05 0 -0.024737432481732432 -1.964543857284614e-05 0 -0.024717382787705047 -2.3103370143424973e-05 0 -0.024748465484351508 -3.8953303866625043e-05 0 -0.024717902344107989 -6.2795148371065535e-06 0 -0.024717382787705047 -2.3103370143424973e-05 0 -0.024669628626744992 -2.0094992387836918e-06 0 -0.024717382787705047 -2.3103370143424973e-05 0 -0.024693157318553625 -3.4669528279745337e-05 0 -0.024669628626744992 -2.0094992387836918e-06 0 -0.024737432481732432 -1.964543857284614e-05 0 -0.024717902344107989 -6.2795148371065535e-06 0 -0.024717382787705047 -2.3103370143424973e-05 0 -0.024827106358155271 -5.971415855208657e-06 0 -0.024790810585193803 5.2673958587273961e-06 0 -0.024786536008299016 -2.8634032808133052e-05 0 -0.024790810585193803 5.2673958587273961e-06 0 -0.024759253738532917 -1.128419115115166e-05 0 -0.024786536008299016 -2.8634032808133052e-05 0 -0.024759253738532917 -1.128419115115166e-05 0 -0.024786536008299016 -2.8634032808133052e-05 0 -0.024748465484351508 -3.8953303866625043e-05 0 -0.024444593173500662 -0.00032239440733427258 0 -0.023936665954996009 -0.00032412114236869644 0 -0.024039492382075416 -0.00049025476069593753 0 -0.024830336788738767 -5.2327875063773371e-05 0 -0.024786536008299016 -2.8634032808133052e-05 0 -0.024756947490439486 -5.1501744437983765e-05 0 -0.021592854880435951 -0.00086455589863119911 0 -0.024256967740756554 -0.00062222598761809138 0 -0.021874940875300165 -0.00080265129559858189 0 -0.023561019266004134 -0.00092118300214744022 0 -0.023176434955891386 -0.00029900606777086985 0 -0.025079061842628838 -9.4307019692079229e-05 0 -0.022832064899928992 -0.00085235581420180239 0 -0.024444593173500662 -0.00032239440733427258 0 -0.024929411931121453 -0.00015363784063670983 0 -0.024649957301864648 -0.00012015965158827373 0 -0.024256967740756554 -0.00062222598761809138 0 -0.022832064899928992 -0.00085235581420180239 0 -0.024786536008299016 -2.8634032808133052e-05 0 -0.024748465484351508 -3.8953303866625043e-05 0 -0.024756947490439486 -5.1501744437983765e-05 0 -0.024748465484351508 -3.8953303866625043e-05 0 -0.024758577683117879 -5.7890159145379671e-05 0 -0.024693157318553625 -3.4669528279745337e-05 0 -0.024839635939421265 -2.4789258957358929e-05 0 -0.024693157318553625 -3.4669528279745337e-05 0 -0.02477549352229438 -8.0693383666420392e-05 0 -0.024256967740756554 -0.00062222598761809138 0 -0.024634836572833201 -0.00042820258682277584 0 -0.02477549352229438 -8.0693383666420392e-05 0 -0.024929411931121453 -0.00015363784063670983 0 -0.024649957301864648 -0.00012015965158827373 0 -0.0242641247262908 -0.00057375924216005315 0 -0.024256967740756554 -0.00062222598761809138 0 -0.024717382787705047 -2.3103370143424973e-05 0 -0.024748465484351508 -3.8953303866625043e-05 0 -0.024693157318553625 -3.4669528279745337e-05 0 -0.024693157318553625 -3.4669528279745337e-05 0 -0.02477549352229438 -8.0693383666420392e-05 0 -0.024649957301864648 -0.00012015965158827373 0 -0.024839635939421265 -2.4789258957358929e-05 0 -0.02477549352229438 -8.0693383666420392e-05 0 -0.024929411931121453 -0.00015363784063670983 0 -0.016701013094199565 -0.00053693406352075764 0 -0.022832064899928992 -0.00085235581420180239 0 -0.024118516275341048 -0.00029372898765211183 0 -0.024444593173500662 -0.00032239440733427258 0 -0.024397345930300959 -0.00013838545028005932 0 -0.024444593173500662 -0.00032239440733427258 0 -0.024397345930300959 -0.00013838545028005932 0 -0.02452080344565364 -0.00011382762702348329 0 -0.024444593173500662 -0.00032239440733427258 0 -0.02452080344565364 -0.00011382762702348329 0 -0.024649957301864648 -0.00012015965158827373 0 -0.02452080344565364 -0.00011382762702348329 0 -0.024649957301864648 -0.00012015965158827373 0 -0.024602161472659756 -3.2238354477775406e-05 0 -0.024693157318553625 -3.4669528279745337e-05 0 -0.024649957301864648 -0.00012015965158827373 0 -0.024602161472659756 -3.2238354477775406e-05 0 -0.024693157318553625 -3.4669528279745337e-05 0 -0.024602161472659756 -3.2238354477775406e-05 0 -0.024669628626744992 -2.0094992387836918e-06 0 -0.024602161472659756 -3.2238354477775406e-05 0 -0.024501676037113201 -1.2857152532094503e-05 0 -0.024589516301547026 9.2764964377197414e-06 0 -0.02452080344565364 -0.00011382762702348329 0 -0.024602161472659756 -3.2238354477775406e-05 0 -0.024501676037113201 -1.2857152532094503e-05 0 -0.024397345930300959 -0.00013838545028005932 0 -0.02452080344565364 -0.00011382762702348329 0 -0.024501676037113201 -1.2857152532094503e-05 0 -0.024394366952319842 1.7980335255120991e-05 0 -0.024397345930300959 -0.00013838545028005932 0 -0.024501676037113201 -1.2857152532094503e-05 0 -0.024394366952319842 1.7980335255120991e-05 0 -0.024501676037113201 -1.2857152532094503e-05 0 -0.024535780845998272 1.5694477177359599e-05 0 -0.024627179194794607 2.5651457222553921e-05 0 -0.024535780845998272 1.5694477177359599e-05 0 -0.024622570316147056 2.5561010064938542e-05 0 -0.024501676037113201 -1.2857152532094503e-05 0 -0.024535780845998272 1.5694477177359599e-05 0 -0.024589516301547026 9.2764964377197414e-06 0 -0.024589516301547026 9.2764964377197414e-06 0 -0.024664573767679644 2.3687481567797678e-05 0 -0.024622570316147056 2.5561010064938542e-05 0 -0.024535780845998272 1.5694477177359599e-05 0 -0.024589516301547026 9.2764964377197414e-06 0 -0.024622570316147056 2.5561010064938542e-05 0 -0.024602161472659756 -3.2238354477775406e-05 0 -0.024589516301547026 9.2764964377197414e-06 0 -0.024669628626744992 -2.0094992387836918e-06 0 -0.024589516301547026 9.2764964377197414e-06 0 -0.024669628626744992 -2.0094992387836918e-06 0 -0.024664573767679644 2.3687481567797678e-05 0 -0.024728000469040615 1.4108273343422474e-05 0 -0.024669628626744992 -2.0094992387836918e-06 0 -0.024664573767679644 2.3687481567797678e-05 0 -0.024728000469040615 1.4108273343422474e-05 0 -0.024664573767679644 2.3687481567797678e-05 0 -0.024720940331901819 3.150025313061294e-05 0 -0.024664573767679644 2.3687481567797678e-05 0 -0.024720940331901819 3.150025313061294e-05 0 -0.024688539577503665 3.4488080225932389e-05 0 -0.024664573767679644 2.3687481567797678e-05 0 -0.024622570316147056 2.5561010064938542e-05 0 -0.024688539577503665 3.4488080225932389e-05 0 -0.024627179194794607 2.5651457222553921e-05 0 -0.024622570316147056 2.5561010064938542e-05 0 -0.024688539577503665 3.4488080225932389e-05 0 -0.024688539577503665 3.4488080225932389e-05 0 -0.024720054857435603 4.0617788753119379e-05 0 -0.024757264440846458 3.9636046221419573e-05 0 -0.024627179194794607 2.5651457222553921e-05 0 -0.024688539577503665 3.4488080225932389e-05 0 -0.024720054857435603 4.0617788753119379e-05 0 -0.024720940331901819 3.150025313061294e-05 0 -0.024688539577503665 3.4488080225932389e-05 0 -0.024757264440846458 3.9636046221419573e-05 0 -0.024720054857435603 4.0617788753119379e-05 0 -0.024757264440846458 3.9636046221419573e-05 0 -0.02477944930840114 4.4956602929926933e-05 0 -0.024757264440846458 3.9636046221419573e-05 0 -0.02477944930840114 4.4956602929926933e-05 0 -0.02481478214480725 4.4327719881854707e-05 0 -0.024792032942284457 4.4829139993826888e-05 0 -0.024720054857435603 4.0617788753119379e-05 0 -0.02477944930840114 4.4956602929926933e-05 0 -0.024788317169777037 3.184700607204114e-05 0 -0.024863563444220159 4.1682681154071093e-05 0 -0.024839544482370378 2.2894023804033941e-05 0 -0.024757264440846458 3.9636046221419573e-05 0 -0.024788317169777037 3.184700607204114e-05 0 -0.02481478214480725 4.4327719881854707e-05 0 -0.024720940331901819 3.150025313061294e-05 0 -0.024757264440846458 3.9636046221419573e-05 0 -0.024788317169777037 3.184700607204114e-05 0 -0.024788317169777037 3.184700607204114e-05 0 -0.02481478214480725 4.4327719881854707e-05 0 -0.024863563444220159 4.1682681154071093e-05 0 -0.02481478214480725 4.4327719881854707e-05 0 -0.024863563444220159 4.1682681154071093e-05 0 -0.024895167071283864 3.8084653548315892e-05 0 -0.024863563444220159 4.1682681154071093e-05 0 -0.024895167071283864 3.8084653548315892e-05 0 -0.024907747888404892 3.5622036219410418e-05 0 -0.024792032942284457 4.4829139993826888e-05 0 -0.024829311695651647 4.4116955387725688e-05 0 -0.024878438666579565 3.7074003761256353e-05 0 -0.02481478214480725 4.4327719881854707e-05 0 -0.024829311695651647 4.4116955387725688e-05 0 -0.024895167071283864 3.8084653548315892e-05 0 -0.024829311695651647 4.4116955387725688e-05 0 -0.024878438666579565 3.7074003761256353e-05 0 -0.024895167071283864 3.8084653548315892e-05 0 -0.024792032942284457 4.4829139993826888e-05 0 -0.02477944930840114 4.4956602929926933e-05 0 -0.024829311695651647 4.4116955387725688e-05 0 -0.02477944930840114 4.4956602929926933e-05 0 -0.02481478214480725 4.4327719881854707e-05 0 -0.024829311695651647 4.4116955387725688e-05 0 -0.024878438666579565 3.7074003761256353e-05 0 -0.024895167071283864 3.8084653548315892e-05 0 -0.0249409880992871 1.9464980651545684e-05 0 -0.024895167071283864 3.8084653548315892e-05 0 -0.024952164645143306 2.3789956548113869e-05 0 -0.024907747888404892 3.5622036219410418e-05 0 -0.024895167071283864 3.8084653548315892e-05 0 -0.024999898106258338 2.908977957976576e-08 0 -0.024952164645143306 2.3789956548113869e-05 0 -0.024895167071283864 3.8084653548315892e-05 0 -0.024999898106258338 2.908977957976576e-08 0 -0.0249409880992871 1.9464980651545684e-05 0 -0.024999902489506991 5.9297409667947552e-09 0 -0.024999898106258338 2.908977957976576e-08 0 -0.0249409880992871 1.9464980651545684e-05 0 -0.024999944337499209 2.287820757497258e-08 0 -0.024952164645143306 2.3789956548113869e-05 0 -0.024961509889407343 1.9511515581655708e-05 0 -0.024999898106258338 2.908977957976576e-08 0 -0.024999944337499209 2.287820757497258e-08 0 -0.024952164645143306 2.3789956548113869e-05 0 -0.024952164645143306 2.3789956548113869e-05 0 -0.024907747888404892 3.5622036219410418e-05 0 -0.024918902940397024 3.6013968092789143e-05 0 -0.024952164645143306 2.3789956548113869e-05 0 -0.024961509889407343 1.9511515581655708e-05 0 -0.024918902940397024 3.6013968092789143e-05 0 -0.024961509889407343 1.9511515581655708e-05 0 -0.024938947784826419 3.0366064653370843e-05 0 -0.024918902940397024 3.6013968092789143e-05 0 -0.024918902940397024 3.6013968092789143e-05 0 -0.024883412278837714 3.2378355226465695e-05 0 -0.024923221843918902 3.3200738218186139e-05 0 -0.024938947784826419 3.0366064653370843e-05 0 -0.024918902940397024 3.6013968092789143e-05 0 -0.024923221843918902 3.3200738218186139e-05 0 -0.024863563444220159 4.1682681154071093e-05 0 -0.024918902940397024 3.6013968092789143e-05 0 -0.024883412278837714 3.2378355226465695e-05 0 -0.024863563444220159 4.1682681154071093e-05 0 -0.024907747888404892 3.5622036219410418e-05 0 -0.024918902940397024 3.6013968092789143e-05 0 -0.024863563444220159 4.1682681154071093e-05 0 -0.024883412278837714 3.2378355226465695e-05 0 -0.024839544482370378 2.2894023804033941e-05 0 -0.024879077477780405 1.3262291333558866e-05 0 -0.024883412278837714 3.2378355226465695e-05 0 -0.024839544482370378 2.2894023804033941e-05 0 -0.024879077477780405 1.3262291333558866e-05 0 -0.024883412278837714 3.2378355226465695e-05 0 -0.024923221843918902 3.3200738218186139e-05 0 -0.024879077477780405 1.3262291333558866e-05 0 -0.024923221843918902 3.3200738218186139e-05 0 -0.02491144204898579 2.1403666030204758e-05 0 -0.024923221843918902 3.3200738218186139e-05 0 -0.02491144204898579 2.1403666030204758e-05 0 -0.024925946113201713 3.4514743391159836e-05 0 -0.024923221843918902 3.3200738218186139e-05 0 -0.024925946113201713 3.4514743391159836e-05 0 -0.024935122328947672 3.7068086472065678e-05 0 -0.024935122328947672 3.7068086472065678e-05 0 -0.024925259050019324 7.3669434646479495e-05 0 -0.024922485118005901 3.425363563992634e-05 0 -0.024925946113201713 3.4514743391159836e-05 0 -0.024935122328947672 3.7068086472065678e-05 0 -0.024925259050019324 7.3669434646479495e-05 0 -0.024922485118005901 3.425363563992634e-05 0 -0.024945552540131984 2.4798962108329267e-05 0 -0.024926024481470861 8.7918683570273049e-06 0 -0.024935122328947672 3.7068086472065678e-05 0 -0.024922485118005901 3.425363563992634e-05 0 -0.024945552540131984 2.4798962108329267e-05 0 -0.024938947784826419 3.0366064653370843e-05 0 -0.024923221843918902 3.3200738218186139e-05 0 -0.024935122328947672 3.7068086472065678e-05 0 -0.024938947784826419 3.0366064653370843e-05 0 -0.024935122328947672 3.7068086472065678e-05 0 -0.024945552540131984 2.4798962108329267e-05 0 -0.024961509889407343 1.9511515581655708e-05 0 -0.024938947784826419 3.0366064653370843e-05 0 -0.024945552540131984 2.4798962108329267e-05 0 -0.024961509889407343 1.9511515581655708e-05 0 -0.024945552540131984 2.4798962108329267e-05 0 -0.024962038387934767 1.0430862139347247e-05 0 -0.024962038387934767 1.0430862139347247e-05 0 -0.024965086739391008 5.2095262871204278e-06 0 -0.024926024481470861 8.7918683570273049e-06 0 -0.024945552540131984 2.4798962108329267e-05 0 -0.024962038387934767 1.0430862139347247e-05 0 -0.024926024481470861 8.7918683570273049e-06 0 -0.024962038387934767 1.0430862139347247e-05 0 -0.024999942357745355 -1.1577998480721355e-09 0 -0.024965086739391008 5.2095262871204278e-06 0 -0.024999944337499209 2.287820757497258e-08 0 -0.024961509889407343 1.9511515581655708e-05 0 -0.024999942357745355 -1.1577998480721355e-09 0 -0.024961509889407343 1.9511515581655708e-05 0 -0.024962038387934767 1.0430862139347247e-05 0 -0.024999942357745355 -1.1577998480721355e-09 0 -0.025000005561902301 -4.8866630903436229e-09 0 -0.024999928699413095 1.2328749462204326e-08 0 -0.024966744488358464 2.8356101637390753e-06 0 -0.024999942357745355 -1.1577998480721355e-09 0 -0.024999928699413095 1.2328749462204326e-08 0 -0.024965086739391008 5.2095262871204278e-06 0 -0.024999928699413095 1.2328749462204326e-08 0 -0.024965086739391008 5.2095262871204278e-06 0 -0.024966744488358464 2.8356101637390753e-06 0 -0.024965086739391008 5.2095262871204278e-06 0 -0.024926024481470861 8.7918683570273049e-06 0 -0.024966744488358464 2.8356101637390753e-06 0 -0.024926024481470861 8.7918683570273049e-06 0 -0.024966744488358464 2.8356101637390753e-06 0 -0.024857658836290892 2.6624539397175069e-05 0 -0.024902400904339376 3.6982616549129696e-05 0 -0.024845762459453163 4.8208290097786948e-05 0 -0.024857658836290892 2.6624539397175069e-05 0 -0.024889335368159779 4.4198052121953407e-05 0 -0.024902400904339376 3.6982616549129696e-05 0 -0.024845762459453163 4.8208290097786948e-05 0 -0.024932121034146899 1.9185346253010808e-05 0 -0.024871534304521974 2.5633874617213567e-05 0 -0.024845762459453163 4.8208290097786948e-05 0 -0.024857658836290892 2.6624539397175069e-05 0 -0.024720149184460104 8.5240391506447328e-05 0 -0.024889335368159779 4.4198052121953407e-05 0 -0.024845762459453163 4.8208290097786948e-05 0 -0.024865820635149034 5.0472417171121345e-05 0 -0.024922485118005901 3.425363563992634e-05 0 -0.024926024481470861 8.7918683570273049e-06 0 -0.024857658836290892 2.6624539397175069e-05 0 -0.024925259050019324 7.3669434646479495e-05 0 -0.024857658836290892 2.6624539397175069e-05 0 -0.024720149184460104 8.5240391506447328e-05 0 -0.024925259050019324 7.3669434646479495e-05 0 -0.024922485118005901 3.425363563992634e-05 0 -0.024857658836290892 2.6624539397175069e-05 0 -0.023212415809892677 -0.00020652284745034406 0 -0.024720149184460104 8.5240391506447328e-05 0 -0.024101289009252968 -0.00045215018615574036 0 -0.024016889422275253 -9.664513958581271e-05 0 -0.024685374857037864 9.1322104005842639e-05 0 -0.024924983089232196 -2.9940340587814856e-05 0 -0.024865820635149034 5.0472417171121345e-05 0 -0.024720149184460104 8.5240391506447328e-05 0 -0.024845762459453163 4.8208290097786948e-05 0 -0.024865820635149034 5.0472417171121345e-05 0 -0.024720149184460104 8.5240391506447328e-05 0 -0.024720149184460104 8.5240391506447328e-05 0 -0.024694077911340265 -0.00031355285023325959 0 -0.024101289009252968 -0.00045215018615574036 0 -0.024924983089232196 -2.9940340587814856e-05 0 -0.024720149184460104 8.5240391506447328e-05 0 -0.024694077911340265 -0.00031355285023325959 0 -0.025232053976666557 -0.00050415203048844988 0 -0.024694077911340265 -0.00031355285023325959 0 -0.02448620497734378 -0.00081479235428923299 0 -0.012291738324827156 -0.0011833282522899613 0 -0.012539221395179026 -0.0012930021471283413 0 -0.012351597026790477 -0.0010911831448664991 0 -0.0211383720498549 0.00024647581741423527 0 -0.017965519632593043 -0.0012140968394909102 0 -0.024694077911340265 -0.00031355285023325959 0 -0.02448620497734378 -0.00081479235428923299 0 -0.024101289009252968 -0.00045215018615574036 0 -0.012539221395179026 -0.0012930021471283413 0 -0.012351597026790477 -0.0010911831448664991 0 -0.012386894502016011 -0.00091243045439323353 0 -0.012287771655129788 -0.0009986555710209961 0 -0.012351597026790477 -0.0010911831448664991 0 -0.012386894502016011 -0.00091243045439323353 0 -0.012386894502016011 -0.00091243045439323353 0 -0.012275369201426278 -0.00094905463911271496 0 -0.012224729494368014 -0.00093185399542631078 0 -0.012386894502016011 -0.00091243045439323353 0 -0.012149240390211227 -0.00085908092329904087 0 -0.012224729494368014 -0.00093185399542631078 0 -0.012648399203273241 -0.00090764958970767371 0 -0.012179631844685441 -0.00082770314139841419 0 -0.012539221395179026 -0.0012930021471283413 0 -0.012386894502016011 -0.00091243045439323353 0 -0.013373905156170483 -0.00084768662845019558 0 -0.012539221395179026 -0.0012930021471283413 0 -0.013373905156170483 -0.00084768662845019558 0 -0.013465214170272665 -0.0011787143178550342 0 -0.012149240390211227 -0.00085908092329904087 0 -0.012133171409092054 -0.00093082368996814198 0 -0.012224729494368014 -0.00093185399542631078 0 -0.017965519632593043 -0.0012140968394909102 0 -0.018959543473567927 -0.0010724960144693125 0 -0.02448620497734378 -0.00081479235428923299 0 -0.024101289009252968 -0.00045215018615574036 0 -0.023441454063450176 -0.0011796528717846592 0 -0.023212415809892677 -0.00020652284745034406 0 -0.024101289009252968 -0.00045215018615574036 0 -0.023441454063450176 -0.0011796528717846592 0 -0.023212415809892677 -0.00020652284745034406 0 -0.022652197129281695 -0.00090873981689296537 0 -0.023441454063450176 -0.0011796528717846592 0 -0.023212415809892677 -0.00020652284745034406 0 -0.022652197129281695 -0.00090873981689296537 0 -0.021702973355132611 -0.00077099635275378975 0 -0.024925946113201713 3.4514743391159836e-05 0 -0.024925259050019324 7.3669434646479495e-05 0 -0.024915341725603089 2.407941597359923e-07 0 -0.022652197129281695 -0.00090873981689296537 0 -0.021702973355132611 -0.00077099635275378975 0 -0.02225444868033569 -0.0014823111514803851 0 -0.024016889422275253 -9.664513958581271e-05 0 -0.023523646317658735 -0.00032597156262326264 0 -0.02491144204898579 2.1403666030204758e-05 0 -0.024925946113201713 3.4514743391159836e-05 0 -0.024915341725603089 2.407941597359923e-07 0 -0.012048298859573795 -0.00092107581862623672 0 -0.012084395680471392 -0.00088675098059795728 0 -0.012041490426154208 -0.00093554840815530981 0 -0.014216284402680593 -0.00088781446379678679 0 -0.016194136446423077 -0.0010623737954516376 0 -0.021275848540444245 -0.0013855379921629749 0 -0.021702973355132611 -0.00077099635275378975 0 -0.02225444868033569 -0.0014823111514803851 0 -0.019438534207648503 -0.0013184852256310808 0 -0.016194136446423077 -0.0010623737954516376 0 -0.016194136446423077 -0.0010623737954516376 0 -0.018959543473567927 -0.0010724960144693125 0 -0.013373905156170483 -0.00084768662845019558 0 -0.014631773553501426 -0.00091673053026882802 0 -0.013465214170272665 -0.0011787143178550342 0 -0.012149240390211227 -0.00085908092329904087 0 -0.012084395680471392 -0.00088675098059795728 0 -0.012109485892398861 -0.00089595354178540279 0 -0.022652197129281695 -0.00090873981689296537 0 -0.02225444868033569 -0.0014823111514803851 0 -0.023441454063450176 -0.0011796528717846592 0 -0.012179631844685441 -0.00082770314139841419 0 -0.016194136446423077 -0.0010623737954516376 0 -0.012084395680471392 -0.00088675098059795728 0 -0.012109485892398861 -0.00089595354178540279 0 -0.012081806254279428 -0.00091788496470770239 0 -0.012149240390211227 -0.00085908092329904087 0 -0.012109485892398861 -0.00089595354178540279 0 -0.012133171409092054 -0.00093082368996814198 0 -0.012109485892398861 -0.00089595354178540279 0 -0.012133171409092054 -0.00093082368996814198 0 -0.012081806254279428 -0.00091788496470770239 0 -0.012133171409092054 -0.00093082368996814198 0 -0.012081806254279428 -0.00091788496470770239 0 -0.012059722863220318 -0.00095564428149110632 0 -0.012084395680471392 -0.00088675098059795728 0 -0.012081806254279428 -0.00091788496470770239 0 -0.012041490426154208 -0.00093554840815530981 0 -0.012081806254279428 -0.00091788496470770239 0 -0.012041490426154208 -0.00093554840815530981 0 -0.012059722863220318 -0.00095564428149110632 0 -0.012041490426154208 -0.00093554840815530981 0 -0.012007942473854522 -0.00096694699216255599 0 -0.012059722863220318 -0.00095564428149110632 0 -0.012007942473854522 -0.00096694699216255599 0 -0.012059722863220318 -0.00095564428149110632 0 -0.012011208368534672 -0.00099228394293329205 0 -0.012059722863220318 -0.00095564428149110632 0 -0.012122692619205505 -0.00097084119201292993 0 -0.012011208368534672 -0.00099228394293329205 0 -0.012133171409092054 -0.00093082368996814198 0 -0.012059722863220318 -0.00095564428149110632 0 -0.012122692619205505 -0.00097084119201292993 0 -0.012122692619205505 -0.00097084119201292993 0 -0.012196041176354127 -0.00098109162063447883 0 -0.012124977081025856 -0.00099129041183424892 0 -0.012122692619205505 -0.00097084119201292993 0 -0.012196041176354127 -0.00098109162063447883 0 -0.012202102586067446 -0.00095934594311237445 0 -0.012209132992447141 -0.00099041491408630926 0 -0.012196041176354127 -0.00098109162063447883 0 -0.012264482632756042 -0.00096880218322522834 0 -0.012196041176354127 -0.00098109162063447883 0 -0.012264482632756042 -0.00096880218322522834 0 -0.012202102586067446 -0.00095934594311237445 0 -0.012264482632756042 -0.00096880218322522834 0 -0.012275369201426278 -0.00094905463911271496 0 -0.012202102586067446 -0.00095934594311237445 0 -0.012287771655129788 -0.0009986555710209961 0 -0.012386894502016011 -0.00091243045439323353 0 -0.012264482632756042 -0.00096880218322522834 0 -0.012386894502016011 -0.00091243045439323353 0 -0.012264482632756042 -0.00096880218322522834 0 -0.012275369201426278 -0.00094905463911271496 0 -0.012275369201426278 -0.00094905463911271496 0 -0.012224729494368014 -0.00093185399542631078 0 -0.012202102586067446 -0.00095934594311237445 0 -0.012133171409092054 -0.00093082368996814198 0 -0.012122692619205505 -0.00097084119201292993 0 -0.012202102586067446 -0.00095934594311237445 0 -0.012133171409092054 -0.00093082368996814198 0 -0.012224729494368014 -0.00093185399542631078 0 -0.012202102586067446 -0.00095934594311237445 0 -0.012115378971357959 -0.0010093480805991695 0 -0.012044726480125433 -0.0010346355701387993 0 -0.012119002900742241 -0.0010200387097833111 0 -0.012115378971357959 -0.0010093480805991695 0 -0.012044726480125433 -0.0010346355701387993 0 -0.012124977081025856 -0.00099129041183424892 0 -0.012115378971357959 -0.0010093480805991695 0 -0.012169121298516317 -0.00099485779068181693 0 -0.012119002900742241 -0.0010200387097833111 0 -0.012134316463359643 -0.00099671605886620849 0 -0.012169121298516317 -0.00099485779068181693 0 -0.012119002900742241 -0.0010200387097833111 0 -0.012196041176354127 -0.00098109162063447883 0 -0.012169121298516317 -0.00099485779068181693 0 -0.012124977081025856 -0.00099129041183424892 0 -0.012115378971357959 -0.0010093480805991695 0 -0.012169121298516317 -0.00099485779068181693 0 -0.012124977081025856 -0.00099129041183424892 0 -0.012209132992447141 -0.00099041491408630926 0 -0.012196041176354127 -0.00098109162063447883 0 -0.012169121298516317 -0.00099485779068181693 0 -0.012122692619205505 -0.00097084119201292993 0 -0.012124977081025856 -0.00099129041183424892 0 -0.012011208368534672 -0.00099228394293329205 0 -0.012044726480125433 -0.0010346355701387993 0 -0.012124977081025856 -0.00099129041183424892 0 -0.012011208368534672 -0.00099228394293329205 0 -0.012007942473854522 -0.00096694699216255599 0 -0.012011208368534672 -0.00099228394293329205 0 -0.011953037371779093 -0.00099599147465126068 0 -0.012011208368534672 -0.00099228394293329205 0 -0.011848007264917958 -0.0010826517792877882 0 -0.011953037371779093 -0.00099599147465126068 0 -0.012044726480125433 -0.0010346355701387993 0 -0.012011208368534672 -0.00099228394293329205 0 -0.011848007264917958 -0.0010826517792877882 0 -0.011927432833551306 -0.0011073118885691106 0 -0.01192879170717542 -0.0011397695103490773 0 -0.011856611652425606 -0.0011685827172133187 0 -0.011927432833551306 -0.0011073118885691106 0 -0.011856611652425606 -0.0011685827172133187 0 -0.011704911263653778 -0.0010661163741484997 0 -0.011848007264917958 -0.0010826517792877882 0 -0.011927432833551306 -0.0011073118885691106 0 -0.011704911263653778 -0.0010661163741484997 0 -0.012044726480125433 -0.0010346355701387993 0 -0.011848007264917958 -0.0010826517792877882 0 -0.011927432833551306 -0.0011073118885691106 0 -0.011933840375699204 -0.0011063035022934248 0 -0.011973611265594273 -0.0011172015088697146 0 -0.011927432833551306 -0.0011073118885691106 0 -0.012048305938315493 -0.001116291980717291 0 -0.012061916334825312 -0.0010663405356646355 0 -0.012044726480125433 -0.0010346355701387993 0 -0.012061916334825312 -0.0010663405356646355 0 -0.012119002900742241 -0.0010200387097833111 0 -0.012044726480125433 -0.0010346355701387993 0 -0.011927432833551306 -0.0011073118885691106 0 -0.012061916334825312 -0.0010663405356646355 0 -0.012117620214644673 -0.001066215309683084 0 -0.012061916334825312 -0.0010663405356646355 0 -0.012119002900742241 -0.0010200387097833111 0 -0.012117620214644673 -0.001066215309683084 0 -0.012048305938315493 -0.001116291980717291 0 -0.012061916334825312 -0.0010663405356646355 0 -0.011973611265594273 -0.0011172015088697146 0 -0.012041428230147682 -0.0011868342815997556 0 -0.012117620214644673 -0.001066215309683084 0 -0.012048305938315493 -0.001116291980717291 0 -0.012096891628612856 -0.0011198238336331515 0 -0.01192879170717542 -0.0011397695103490773 0 -0.011918014491331983 -0.0011545798037391492 0 -0.011896293354244112 -0.001169563686795853 0 -0.01192879170717542 -0.0011397695103490773 0 -0.011922048593503706 -0.0011526224821977529 0 -0.011918014491331983 -0.0011545798037391492 0 -0.011918014491331983 -0.0011545798037391492 0 -0.011916011393061469 -0.0011579416251281769 0 -0.011896293354244112 -0.001169563686795853 0 -0.011916011393061469 -0.0011579416251281769 0 -0.011908812957959531 -0.001162077312329953 0 -0.011896293354244112 -0.001169563686795853 0 -0.011920607244659386 -0.001155135959621034 0 -0.011922048593503706 -0.0011526224821977529 0 -0.011916011393061469 -0.0011579416251281769 0 -0.011922048593503706 -0.0011526224821977529 0 -0.011918014491331983 -0.0011545798037391492 0 -0.011916011393061469 -0.0011579416251281769 0 -0.011920607244659386 -0.001155135959621034 0 -0.011916011393061469 -0.0011579416251281769 0 -0.011908812957959531 -0.001162077312329953 0 -0.011559567274703366 -0.00029344796693510697 0 -0.011197294002748586 -0.00068242036298865204 0 -0.011065509228195226 -0.00056062440944672578 0 -0.011900592359791587 -0.00064932797302577443 0 -0.010933432696201801 -0.00057756556219487165 0 -0.011900592359791587 -0.00064932797302577443 0 -0.010870111842395815 -6.1919333170057015e-05 0 -0.011940151006274382 4.1359636370455882e-06 0 -0.011964686735236079 -9.1950011406905137e-05 0 -0.012087731988807861 -4.2845344963247435e-05 0 -0.011930990840007731 -0.00022555809736689067 0 -0.011964686735236079 -9.1950011406905137e-05 0 -0.012087731988807861 -4.2845344963247435e-05 0 -0.010870111842395815 -6.1919333170057015e-05 0 -0.010933432696201801 -0.00057756556219487165 0 -0.010224543591456194 -0.00036035200705138024 0 -0.01052411310962785 -0.00039371863307293841 0 -0.010536091840576947 -0.00064542923957873293 0 -0.010933432696201801 -0.00057756556219487165 0 -0.011250276966562214 -0.00094027949179116468 0 -0.0101325785987553 -0.00035200003259044547 0 -0.010528671724420149 -0.00013526828705486303 0 -0.010325265812382297 4.6209600905442583e-05 0 -0.01005447147431994 -0.00027732528894181463 0 -0.0101325785987553 -0.00035200003259044547 0 -0.010325265812382297 4.6209600905442583e-05 0 -0.010933432696201801 -0.00057756556219487165 0 -0.010236686488032309 -0.00013334043675790227 0 -0.010870111842395815 -6.1919333170057015e-05 0 -0.010192445997827877 0.00031164090107848989 0 -0.010279121853498855 0.00060107439761531768 0 -0.010275882590073929 0.00059327550306635917 0 -0.010272900452476403 0.00055121505486522887 0 -0.010275882590073929 0.00059327550306635917 0 -0.010281200686759345 0.00061273189545453966 0 -0.010272880023045512 0.00059595395134795894 0 -0.010870111842395815 -6.1919333170057015e-05 0 -0.011124736117024967 0.00044757873472779045 0 -0.011940151006274382 4.1359636370455882e-06 0 -0.012087731988807861 -4.2845344963247435e-05 0 -0.011883330228620547 0.00017818162852346994 0 -0.010279121853498855 0.00060107439761531768 0 -0.010281200686759345 0.00061273189545453966 0 -0.010285081508386385 0.00063072788840515541 0 -0.010279121853498855 0.00060107439761531768 0 -0.010275882590073929 0.00059327550306635917 0 -0.010281200686759345 0.00061273189545453966 0 -0.010805461905434365 -0.00019030335653373966 0 -0.010882388262360258 -3.9891753576697804e-06 0 -0.010579575314576815 2.4812072225410571e-05 0 -0.010805461905434365 -0.00019030335653373966 0 -0.010528671724420149 -0.00013526828705486303 0 -0.010579575314576815 2.4812072225410571e-05 0 -0.010805461905434365 -0.00019030335653373966 0 -0.010528671724420149 -0.00013526828705486303 0 -0.010858160919377434 -0.0004465628342197309 0 -0.010528671724420149 -0.00013526828705486303 0 -0.010579575314576815 2.4812072225410571e-05 0 -0.010325265812382297 4.6209600905442583e-05 0 -0.01052411310962785 -0.00039371863307293841 0 -0.010858160919377434 -0.0004465628342197309 0 -0.010536091840576947 -0.00064542923957873293 0 -0.010224543591456194 -0.00036035200705138024 0 -0.010528671724420149 -0.00013526828705486303 0 -0.01052411310962785 -0.00039371863307293841 0 -0.010528671724420149 -0.00013526828705486303 0 -0.01052411310962785 -0.00039371863307293841 0 -0.010858160919377434 -0.0004465628342197309 0 -0.010858160919377434 -0.0004465628342197309 0 -0.011041401373779495 -0.00092655553461180992 0 -0.011435205257465003 -0.00074302283767293034 0 -0.01192879170717542 -0.0011397695103490773 0 -0.011896293354244112 -0.001169563686795853 0 -0.011856611652425606 -0.0011685827172133187 0 -0.010858160919377434 -0.0004465628342197309 0 -0.010536091840576947 -0.00064542923957873293 0 -0.011041401373779495 -0.00092655553461180992 0 -0.011250276966562214 -0.00094027949179116468 0 -0.011439926200525896 -0.0010209349221654831 0 -0.011041401373779495 -0.00092655553461180992 0 -0.011435205257465003 -0.00074302283767293034 0 -0.011704911263653778 -0.0010661163741484997 0 -0.011809010732767477 -0.00089425489631338249 0 -0.011435205257465003 -0.00074302283767293034 0 -0.011704911263653778 -0.0010661163741484997 0 -0.011809010732767477 -0.00089425489631338249 0 -0.011435205257465003 -0.00074302283767293034 0 -0.011745830540542472 -0.00076301270237524952 0 -0.011435205257465003 -0.00074302283767293034 0 -0.011537766485754124 -0.0005057668940818068 0 -0.011745830540542472 -0.00076301270237524952 0 -0.010805461905434365 -0.00019030335653373966 0 -0.010858160919377434 -0.0004465628342197309 0 -0.01118046941432862 -0.00038644620582407955 0 -0.010858160919377434 -0.0004465628342197309 0 -0.011435205257465003 -0.00074302283767293034 0 -0.01118046941432862 -0.00038644620582407955 0 -0.01118046941432862 -0.00038644620582407955 0 -0.011306228818576805 -0.00016428017205895586 0 -0.011537766485754124 -0.0005057668940818068 0 -0.011435205257465003 -0.00074302283767293034 0 -0.01118046941432862 -0.00038644620582407955 0 -0.011537766485754124 -0.0005057668940818068 0 -0.010805461905434365 -0.00019030335653373966 0 -0.01118046941432862 -0.00038644620582407955 0 -0.010882388262360258 -3.9891753576697804e-06 0 -0.01118046941432862 -0.00038644620582407955 0 -0.011306228818576805 -0.00016428017205895586 0 -0.010882388262360258 -3.9891753576697804e-06 0 -0.01193677104115244 -0.00026237181221571278 0 -0.011724124435361397 -0.00042015146025543685 0 -0.011601590283054148 -9.2843925783442629e-05 0 -0.011306228818576805 -0.00016428017205895586 0 -0.011724124435361397 -0.00042015146025543685 0 -0.011601590283054148 -9.2843925783442629e-05 0 -0.011306228818576805 -0.00016428017205895586 0 -0.011537766485754124 -0.0005057668940818068 0 -0.011724124435361397 -0.00042015146025543685 0 -0.011537766485754124 -0.0005057668940818068 0 -0.011724124435361397 -0.00042015146025543685 0 -0.011843015634813259 -0.00067447362732097683 0 -0.011724124435361397 -0.00042015146025543685 0 -0.011843015634813259 -0.00067447362732097683 0 -0.012084272092696672 -0.00062438605045504996 0 -0.01193677104115244 -0.00026237181221571278 0 -0.011724124435361397 -0.00042015146025543685 0 -0.012084272092696672 -0.00062438605045504996 0 -0.011843015634813259 -0.00067447362732097683 0 -0.012011270842823774 -0.00093618157986080717 0 -0.012084272092696672 -0.00062438605045504996 0 -0.011809010732767477 -0.00089425489631338249 0 -0.011745830540542472 -0.00076301270237524952 0 -0.012011270842823774 -0.00093618157986080717 0 -0.011843015634813259 -0.00067447362732097683 0 -0.011745830540542472 -0.00076301270237524952 0 -0.012011270842823774 -0.00093618157986080717 0 -0.011537766485754124 -0.0005057668940818068 0 -0.011843015634813259 -0.00067447362732097683 0 -0.011745830540542472 -0.00076301270237524952 0 -0.012361086873074112 -0.00059982619920829442 0 -0.012057325778618965 -0.00088525949056202633 0 -0.012672277115046173 -0.0002659980041959539 0 -0.012052419932407354 -0.00089836396712138211 0 -0.012964941198126483 -0.00067878030002227084 0 -0.012718378602719356 -0.0010563380193887807 0 -0.012052419932407354 -0.00089836396712138211 0 -0.012964941198126483 -0.00067878030002227084 0 -0.011809010732767477 -0.00089425489631338249 0 -0.012011270842823774 -0.00093618157986080717 0 -0.012052419932407354 -0.00089836396712138211 0 -0.011809010732767477 -0.00089425489631338249 0 -0.012052419932407354 -0.00089836396712138211 0 -0.011704911263653778 -0.0010661163741484997 0 -0.011439926200525896 -0.0010209349221654831 0 -0.01166371547470923 -0.0010721064103182733 0 -0.011848007264917958 -0.0010826517792877882 0 -0.011704911263653778 -0.0010661163741484997 0 -0.011939209412572769 -0.0011617601060658744 0 -0.012052419932407354 -0.00089836396712138211 0 -0.011704911263653778 -0.0010661163741484997 0 -0.011939209412572769 -0.0011617601060658744 0 -0.011839209235873614 -0.0010862581687194079 0 -0.01195089722268282 -0.0012372969285786596 0 -0.011848007264917958 -0.0010826517792877882 0 -0.011939209412572769 -0.0011617601060658744 0 -0.01181345055517119 -0.0013666321576282731 0 -0.011939209412572769 -0.0011617601060658744 0 -0.01181345055517119 -0.0013666321576282731 0 -0.012074996714940797 -0.0014587417254764549 0 -0.011946812899988057 -0.0017927314813755268 0 -0.01181345055517119 -0.0013666321576282731 0 -0.012074996714940797 -0.0014587417254764549 0 -0.011939209412572769 -0.0011617601060658744 0 -0.012074996714940797 -0.0014587417254764549 0 -0.012420345387127154 -0.0013502504421222844 0 -0.012718378602719356 -0.0010563380193887807 0 -0.012052419932407354 -0.00089836396712138211 0 -0.012420345387127154 -0.0013502504421222844 0 -0.01236559613611357 -0.0017611316627181594 0 -0.012074996714940797 -0.0014587417254764549 0 -0.012420345387127154 -0.0013502504421222844 0 -0.012052419932407354 -0.00089836396712138211 0 -0.011939209412572769 -0.0011617601060658744 0 -0.012420345387127154 -0.0013502504421222844 0 -0.012849483696251069 -0.0016589292779568823 0 -0.012420345387127154 -0.0013502504421222844 0 -0.012913428760152607 -0.0012860248484830707 0 -0.012849483696251069 -0.0016589292779568823 0 -0.01236559613611357 -0.0017611316627181594 0 -0.012420345387127154 -0.0013502504421222844 0 -0.012718378602719356 -0.0010563380193887807 0 -0.012420345387127154 -0.0013502504421222844 0 -0.012913428760152607 -0.0012860248484830707 0 -0.013901183418626098 -0.00038140924141658148 0 -0.01337545232814347 -0.0014166487367488609 0 -0.014159230603608323 -0.00094000882525282342 0 -0.013588899045337699 -0.00074230289203525114 0 -0.01338465617250738 -0.0014019391840792207 0 -0.012718378602719356 -0.0010563380193887807 0 -0.013271981079613021 -0.0010519279221297773 0 -0.012913428760152607 -0.0012860248484830707 0 -0.013271981079613021 -0.0010519279221297773 0 -0.012913428760152607 -0.0012860248484830707 0 -0.01337545232814347 -0.0014166487367488609 0 -0.012849483696251069 -0.0016589292779568823 0 -0.012913428760152607 -0.0012860248484830707 0 -0.01337545232814347 -0.0014166487367488609 0 -0.014492781006806395 -0.0018599609225472074 0 -0.01337545232814347 -0.0014166487367488609 0 -0.014159230603608323 -0.00094000882525282342 0 -0.014492781006806395 -0.0018599609225472074 0 -0.014159230603608323 -0.00094000882525282342 0 -0.014775118053025303 -0.0010005066344685419 0 -0.014775118053025303 -0.0010005066344685419 0 -0.014688201190833404 -0.0002830942541217189 0 -0.015498228350013266 -0.00064347463645176791 0 -0.013901183418626098 -0.00038140924141658148 0 -0.014159230603608323 -0.00094000882525282342 0 -0.014688201190833404 -0.0002830942541217189 0 -0.014159230603608323 -0.00094000882525282342 0 -0.014775118053025303 -0.0010005066344685419 0 -0.014688201190833404 -0.0002830942541217189 0 -0.014688201190833404 -0.0002830942541217189 0 -0.014869975619026497 7.1451403934613409e-05 0 -0.014318109581505652 0.00018938333244128159 0 -0.013901183418626098 -0.00038140924141658148 0 -0.014688201190833404 -0.0002830942541217189 0 -0.014318109581505652 0.00018938333244128159 0 -0.014688201190833404 -0.0002830942541217189 0 -0.014869975619026497 7.1451403934613409e-05 0 -0.015333154568015386 -0.00010200976764890701 0 -0.014869975619026497 7.1451403934613409e-05 0 -0.014738528222208809 0.0002645825553047028 0 -0.01524918770663298 0.00015529636953531313 0 -0.014869975619026497 7.1451403934613409e-05 0 -0.014318109581505652 0.00018938333244128159 0 -0.014738528222208809 0.0002645825553047028 0 -0.013386965402746004 -0.00053155246146171663 0 -0.012964941198126483 -0.00067878030002227084 0 -0.013149041927690357 -0.00025289039420361227 0 -0.013588899045337699 -0.00074230289203525114 0 -0.013835751536725503 -0.00020196810573532524 0 -0.013271981079613021 -0.0010519279221297773 0 -0.013386965402746004 -0.00053155246146171663 0 -0.012964941198126483 -0.00067878030002227084 0 -0.012718378602719356 -0.0010563380193887807 0 -0.013271981079613021 -0.0010519279221297773 0 -0.012964941198126483 -0.00067878030002227084 0 -0.012672277115046173 -0.0002659980041959539 0 -0.012964941198126483 -0.00067878030002227084 0 -0.013149041927690357 -0.00025289039420361227 0 -0.012011270842823774 -0.00093618157986080717 0 -0.012382592092506179 -0.00082476477952753407 0 -0.012084272092696672 -0.00062438605045504996 0 -0.012361086873074112 -0.00059982619920829442 0 -0.012736328135517392 -0.0003529918766947818 0 -0.012672277115046173 -0.0002659980041959539 0 -0.013149041927690357 -0.00025289039420361227 0 -0.013183940608835097 0.00016086987675904818 0 -0.013386965402746004 -0.00053155246146171663 0 -0.013149041927690357 -0.00025289039420361227 0 -0.013515031503156824 4.1005028032058131e-05 0 -0.013149041927690357 -0.00025289039420361227 0 -0.013183940608835097 0.00016086987675904818 0 -0.013515031503156824 4.1005028032058131e-05 0 -0.012084272092696672 -0.00062438605045504996 0 -0.012404705907722101 -0.00059854930219237451 0 -0.012313565825238024 -0.00035039108216395882 0 -0.012382592092506179 -0.00082476477952753407 0 -0.012084272092696672 -0.00062438605045504996 0 -0.012404705907722101 -0.00059854930219237451 0 -0.012736328135517392 -0.0003529918766947818 0 -0.013655206850309583 6.2771297336571826e-05 0 -0.012382592092506179 -0.00082476477952753407 0 -0.012404705907722101 -0.00059854930219237451 0 -0.01278054301272994 -0.00055791751718419164 0 -0.012404705907722101 -0.00059854930219237451 0 -0.012578700285261937 -0.00042763314296302468 0 -0.01278054301272994 -0.00055791751718419164 0 -0.012404705907722101 -0.00059854930219237451 0 -0.012578700285261937 -0.00042763314296302468 0 -0.012313565825238024 -0.00035039108216395882 0 -0.012578700285261937 -0.00042763314296302468 0 -0.012565908927761264 -0.00026878254798191014 0 -0.012313565825238024 -0.00035039108216395882 0 -0.012578700285261937 -0.00042763314296302468 0 -0.012812085401675001 -0.00034045987513595051 0 -0.01278054301272994 -0.00055791751718419164 0 -0.012578700285261937 -0.00042763314296302468 0 -0.012565908927761264 -0.00026878254798191014 0 -0.012812085401675001 -0.00034045987513595051 0 -0.012565908927761264 -0.00026878254798191014 0 -0.01244299042880059 -9.1422485161952706e-05 0 -0.012717259861509886 -0.00012914224061674642 0 -0.012565908927761264 -0.00026878254798191014 0 -0.012812085401675001 -0.00034045987513595051 0 -0.012717259861509886 -0.00012914224061674642 0 -0.012565908927761264 -0.00026878254798191014 0 -0.012313565825238024 -0.00035039108216395882 0 -0.01244299042880059 -9.1422485161952706e-05 0 -0.012313565825238024 -0.00035039108216395882 0 -0.012148589751539044 -0.00010368313785685897 0 -0.01244299042880059 -9.1422485161952706e-05 0 -0.01193677104115244 -0.00026237181221571278 0 -0.012313565825238024 -0.00035039108216395882 0 -0.012148589751539044 -0.00010368313785685897 0 -0.01193677104115244 -0.00026237181221571278 0 -0.012084272092696672 -0.00062438605045504996 0 -0.012313565825238024 -0.00035039108216395882 0 -0.014046222932940148 4.1389038520240423e-05 0 -0.013113104417525381 -0.000617749420090605 0 -0.013086642053736903 -0.00070423918850656664 0 -0.014074153392029706 -2.2894667709892759e-05 0 -0.013655206850309583 6.2771297336571826e-05 0 -0.014046222932940148 4.1389038520240423e-05 0 -0.014594294346028309 0.00023558187813858835 0 -0.014410291806738734 0.00023318898087575362 0 -0.014046222932940148 4.1389038520240423e-05 0 -0.013369955515610875 -0.00020720509129123089 0 -0.013113104417525381 -0.000617749420090605 0 -0.014046222932940148 4.1389038520240423e-05 0 -0.013369955515610875 -0.00020720509129123089 0 -0.013425061853931275 3.8381821365376278e-05 0 -0.013369955515610875 -0.00020720509129123089 0 -0.013048975198238673 -9.6976760251145134e-05 0 -0.013425061853931275 3.8381821365376278e-05 0 -0.013051640859888088 -0.00032094468803823975 0 -0.013369955515610875 -0.00020720509129123089 0 -0.013048975198238673 -9.6976760251145134e-05 0 -0.013051640859888088 -0.00032094468803823975 0 -0.013048975198238673 -9.6976760251145134e-05 0 -0.012812085401675001 -0.00034045987513595051 0 -0.013048975198238673 -9.6976760251145134e-05 0 -0.012812085401675001 -0.00034045987513595051 0 -0.012717259861509886 -0.00012914224061674642 0 -0.012812085401675001 -0.00034045987513595051 0 -0.012932873409731295 -0.00046071360277403155 0 -0.01278054301272994 -0.00055791751718419164 0 -0.013051640859888088 -0.00032094468803823975 0 -0.012932873409731295 -0.00046071360277403155 0 -0.013088239194716828 -0.00044106754516689677 0 -0.013051640859888088 -0.00032094468803823975 0 -0.012812085401675001 -0.00034045987513595051 0 -0.012932873409731295 -0.00046071360277403155 0 -0.012932873409731295 -0.00046071360277403155 0 -0.012994329501799975 -0.00055546397802558886 0 -0.01278054301272994 -0.00055791751718419164 0 -0.012932873409731295 -0.00046071360277403155 0 -0.012994329501799975 -0.00055546397802558886 0 -0.013088239194716828 -0.00044106754516689677 0 -0.013369955515610875 -0.00020720509129123089 0 -0.013088239194716828 -0.00044106754516689677 0 -0.013113104417525381 -0.000617749420090605 0 -0.013051640859888088 -0.00032094468803823975 0 -0.013369955515610875 -0.00020720509129123089 0 -0.013088239194716828 -0.00044106754516689677 0 -0.012994329501799975 -0.00055546397802558886 0 -0.013088239194716828 -0.00044106754516689677 0 -0.013113104417525381 -0.000617749420090605 0 -0.012994329501799975 -0.00055546397802558886 0 -0.013113104417525381 -0.000617749420090605 0 -0.01307108981292494 -0.00062396208310561499 0 -0.012382592092506179 -0.00082476477952753407 0 -0.01307108981292494 -0.00062396208310561499 0 -0.01278054301272994 -0.00055791751718419164 0 -0.014594294346028309 0.00023558187813858835 0 -0.014582622330662097 0.00032254085168401537 0 -0.014561106924719571 0.00037098643618717548 0 -0.013655206850309583 6.2771297336571826e-05 0 -0.014097057030831105 0.00028078832106831784 0 -0.013624184660532376 -1.9355267360179376e-05 0 -0.013655206850309583 6.2771297336571826e-05 0 -0.012994329501799975 -0.00055546397802558886 0 -0.01307108981292494 -0.00062396208310561499 0 -0.01278054301272994 -0.00055791751718419164 0 -0.014594294346028309 0.00023558187813858835 0 -0.014528735698064245 0.00028480475409681482 0 -0.014582622330662097 0.00032254085168401537 0 -0.014594294346028309 0.00023558187813858835 0 -0.014410291806738734 0.00023318898087575362 0 -0.014528735698064245 0.00028480475409681482 0 -0.014528735698064245 0.00028480475409681482 0 -0.014664533610787537 0.00030147657459912952 0 -0.014582622330662097 0.00032254085168401537 0 -0.014410291806738734 0.00023318898087575362 0 -0.014528735698064245 0.00028480475409681482 0 -0.014664533610787537 0.00030147657459912952 0 -0.014664533610787537 0.00030147657459912952 0 -0.014678849947728183 0.00032055510994145425 0 -0.014900088977327797 0.00027503682371695965 0 -0.014664533610787537 0.00030147657459912952 0 -0.014582622330662097 0.00032254085168401537 0 -0.014678849947728183 0.00032055510994145425 0 -0.014582622330662097 0.00032254085168401537 0 -0.014678849947728183 0.00032055510994145425 0 -0.014561106924719571 0.00037098643618717548 0 -0.013183940608835097 0.00016086987675904818 0 -0.013641328777566738 0.0005706834063842007 0 -0.013515031503156824 4.1005028032058131e-05 0 -0.014318109581505652 0.00018938333244128159 0 -0.014561106924719571 0.00037098643618717548 0 -0.014738528222208809 0.0002645825553047028 0 -0.013835751536725503 -0.00020196810573532524 0 -0.014097057030831105 0.00028078832106831784 0 -0.014678849947728183 0.00032055510994145425 0 -0.014561106924719571 0.00037098643618717548 0 -0.014738528222208809 0.0002645825553047028 0 -0.014678849947728183 0.00032055510994145425 0 -0.014738528222208809 0.0002645825553047028 0 -0.014900088977327797 0.00027503682371695965 0 -0.014900088977327797 0.00027503682371695965 0 -0.015072893410413058 0.0002539296103123624 0 -0.01524918770663298 0.00015529636953531313 0 -0.014738528222208809 0.0002645825553047028 0 -0.014900088977327797 0.00027503682371695965 0 -0.01524918770663298 0.00015529636953531313 0 -0.015072893410413058 0.0002539296103123624 0 -0.014974602502274956 0.00028938354993596416 0 -0.014632053829447827 0.00026467788262877709 0 -0.014664533610787537 0.00030147657459912952 0 -0.015072893410413058 0.0002539296103123624 0 -0.014632053829447827 0.00026467788262877709 0 -0.014664533610787537 0.00030147657459912952 0 -0.014900088977327797 0.00027503682371695965 0 -0.015072893410413058 0.0002539296103123624 0 -0.014410291806738734 0.00023318898087575362 0 -0.014664533610787537 0.00030147657459912952 0 -0.014632053829447827 0.00026467788262877709 0 -0.014410291806738734 0.00023318898087575362 0 -0.014632053829447827 0.00026467788262877709 0 -0.014499197921208037 0.0002209550171848309 0 -0.014442184335174146 -8.1039401570962089e-06 0 -0.014180793682311387 -4.7536789241810017e-06 0 -0.014378866660079309 -1.924810157007013e-05 0 -0.014974602502274956 0.00028938354993596416 0 -0.014632053829447827 0.00026467788262877709 0 -0.014499197921208037 0.0002209550171848309 0 -0.014728015836118144 0.00015327104326296425 0 -0.014340075681271063 9.767233463853762e-05 0 -0.014180793682311387 -4.7536789241810017e-06 0 -0.014378866660079309 -1.924810157007013e-05 0 -0.014232400816588546 7.6480573596607901e-05 0 -0.014046222932940148 4.1389038520240423e-05 0 -0.014410291806738734 0.00023318898087575362 0 -0.014499197921208037 0.0002209550171848309 0 -0.014378866660079309 -1.924810157007013e-05 0 -0.014095891634884507 -2.2552937213600547e-05 0 -0.014377280260044008 2.7926211618734363e-05 0 -0.01313228347539286 -3.2978805448560755e-05 0 -0.014095891634884507 -2.2552937213600547e-05 0 -0.012268888813898723 -1.6993977804611732e-05 0 -0.013942380672504091 7.649370080541938e-05 0 -0.013332604314342671 5.4845061007955626e-05 0 -0.01313228347539286 -3.2978805448560755e-05 0 -0.013888622066324241 -1.0319880694878629e-07 0 -0.01245024168386874 -9.1720443634510762e-08 0 -0.01313228347539286 -3.2978805448560755e-05 0 -0.012268888813898723 -1.6993977804611732e-05 0 -0.01245024168386874 -9.1720443634510762e-08 0 -0.014378866660079309 -1.924810157007013e-05 0 -0.01434169680078144 4.4166953220525987e-05 0 -0.014232400816588546 7.6480573596607901e-05 0 -0.014378866660079309 -1.924810157007013e-05 0 -0.01434169680078144 4.4166953220525987e-05 0 -0.014377280260044008 2.7926211618734363e-05 0 -0.014378866660079309 -1.924810157007013e-05 0 -0.014095891634884507 -2.2552937213600547e-05 0 -0.01455924597070573 3.7932698563856902e-05 0 -0.014442184335174146 -8.1039401570962089e-06 0 -0.014378866660079309 -1.924810157007013e-05 0 -0.01455924597070573 3.7932698563856902e-05 0 -0.01313228347539286 -3.2978805448560755e-05 0 -0.014095891634884507 -2.2552937213600547e-05 0 -0.013888622066324241 -1.0319880694878629e-07 0 -0.01463724928645981 6.4138111481653744e-05 0 -0.01455924597070573 3.7932698563856902e-05 0 -0.015252969609377205 0.00014816391566203311 0 -0.013888622066324241 -1.0319880694878629e-07 0 -0.01463724928645981 6.4138111481653744e-05 0 -0.015325768991125458 4.2942562037371157e-07 0 -0.014095891634884507 -2.2552937213600547e-05 0 -0.013888622066324241 -1.0319880694878629e-07 0 -0.01463724928645981 6.4138111481653744e-05 0 -0.014095891634884507 -2.2552937213600547e-05 0 -0.01463724928645981 6.4138111481653744e-05 0 -0.01455924597070573 3.7932698563856902e-05 0 -0.015072893410413058 0.0002539296103123624 0 -0.014974602502274956 0.00028938354993596416 0 -0.015252969609377205 0.00014816391566203311 0 -0.014728015836118144 0.00015327104326296425 0 -0.015144828136618788 0.00014782482520034787 0 -0.014442184335174146 -8.1039401570962089e-06 0 -0.01455924597070573 3.7932698563856902e-05 0 -0.015252969609377205 0.00014816391566203311 0 -0.015072893410413058 0.0002539296103123624 0 -0.015252969609377205 0.00014816391566203311 0 -0.015841676996741758 0.00013605929045831854 0 -0.01463724928645981 6.4138111481653744e-05 0 -0.015252969609377205 0.00014816391566203311 0 -0.015325768991125458 4.2942562037371157e-07 0 -0.015252969609377205 0.00014816391566203311 0 -0.015325768991125458 4.2942562037371157e-07 0 -0.015834903568091079 0.00010766780743889068 0 -0.015325768991125458 4.2942562037371157e-07 0 -0.015834903568091079 0.00010766780743889068 0 -0.016763087278082241 1.9228362875990775e-07 0 -0.015834903568091079 0.00010766780743889068 0 -0.016763087278082241 1.9228362875990775e-07 0 -0.015841676996741758 0.00013605929045831854 0 -0.016763087278082241 1.9228362875990775e-07 0 -0.015841676996741758 0.00013605929045831854 0 -0.016992659939329344 -4.4800256424125211e-05 0 -0.015841676996741758 0.00013605929045831854 0 -0.01608220250139359 -0.0001054542349682091 0 -0.016992659939329344 -4.4800256424125211e-05 0 -0.015252969609377205 0.00014816391566203311 0 -0.015834903568091079 0.00010766780743889068 0 -0.015841676996741758 0.00013605929045831854 0 -0.015072893410413058 0.0002539296103123624 0 -0.015841676996741758 0.00013605929045831854 0 -0.01524918770663298 0.00015529636953531313 0 -0.015841676996741758 0.00013605929045831854 0 -0.01524918770663298 0.00015529636953531313 0 -0.015677740458909368 2.7333619842081945e-05 0 -0.014869975619026497 7.1451403934613409e-05 0 -0.01524918770663298 0.00015529636953531313 0 -0.015333154568015386 -0.00010200976764890701 0 -0.01524918770663298 0.00015529636953531313 0 -0.015333154568015386 -0.00010200976764890701 0 -0.015677740458909368 2.7333619842081945e-05 0 -0.015333154568015386 -0.00010200976764890701 0 -0.015677740458909368 2.7333619842081945e-05 0 -0.01608220250139359 -0.0001054542349682091 0 -0.015841676996741758 0.00013605929045831854 0 -0.015677740458909368 2.7333619842081945e-05 0 -0.01608220250139359 -0.0001054542349682091 0 -0.01608220250139359 -0.0001054542349682091 0 -0.015498228350013266 -0.00064347463645176791 0 -0.016482634731070731 -0.00037067710447521209 0 -0.015333154568015386 -0.00010200976764890701 0 -0.01608220250139359 -0.0001054542349682091 0 -0.015498228350013266 -0.00064347463645176791 0 -0.014688201190833404 -0.0002830942541217189 0 -0.015333154568015386 -0.00010200976764890701 0 -0.015498228350013266 -0.00064347463645176791 0 -0.015426479082534608 -0.0015522218841055044 0 -0.014775118053025303 -0.0010005066344685419 0 -0.015498228350013266 -0.00064347463645176791 0 -0.015426479082534608 -0.0015522218841055044 0 -0.015498228350013266 -0.00064347463645176791 0 -0.016534202797640545 -0.0012703392071793398 0 -0.015498228350013266 -0.00064347463645176791 0 -0.016514748322532441 -0.00089705614461741594 0 -0.016482634731070731 -0.00037067710447521209 0 -0.01503723485992833 -0.00057328126576731183 0 -0.017974157578802327 -0.00085774972156505043 0 -0.017974157578802327 -0.00085774972156505043 0 -0.017245816746463673 -0.00057309229599991802 0 -0.017535247522492435 -0.00037044274155735276 0 -0.016992659939329344 -4.4800256424125211e-05 0 -0.016482634731070731 -0.00037067710447521209 0 -0.016514748322532441 -0.00089705614461741594 0 -0.017535247522492435 -0.00037044274155735276 0 -0.016482634731070731 -0.00037067710447521209 0 -0.017998202809805696 -0.00031298897165842477 0 -0.0175863090371376 -0.00036767820948421548 0 -0.017535247522492435 -0.00037044274155735276 0 -0.017535247522492435 -0.00037044274155735276 0 -0.0182007009401258 -1.1955020038365248e-07 0 -0.016992659939329344 -4.4800256424125211e-05 0 -0.017998202809805696 -0.00031298897165842477 0 -0.017535247522492435 -0.00037044274155735276 0 -0.0182007009401258 -1.1955020038365248e-07 0 -0.016763087278082241 1.9228362875990775e-07 0 -0.0182007009401258 -1.1955020038365248e-07 0 -0.016992659939329344 -4.4800256424125211e-05 0 -0.01608220250139359 -0.0001054542349682091 0 -0.016992659939329344 -4.4800256424125211e-05 0 -0.016482634731070731 -0.00037067710447521209 0 -0.0077675358590921905 0.0005411903725780011 0 -0.0079653289405980255 0.00046767161346175385 0 -0.0078083283957390949 0.00019148028312062601 0 -0.0077675358590921905 0.0005411903725780011 0 -0.0079653289405980255 0.00046767161346175385 0 -0.0080792279485784411 0.00064924019418548338 0 -0.007539802353193647 0.00016172434049105614 0 -0.0066520631244756726 -2.9478047271862737e-07 0 -0.0081341981733962319 3.3531096913032435e-07 0 -0.007539802353193647 0.00016172434049105614 0 -0.0066520631244756726 -2.9478047271862737e-07 0 -0.0070383721938223976 -0.00023735549719255402 0 -0.0074435648221926271 0.00024172932378510828 0 -0.0062129040431417619 -0.00030654688416647386 0 -0.0066486934495569687 -2.8391856259280786e-07 0 -0.0062129040431417619 -0.00030654688416647386 0 -0.0075183855854071236 6.5164246439024462e-05 0 -0.0078083283957390949 0.00019148028312062601 0 -0.0078782244633380377 -0.00010581193954505747 0 -0.0077675358590921905 0.0005411903725780011 0 -0.0075183855854071236 6.5164246439024462e-05 0 -0.0078083283957390949 0.00019148028312062601 0 -0.0079653289405980255 0.00046767161346175385 0 -0.0078083283957390949 0.00019148028312062601 0 -0.008017519017784103 0.00024221475119816962 0 -0.0078083283957390949 0.00019148028312062601 0 -0.008017519017784103 0.00024221475119816962 0 -0.0078782244633380377 -0.00010581193954505747 0 -0.0083186683771893973 6.1655222757217571e-05 0 -0.008017519017784103 0.00024221475119816962 0 -0.0081430012177555137 0.00065390512291604245 0 -0.0086977034130542915 0.0004808865378722916 0 -0.010538567240762116 0.00094088470246359002 0 -0.0083186683771893973 6.1655222757217571e-05 0 -0.008017519017784103 0.00024221475119816962 0 -0.0078782244633380377 -0.00010581193954505747 0 -0.0092222313705053564 0.0010333440612381106 0 -0.009550315808894809 0.0012374410926218934 0 -0.0095408629272522028 0.00091614675619296529 0 -0.0092222313705053564 0.0010333440612381106 0 -0.0093663429844919877 0.0015069728855122541 0 -0.009550315808894809 0.0012374410926218934 0 -0.0093663429844919877 0.0015069728855122541 0 -0.0096982507410562791 0.0015331909616650302 0 -0.009550315808894809 0.0012374410926218934 0 -0.011971084050738677 0.0015855908502096039 0 -0.011500780102678122 0.0017753562067120087 0 -0.0086977034130542915 0.0004808865378722916 0 -0.011971084050738677 0.0015855908502096039 0 -0.010351434598508199 0.00051657248867010316 0 -0.01055540544091565 0.0012627063722668822 0 -0.010114759629731749 0.001226697163505358 0 -0.011971084050738677 0.0015855908502096039 0 -0.010538567240762116 0.00094088470246359002 0 -0.0079653289405980255 0.00046767161346175385 0 -0.008017519017784103 0.00024221475119816962 0 -0.0081430012177555137 0.00065390512291604245 0 -0.0079653289405980255 0.00046767161346175385 0 -0.0081430012177555137 0.00065390512291604245 0 -0.0080792279485784411 0.00064924019418548338 0 -0.010538567240762116 0.00094088470246359002 0 -0.0099030035521040487 0.000883721030176721 0 -0.013735065365685304 0.0018169455995058561 0 -0.014016936046557252 0.0018346542131896335 0 -0.013908043811662255 0.0015143468473193551 0 -0.010538567240762116 0.00094088470246359002 0 -0.010750413483128253 0.00080000912082097819 0 -0.014016936046557252 0.0018346542131896335 0 -0.013908043811662255 0.0015143468473193551 0 -0.014138953535430486 0.0015512782282753178 0 -0.00814895997537117 0.00065453041238108735 0 -0.0080792279485784411 0.00064924019418548338 0 -0.0080336121555141249 0.0010264692093666754 0 -0.013735065365685304 0.0018169455995058561 0 -0.013908043811662255 0.0015143468473193551 0 -0.013625470050094238 0.0013689175022095102 0 -0.011971084050738677 0.0015855908502096039 0 -0.014059606054613871 0.0016121833893646008 0 -0.013752400807453309 0.0020124349481114752 0 -0.013625470050094238 0.0013689175022095102 0 -0.013377500169829687 0.0016783454478669522 0 -0.013908043811662255 0.0015143468473193551 0 -0.013625470050094238 0.0013689175022095102 0 -0.013876950944922769 0.0011826008628992636 0 -0.013625470050094238 0.0013689175022095102 0 -0.013876950944922769 0.0011826008628992636 0 -0.013405931089844413 0.0010494417818365067 0 -0.013908043811662255 0.0015143468473193551 0 -0.014065651452415123 0.0013130338721159963 0 -0.013876950944922769 0.0011826008628992636 0 -0.013877117814006416 0.0020385329938186463 0 -0.010750413483128253 0.00080000912082097819 0 -0.013908043811662255 0.0015143468473193551 0 -0.014065651452415123 0.0013130338721159963 0 -0.014138953535430486 0.0015512782282753178 0 -0.014065651452415123 0.0013130338721159963 0 -0.013876950944922769 0.0011826008628992636 0 -0.014154962824897532 0.0011452268674941807 0 -0.0076535376975884082 -0.00042941635288209714 0 -0.0077174621063236144 -0.00029203058370205081 0 -0.0075303298779546175 -0.0001467227594205178 0 -0.014065651452415123 0.0013130338721159963 0 -0.014314408154724748 0.0012208637297550708 0 -0.014154962824897532 0.0011452268674941807 0 -0.014065651452415123 0.0013130338721159963 0 -0.014314408154724748 0.0012208637297550708 0 -0.014161371986610959 0.0015547234481773807 0 -0.011210305324945024 0.00041180861837392135 0 -0.010750413483128253 0.00080000912082097819 0 -0.0076535376975884082 -0.00042941635288209714 0 -0.0077174621063236144 -0.00029203058370205081 0 -0.0076968342776135446 -0.00051468661043707251 0 -0.0077174621063236144 -0.00029203058370205081 0 -0.0078117241519296372 -0.00043310222257474503 0 -0.0076968342776135446 -0.00051468661043707251 0 -0.0077174621063236144 -0.00029203058370205081 0 -0.0077356846342159901 -0.00012267968024546154 0 -0.007858683985442547 -0.00026315853287598139 0 -0.0074435648221926271 0.00024172932378510828 0 -0.010750413483128253 0.00080000912082097819 0 -0.0077675358590921905 0.0005411903725780011 0 -0.0080792279485784411 0.00064924019418548338 0 -0.0080336121555141249 0.0010264692093666754 0 -0.007539802353193647 0.00016172434049105614 0 -0.0075303298779546175 -0.0001467227594205178 0 -0.0077356846342159901 -0.00012267968024546154 0 -0.0077174621063236144 -0.00029203058370205081 0 -0.0075303298779546175 -0.0001467227594205178 0 -0.0077356846342159901 -0.00012267968024546154 0 -0.0077356846342159901 -0.00012267968024546154 0 -0.0081341981733962319 3.3531096913032435e-07 0 -0.007858683985442547 -0.00026315853287598139 0 -0.007539802353193647 0.00016172434049105614 0 -0.0077356846342159901 -0.00012267968024546154 0 -0.0081341981733962319 3.3531096913032435e-07 0 -0.0081378230077500668 1.0137503050721312e-07 0 -0.0086525020669840774 -0.00013378639947286188 0 -0.0081341981733962319 3.3531096913032435e-07 0 -0.007858683985442547 -0.00026315853287598139 0 -0.007962071027800461 -0.0004131909101913797 0 -0.0081379513805198839 -1.3981784015860744e-07 0 -0.0093146070235807371 -2.4031907079483673e-05 0 -0.0095755727748756819 -8.2344787740949306e-08 0 -0.0077174621063236144 -0.00029203058370205081 0 -0.007858683985442547 -0.00026315853287598139 0 -0.0078117241519296372 -0.00043310222257474503 0 -0.0078117241519296372 -0.00043310222257474503 0 -0.007962071027800461 -0.0004131909101913797 0 -0.0078342803051712779 -0.00053238291536535109 0 -0.007858683985442547 -0.00026315853287598139 0 -0.0078117241519296372 -0.00043310222257474503 0 -0.007962071027800461 -0.0004131909101913797 0 -0.0086525020669840774 -0.00013378639947286188 0 -0.0092529220915955075 -0.00033398532226747298 0 -0.007962071027800461 -0.0004131909101913797 0 -0.0078342803051712779 -0.00053238291536535109 0 -0.0078769683894886113 -0.0006997530266184144 0 -0.0093146070235807371 -2.4031907079483673e-05 0 -0.0095755727748756819 -8.2344787740949306e-08 0 -0.010394854391979685 1.486004910646276e-06 0 -0.011210305324945024 0.00041180861837392135 0 -0.013071771486302203 0.00058408238400938742 0 -0.014314408154724748 0.0012208637297550708 0 -0.014241945553909306 0.0009968964172298513 0 -0.014408574507965878 0.00082350258659102547 0 -0.011560549792101114 0.0004161777533498667 0 -0.011577257524926395 0.00038126694973901986 0 -0.011599331952734703 0.00028244826209048438 0 -0.010269700553609049 0.00013453759578431251 0 -0.0099333269619588452 -0.0001703571913494943 0 -0.0078769683894886113 -0.0006997530266184144 0 -0.0076968342776135446 -0.00051468661043707251 0 -0.0078542171617221913 -0.00082255415408065652 0 -0.011577257524926395 0.00038126694973901986 0 -0.011599331952734703 0.00028244826209048438 0 -0.011652178892237162 0.00022901272917744605 0 -0.014314408154724748 0.0012208637297550708 0 -0.014241945553909306 0.0009968964172298513 0 -0.014154962824897532 0.0011452268674941807 0 -0.011210305324945024 0.00041180861837392135 0 -0.010269700553609049 0.00013453759578431251 0 -0.0078342803051712779 -0.00053238291536535109 0 -0.0078769683894886113 -0.0006997530266184144 0 -0.0076968342776135446 -0.00051468661043707251 0 -0.0078117241519296372 -0.00043310222257474503 0 -0.0078342803051712779 -0.00053238291536535109 0 -0.0076968342776135446 -0.00051468661043707251 0 -0.014241945553909306 0.0009968964172298513 0 -0.014222022326613957 0.00083005499412369817 0 -0.014408574507965878 0.00082350258659102547 0 -0.013071771486302203 0.00058408238400938742 0 -0.012924395962500668 0.00028922149197478669 0 -0.014408574507965878 0.00082350258659102547 0 -0.014251822608889519 0.00062192452328978915 0 -0.014476223086367578 0.00045474066826234105 0 -0.011599331952734703 0.00028244826209048438 0 -0.011652178892237162 0.00022901272917744605 0 -0.01164077547878924 0.00015088222185968844 0 -0.014222022326613957 0.00083005499412369817 0 -0.014408574507965878 0.00082350258659102547 0 -0.014251822608889519 0.00062192452328978915 0 -0.0099333269619588452 -0.0001703571913494943 0 -0.012924395962500668 0.00028922149197478669 0 -0.010394854391979685 1.486004910646276e-06 0 -0.010808092366887507 9.5952283494827472e-06 0 -0.011012934874538343 2.2276635958771498e-07 0 -0.010808092366887507 9.5952283494827472e-06 0 -0.011012934874538343 2.2276635958771498e-07 0 -0.011231233552045814 3.7354286385901195e-05 0 -0.0095755727748756819 -8.2344787740949306e-08 0 -0.010394854391979685 1.486004910646276e-06 0 -0.011012934874538343 2.2276635958771498e-07 0 -0.0092529220915955075 -0.00033398532226747298 0 -0.0099333269619588452 -0.0001703571913494943 0 -0.011012934874538343 2.2276635958771498e-07 0 -0.011231233552045814 3.7354286385901195e-05 0 -0.011742163484985102 2.4935053266226812e-05 0 -0.012924395962500668 0.00028922149197478669 0 -0.014593081020691782 0.00023085655455525606 0 -0.014476223086367578 0.00045474066826234105 0 -0.014270131678053204 0.00035121704541852671 0 -0.014341375678528426 9.4447021572763174e-05 0 -0.014251822608889519 0.00062192452328978915 0 -0.014476223086367578 0.00045474066826234105 0 -0.014270131678053204 0.00035121704541852671 0 -0.014354456911888677 0.00020889358006206932 0 -0.014341375678528426 9.4447021572763174e-05 0 -0.014377280260044008 2.7926211618734363e-05 0 -0.014270131678053204 0.00035121704541852671 0 -0.014341375678528426 9.4447021572763174e-05 0 -0.014240651904238993 0.00017992130569650962 0 -0.014341375678528426 9.4447021572763174e-05 0 -0.014232400816588546 7.6480573596607901e-05 0 -0.014240651904238993 0.00017992130569650962 0 -0.01434169680078144 4.4166953220525987e-05 0 -0.014341375678528426 9.4447021572763174e-05 0 -0.014232400816588546 7.6480573596607901e-05 0 -0.01434169680078144 4.4166953220525987e-05 0 -0.014341375678528426 9.4447021572763174e-05 0 -0.014377280260044008 2.7926211618734363e-05 0 -0.012924395962500668 0.00028922149197478669 0 -0.013332604314342671 5.4845061007955626e-05 0 -0.011231233552045814 3.7354286385901195e-05 0 -0.012268888813898723 -1.6993977804611732e-05 0 -0.011742163484985102 2.4935053266226812e-05 0 -0.011012934874538343 2.2276635958771498e-07 0 -0.01245024168386874 -9.1720443634510762e-08 0 -0.011742163484985102 2.4935053266226812e-05 0 -0.012268888813898723 -1.6993977804611732e-05 0 -0.01245024168386874 -9.1720443634510762e-08 0 -0.011742163484985102 2.4935053266226812e-05 0 -0.014340075681271063 9.767233463853762e-05 0 -0.013993545714571844 0.00021078520113778534 0 -0.014046222932940148 4.1389038520240423e-05 0 -0.014499197921208037 0.0002209550171848309 0 -0.013924808835623304 0.00021485191843958015 0 -0.014180793682311387 -4.7536789241810017e-06 0 -0.013924808835623304 0.00021485191843958015 0 -0.014232400816588546 7.6480573596607901e-05 0 -0.013924808835623304 0.00021485191843958015 0 -0.014232400816588546 7.6480573596607901e-05 0 -0.014127983552308064 0.00023411008474575685 0 -0.014270131678053204 0.00035121704541852671 0 -0.014240651904238993 0.00017992130569650962 0 -0.014127983552308064 0.00023411008474575685 0 -0.014232400816588546 7.6480573596607901e-05 0 -0.014240651904238993 0.00017992130569650962 0 -0.014127983552308064 0.00023411008474575685 0 -0.014270131678053204 0.00035121704541852671 0 -0.014127983552308064 0.00023411008474575685 0 -0.014014278634828351 0.00037377688900142096 0 -0.014270131678053204 0.00035121704541852671 0 -0.014014278634828351 0.00037377688900142096 0 -0.014031479812967745 0.00055237168589837701 0 -0.014251822608889519 0.00062192452328978915 0 -0.014270131678053204 0.00035121704541852671 0 -0.014031479812967745 0.00055237168589837701 0 -0.013924808835623304 0.00021485191843958015 0 -0.014127983552308064 0.00023411008474575685 0 -0.014014278634828351 0.00037377688900142096 0 -0.014014278634828351 0.00037377688900142096 0 -0.013829737354310426 0.00044737006640888484 0 -0.014031479812967745 0.00055237168589837701 0 -0.013924808835623304 0.00021485191843958015 0 -0.014014278634828351 0.00037377688900142096 0 -0.013829737354310426 0.00044737006640888484 0 -0.013924808835623304 0.00021485191843958015 0 -0.013829737354310426 0.00044737006640888484 0 -0.013623124174068024 0.00038984274356955819 0 -0.013829737354310426 0.00044737006640888484 0 -0.013825832563978882 0.00064392204384697857 0 -0.013550969913194943 0.00057778921132392407 0 -0.013825832563978882 0.00064392204384697857 0 -0.013543772812595554 0.00081314716046130664 0 -0.013550969913194943 0.00057778921132392407 0 -0.013829737354310426 0.00044737006640888484 0 -0.013825832563978882 0.00064392204384697857 0 -0.014031479812967745 0.00055237168589837701 0 -0.013825832563978882 0.00064392204384697857 0 -0.014042366358644391 0.00074559606498473174 0 -0.013791995784433615 0.0008792806985662685 0 -0.013825832563978882 0.00064392204384697857 0 -0.013791995784433615 0.0008792806985662685 0 -0.013543772812595554 0.00081314716046130664 0 -0.014251822608889519 0.00062192452328978915 0 -0.014031479812967745 0.00055237168589837701 0 -0.014042366358644391 0.00074559606498473174 0 -0.013825832563978882 0.00064392204384697857 0 -0.014031479812967745 0.00055237168589837701 0 -0.014042366358644391 0.00074559606498473174 0 -0.014222022326613957 0.00083005499412369817 0 -0.014042366358644391 0.00074559606498473174 0 -0.014102050145762431 0.00096981837374019927 0 -0.014222022326613957 0.00083005499412369817 0 -0.014251822608889519 0.00062192452328978915 0 -0.014042366358644391 0.00074559606498473174 0 -0.014102050145762431 0.00096981837374019927 0 -0.013876950944922769 0.0011826008628992636 0 -0.013791995784433615 0.0008792806985662685 0 -0.014042366358644391 0.00074559606498473174 0 -0.014102050145762431 0.00096981837374019927 0 -0.013791995784433615 0.0008792806985662685 0 -0.014241945553909306 0.0009968964172298513 0 -0.014222022326613957 0.00083005499412369817 0 -0.014102050145762431 0.00096981837374019927 0 -0.014241945553909306 0.0009968964172298513 0 -0.014102050145762431 0.00096981837374019927 0 -0.014154962824897532 0.0011452268674941807 0 -0.014102050145762431 0.00096981837374019927 0 -0.013876950944922769 0.0011826008628992636 0 -0.014154962824897532 0.0011452268674941807 0 -0.013876950944922769 0.0011826008628992636 0 -0.013791995784433615 0.0008792806985662685 0 -0.013405931089844413 0.0010494417818365067 0 -0.013791995784433615 0.0008792806985662685 0 -0.013405931089844413 0.0010494417818365067 0 -0.013543772812595554 0.00081314716046130664 0 -0.013405931089844413 0.0010494417818365067 0 -0.012891027206696175 0.00095363472617365135 0 -0.013253896133699993 0.0007442096486247389 0 -0.013405931089844413 0.0010494417818365067 0 -0.012891027206696175 0.00095363472617365135 0 -0.013120704215713049 0.0013714833294707421 0 -0.013405931089844413 0.0010494417818365067 0 -0.013543772812595554 0.00081314716046130664 0 -0.013253896133699993 0.0007442096486247389 0 -0.012891027206696175 0.00095363472617365135 0 -0.012846447495052201 0.0005923987751338067 0 -0.013253896133699993 0.0007442096486247389 0 -0.012891027206696175 0.00095363472617365135 0 -0.012846447495052201 0.0005923987751338067 0 -0.012568760216634162 0.00076530155740204002 0 -0.012846447495052201 0.0005923987751338067 0 -0.013253896133699993 0.0007442096486247389 0 -0.013276893777958721 0.00047643919277343122 0 -0.013543772812595554 0.00081314716046130664 0 -0.013253896133699993 0.0007442096486247389 0 -0.013550969913194943 0.00057778921132392407 0 -0.013253896133699993 0.0007442096486247389 0 -0.013550969913194943 0.00057778921132392407 0 -0.013276893777958721 0.00047643919277343122 0 -0.013550969913194943 0.00057778921132392407 0 -0.013623124174068024 0.00038984274356955819 0 -0.013276893777958721 0.00047643919277343122 0 -0.013829737354310426 0.00044737006640888484 0 -0.013550969913194943 0.00057778921132392407 0 -0.013623124174068024 0.00038984274356955819 0 -0.013623124174068024 0.00038984274356955819 0 -0.013276893777958721 0.00047643919277343122 0 -0.013504361054316748 0.00024235266990262368 0 -0.012846447495052201 0.0005923987751338067 0 -0.013276893777958721 0.00047643919277343122 0 -0.013018141384846367 0.00033404491664884209 0 -0.012846447495052201 0.0005923987751338067 0 -0.013018141384846367 0.00033404491664884209 0 -0.012617413838952457 0.0003679260649490659 0 -0.013018141384846367 0.00033404491664884209 0 -0.012817596027719593 0.00012707702994936912 0 -0.012617413838952457 0.0003679260649490659 0 -0.013276893777958721 0.00047643919277343122 0 -0.013018141384846367 0.00033404491664884209 0 -0.013504361054316748 0.00024235266990262368 0 -0.013168437582511499 0.0001242938264573539 0 -0.013425061853931275 3.8381821365376278e-05 0 -0.013504361054316748 0.00024235266990262368 0 -0.013018141384846367 0.00033404491664884209 0 -0.013168437582511499 0.0001242938264573539 0 -0.013504361054316748 0.00024235266990262368 0 -0.013018141384846367 0.00033404491664884209 0 -0.013168437582511499 0.0001242938264573539 0 -0.012817596027719593 0.00012707702994936912 0 -0.013048975198238673 -9.6976760251145134e-05 0 -0.013168437582511499 0.0001242938264573539 0 -0.012817596027719593 0.00012707702994936912 0 -0.013048975198238673 -9.6976760251145134e-05 0 -0.012817596027719593 0.00012707702994936912 0 -0.012717259861509886 -0.00012914224061674642 0 -0.013048975198238673 -9.6976760251145134e-05 0 -0.013168437582511499 0.0001242938264573539 0 -0.013425061853931275 3.8381821365376278e-05 0 -0.014046222932940148 4.1389038520240423e-05 0 -0.013425061853931275 3.8381821365376278e-05 0 -0.013504361054316748 0.00024235266990262368 0 -0.014046222932940148 4.1389038520240423e-05 0 -0.013924808835623304 0.00021485191843958015 0 -0.013504361054316748 0.00024235266990262368 0 -0.013924808835623304 0.00021485191843958015 0 -0.013623124174068024 0.00038984274356955819 0 -0.013504361054316748 0.00024235266990262368 0 -0.012282649953045987 0.00014641113562175647 0 -0.012148589751539044 -0.00010368313785685897 0 -0.011889409320144888 3.0259716647747652e-05 0 -0.01193677104115244 -0.00026237181221571278 0 -0.012148589751539044 -0.00010368313785685897 0 -0.011889409320144888 3.0259716647747652e-05 0 -0.012282649953045987 0.00014641113562175647 0 -0.012148589751539044 -0.00010368313785685897 0 -0.01244299042880059 -9.1422485161952706e-05 0 -0.012817596027719593 0.00012707702994936912 0 -0.012282649953045987 0.00014641113562175647 0 -0.01244299042880059 -9.1422485161952706e-05 0 -0.012817596027719593 0.00012707702994936912 0 -0.01244299042880059 -9.1422485161952706e-05 0 -0.012717259861509886 -0.00012914224061674642 0 -0.012817596027719593 0.00012707702994936912 0 -0.012282649953045987 0.00014641113562175647 0 -0.012617413838952457 0.0003679260649490659 0 -0.012282649953045987 0.00014641113562175647 0 -0.012617413838952457 0.0003679260649490659 0 -0.012247737511620215 0.0004157228692421348 0 -0.012617413838952457 0.0003679260649490659 0 -0.012247737511620215 0.0004157228692421348 0 -0.012504799736017633 0.00056392748615549421 0 -0.012282649953045987 0.00014641113562175647 0 -0.011895399099516172 0.00027381072829219818 0 -0.011889409320144888 3.0259716647747652e-05 0 -0.012282649953045987 0.00014641113562175647 0 -0.012247737511620215 0.0004157228692421348 0 -0.011895399099516172 0.00027381072829219818 0 -0.012247737511620215 0.0004157228692421348 0 -0.011895399099516172 0.00027381072829219818 0 -0.011873181510123976 0.00053580731926842551 0 -0.012247737511620215 0.0004157228692421348 0 -0.011873181510123976 0.00053580731926842551 0 -0.012216327121110015 0.00071208764577158641 0 -0.011873181510123976 0.00053580731926842551 0 -0.012216327121110015 0.00071208764577158641 0 -0.011814526705607464 0.00078519845968961968 0 -0.012846447495052201 0.0005923987751338067 0 -0.012617413838952457 0.0003679260649490659 0 -0.012504799736017633 0.00056392748615549421 0 -0.012846447495052201 0.0005923987751338067 0 -0.012504799736017633 0.00056392748615549421 0 -0.012568760216634162 0.00076530155740204002 0 -0.012247737511620215 0.0004157228692421348 0 -0.012216327121110015 0.00071208764577158641 0 -0.012504799736017633 0.00056392748615549421 0 -0.012216327121110015 0.00071208764577158641 0 -0.012504799736017633 0.00056392748615549421 0 -0.012568760216634162 0.00076530155740204002 0 -0.012489518891039001 0.00098613145463470478 0 -0.012108128538991953 0.0010820753227621077 0 -0.01265676444671178 0.0012774885393842684 0 -0.012216327121110015 0.00071208764577158641 0 -0.012489518891039001 0.00098613145463470478 0 -0.012108128538991953 0.0010820753227621077 0 -0.012891027206696175 0.00095363472617365135 0 -0.012568760216634162 0.00076530155740204002 0 -0.012489518891039001 0.00098613145463470478 0 -0.012216327121110015 0.00071208764577158641 0 -0.012568760216634162 0.00076530155740204002 0 -0.012489518891039001 0.00098613145463470478 0 -0.012891027206696175 0.00095363472617365135 0 -0.012489518891039001 0.00098613145463470478 0 -0.01265676444671178 0.0012774885393842684 0 -0.011814526705607464 0.00078519845968961968 0 -0.012108128538991953 0.0010820753227621077 0 -0.011434497836767827 0.0010345819317389095 0 -0.012216327121110015 0.00071208764577158641 0 -0.011814526705607464 0.00078519845968961968 0 -0.012108128538991953 0.0010820753227621077 0 -0.012108128538991953 0.0010820753227621077 0 -0.011832151294774718 0.0014263646617028907 0 -0.011434497836767827 0.0010345819317389095 0 -0.012108128538991953 0.0010820753227621077 0 -0.011832151294774718 0.0014263646617028907 0 -0.012282887438039477 0.0014705489443055794 0 -0.010519836892669613 0.0014244381245990651 0 -0.010327665558621532 0.0013629582490475218 0 -0.011832151294774718 0.0014263646617028907 0 -0.012054208732195891 0.0018987117136905066 0 -0.011254752636136621 0.0017055976169040349 0 -0.011832151294774718 0.0014263646617028907 0 -0.012054208732195891 0.0018987117136905066 0 -0.012282887438039477 0.0014705489443055794 0 -0.010519836892669613 0.0014244381245990651 0 -0.010896202251431389 0.0014331850128868069 0 -0.012054208732195891 0.0018987117136905066 0 -0.012282887438039477 0.0014705489443055794 0 -0.012705249034429903 0.0017138213724911503 0 -0.012054208732195891 0.0018987117136905066 0 -0.012705249034429903 0.0017138213724911503 0 -0.012741850730530481 0.0019751643385159385 0 -0.012108128538991953 0.0010820753227621077 0 -0.012282887438039477 0.0014705489443055794 0 -0.01265676444671178 0.0012774885393842684 0 -0.012282887438039477 0.0014705489443055794 0 -0.01265676444671178 0.0012774885393842684 0 -0.012705249034429903 0.0017138213724911503 0 -0.01265676444671178 0.0012774885393842684 0 -0.012853130229709173 0.00147930923880777 0 -0.013120704215713049 0.0013714833294707421 0 -0.01265676444671178 0.0012774885393842684 0 -0.012853130229709173 0.00147930923880777 0 -0.012705249034429903 0.0017138213724911503 0 -0.012891027206696175 0.00095363472617365135 0 -0.01265676444671178 0.0012774885393842684 0 -0.013120704215713049 0.0013714833294707421 0 -0.012853130229709173 0.00147930923880777 0 -0.013120704215713049 0.0013714833294707421 0 -0.013023016030915128 0.0016919211651396349 0 -0.013625470050094238 0.0013689175022095102 0 -0.013120704215713049 0.0013714833294707421 0 -0.013377500169829687 0.0016783454478669522 0 -0.013625470050094238 0.0013689175022095102 0 -0.013405931089844413 0.0010494417818365067 0 -0.013120704215713049 0.0013714833294707421 0 -0.013752400807453309 0.0020124349481114752 0 -0.013377500169829687 0.0016783454478669522 0 -0.01326503199203239 0.0019798093425354699 0 -0.013120704215713049 0.0013714833294707421 0 -0.013377500169829687 0.0016783454478669522 0 -0.013023016030915128 0.0016919211651396349 0 -0.013377500169829687 0.0016783454478669522 0 -0.013023016030915128 0.0016919211651396349 0 -0.01326503199203239 0.0019798093425354699 0 -0.013023016030915128 0.0016919211651396349 0 -0.01274534103159033 0.0019497119733560134 0 -0.01326503199203239 0.0019798093425354699 0 -0.010896202251431389 0.0014331850128868069 0 -0.011500780102678122 0.0017753562067120087 0 -0.012853130229709173 0.00147930923880777 0 -0.012705249034429903 0.0017138213724911503 0 -0.013023016030915128 0.0016919211651396349 0 -0.012705249034429903 0.0017138213724911503 0 -0.013023016030915128 0.0016919211651396349 0 -0.01274534103159033 0.0019497119733560134 0 -0.01188179374372972 0.0019444417101630975 0 -0.010896202251431389 0.0014331850128868069 0 -0.0087904293356958312 0.00090376814979642667 0 -0.0087508432248450778 0.00061339116824428712 0 -0.0089139975543619122 0.00075672410089272979 0 -0.010035157077210533 0.0015585720261176231 0 -0.0096982507410562791 0.0015331909616650302 0 -0.0099467385493292662 0.0011344138675620178 0 -0.010896202251431389 0.0014331850128868069 0 -0.0092087975721652192 0.00077474457015993842 0 -0.0096982507410562791 0.0015331909616650302 0 -0.009550315808894809 0.0012374410926218934 0 -0.0099467385493292662 0.0011344138675620178 0 -0.009550315808894809 0.0012374410926218934 0 -0.0099467385493292662 0.0011344138675620178 0 -0.0095408629272522028 0.00091614675619296529 0 -0.0087508432248450778 0.00061339116824428712 0 -0.0089511997338626685 0.00058285779846737305 0 -0.0089139975543619122 0.00075672410089272979 0 -0.0087508432248450778 0.00061339116824428712 0 -0.0089511997338626685 0.00058285779846737305 0 -0.0089178433982892054 0.00046033179342274967 0 -0.0089511997338626685 0.00058285779846737305 0 -0.0090538663553007808 0.00069847120063280474 0 -0.0089139975543619122 0.00075672410089272979 0 -0.009137285463531224 0.00050023381778213606 0 -0.0090538663553007808 0.00069847120063280474 0 -0.0092517790871443854 0.00072492652618659557 0 -0.0089511997338626685 0.00058285779846737305 0 -0.009137285463531224 0.00050023381778213606 0 -0.0090538663553007808 0.00069847120063280474 0 -0.0090268315347190094 0.00095299961169438433 0 -0.0090538663553007808 0.00069847120063280474 0 -0.0092517790871443854 0.00072492652618659557 0 -0.0090268315347190094 0.00095299961169438433 0 -0.0090538663553007808 0.00069847120063280474 0 -0.0089139975543619122 0.00075672410089272979 0 -0.0090268315347190094 0.00095299961169438433 0 -0.0087904293356958312 0.00090376814979642667 0 -0.0089139975543619122 0.00075672410089272979 0 -0.0096128156095320258 0.00074444332255485274 0 -0.0092517790871443854 0.00072492652618659557 0 -0.0093429631917108756 0.0010662305349793235 0 -0.0090268315347190094 0.00095299961169438433 0 -0.0092517790871443854 0.00072492652618659557 0 -0.0093429631917108756 0.0010662305349793235 0 -0.0096128156095320258 0.00074444332255485274 0 -0.0092517790871443854 0.00072492652618659557 0 -0.0093624402111510269 0.00048691361997224889 0 -0.009137285463531224 0.00050023381778213606 0 -0.0092517790871443854 0.00072492652618659557 0 -0.0093624402111510269 0.00048691361997224889 0 -0.0093624402111510269 0.00048691361997224889 0 -0.0095958969062909117 0.00055379270428627611 0 -0.0093959262838771082 0.00037570617355230161 0 -0.0096128156095320258 0.00074444332255485274 0 -0.0093624402111510269 0.00048691361997224889 0 -0.0095958969062909117 0.00055379270428627611 0 -0.0095958969062909117 0.00055379270428627611 0 -0.0097053571030293866 0.00057480647055868563 0 -0.0099302429591630326 0.00082304283297433335 0 -0.0095958969062909117 0.00055379270428627611 0 -0.0097053571030293866 0.00057480647055868563 0 -0.0094725694960373016 0.00039234160743203722 0 -0.0097053571030293866 0.00057480647055868563 0 -0.0099130209035982568 0.00071749345704441982 0 -0.0097177853928162982 0.00052636858086264914 0 -0.0097053571030293866 0.00057480647055868563 0 -0.0097177853928162982 0.00052636858086264914 0 -0.0095046783137020929 0.0003926329054467393 0 -0.0097053571030293866 0.00057480647055868563 0 -0.0095046783137020929 0.0003926329054467393 0 -0.0094725694960373016 0.00039234160743203722 0 -0.0099130209035982568 0.00071749345704441982 0 -0.0099302429591630326 0.00082304283297433335 0 -0.010153168410695742 0.0008915813690109659 0 -0.0097053571030293866 0.00057480647055868563 0 -0.0099130209035982568 0.00071749345704441982 0 -0.0099302429591630326 0.00082304283297433335 0 -0.0096128156095320258 0.00074444332255485274 0 -0.0099302429591630326 0.00082304283297433335 0 -0.010151833849747523 0.0011704291864693978 0 -0.0096128156095320258 0.00074444332255485274 0 -0.0095958969062909117 0.00055379270428627611 0 -0.0099302429591630326 0.00082304283297433335 0 -0.0099302429591630326 0.00082304283297433335 0 -0.010151833849747523 0.0011704291864693978 0 -0.010153168410695742 0.0008915813690109659 0 -0.010153168410695742 0.0008915813690109659 0 -0.010511965798476935 0.00089026585379585845 0 -0.010417533142767667 0.0007350807363065132 0 -0.010153168410695742 0.0008915813690109659 0 -0.010417533142767667 0.0007350807363065132 0 -0.010191533801724911 0.00071143184920577265 0 -0.010151833849747523 0.0011704291864693978 0 -0.010153168410695742 0.0008915813690109659 0 -0.010511965798476935 0.00089026585379585845 0 -0.010151833849747523 0.0011704291864693978 0 -0.010511965798476935 0.00089026585379585845 0 -0.010765311944738652 0.0010616335463464273 0 -0.010765311944738652 0.0010616335463464273 0 -0.011434497836767827 0.0010345819317389095 0 -0.011019500613788379 0.00075306566544092624 0 -0.010511965798476935 0.00089026585379585845 0 -0.010765311944738652 0.0010616335463464273 0 -0.011019500613788379 0.00075306566544092624 0 -0.010151833849747523 0.0011704291864693978 0 -0.010765311944738652 0.0010616335463464273 0 -0.011254752636136621 0.0017055976169040349 0 -0.010186978068994866 0.0012245509622415436 0 -0.010327665558621532 0.0013629582490475218 0 -0.0096128156095320258 0.00074444332255485274 0 -0.010151833849747523 0.0011704291864693978 0 -0.0093429631917108756 0.0010662305349793235 0 -0.010765311944738652 0.0010616335463464273 0 -0.011254752636136621 0.0017055976169040349 0 -0.011434497836767827 0.0010345819317389095 0 -0.011832151294774718 0.0014263646617028907 0 -0.011254752636136621 0.0017055976169040349 0 -0.011434497836767827 0.0010345819317389095 0 -0.011434497836767827 0.0010345819317389095 0 -0.011019500613788379 0.00075306566544092624 0 -0.011461830339364033 0.00064272901590074836 0 -0.011814526705607464 0.00078519845968961968 0 -0.011434497836767827 0.0010345819317389095 0 -0.011461830339364033 0.00064272901590074836 0 -0.011019500613788379 0.00075306566544092624 0 -0.011120410647252697 0.00043075421502212309 0 -0.010726322527963817 0.00066849412471174327 0 -0.011019500613788379 0.00075306566544092624 0 -0.011120410647252697 0.00043075421502212309 0 -0.011461830339364033 0.00064272901590074836 0 -0.011120410647252697 0.00043075421502212309 0 -0.011461830339364033 0.00064272901590074836 0 -0.011604703112998495 0.00040673977197692654 0 -0.011873181510123976 0.00053580731926842551 0 -0.011814526705607464 0.00078519845968961968 0 -0.011461830339364033 0.00064272901590074836 0 -0.011873181510123976 0.00053580731926842551 0 -0.011461830339364033 0.00064272901590074836 0 -0.011604703112998495 0.00040673977197692654 0 -0.011895399099516172 0.00027381072829219818 0 -0.011873181510123976 0.00053580731926842551 0 -0.011604703112998495 0.00040673977197692654 0 -0.011895399099516172 0.00027381072829219818 0 -0.011523701606813423 0.00019329963072561263 0 -0.011889409320144888 3.0259716647747652e-05 0 -0.011895399099516172 0.00027381072829219818 0 -0.011523701606813423 0.00019329963072561263 0 -0.011604703112998495 0.00040673977197692654 0 -0.011120410647252697 0.00043075421502212309 0 -0.011523701606813423 0.00019329963072561263 0 -0.011304944025395438 9.4675828339412427e-05 0 -0.011120410647252697 0.00043075421502212309 0 -0.011523701606813423 0.00019329963072561263 0 -0.011604703112998495 0.00040673977197692654 0 -0.011306228818576805 -0.00016428017205895586 0 -0.011601590283054148 -9.2843925783442629e-05 0 -0.011304944025395438 9.4675828339412427e-05 0 -0.011523701606813423 0.00019329963072561263 0 -0.011601590283054148 -9.2843925783442629e-05 0 -0.011304944025395438 9.4675828339412427e-05 0 -0.01193677104115244 -0.00026237181221571278 0 -0.011601590283054148 -9.2843925783442629e-05 0 -0.011889409320144888 3.0259716647747652e-05 0 -0.011523701606813423 0.00019329963072561263 0 -0.011601590283054148 -9.2843925783442629e-05 0 -0.011889409320144888 3.0259716647747652e-05 0 -0.010882388262360258 -3.9891753576697804e-06 0 -0.010928250465483579 0.00021539103142243364 0 -0.010404760273096668 0.00041872480302004389 0 -0.011306228818576805 -0.00016428017205895586 0 -0.011304944025395438 9.4675828339412427e-05 0 -0.010928250465483579 0.00021539103142243364 0 -0.011306228818576805 -0.00016428017205895586 0 -0.010882388262360258 -3.9891753576697804e-06 0 -0.010928250465483579 0.00021539103142243364 0 -0.011120410647252697 0.00043075421502212309 0 -0.010928250465483579 0.00021539103142243364 0 -0.010630703790860245 0.00051919056530989156 0 -0.011120410647252697 0.00043075421502212309 0 -0.011304944025395438 9.4675828339412427e-05 0 -0.010928250465483579 0.00021539103142243364 0 -0.010928250465483579 0.00021539103142243364 0 -0.010630703790860245 0.00051919056530989156 0 -0.010404760273096668 0.00041872480302004389 0 -0.010630703790860245 0.00051919056530989156 0 -0.010417533142767667 0.0007350807363065132 0 -0.010311459427932695 0.00061331548803340136 0 -0.011120410647252697 0.00043075421502212309 0 -0.010630703790860245 0.00051919056530989156 0 -0.010726322527963817 0.00066849412471174327 0 -0.010511965798476935 0.00089026585379585845 0 -0.011019500613788379 0.00075306566544092624 0 -0.010726322527963817 0.00066849412471174327 0 -0.010511965798476935 0.00089026585379585845 0 -0.010726322527963817 0.00066849412471174327 0 -0.010417533142767667 0.0007350807363065132 0 -0.010630703790860245 0.00051919056530989156 0 -0.010726322527963817 0.00066849412471174327 0 -0.010417533142767667 0.0007350807363065132 0 -0.010417533142767667 0.0007350807363065132 0 -0.010311459427932695 0.00061331548803340136 0 -0.010191533801724911 0.00071143184920577265 0 -0.010311459427932695 0.00061331548803340136 0 -0.010178217468969686 0.0006248779576442763 0 -0.010191533801724911 0.00071143184920577265 0 -0.010243751912761185 0.00056894360532437659 0 -0.010311459427932695 0.00061331548803340136 0 -0.010178217468969686 0.0006248779576442763 0 -0.010243751912761185 0.00056894360532437659 0 -0.010311459427932695 0.00061331548803340136 0 -0.010404760273096668 0.00041872480302004389 0 -0.010630703790860245 0.00051919056530989156 0 -0.010311459427932695 0.00061331548803340136 0 -0.010404760273096668 0.00041872480302004389 0 -0.010404760273096668 0.00041872480302004389 0 -0.010272900452476403 0.00055121505486522887 0 -0.010247537267040578 0.00055817333733149512 0 -0.010243751912761185 0.00056894360532437659 0 -0.010404760273096668 0.00041872480302004389 0 -0.010247537267040578 0.00055817333733149512 0 -0.010450672242117941 0.00043601361637563485 0 -0.010192445997827877 0.00031164090107848989 0 -0.010404760273096668 0.00041872480302004389 0 -0.010579575314576815 2.4812072225410571e-05 0 -0.010325265812382297 4.6209600905442583e-05 0 -0.010882388262360258 -3.9891753576697804e-06 0 -0.010404760273096668 0.00041872480302004389 0 -0.010579575314576815 2.4812072225410571e-05 0 -0.010266744768235676 0.00059516689033429864 0 -0.010272880023045512 0.00059595395134795894 0 -0.010265338758027407 0.00057647324368102662 0 -0.010266744768235676 0.00059516689033429864 0 -0.010279738966703542 0.00062398189164570715 0 -0.010264169765386038 0.00061940133919720591 0 -0.010281200686759345 0.00061273189545453966 0 -0.010279738966703542 0.00062398189164570715 0 -0.010272880023045512 0.00059595395134795894 0 -0.010281200686759345 0.00061273189545453966 0 -0.010279738966703542 0.00062398189164570715 0 -0.010285653596589976 0.00062845160808170264 0 -0.010266744768235676 0.00059516689033429864 0 -0.010279738966703542 0.00062398189164570715 0 -0.010272880023045512 0.00059595395134795894 0 -0.010272900452476403 0.00055121505486522887 0 -0.010265338758027407 0.00057647324368102662 0 -0.010247537267040578 0.00055817333733149512 0 -0.010275882590073929 0.00059327550306635917 0 -0.010272880023045512 0.00059595395134795894 0 -0.010272900452476403 0.00055121505486522887 0 -0.010272880023045512 0.00059595395134795894 0 -0.010272900452476403 0.00055121505486522887 0 -0.010265338758027407 0.00057647324368102662 0 -0.010266744768235676 0.00059516689033429864 0 -0.010265338758027407 0.00057647324368102662 0 -0.010247537267040578 0.00055817333733149512 0 -0.010264169765386038 0.00061940133919720591 0 -0.010212915809961145 0.00059740051888673522 0 -0.010306020389259082 0.00065228739065014286 0 -0.010247537267040578 0.00055817333733149512 0 -0.010264169765386038 0.00061940133919720591 0 -0.010212915809961145 0.00059740051888673522 0 -0.010266744768235676 0.00059516689033429864 0 -0.010247537267040578 0.00055817333733149512 0 -0.010264169765386038 0.00061940133919720591 0 -0.010243751912761185 0.00056894360532437659 0 -0.010212915809961145 0.00059740051888673522 0 -0.010178217468969686 0.0006248779576442763 0 -0.010243751912761185 0.00056894360532437659 0 -0.010247537267040578 0.00055817333733149512 0 -0.010212915809961145 0.00059740051888673522 0 -0.010212915809961145 0.00059740051888673522 0 -0.010178217468969686 0.0006248779576442763 0 -0.010165103673081448 0.00056420888539430688 0 -0.010212915809961145 0.00059740051888673522 0 -0.010165103673081448 0.00056420888539430688 0 -0.010249827535572251 0.00057900377738529657 0 -0.010150731399246932 0.00047735741887605437 0 -0.010086585839026401 0.00058211902510151188 0 -0.010096801238657376 0.0004455353701831072 0 -0.010165103673081448 0.00056420888539430688 0 -0.010150731399246932 0.00047735741887605437 0 -0.010086585839026401 0.00058211902510151188 0 -0.010178217468969686 0.0006248779576442763 0 -0.010165103673081448 0.00056420888539430688 0 -0.010120180727010005 0.00064831201157953611 0 -0.010165103673081448 0.00056420888539430688 0 -0.010086585839026401 0.00058211902510151188 0 -0.010120180727010005 0.00064831201157953611 0 -0.010120180727010005 0.00064831201157953611 0 -0.010191533801724911 0.00071143184920577265 0 -0.010065009396688271 0.00072118027305726091 0 -0.010178217468969686 0.0006248779576442763 0 -0.010120180727010005 0.00064831201157953611 0 -0.010191533801724911 0.00071143184920577265 0 -0.010153168410695742 0.0008915813690109659 0 -0.010191533801724911 0.00071143184920577265 0 -0.010065009396688271 0.00072118027305726091 0 -0.0099130209035982568 0.00071749345704441982 0 -0.010153168410695742 0.0008915813690109659 0 -0.010065009396688271 0.00072118027305726091 0 -0.010086585839026401 0.00058211902510151188 0 -0.010120180727010005 0.00064831201157953611 0 -0.010065009396688271 0.00072118027305726091 0 -0.010086585839026401 0.00058211902510151188 0 -0.010065009396688271 0.00072118027305726091 0 -0.0099544839745496477 0.00062662968747341529 0 -0.0099544839745496477 0.00062662968747341529 0 -0.0098703228000859792 0.00050311448794040676 0 -0.010002804065033405 0.00052908798106774855 0 -0.0099130209035982568 0.00071749345704441982 0 -0.010065009396688271 0.00072118027305726091 0 -0.0099544839745496477 0.00062662968747341529 0 -0.0099130209035982568 0.00071749345704441982 0 -0.0099544839745496477 0.00062662968747341529 0 -0.0097177853928162982 0.00052636858086264914 0 -0.0099544839745496477 0.00062662968747341529 0 -0.0097177853928162982 0.00052636858086264914 0 -0.0098703228000859792 0.00050311448794040676 0 -0.0097177853928162982 0.00052636858086264914 0 -0.0098703228000859792 0.00050311448794040676 0 -0.0096756459740540285 0.00042686475934767659 0 -0.0098703228000859792 0.00050311448794040676 0 -0.0099932624143623302 0.0004446854986128518 0 -0.0098716057024048481 0.00035542273065047533 0 -0.0098703228000859792 0.00050311448794040676 0 -0.0099932624143623302 0.0004446854986128518 0 -0.010002804065033405 0.00052908798106774855 0 -0.0099932624143623302 0.0004446854986128518 0 -0.010096801238657376 0.0004455353701831072 0 -0.01006279597489158 0.00036095149839917705 0 -0.010086585839026401 0.00058211902510151188 0 -0.0099544839745496477 0.00062662968747341529 0 -0.010002804065033405 0.00052908798106774855 0 -0.010086585839026401 0.00058211902510151188 0 -0.010096801238657376 0.0004455353701831072 0 -0.010002804065033405 0.00052908798106774855 0 -0.0099932624143623302 0.0004446854986128518 0 -0.010096801238657376 0.0004455353701831072 0 -0.010002804065033405 0.00052908798106774855 0 -0.0099015716297609045 0.00017779630322847367 0 -0.0098716057024048481 0.00035542273065047533 0 -0.009595205323781596 0.00018990493310093971 0 -0.0099015716297609045 0.00017779630322847367 0 -0.010039340874367159 0.00025515091380496995 0 -0.0098716057024048481 0.00035542273065047533 0 -0.010039340874367159 0.00025515091380496995 0 -0.01006279597489158 0.00036095149839917705 0 -0.0098716057024048481 0.00035542273065047533 0 -0.0099932624143623302 0.0004446854986128518 0 -0.01006279597489158 0.00036095149839917705 0 -0.0098716057024048481 0.00035542273065047533 0 -0.0098703228000859792 0.00050311448794040676 0 -0.0098716057024048481 0.00035542273065047533 0 -0.0096756459740540285 0.00042686475934767659 0 -0.0098716057024048481 0.00035542273065047533 0 -0.0096756459740540285 0.00042686475934767659 0 -0.0094838993088447957 0.00028990183213014524 0 -0.0097177853928162982 0.00052636858086264914 0 -0.0095257819905761494 0.00038310523478301303 0 -0.0095046783137020929 0.0003926329054467393 0 -0.0097177853928162982 0.00052636858086264914 0 -0.0096756459740540285 0.00042686475934767659 0 -0.0095257819905761494 0.00038310523478301303 0 -0.0096756459740540285 0.00042686475934767659 0 -0.0095257819905761494 0.00038310523478301303 0 -0.0094838993088447957 0.00028990183213014524 0 -0.0095257819905761494 0.00038310523478301303 0 -0.0092682167383287446 0.00022010626507738037 0 -0.0094838993088447957 0.00028990183213014524 0 -0.0095257819905761494 0.00038310523478301303 0 -0.0092682167383287446 0.00022010626507738037 0 -0.0095046783137020929 0.0003926329054467393 0 -0.0092682167383287446 0.00022010626507738037 0 -0.0091810836826041638 0.00011617754734092665 0 -0.0094838993088447957 0.00028990183213014524 0 -0.0092682167383287446 0.00022010626507738037 0 -0.0091810836826041638 0.00011617754734092665 0 -0.0089559243388979103 1.3881268922660824e-05 0 -0.0098716057024048481 0.00035542273065047533 0 -0.0094838993088447957 0.00028990183213014524 0 -0.009595205323781596 0.00018990493310093971 0 -0.0091810836826041638 0.00011617754734092665 0 -0.0094838993088447957 0.00028990183213014524 0 -0.009595205323781596 0.00018990493310093971 0 -0.0091810836826041638 0.00011617754734092665 0 -0.009595205323781596 0.00018990493310093971 0 -0.009426133518210731 -3.3900747602234138e-05 0 -0.0099015716297609045 0.00017779630322847367 0 -0.009595205323781596 0.00018990493310093971 0 -0.009426133518210731 -3.3900747602234138e-05 0 -0.008590722167916065 -0.00024172143300274884 0 -0.0075005935221196902 -4.9005029626152432e-05 0 -0.0064190221537300243 -0.00028016406070250103 0 -0.009426133518210731 -3.3900747602234138e-05 0 -0.008590722167916065 -0.00024172143300274884 0 -0.0098330716461337529 -0.00060494344263959472 0 -0.0085350901134612703 -0.00027725277493938341 0 -0.0080586200546158542 -0.00043822401987359086 0 -0.0091810836826041638 0.00011617754734092665 0 -0.009426133518210731 -3.3900747602234138e-05 0 -0.008590722167916065 -0.00024172143300274884 0 -0.0089559243388979103 1.3881268922660824e-05 0 -0.008590722167916065 -0.00024172143300274884 0 -0.008674861942563325 -3.0883125876451768e-05 0 -0.0091810836826041638 0.00011617754734092665 0 -0.0089559243388979103 1.3881268922660824e-05 0 -0.008590722167916065 -0.00024172143300274884 0 -0.008590722167916065 -0.00024172143300274884 0 -0.0081896760024984545 7.6464560959385935e-05 0 -0.0079762710230353237 2.3746093563815207e-05 0 -0.008590722167916065 -0.00024172143300274884 0 -0.0079762710230353237 2.3746093563815207e-05 0 -0.0075005935221196902 -4.9005029626152432e-05 0 -0.008590722167916065 -0.00024172143300274884 0 -0.008674861942563325 -3.0883125876451768e-05 0 -0.0081896760024984545 7.6464560959385935e-05 0 -0.008674861942563325 -3.0883125876451768e-05 0 -0.0081896760024984545 7.6464560959385935e-05 0 -0.0080012685097127275 0.00030833057775948733 0 -0.0081896760024984545 7.6464560959385935e-05 0 -0.0079762710230353237 2.3746093563815207e-05 0 -0.0076405213053714963 0.00029518148614929556 0 -0.0081896760024984545 7.6464560959385935e-05 0 -0.0076405213053714963 0.00029518148614929556 0 -0.0080012685097127275 0.00030833057775948733 0 -0.0075005935221196902 -4.9005029626152432e-05 0 -0.0070177594358413163 0.00026538260735702892 0 -0.0064190221537300243 -0.00028016406070250103 0 -0.0079762710230353237 2.3746093563815207e-05 0 -0.0076405213053714963 0.00029518148614929556 0 -0.0075005935221196902 -4.9005029626152432e-05 0 -0.0076405213053714963 0.00029518148614929556 0 -0.0075005935221196902 -4.9005029626152432e-05 0 -0.0070177594358413163 0.00026538260735702892 0 -0.0064190221537300243 -0.00028016406070250103 0 -0.0054735497542356924 9.2849514810488271e-05 0 -0.0063814502644106421 0.00029936936398725495 0 -0.0070177594358413163 0.00026538260735702892 0 -0.0064190221537300243 -0.00028016406070250103 0 -0.0063814502644106421 0.00029936936398725495 0 -0.0099015716297609045 0.00017779630322847367 0 -0.0098330716461337529 -0.00060494344263959472 0 -0.010280780705206808 -0.00038365463739762587 0 -0.0099015716297609045 0.00017779630322847367 0 -0.009426133518210731 -3.3900747602234138e-05 0 -0.0098330716461337529 -0.00060494344263959472 0 -0.0098716196220749643 0.00023744573951673049 0 -0.010319779141911624 -0.00023906643176879386 0 -0.0099015716297609045 0.00017779630322847367 0 -0.010039340874367159 0.00025515091380496995 0 -0.010019621782116992 0.00023761223510499705 0 -0.010039340874367159 0.00025515091380496995 0 -0.010019621782116992 0.00023761223510499705 0 -0.010035682017816093 0.00027524658367581356 0 -0.0057543868815724082 0.00015683404221874254 0 -0.0065062280475079578 0.00066395448101759047 0 -0.0054735497542356924 9.2849514810488271e-05 0 -0.0063814502644106421 0.00029936936398725495 0 -0.0053670750121462187 0.00023543061175606355 0 -0.0080586200546158542 -0.00043822401987359086 0 -0.0084136651260599271 -1.5288060734962632e-05 0 -0.010319779141911624 -0.00023906643176879386 0 -0.0084136651260599271 -1.5288060734962632e-05 0 -0.010019621782116992 0.00023761223510499705 0 -0.010035682017816093 0.00027524658367581356 0 -0.010038530549934865 0.00030325215826468586 0 -0.0098330716461337529 -0.00060494344263959472 0 -0.010280780705206808 -0.00038365463739762587 0 -0.010588391536353076 -0.00080566425506397709 0 -0.0056438196426876162 0.00062153622230053638 0 -0.0051292069303932467 0.00084678001873484884 0 -0.0050243926222023529 0.00017473566151784842 0 -0.0056438196426876162 0.00062153622230053638 0 -0.0063814502644106421 0.00029936936398725495 0 -0.0050243926222023529 0.00017473566151784842 0 -0.0061162848686196992 0.00069724277361845005 0 -0.0063231850067662276 0.00096108888532411927 0 -0.0068877886151952764 0.00068514900505476186 0 -0.0063814502644106421 0.00029936936398725495 0 -0.0061162848686196992 0.00069724277361845005 0 -0.0068877886151952764 0.00068514900505476186 0 -0.0056438196426876162 0.00062153622230053638 0 -0.0063814502644106421 0.00029936936398725495 0 -0.0061162848686196992 0.00069724277361845005 0 -0.0056438196426876162 0.00062153622230053638 0 -0.0061162848686196992 0.00069724277361845005 0 -0.005631839186751416 0.001083690661433016 0 -0.0061162848686196992 0.00069724277361845005 0 -0.0063231850067662276 0.00096108888532411927 0 -0.005631839186751416 0.001083690661433016 0 -0.0063231850067662276 0.00096108888532411927 0 -0.005631839186751416 0.001083690661433016 0 -0.0060161130679556333 0.0012945936998718882 0 -0.0051292069303932467 0.00084678001873484884 0 -0.005631839186751416 0.001083690661433016 0 -0.0048915073775950193 0.0014549416788506245 0 -0.0056438196426876162 0.00062153622230053638 0 -0.0051292069303932467 0.00084678001873484884 0 -0.005631839186751416 0.001083690661433016 0 -0.0055168908213429077 0.0015862214605883481 0 -0.0049099495487464227 0.0020733877467139401 0 -0.0048915073775950193 0.0014549416788506245 0 -0.005631839186751416 0.001083690661433016 0 -0.0055168908213429077 0.0015862214605883481 0 -0.0048915073775950193 0.0014549416788506245 0 -0.0055168908213429077 0.0015862214605883481 0 -0.0060161130679556333 0.0012945936998718882 0 -0.0061811291067494535 0.001546277804650916 0 -0.005631839186751416 0.001083690661433016 0 -0.0055168908213429077 0.0015862214605883481 0 -0.0060161130679556333 0.0012945936998718882 0 -0.0055168908213429077 0.0015862214605883481 0 -0.0055536687679628516 0.0019591072068664292 0 -0.0049099495487464227 0.0020733877467139401 0 -0.0055168908213429077 0.0015862214605883481 0 -0.0055536687679628516 0.0019591072068664292 0 -0.0061811291067494535 0.001546277804650916 0 -0.0064577229553351911 0.0019374782632708228 0 -0.0071740061277299622 0.0020663268171552903 0 -0.0071761661229034395 0.0017013468514499325 0 -0.0064577229553351911 0.0019374782632708228 0 -0.0070216347986533064 0.0013386530160515607 0 -0.0071761661229034395 0.0017013468514499325 0 -0.0055536687679628516 0.0019591072068664292 0 -0.0064577229553351911 0.0019374782632708228 0 -0.0061811291067494535 0.001546277804650916 0 -0.0055536687679628516 0.0019591072068664292 0 -0.0064577229553351911 0.0019374782632708228 0 -0.0058246095750476446 0.002274441501218897 0 -0.0061811291067494535 0.001546277804650916 0 -0.0070216347986533064 0.0013386530160515607 0 -0.0066088175149635027 0.0011524638370010798 0 -0.0064577229553351911 0.0019374782632708228 0 -0.0061811291067494535 0.001546277804650916 0 -0.0070216347986533064 0.0013386530160515607 0 -0.0060161130679556333 0.0012945936998718882 0 -0.0061811291067494535 0.001546277804650916 0 -0.0066088175149635027 0.0011524638370010798 0 -0.0070216347986533064 0.0013386530160515607 0 -0.0071573630552098947 0.00094736053722162305 0 -0.0074624400430373323 0.00092707899100312788 0 -0.0070216347986533064 0.0013386530160515607 0 -0.0071573630552098947 0.00094736053722162305 0 -0.0066088175149635027 0.0011524638370010798 0 -0.0071573630552098947 0.00094736053722162305 0 -0.0074624400430373323 0.00092707899100312788 0 -0.0075630613161813227 0.00063691854472597287 0 -0.0063231850067662276 0.00096108888532411927 0 -0.0066088175149635027 0.0011524638370010798 0 -0.0068877886151952764 0.00068514900505476186 0 -0.0071573630552098947 0.00094736053722162305 0 -0.0066088175149635027 0.0011524638370010798 0 -0.0068877886151952764 0.00068514900505476186 0 -0.0063231850067662276 0.00096108888532411927 0 -0.0060161130679556333 0.0012945936998718882 0 -0.0066088175149635027 0.0011524638370010798 0 -0.0076405213053714963 0.00029518148614929556 0 -0.0070177594358413163 0.00026538260735702892 0 -0.0068877886151952764 0.00068514900505476186 0 -0.0070177594358413163 0.00026538260735702892 0 -0.0063814502644106421 0.00029936936398725495 0 -0.0068877886151952764 0.00068514900505476186 0 -0.0076405213053714963 0.00029518148614929556 0 -0.0068877886151952764 0.00068514900505476186 0 -0.0075630613161813227 0.00063691854472597287 0 -0.0071573630552098947 0.00094736053722162305 0 -0.0068877886151952764 0.00068514900505476186 0 -0.0075630613161813227 0.00063691854472597287 0 -0.0076405213053714963 0.00029518148614929556 0 -0.0080012685097127275 0.00030833057775948733 0 -0.0075630613161813227 0.00063691854472597287 0 -0.0080012685097127275 0.00030833057775948733 0 -0.0075630613161813227 0.00063691854472597287 0 -0.0078547934364443413 0.0005561263126141635 0 -0.0089034204750701607 0.00040791452501972669 0 -0.0090125784827858341 0.00033984933364494173 0 -0.0089455420418510494 0.00025242429749860865 0 -0.0074624400430373323 0.00092707899100312788 0 -0.0075630613161813227 0.00063691854472597287 0 -0.0078547934364443413 0.0005561263126141635 0 -0.0090125784827858341 0.00033984933364494173 0 -0.0091672953330530233 0.00020552982555091642 0 -0.0091435311638714978 0.0002241154071459229 0 -0.0089284989306356814 0.00030037872379515024 0 -0.009349669406696173 0.00035760818462354696 0 -0.0089034204750701607 0.00040791452501972669 0 -0.0090125784827858341 0.00033984933364494173 0 -0.0089915519642520571 0.00047384082015422991 0 -0.0090125784827858341 0.00033984933364494173 0 -0.0089915519642520571 0.00047384082015422991 0 -0.009055452473415557 0.00040291979134689872 0 -0.0089915519642520571 0.00047384082015422991 0 -0.0089126159194584959 0.00057116776584476133 0 -0.009050960208623747 0.00058192853482965864 0 -0.0089034204750701607 0.00040791452501972669 0 -0.0089915519642520571 0.00047384082015422991 0 -0.0089126159194584959 0.00057116776584476133 0 -0.0083281470229296887 0.00040097350917905856 0 -0.0087949727080500265 0.00099302013783958941 0 -0.0074624400430373323 0.00092707899100312788 0 -0.0078547934364443413 0.0005561263126141635 0 -0.0077101620464544328 0.0012150909154138676 0 -0.0070216347986533064 0.0013386530160515607 0 -0.0074624400430373323 0.00092707899100312788 0 -0.0077101620464544328 0.0012150909154138676 0 -0.0077101620464544328 0.0012150909154138676 0 -0.0075277750158838719 0.001901649160971942 0 -0.0071761661229034395 0.0017013468514499325 0 -0.0070216347986533064 0.0013386530160515607 0 -0.0077101620464544328 0.0012150909154138676 0 -0.0071761661229034395 0.0017013468514499325 0 -0.0089126159194584959 0.00057116776584476133 0 -0.0089098130507796348 0.00077141823695427657 0 -0.009050960208623747 0.00058192853482965864 0 -0.0087949727080500265 0.00099302013783958941 0 -0.0048263291375432527 0.0013611554418623316 0 -0.0048263291375432527 0.0013611554418623316 0 -0.0067908685610897652 0.00056980882348252001 0 -0.0041995044481022911 0.00072711123221772553 0 -0.0041961654499763712 0.00072127398725725742 0 -0.0041162262010289727 0.00075117794341695795 0 -0.0077101620464544328 0.0012150909154138676 0 -0.0078226494764794662 0.0020141499907078719 0 -0.0075277750158838719 0.001901649160971942 0 -0.0078226494764794662 0.0020141499907078719 0 -0.0077718341065707791 0.0021233916820422053 0 -0.0075277750158838719 0.001901649160971942 0 -0.0048263291375432527 0.0013611554418623316 0 -0.0027834554309856055 0.0014956329753851385 0 -0.0048263291375432527 0.0013611554418623316 0 -0.0028401121983376897 0.0020747189033321605 0 -0.0027834554309856055 0.0014956329753851385 0 -0.0028401121983376897 0.0020747189033321605 0 -0.0043295265390134851 0.0015410641359634976 0 -0.0044694456978102131 0.0020195658127792359 0 -0.0038700847467656699 0.002329373325487365 0 -0.0077718341065707791 0.0021233916820422053 0 -0.0075277750158838719 0.001901649160971942 0 -0.0071740061277299622 0.0020663268171552903 0 -0.0075277750158838719 0.001901649160971942 0 -0.0071740061277299622 0.0020663268171552903 0 -0.0071761661229034395 0.0017013468514499325 0 0.00059955323300624631 0.0010610045696670335 0 0.00061028862660649115 0.00099862372970208426 0 0.00068476072631841261 0.0008917834842415293 0 0.00059955323300624631 0.0010610045696670335 0 0.00061028862660649115 0.00099862372970208426 0 0.00061123876042475133 0.0012098219106545986 0 -0.0041995044481022911 0.00072711123221772553 0 -0.0041162262010289727 0.00075117794341695795 0 -0.0041720104593262058 0.00081121229663411599 0 0.00086792667166593444 0.0011127206655499654 0 0.00061028862660649115 0.00099862372970208426 0 0.00061123876042475133 0.0012098219106545986 0 -0.0027834554309856055 0.0014956329753851385 0 -0.0015526156030847118 0.00084373123959001397 0 -0.0041162262010289727 0.00075117794341695795 0 -0.0041720104593262058 0.00081121229663411599 0 -0.0040857669590126378 0.00084688559619833237 0 -0.0041162262010289727 0.00075117794341695795 0 -0.0040857669590126378 0.00084688559619833237 0 -0.0039874986091603584 0.00079386359619783113 0 -0.0015526156030847118 0.00084373123959001397 0 -0.0016875554538078176 0.00081686697396419746 0 -0.0041720104593262058 0.00081121229663411599 0 -0.0040857669590126378 0.00084688559619833237 0 -0.0041264218327724689 0.00095181599176009978 0 -0.0040857669590126378 0.00084688559619833237 0 -0.0041264218327724689 0.00095181599176009978 0 -0.003959307641863816 0.00092949158700819439 0 -0.0067908685610897652 0.00056980882348252001 0 -0.0072756227427584683 0.00053161401205011809 0 -0.009050960208623747 0.00058192853482965864 0 -0.009057383322691093 0.00047148129789136451 0 -0.0091305029295598306 0.00042851465939029167 0 -0.0089915519642520571 0.00047384082015422991 0 -0.009050960208623747 0.00058192853482965864 0 -0.009057383322691093 0.00047148129789136451 0 -0.009349669406696173 0.00035760818462354696 0 -0.0072756227427584683 0.00053161401205011809 0 -0.009057383322691093 0.00047148129789136451 0 -0.009055452473415557 0.00040291979134689872 0 -0.0091305029295598306 0.00042851465939029167 0 -0.0090614172310432648 0.00023011887398137679 0 -0.0091672953330530233 0.00020552982555091642 0 -0.0088880160968895523 -6.7401369686287971e-05 0 -0.0089915519642520571 0.00047384082015422991 0 -0.009057383322691093 0.00047148129789136451 0 -0.009055452473415557 0.00040291979134689872 0 -0.0090614172310432648 0.00023011887398137679 0 -0.0091672953330530233 0.00020552982555091642 0 -0.0091435311638714978 0.0002241154071459229 0 -0.0090614172310432648 0.00023011887398137679 0 -0.0088880160968895523 -6.7401369686287971e-05 0 -0.0083356584650650482 0.00050103335599042834 0 -0.008751581015022384 -0.00027521658649923899 0 -0.0083356584650650482 0.00050103335599042834 0 -0.00808034634175917 1.7489782831359183e-05 0 -0.0072756227427584683 0.00053161401205011809 0 -0.0086872601661423018 6.3557800129137142e-05 0 -0.0090614172310432648 0.00023011887398137679 0 -0.0083356584650650482 0.00050103335599042834 0 -0.0080507715805613941 0.00066568806157156653 0 -0.0090614172310432648 0.00023011887398137679 0 -0.0091049562698424825 0.00018605603036944015 0 -0.0091030962021722405 0.00015587779172920307 0 -0.0090314147484292454 0.00023202337664010163 0 -0.0085660639628547478 0.00041448207038360046 0 -0.0090614172310432648 0.00023011887398137679 0 -0.0091049562698424825 0.00018605603036944015 0 -0.0091103901725447089 0.00020402395746940585 0 -0.0091049562698424825 0.00018605603036944015 0 -0.009150363026019754 0.00018916611787479857 0 -0.0091103901725447089 0.00020402395746940585 0 -0.0091049562698424825 0.00018605603036944015 0 -0.0091096388206310837 0.00017716366902600694 0 -0.0091030962021722405 0.00015587779172920307 0 -0.0091049562698424825 0.00018605603036944015 0 -0.0091096388206310837 0.00017716366902600694 0 -0.0091270403535489812 0.00018828774763239898 0 -0.0091096388206310837 0.00017716366902600694 0 -0.0091270403535489812 0.00018828774763239898 0 -0.0091069711421637028 0.0002022048952130011 0 -0.009150363026019754 0.00018916611787479857 0 -0.0091485521048493938 0.00022277997441423673 0 -0.0092081399251811406 0.00024543070636487386 0 -0.0091049562698424825 0.00018605603036944015 0 -0.0091270403535489812 0.00018828774763239898 0 -0.009150363026019754 0.00018916611787479857 0 -0.0091270403535489812 0.00018828774763239898 0 -0.009150363026019754 0.00018916611787479857 0 -0.0091485521048493938 0.00022277997441423673 0 -0.0091485521048493938 0.00022277997441423673 0 -0.0091069711421637028 0.0002022048952130011 0 -0.0091088788875678534 0.00025878033741219103 0 -0.0091270403535489812 0.00018828774763239898 0 -0.0091485521048493938 0.00022277997441423673 0 -0.0091069711421637028 0.0002022048952130011 0 -0.009150363026019754 0.00018916611787479857 0 -0.0091981335898929425 0.00019010107420238878 0 -0.0092081399251811406 0.00024543070636487386 0 -0.0091981335898929425 0.00019010107420238878 0 -0.0091596007144483012 0.0001852582922510109 0 -0.0091430548576187654 0.00015391931014066272 0 -0.009150363026019754 0.00018916611787479857 0 -0.0091981335898929425 0.00019010107420238878 0 -0.0091596007144483012 0.0001852582922510109 0 -0.009150363026019754 0.00018916611787479857 0 -0.0091596007144483012 0.0001852582922510109 0 -0.0091103901725447089 0.00020402395746940585 0 -0.0091596007144483012 0.0001852582922510109 0 -0.0091430139170759935 0.00019893949675917291 0 -0.0091430548576187654 0.00015391931014066272 0 -0.0091430139170759935 0.00019893949675917291 0 -0.0091103901725447089 0.00020402395746940585 0 -0.0091435311638714978 0.0002241154071459229 0 -0.0091596007144483012 0.0001852582922510109 0 -0.0091430139170759935 0.00019893949675917291 0 -0.0091103901725447089 0.00020402395746940585 0 -0.0090614172310432648 0.00023011887398137679 0 -0.0091103901725447089 0.00020402395746940585 0 -0.0091435311638714978 0.0002241154071459229 0 -0.0091430139170759935 0.00019893949675917291 0 -0.0091435311638714978 0.0002241154071459229 0 -0.009094698239752369 0.00020485699753966882 0 -0.0090125784827858341 0.00033984933364494173 0 -0.0091435311638714978 0.0002241154071459229 0 -0.009094698239752369 0.00020485699753966882 0 -0.0090125784827858341 0.00033984933364494173 0 -0.009094698239752369 0.00020485699753966882 0 -0.0089455420418510494 0.00025242429749860865 0 -0.009094698239752369 0.00020485699753966882 0 -0.0089455420418510494 0.00025242429749860865 0 -0.0089942606695405779 0.00015597321138334578 0 -0.009094698239752369 0.00020485699753966882 0 -0.0091430548576187654 0.00015391931014066272 0 -0.0090757019443999873 0.00014053312483499226 0 -0.009094698239752369 0.00020485699753966882 0 -0.0089942606695405779 0.00015597321138334578 0 -0.0090757019443999873 0.00014053312483499226 0 -0.0091430139170759935 0.00019893949675917291 0 -0.009094698239752369 0.00020485699753966882 0 -0.0091430548576187654 0.00015391931014066272 0 -0.008674861942563325 -3.0883125876451768e-05 0 -0.0080012685097127275 0.00030833057775948733 0 -0.0078547934364443413 0.0005561263126141635 0 -0.0086101174113664674 -2.1474806105597991e-05 0 -0.0083281470229296887 0.00040097350917905856 0 -0.008674861942563325 -3.0883125876451768e-05 0 -0.0089034204750701607 0.00040791452501972669 0 -0.0089455420418510494 0.00025242429749860865 0 -0.0089455420418510494 0.00025242429749860865 0 -0.0089942606695405779 0.00015597321138334578 0 -0.0089016362606126054 6.9069933104506354e-05 0 -0.008674861942563325 -3.0883125876451768e-05 0 -0.0089455420418510494 0.00025242429749860865 0 -0.0089016362606126054 6.9069933104506354e-05 0 -0.008674861942563325 -3.0883125876451768e-05 0 -0.0089016362606126054 6.9069933104506354e-05 0 -0.0089195924767253194 1.4577302290583877e-05 0 -0.0090106966276042103 7.2507615069463313e-05 0 -0.0089016362606126054 6.9069933104506354e-05 0 -0.0089195924767253194 1.4577302290583877e-05 0 -0.0089942606695405779 0.00015597321138334578 0 -0.0090106966276042103 7.2507615069463313e-05 0 -0.0089016362606126054 6.9069933104506354e-05 0 -0.0089942606695405779 0.00015597321138334578 0 -0.0090106966276042103 7.2507615069463313e-05 0 -0.0090757019443999873 0.00014053312483499226 0 -0.0090106966276042103 7.2507615069463313e-05 0 -0.009116684983552361 0.00011587537499833315 0 -0.009112874900481514 9.3421312771723396e-05 0 -0.0090106966276042103 7.2507615069463313e-05 0 -0.0089195924767253194 1.4577302290583877e-05 0 -0.009112874900481514 9.3421312771723396e-05 0 -0.0089559243388979103 1.3881268922660824e-05 0 -0.008674861942563325 -3.0883125876451768e-05 0 -0.0089195924767253194 1.4577302290583877e-05 0 -0.0089559243388979103 1.3881268922660824e-05 0 -0.0089195924767253194 1.4577302290583877e-05 0 -0.009112874900481514 9.3421312771723396e-05 0 -0.0091430548576187654 0.00015391931014066272 0 -0.0090757019443999873 0.00014053312483499226 0 -0.009116684983552361 0.00011587537499833315 0 -0.0090106966276042103 7.2507615069463313e-05 0 -0.0090757019443999873 0.00014053312483499226 0 -0.009116684983552361 0.00011587537499833315 0 -0.0091430548576187654 0.00015391931014066272 0 -0.009116684983552361 0.00011587537499833315 0 -0.0092046658158359621 0.00015951586589365004 0 -0.0091981335898929425 0.00019010107420238878 0 -0.0091430548576187654 0.00015391931014066272 0 -0.0092046658158359621 0.00015951586589365004 0 -0.009116684983552361 0.00011587537499833315 0 -0.0092046658158359621 0.00015951586589365004 0 -0.009112874900481514 9.3421312771723396e-05 0 -0.0092046658158359621 0.00015951586589365004 0 -0.0092997619355150076 0.00023828141640819565 0 -0.0093323433964537742 0.00027512783957052824 0 -0.0092046658158359621 0.00015951586589365004 0 -0.0093323433964537742 0.00027512783957052824 0 -0.0092708109485697358 0.00024859053146801405 0 -0.0092682167383287446 0.00022010626507738037 0 -0.009112874900481514 9.3421312771723396e-05 0 -0.0092997619355150076 0.00023828141640819565 0 -0.0092682167383287446 0.00022010626507738037 0 -0.0089559243388979103 1.3881268922660824e-05 0 -0.009112874900481514 9.3421312771723396e-05 0 -0.0092046658158359621 0.00015951586589365004 0 -0.009112874900481514 9.3421312771723396e-05 0 -0.0092997619355150076 0.00023828141640819565 0 -0.0092682167383287446 0.00022010626507738037 0 -0.0092997619355150076 0.00023828141640819565 0 -0.0095046783137020929 0.0003926329054467393 0 -0.0092997619355150076 0.00023828141640819565 0 -0.0095046783137020929 0.0003926329054467393 0 -0.0094725694960373016 0.00039234160743203722 0 -0.0093323433964537742 0.00027512783957052824 0 -0.0093959262838771082 0.00037570617355230161 0 -0.0092708109485697358 0.00024859053146801405 0 -0.0093323433964537742 0.00027512783957052824 0 -0.0094725694960373016 0.00039234160743203722 0 -0.0093959262838771082 0.00037570617355230161 0 -0.0092997619355150076 0.00023828141640819565 0 -0.0093323433964537742 0.00027512783957052824 0 -0.0094725694960373016 0.00039234160743203722 0 -0.0095958969062909117 0.00055379270428627611 0 -0.0094725694960373016 0.00039234160743203722 0 -0.0093959262838771082 0.00037570617355230161 0 -0.0093959262838771082 0.00037570617355230161 0 -0.0092944766517541726 0.00033818879171730235 0 -0.0092708109485697358 0.00024859053146801405 0 -0.0093624402111510269 0.00048691361997224889 0 -0.0092944766517541726 0.00033818879171730235 0 -0.009219766647534022 0.00034572284699498562 0 -0.0093624402111510269 0.00048691361997224889 0 -0.0093959262838771082 0.00037570617355230161 0 -0.0092944766517541726 0.00033818879171730235 0 -0.009137285463531224 0.00050023381778213606 0 -0.0093624402111510269 0.00048691361997224889 0 -0.009219766647534022 0.00034572284699498562 0 -0.009137285463531224 0.00050023381778213606 0 -0.009219766647534022 0.00034572284699498562 0 -0.0091178078003020836 0.0003512634093310004 0 -0.009219766647534022 0.00034572284699498562 0 -0.0091659809532595553 0.000283310806838421 0 -0.0092081399251811406 0.00024543070636487386 0 -0.0092944766517541726 0.00033818879171730235 0 -0.009219766647534022 0.00034572284699498562 0 -0.0092081399251811406 0.00024543070636487386 0 -0.009219766647534022 0.00034572284699498562 0 -0.0091659809532595553 0.000283310806838421 0 -0.0091178078003020836 0.0003512634093310004 0 -0.0091659809532595553 0.000283310806838421 0 -0.0091088788875678534 0.00025878033741219103 0 -0.0091178078003020836 0.0003512634093310004 0 -0.0091485521048493938 0.00022277997441423673 0 -0.0091659809532595553 0.000283310806838421 0 -0.0091088788875678534 0.00025878033741219103 0 -0.0091485521048493938 0.00022277997441423673 0 -0.0091659809532595553 0.000283310806838421 0 -0.0092081399251811406 0.00024543070636487386 0 -0.0091981335898929425 0.00019010107420238878 0 -0.0092081399251811406 0.00024543070636487386 0 -0.0092708109485697358 0.00024859053146801405 0 -0.0091981335898929425 0.00019010107420238878 0 -0.0092046658158359621 0.00015951586589365004 0 -0.0092708109485697358 0.00024859053146801405 0 -0.0092944766517541726 0.00033818879171730235 0 -0.0092081399251811406 0.00024543070636487386 0 -0.0092708109485697358 0.00024859053146801405 0 -0.008945396876414935 0.00034660915964885018 0 -0.0089704396194300404 0.0002596860475705229 0 -0.0090424810293119728 0.00030731814255209545 0 -0.008945396876414935 0.00034660915964885018 0 -0.0088642249288502731 0.00029060314387097764 0 -0.0088529263153820526 0.00036960714047187896 0 -0.008945396876414935 0.00034660915964885018 0 -0.0088642249288502731 0.00029060314387097764 0 -0.0089704396194300404 0.0002596860475705229 0 -0.0089704396194300404 0.0002596860475705229 0 -0.0090424810293119728 0.00030731814255209545 0 -0.0090453839668797123 0.00023016060424013168 0 -0.0091088788875678534 0.00025878033741219103 0 -0.0090424810293119728 0.00030731814255209545 0 -0.0090453839668797123 0.00023016060424013168 0 -0.0091088788875678534 0.00025878033741219103 0 -0.0090424810293119728 0.00030731814255209545 0 -0.0091178078003020836 0.0003512634093310004 0 -0.008945396876414935 0.00034660915964885018 0 -0.0090424810293119728 0.00030731814255209545 0 -0.0090224199711096843 0.00041814322338074017 0 -0.0089511997338626685 0.00058285779846737305 0 -0.009137285463531224 0.00050023381778213606 0 -0.0090224199711096843 0.00041814322338074017 0 -0.0090424810293119728 0.00030731814255209545 0 -0.0090224199711096843 0.00041814322338074017 0 -0.0091178078003020836 0.0003512634093310004 0 -0.009137285463531224 0.00050023381778213606 0 -0.0090224199711096843 0.00041814322338074017 0 -0.0091178078003020836 0.0003512634093310004 0 -0.0087508432248450778 0.00061339116824428712 0 -0.0088529263153820526 0.00036960714047187896 0 -0.0089178433982892054 0.00046033179342274967 0 -0.0089511997338626685 0.00058285779846737305 0 -0.0090224199711096843 0.00041814322338074017 0 -0.0089178433982892054 0.00046033179342274967 0 -0.008945396876414935 0.00034660915964885018 0 -0.0090224199711096843 0.00041814322338074017 0 -0.0089178433982892054 0.00046033179342274967 0 -0.008945396876414935 0.00034660915964885018 0 -0.0088529263153820526 0.00036960714047187896 0 -0.0089178433982892054 0.00046033179342274967 0 -0.0087508432248450778 0.00061339116824428712 0 -0.0088529263153820526 0.00036960714047187896 0 -0.0087258988945737997 0.0003600130419358 0 -0.0092087975721652192 0.00077474457015993842 0 -0.0091029365710838094 0.00072373741499255249 0 -0.0099467385493292662 0.0011344138675620178 0 -0.0095408629272522028 0.00091614675619296529 0 -0.0098586658754032802 0.00071098468759510348 0 -0.0095408629272522028 0.00091614675619296529 0 -0.0098586658754032802 0.00071098468759510348 0 -0.0093474647270549941 0.00066958446177762631 0 -0.0091029365710838094 0.00072373741499255249 0 -0.0065298053541585971 0.00089141714639261833 0 -0.007070534097055786 0.00085951894219530602 0 -0.0065298053541585971 0.00089141714639261833 0 -0.0079677546168670805 0.0010561538696662051 0 -0.0078541650815384112 0.00041588341923458653 0 -0.0067756637065825237 0.00095160702844462202 0 -0.0088642249288502731 0.00029060314387097764 0 -0.0088529263153820526 0.00036960714047187896 0 -0.0087584869637542112 0.00036914937659970491 0 -0.0087478713882828043 0.00045015160101117326 0 -0.0091029365710838094 0.00072373741499255249 0 -0.0091029365710838094 0.00072373741499255249 0 -0.007070534097055786 0.00085951894219530602 0 -0.0088642249288502731 0.00029060314387097764 0 -0.0087584869637542112 0.00036914937659970491 0 -0.0087316269153729122 0.00024125437281219208 0 -0.0061401867375982262 0.0015352226996287559 0 -0.0060047572331748643 0.00077139177900740759 0 -0.0070573656018656792 0.0011054403314108929 0 -0.0088642249288502731 0.00029060314387097764 0 -0.0087316269153729122 0.00024125437281219208 0 -0.0089272031284359996 0.00016228786178827147 0 -0.007070534097055786 0.00085951894219530602 0 -0.0080601415040744209 0.00062340408620304116 0 -0.0060840624671114479 0.0013071843919622149 0 -0.0055006082725914795 0.00093991982217575651 0 -0.005278597495550299 0.0016931687921832681 0 -0.007070534097055786 0.00085951894219530602 0 -0.0060389263774318913 0.00097123679001178591 0 -0.0060840624671114479 0.0013071843919622149 0 -0.0060047572331748643 0.00077139177900740759 0 -0.0055006082725914795 0.00093991982217575651 0 -0.0059385208317553314 0.00042985294807366676 0 -0.0057540039222075913 1.7594566248619877e-05 0 -0.0055006082725914795 0.00093991982217575651 0 -0.0036769204329415647 0.00017223387935457607 0 -0.0036625947258153665 0.00018427022694853746 0 -0.0036729750545655693 0.00020395238453072982 0 -0.0042243895076497411 -2.950227034904792e-05 0 -0.0043862566287200542 0.00064646377188503138 0 -0.0060047572331748643 0.00077139177900740759 0 -0.0059385208317553314 0.00042985294807366676 0 -0.0055006082725914795 0.00093991982217575651 0 -0.0060047572331748643 0.00077139177900740759 0 -0.0065596132434574779 0.00039000083849207655 0 -0.0070573656018656792 0.0011054403314108929 0 -0.0059385208317553314 0.00042985294807366676 0 -0.0065596132434574779 0.00039000083849207655 0 -0.0061448914639191778 8.1629921556927124e-05 0 -0.0060047572331748643 0.00077139177900740759 0 -0.0059385208317553314 0.00042985294807366676 0 -0.0065596132434574779 0.00039000083849207655 0 -0.0065596132434574779 0.00039000083849207655 0 -0.0074124530409452379 0.00045268405824376009 0 -0.0070573656018656792 0.0011054403314108929 0 -0.0065596132434574779 0.00039000083849207655 0 -0.0074124530409452379 0.00045268405824376009 0 -0.0070518108591477785 -6.4967932155506466e-06 0 -0.0088642249288502731 0.00029060314387097764 0 -0.0089704396194300404 0.0002596860475705229 0 -0.0089272031284359996 0.00016228786178827147 0 -0.0089704396194300404 0.0002596860475705229 0 -0.0089272031284359996 0.00016228786178827147 0 -0.0090453839668797123 0.00023016060424013168 0 -0.0089272031284359996 0.00016228786178827147 0 -0.0090685459427207946 0.00018429241863364174 0 -0.0091030962021722405 0.00015587779172920307 0 -0.0089272031284359996 0.00016228786178827147 0 -0.0090453839668797123 0.00023016060424013168 0 -0.0090685459427207946 0.00018429241863364174 0 -0.0091069711421637028 0.0002022048952130011 0 -0.0091088788875678534 0.00025878033741219103 0 -0.0090453839668797123 0.00023016060424013168 0 -0.0091069711421637028 0.0002022048952130011 0 -0.0090453839668797123 0.00023016060424013168 0 -0.0090685459427207946 0.00018429241863364174 0 -0.0091096388206310837 0.00017716366902600694 0 -0.0091069711421637028 0.0002022048952130011 0 -0.0090685459427207946 0.00018429241863364174 0 -0.0074124530409452379 0.00045268405824376009 0 -0.0070573656018656792 0.0011054403314108929 0 -0.0080507715805613941 0.00066568806157156653 0 -0.0080601415040744209 0.00062340408620304116 0 -0.0085660639628547478 0.00041448207038360046 0 -0.0091096388206310837 0.00017716366902600694 0 -0.0090685459427207946 0.00018429241863364174 0 -0.0091030962021722405 0.00015587779172920307 0 -0.0074124530409452379 0.00045268405824376009 0 -0.0080507715805613941 0.00066568806157156653 0 -0.0079089793206165108 0.00034055838227557884 0 -0.0074124530409452379 0.00045268405824376009 0 -0.0079089793206165108 0.00034055838227557884 0 -0.0076775129998639981 6.751657930001045e-05 0 -0.0083356584650650482 0.00050103335599042834 0 -0.0079089793206165108 0.00034055838227557884 0 -0.00808034634175917 1.7489782831359183e-05 0 -0.0083356584650650482 0.00050103335599042834 0 -0.0080507715805613941 0.00066568806157156653 0 -0.0079089793206165108 0.00034055838227557884 0 -0.0072756227427584683 0.00053161401205011809 0 -0.0058804826152922367 0.00014622391205446465 0 -0.008751581015022384 -0.00027521658649923899 0 -0.00808034634175917 1.7489782831359183e-05 0 -0.0076204295850424483 -0.00053128280552906934 0 -0.0079089793206165108 0.00034055838227557884 0 -0.00808034634175917 1.7489782831359183e-05 0 -0.0076775129998639981 6.751657930001045e-05 0 -0.00808034634175917 1.7489782831359183e-05 0 -0.0076775129998639981 6.751657930001045e-05 0 -0.0076204295850424483 -0.00053128280552906934 0 -0.0070518108591477785 -6.4967932155506466e-06 0 -0.0067913980921687532 -0.000340933666930594 0 -0.0076204295850424483 -0.00053128280552906934 0 -0.0070518108591477785 -6.4967932155506466e-06 0 -0.0067913980921687532 -0.000340933666930594 0 -0.0065461971229484181 -4.7223485066151781e-05 0 -0.0074124530409452379 0.00045268405824376009 0 -0.0076775129998639981 6.751657930001045e-05 0 -0.0070518108591477785 -6.4967932155506466e-06 0 -0.0076775129998639981 6.751657930001045e-05 0 -0.0070518108591477785 -6.4967932155506466e-06 0 -0.0076204295850424483 -0.00053128280552906934 0 -0.0038254145995945117 0.00085949530989780105 0 -0.003959307641863816 0.00092949158700819439 0 -0.0039874986091603584 0.00079386359619783113 0 -0.0058804826152922367 0.00014622391205446465 0 -0.0037667473397206067 0.00043751697882340676 0 -0.0038254145995945117 0.00085949530989780105 0 -0.003959307641863816 0.00092949158700819439 0 -0.0037661777907998929 0.00088805751609791618 0 -0.0067913980921687532 -0.000340933666930594 0 -0.0076204295850424483 -0.00053128280552906934 0 -0.0064824730253942387 -0.00079339772492628734 0 -0.0040857669590126378 0.00084688559619833237 0 -0.003959307641863816 0.00092949158700819439 0 -0.0039874986091603584 0.00079386359619783113 0 0.00068476072631841261 0.0008917834842415293 0 0.00078704656124891216 0.00079612533854631301 0 0.00074810756268003183 0.00090020760240604538 0 0.00078572820221659283 0.00076079308760668358 0 0.00078704656124891216 0.00079612533854631301 0 0.0008468432897840853 0.00070820380563357582 0 -0.001589002155032448 0.00096156533085408539 0 -0.0016875554538078176 0.00081686697396419746 0 0.00078572820221659283 0.00076079308760668358 0 0.00068476072631841261 0.0008917834842415293 0 0.00078704656124891216 0.00079612533854631301 0 0.00074810756268003183 0.00090020760240604538 0 0.00086006463793730737 0.00078871501241030407 0 0.00083187565717716592 0.00089163841993543857 0 0.00078704656124891216 0.00079612533854631301 0 0.00074810756268003183 0.00090020760240604538 0 0.00086006463793730737 0.00078871501241030407 0 0.00059955323300624631 0.0010610045696670335 0 0.00068476072631841261 0.0008917834842415293 0 0.00064200383493116721 0.0010055952287882728 0 0.00068476072631841261 0.0008917834842415293 0 0.00074810756268003183 0.00090020760240604538 0 0.00064200383493116721 0.0010055952287882728 0 0.00087118540274755472 0.00071498153224287667 0 0.00066531397579867369 0.00027914320928866803 0 0.00083131511570028128 0.00084923707111841322 0 0.00087118540274755472 0.00071498153224287667 0 0.00083131511570028128 0.00084923707111841322 0 0.00090224133197712659 0.00086151133845761851 0 0.00087118540274755472 0.00071498153224287667 0 0.00086006463793730737 0.00078871501241030407 0 0.00092333516486213074 0.0005769376862355762 0 0.00087118540274755472 0.00071498153224287667 0 0.00086006463793730737 0.00078871501241030407 0 0.00090224133197712659 0.00086151133845761851 0 0.00086006463793730737 0.00078871501241030407 0 0.0008468432897840853 0.00070820380563357582 0 0.00092333516486213074 0.0005769376862355762 0 0.00078704656124891216 0.00079612533854631301 0 0.00086006463793730737 0.00078871501241030407 0 0.0008468432897840853 0.00070820380563357582 0 0.00078572820221659283 0.00076079308760668358 0 0.0008468432897840853 0.00070820380563357582 0 0.00092333516486213074 0.0005769376862355762 0 0.00087118540274755472 0.00071498153224287667 0 0.00092333516486213074 0.0005769376862355762 0 0.00066531397579867369 0.00027914320928866803 0 0.00092333516486213074 0.0005769376862355762 0 0.00066531397579867369 0.00027914320928866803 0 0.00066310532592174336 -7.1657835716183981e-05 0 0.0014817001832723262 0.00079571392405463248 0 -0.001514908215094386 6.8519329711812932e-05 0 0.00092333516486213074 0.0005769376862355762 0 0.00066310532592174336 -7.1657835716183981e-05 0 0.00088984277072641233 -0.00020247587550674797 0 0.00092333516486213074 0.0005769376862355762 0 0.0008347785247997849 0.00075430257321025009 0 0.00095893104856245072 0.00081852614904259389 0 0.00078572820221659283 0.00076079308760668358 0 0.00092333516486213074 0.0005769376862355762 0 0.0008347785247997849 0.00075430257321025009 0 -0.001589002155032448 0.00096156533085408539 0 -0.0037667473397206067 0.00043751697882340676 0 -0.0037667473397206067 0.00043751697882340676 0 -0.001514908215094386 6.8519329711812932e-05 0 -0.0064824730253942387 -0.00079339772492628734 0 -0.0063139343386129495 -0.00031990696879953626 0 -0.0057706562787955464 -0.00043391931112464087 0 -0.0067913980921687532 -0.000340933666930594 0 -0.0064824730253942387 -0.00079339772492628734 0 -0.0063139343386129495 -0.00031990696879953626 0 -0.0067913980921687532 -0.000340933666930594 0 -0.0063139343386129495 -0.00031990696879953626 0 -0.0065461971229484181 -4.7223485066151781e-05 0 -0.0063139343386129495 -0.00031990696879953626 0 -0.0061448914639191778 8.1629921556927124e-05 0 -0.0057706562787955464 -0.00043391931112464087 0 -0.0063139343386129495 -0.00031990696879953626 0 -0.0061448914639191778 8.1629921556927124e-05 0 -0.0065461971229484181 -4.7223485066151781e-05 0 -0.0065596132434574779 0.00039000083849207655 0 -0.0061448914639191778 8.1629921556927124e-05 0 -0.0065461971229484181 -4.7223485066151781e-05 0 -0.0065596132434574779 0.00039000083849207655 0 -0.0070518108591477785 -6.4967932155506466e-06 0 -0.0065461971229484181 -4.7223485066151781e-05 0 -0.0024724144931748656 -8.276421791337438e-05 0 -0.0025410857970689813 -0.00026746787560829298 0 -0.0027329014205734088 -0.00021978080891022498 0 -0.001514908215094386 6.8519329711812932e-05 0 -0.0021542174279521997 -0.00012075485770958225 0 0.00066310532592174336 -7.1657835716183981e-05 0 0.00088984277072641233 -0.00020247587550674797 0 0.00065722547785662894 -0.00034168800879567668 0 -0.001514908215094386 6.8519329711812932e-05 0 -0.0042243895076497411 -2.950227034904792e-05 0 -0.0059385208317553314 0.00042985294807366676 0 -0.0061448914639191778 8.1629921556927124e-05 0 -0.0057540039222075913 1.7594566248619877e-05 0 -0.0061545653020185628 0.00022818517053315555 0 -0.0042243895076497411 -2.950227034904792e-05 0 -0.0061448914639191778 8.1629921556927124e-05 0 -0.0057706562787955464 -0.00043391931112464087 0 -0.0056269034693299516 -3.3426667005052673e-05 0 -0.0042243895076497411 -2.950227034904792e-05 0 -0.0021542174279521997 -0.00012075485770958225 0 -0.0036769204329415647 0.00017223387935457607 0 -0.0036634558315090039 0.00016895813132343927 0 -0.0036625947258153665 0.00018427022694853746 0 -0.003844191621371301 5.3853298394958029e-05 0 -0.0040415083294417266 -5.0735558215562378e-05 0 -0.0036081717547813653 -0.0002078541793185211 0 -0.0021542174279521997 -0.00012075485770958225 0 -0.0016632153350234354 -0.00035632635561389252 0 -0.0036484966785359789 0.00017875402091813475 0 -0.0036634558315090039 0.00016895813132343927 0 -0.0036625947258153665 0.00018427022694853746 0 -0.0039164392540142262 -1.4685281580075751e-05 0 -0.0021542174279521997 -0.00012075485770958225 0 -0.003844191621371301 5.3853298394958029e-05 0 -0.0036081717547813653 -0.0002078541793185211 0 -0.0036215729641269059 0.00020239988904640951 0 9.7806107574006931e-05 -0.0005318784896345387 0 0.00020348680956787016 5.5219800937858666e-08 0 0.0004714457343843601 -0.00010045575192905212 0 0.00065722547785662894 -0.00034168800879567668 0 9.7806107574006931e-05 -0.0005318784896345387 0 0.0004714457343843601 -0.00010045575192905212 0 0.00066310532592174336 -7.1657835716183981e-05 0 0.00065722547785662894 -0.00034168800879567668 0 0.0004714457343843601 -0.00010045575192905212 0 0.00066531397579867369 0.00027914320928866803 0 0.00066310532592174336 -7.1657835716183981e-05 0 0.0004714457343843601 -0.00010045575192905212 0 0.00066531397579867369 0.00027914320928866803 0 0.00048342259694803463 0.00019794131075768638 0 0.00080308696253742872 0.00037749778693313012 0 0.00066531397579867369 0.00027914320928866803 0 0.0004714457343843601 -0.00010045575192905212 0 0.00048342259694803463 0.00019794131075768638 0 0.00020348680956787016 5.5219800937858666e-08 0 0.0004714457343843601 -0.00010045575192905212 0 0.00048342259694803463 0.00019794131075768638 0 0.00020348680956787016 5.5219800937858666e-08 0 0.00048342259694803463 0.00019794131075768638 0 0.00024131117271414468 0.00025265894432742431 0 0.00080308696253742872 0.00037749778693313012 0 0.00024131117271414468 0.00025265894432742431 0 0.00078605406463159457 0.0003640216037966009 0 0.00048342259694803463 0.00019794131075768638 0 0.00080308696253742872 0.00037749778693313012 0 0.00024131117271414468 0.00025265894432742431 0 0.00069355559649662813 0.00029795793432099205 0 0.00082456514577982384 0.00060017328608362973 0 -2.5868165013780106e-05 0.00022263994662417096 0 -0.0010873303027329113 1.470588440592704e-07 0 0.00030743742097801816 5.4923194028213884e-07 0 -2.5868165013780106e-05 0.00022263994662417096 0 0.00024131117271414468 0.00025265894432742431 0 0.00078605406463159457 0.0003640216037966009 0 -2.5868165013780106e-05 0.00022263994662417096 0 0.00024131117271414468 0.00025265894432742431 0 -0.00043543709732949689 8.9067166715069517e-05 0 0.00020348680956787016 5.5219800937858666e-08 0 0.00024131117271414468 0.00025265894432742431 0 -0.00043543709732949689 8.9067166715069517e-05 0 -2.5868165013780106e-05 0.00022263994662417096 0 -0.00043543709732949689 8.9067166715069517e-05 0 -0.00091386183864772242 5.2548274468412081e-05 0 -0.0010873303027329113 1.470588440592704e-07 0 -0.00091386183864772242 5.2548274468412081e-05 0 -0.001921138952243573 -0.00016262494322401543 0 -2.5868165013780106e-05 0.00022263994662417096 0 -0.0010873303027329113 1.470588440592704e-07 0 -0.00091386183864772242 5.2548274468412081e-05 0 -0.0010873303027329113 1.470588440592704e-07 0 -0.001921138952243573 -0.00016262494322401543 0 -0.0024827680756716389 -7.723036677499426e-07 0 -0.00043543709732949689 8.9067166715069517e-05 0 -0.00091386183864772242 5.2548274468412081e-05 0 -0.001921138952243573 -0.00016262494322401543 0 -0.001921138952243573 -0.00016262494322401543 0 -0.0024827680756716389 -7.723036677499426e-07 0 -0.0027105943293320696 -2.0409249430031057e-05 0 -0.0016632153350234354 -0.00035632635561389252 0 -0.0019923515977688 -0.0001793010643473948 0 9.7806107574006931e-05 -0.0005318784896345387 0 0.00020348680956787016 5.5219800937858666e-08 0 -0.00043543709732949689 8.9067166715069517e-05 0 9.7806107574006931e-05 -0.0005318784896345387 0 -0.00043543709732949689 8.9067166715069517e-05 0 -0.001921138952243573 -0.00016262494322401543 0 -0.0036081717547813653 -0.0002078541793185211 0 -0.001921138952243573 -0.00016262494322401543 0 -0.0027105943293320696 -2.0409249430031057e-05 0 -0.0036081717547813653 -0.0002078541793185211 0 -0.0031674404841244303 0.00015436612218816911 0 -0.0036215729641269059 0.00020239988904640951 0 -0.0036081717547813653 -0.0002078541793185211 0 -0.0031674404841244303 0.00015436612218816911 0 -0.0027105943293320696 -2.0409249430031057e-05 0 -0.0031674404841244303 0.00015436612218816911 0 -0.0024827680756716389 -7.723036677499426e-07 0 -0.0027105943293320696 -2.0409249430031057e-05 0 -0.0031674404841244303 0.00015436612218816911 0 -0.0024827680756716389 -7.723036677499426e-07 0 -0.0038782140015325875 1.1167789850188697e-06 0 -0.0031674404841244303 0.00015436612218816911 0 -0.0038782140015325875 1.1167789850188697e-06 0 -0.0036448952808980227 0.00018518859129441664 0 -0.0038782140015325875 1.1167789850188697e-06 0 -0.0040360519739791401 0.00010960393435688085 0 -0.0036448952808980227 0.00018518859129441664 0 -0.0038782140015325875 1.1167789850188697e-06 0 -0.0040360519739791401 0.00010960393435688085 0 -0.0052706935393160344 -1.3670613530419983e-06 0 -0.0040360519739791401 0.00010960393435688085 0 -0.0036368922712879891 0.00019895701691286281 0 -0.0038989693333614365 4.1710177530299657e-05 0 -0.0040360519739791401 0.00010960393435688085 0 -0.0036448952808980227 0.00018518859129441664 0 -0.0036368922712879891 0.00019895701691286281 0 -0.0031674404841244303 0.00015436612218816911 0 -0.0036448952808980227 0.00018518859129441664 0 -0.0036215729641269059 0.00020239988904640951 0 -0.0036448952808980227 0.00018518859129441664 0 -0.0036215729641269059 0.00020239988904640951 0 -0.0036368922712879891 0.00019895701691286281 0 -0.0036215729641269059 0.00020239988904640951 0 -0.003649566568939837 0.00019899505126453099 0 -0.0036368922712879891 0.00019895701691286281 0 -0.0039164392540142262 -1.4685281580075751e-05 0 -0.0035783277622409041 0.00021244257554900656 0 -0.0036484966785359789 0.00017875402091813475 0 -0.0036215729641269059 0.00020239988904640951 0 -0.003649566568939837 0.00019899505126453099 0 -0.0036484966785359789 0.00017875402091813475 0 -0.0036625947258153665 0.00018427022694853746 0 -0.003649566568939837 0.00019899505126453099 0 -0.0036625947258153665 0.00018427022694853746 0 -0.003649566568939837 0.00019899505126453099 0 -0.0036729750545655693 0.00020395238453072982 0 -0.0036729750545655693 0.00020395238453072982 0 -0.0036597993824520926 0.00021100892432775929 0 -0.0036828974719555823 0.00023389738787903656 0 -0.003649566568939837 0.00019899505126453099 0 -0.0036729750545655693 0.00020395238453072982 0 -0.0036597993824520926 0.00021100892432775929 0 -0.003649566568939837 0.00019899505126453099 0 -0.0036597993824520926 0.00021100892432775929 0 -0.0036368922712879891 0.00019895701691286281 0 -0.0036597993824520926 0.00021100892432775929 0 -0.0036368922712879891 0.00019895701691286281 0 -0.0036540885009837916 0.0002313728685609587 0 -0.0036368922712879891 0.00019895701691286281 0 -0.0034164334741693296 -0.00031094884501222026 0 -0.0038989693333614365 4.1710177530299657e-05 0 -0.0036012346640400153 0.00017326882611455225 0 -0.0039785466840278781 -0.00015443864539640419 0 -0.0036597993824520926 0.00021100892432775929 0 -0.0036540885009837916 0.0002313728685609587 0 -0.0036828974719555823 0.00023389738787903656 0 -0.0053012894769906603 0.00034305135891572351 0 -0.0061824920598936729 0.00042446358859414682 0 -0.0054172512693605726 0.00080170736435617406 0 -0.0039785466840278781 -0.00015443864539640419 0 -0.0065298053541585971 0.00089141714639261833 0 -0.0039785466840278781 -0.00015443864539640419 0 -0.0061572722267486807 0.00030348212312041192 0 -0.0031966079942042746 -0.00021403377525771954 0 -0.0031192328400400297 -0.00053629883509765156 0 -0.0037847021805637931 -0.00047072136140749498 0 -0.0043862566287200542 0.00064646377188503138 0 -0.0065298053541585971 0.00089141714639261833 0 -0.0065298053541585971 0.00089141714639261833 0 -0.0061572722267486807 0.00030348212312041192 0 -0.0092222313705053564 0.0010333440612381106 0 -0.0095408629272522028 0.00091614675619296529 0 -0.0093474647270549941 0.00066958446177762631 0 -0.0086977034130542915 0.0004808865378722916 0 -0.0065298053541585971 0.00089141714639261833 0 -0.0083186683771893973 6.1655222757217571e-05 0 -0.0082199905315558115 -0.00027251674398663 0 -0.0078782244633380377 -0.00010581193954505747 0 -0.0073099413518147999 0.0003035115165726659 0 -0.0070645861317437178 0.00089230604922574202 0 -0.0074047086973886393 0.00072287747272908301 0 -0.0061572722267486807 0.00030348212312041192 0 -0.0058298674516834821 -0.00050679292090031829 0 -0.0031192328400400297 -0.00053629883509765156 0 -0.0037963604905886543 -0.00091012799283032169 0 -0.0037847021805637931 -0.00047072136140749498 0 -0.0086977034130542915 0.0004808865378722916 0 -0.0061572722267486807 0.00030348212312041192 0 -0.0037963604905886543 -0.00091012799283032169 0 -0.0037847021805637931 -0.00047072136140749498 0 -0.004334999359992037 -0.00061999114780078883 0 -0.0062129040431417619 -0.00030654688416647386 0 -0.0058298674516834821 -0.00050679292090031829 0 -0.0045917691670266129 -0.0014045169016130136 0 -0.0037963604905886543 -0.00091012799283032169 0 -0.004334999359992037 -0.00061999114780078883 0 -0.0062129040431417619 -0.00030654688416647386 0 -0.0052726089533770299 -7.4405697018992149e-07 0 -0.0045917691670266129 -0.0014045169016130136 0 -0.004334999359992037 -0.00061999114780078883 0 -0.0052706935393160344 -1.3670613530419983e-06 0 -0.0066470566426099177 -3.7768564204037583e-09 0 -0.0063795652661849406 -8.6832531558851695e-07 0 -0.0052745629055058578 5.6785299735579132e-10 0 -0.004334999359992037 -0.00061999114780078883 0 -0.0044991074195553154 -8.0531311200391891e-05 0 -0.0052706935393160344 -1.3670613530419983e-06 0 -0.0040360519739791401 0.00010960393435688085 0 -0.0044991074195553154 -8.0531311200391891e-05 0 -0.0052706935393160344 -1.3670613530419983e-06 0 -0.0034164334741693296 -0.00031094884501222026 0 -0.0044991074195553154 -8.0531311200391891e-05 0 -0.0038989693333614365 4.1710177530299657e-05 0 -0.0039785466840278781 -0.00015443864539640419 0 -0.0041480719676883744 -0.00013644057147105151 0 -0.0040360519739791401 0.00010960393435688085 0 -0.0044991074195553154 -8.0531311200391891e-05 0 -0.0038989693333614365 4.1710177530299657e-05 0 -0.0037847021805637931 -0.00047072136140749498 0 -0.004334999359992037 -0.00061999114780078883 0 -0.0044991074195553154 -8.0531311200391891e-05 0 -0.0031966079942042746 -0.00021403377525771954 0 -0.0037847021805637931 -0.00047072136140749498 0 -0.0044991074195553154 -8.0531311200391891e-05 0 -0.019206734495929925 0.00094746225874785663 0 -0.019148937872366312 0.0018889233227652874 0 -0.019166501660687164 0.00091908792052687973 0 -0.018922872224896206 0.0020220474326977543 0 -0.018323255030369887 0.0011303085161631396 0 -0.019166501660687164 0.00091908792052687973 0 -0.01992293620086227 0.0013919288716372166 0 -0.019435579909882171 0.0015830714049935449 0 -0.019166501660687164 0.00091908792052687973 0 -0.019820940349031611 0.00067356002427251328 0 -0.01992293620086227 0.0013919288716372166 0 -0.019820940349031611 0.00067356002427251328 0 -0.020376593774523947 0.0010432515693631478 0 -0.01992293620086227 0.0013919288716372166 0 -0.020376593774523947 0.0010432515693631478 0 -0.01992293620086227 0.0013919288716372166 0 -0.020568328293061058 0.0015797204414871085 0 -0.01992293620086227 0.0013919288716372166 0 -0.020289058172497862 0.0018139848243702952 0 -0.020568328293061058 0.0015797204414871085 0 -0.020289058172497862 0.0018139848243702952 0 -0.020568328293061058 0.0015797204414871085 0 -0.020623530317718727 0.002041387647930935 0 -0.01992293620086227 0.0013919288716372166 0 -0.020289058172497862 0.0018139848243702952 0 -0.019903872421478487 0.0019009892001639072 0 -0.019903872421478487 0.0019009892001639072 0 -0.019435579909882171 0.0015830714049935449 0 -0.019430563159649208 0.0022358362189467225 0 -0.019148937872366312 0.0018889233227652874 0 -0.020119426868653392 0.0020733023273268249 0 -0.01992293620086227 0.0013919288716372166 0 -0.019903872421478487 0.0019009892001639072 0 -0.019435579909882171 0.0015830714049935449 0 -0.018922872224896206 0.0020220474326977543 0 -0.018171925552829624 0.0023583518979935505 0 -0.01876977045338165 0.0030777373136860239 0 -0.018922872224896206 0.0020220474326977543 0 -0.018171925552829624 0.0023583518979935505 0 -0.017822003067082769 0.0017377608424439721 0 -0.018171925552829624 0.0023583518979935505 0 -0.017822003067082769 0.0017377608424439721 0 -0.017184265583357901 0.0025866423105107583 0 -0.017822003067082769 0.0017377608424439721 0 -0.016875695841671541 0.0016477276897841813 0 -0.017184265583357901 0.0025866423105107583 0 -0.016875695841671541 0.0016477276897841813 0 -0.017447012148608988 0.00084313327186313241 0 -0.01628272140407545 0.0010098417181408665 0 -0.017822003067082769 0.0017377608424439721 0 -0.016875695841671541 0.0016477276897841813 0 -0.017447012148608988 0.00084313327186313241 0 -0.018922872224896206 0.0020220474326977543 0 -0.017822003067082769 0.0017377608424439721 0 -0.018323255030369887 0.0011303085161631396 0 -0.017447012148608988 0.00084313327186313241 0 -0.018323255030369887 0.0011303085161631396 0 -0.018277853491028992 0.00013873470799893504 0 -0.019166501660687164 0.00091908792052687973 0 -0.018323255030369887 0.0011303085161631396 0 -0.018277853491028992 0.00013873470799893504 0 -0.017822003067082769 0.0017377608424439721 0 -0.017447012148608988 0.00084313327186313241 0 -0.018323255030369887 0.0011303085161631396 0 -0.018277853491028992 0.00013873470799893504 0 -0.017106514108789283 2.2087196630310935e-05 0 -0.017471244263034386 -0.00073617286466922836 0 -0.017447012148608988 0.00084313327186313241 0 -0.017106514108789283 2.2087196630310935e-05 0 -0.01628272140407545 0.0010098417181408665 0 -0.017447012148608988 0.00084313327186313241 0 -0.018277853491028992 0.00013873470799893504 0 -0.017106514108789283 2.2087196630310935e-05 0 -0.017106514108789283 2.2087196630310935e-05 0 -0.016810897311262649 -0.00062786190449540659 0 -0.016346091399092794 -8.2068525038182758e-05 0 -0.017106514108789283 2.2087196630310935e-05 0 -0.017471244263034386 -0.00073617286466922836 0 -0.016810897311262649 -0.00062786190449540659 0 -0.017471244263034386 -0.00073617286466922836 0 -0.016810897311262649 -0.00062786190449540659 0 -0.017065793189954676 -0.0010666158771485087 0 -0.016810897311262649 -0.00062786190449540659 0 -0.016653091704676756 -0.0010332400886441117 0 -0.017065793189954676 -0.0010666158771485087 0 -0.018277853491028992 0.00013873470799893504 0 -0.017471244263034386 -0.00073617286466922836 0 -0.019266857913499968 -0.00096806998280481117 0 -0.017324587390970168 -0.0007358450216047996 0 -0.019039394527445373 -0.00099386648519577628 0 -0.017471244263034386 -0.00073617286466922836 0 -0.017849394768778594 -0.0009212247457974532 0 -0.017603298912530905 -0.0011041479902072686 0 -0.019266857913499968 -0.00096806998280481117 0 -0.019389866948193432 0.00012356609551978436 0 -0.020285150937033716 -2.7565235224297889e-05 0 -0.019166501660687164 0.00091908792052687973 0 -0.018277853491028992 0.00013873470799893504 0 -0.019389866948193432 0.00012356609551978436 0 -0.018277853491028992 0.00013873470799893504 0 -0.019266857913499968 -0.00096806998280481117 0 -0.019389866948193432 0.00012356609551978436 0 -0.019166501660687164 0.00091908792052687973 0 -0.019820940349031611 0.00067356002427251328 0 -0.019389866948193432 0.00012356609551978436 0 -0.019820940349031611 0.00067356002427251328 0 -0.020376593774523947 0.0010432515693631478 0 -0.020285150937033716 -2.7565235224297889e-05 0 -0.019820940349031611 0.00067356002427251328 0 -0.019389866948193432 0.00012356609551978436 0 -0.020285150937033716 -2.7565235224297889e-05 0 -0.019039394527445373 -0.00099386648519577628 0 -0.017244743600939427 -0.00074767639115116958 0 -0.019266857913499968 -0.00096806998280481117 0 -0.020285150937033716 -2.7565235224297889e-05 0 -0.020724069905600259 -0.0010899573880725458 0 -0.017244743600939427 -0.00074767639115116958 0 -0.019759437703062942 0.0011372246062014114 0 -0.017618182582199802 0.00090993940195243804 0 -0.016955464452851222 0.00054582553401172872 0 -0.017204868387643627 -0.0001255638844863912 0 -0.016955464452851222 0.00054582553401172872 0 -0.016230571201217618 0.00053524493374812649 0 -0.016441642178497091 0.0010661438140749759 0 -0.017618182582199802 0.00090993940195243804 0 -0.016955464452851222 0.00054582553401172872 0 -0.016441642178497091 0.0010661438140749759 0 -0.016955464452851222 0.00054582553401172872 0 -0.017204868387643627 -0.0001255638844863912 0 -0.016230571201217618 0.00053524493374812649 0 -0.019759437703062942 0.0011372246062014114 0 -0.01840037836058539 0.0021736335570652961 0 -0.020441541975792 0.0030114417092229019 0 -0.020828126425240619 0.0029701209197686425 0 -0.020131229610711326 0.0034815082893765057 0 -0.020285150937033716 -2.7565235224297889e-05 0 -0.020724069905600259 -0.0010899573880725458 0 -0.021318924588683435 0.00038873423697459295 0 -0.020376593774523947 0.0010432515693631478 0 -0.020285150937033716 -2.7565235224297889e-05 0 -0.021318924588683435 0.00038873423697459295 0 -0.019258146150786248 0.003631967062341692 0 -0.020131229610711326 0.0034815082893765057 0 -0.019460341451753137 0.0031393197602716748 0 -0.019258146150786248 0.003631967062341692 0 -0.020131229610711326 0.0034815082893765057 0 -0.019414175193585546 0.0040011692567649667 0 -0.016230571201217618 0.00053524493374812649 0 -0.01524433202174918 0.0012229386910075819 0 -0.016441642178497091 0.0010661438140749759 0 -0.01840037836058539 0.0021736335570652961 0 -0.015069572453177721 0.0014400220644371965 0 -0.020131229610711326 0.0034815082893765057 0 -0.019990722424836314 0.0030239264677733614 0 -0.019460341451753137 0.0031393197602716748 0 -0.020441541975792 0.0030114417092229019 0 -0.020131229610711326 0.0034815082893765057 0 -0.019990722424836314 0.0030239264677733614 0 -0.020441541975792 0.0030114417092229019 0 -0.019990722424836314 0.0030239264677733614 0 -0.02022776005598876 0.0026202124790155054 0 -0.019990722424836314 0.0030239264677733614 0 -0.019460341451753137 0.0031393197602716748 0 -0.019832088952980203 0.0025337610197507109 0 -0.01930031218276233 0.0026029746270511481 0 -0.019460341451753137 0.0031393197602716748 0 -0.019832088952980203 0.0025337610197507109 0 -0.01930031218276233 0.0026029746270511481 0 -0.019832088952980203 0.0025337610197507109 0 -0.019478034490652534 0.0021463141782740564 0 -0.019990722424836314 0.0030239264677733614 0 -0.019832088952980203 0.0025337610197507109 0 -0.02022776005598876 0.0026202124790155054 0 -0.019832088952980203 0.0025337610197507109 0 -0.02022776005598876 0.0026202124790155054 0 -0.020160879290689073 0.0024006411572786795 0 -0.02022776005598876 0.0026202124790155054 0 -0.020160879290689073 0.0024006411572786795 0 -0.020341275521981245 0.0023643197086990015 0 -0.019832088952980203 0.0025337610197507109 0 -0.020086125570114716 0.0021501708602675845 0 -0.019831313180266454 0.0019930307537092511 0 -0.020160879290689073 0.0024006411572786795 0 -0.020086125570114716 0.0021501708602675845 0 -0.020282558690509787 0.0021949411686567736 0 -0.020086125570114716 0.0021501708602675845 0 -0.020319923561122524 0.0019855492400304396 0 -0.0200655251437446 0.0018384608274790084 0 -0.020086125570114716 0.0021501708602675845 0 -0.020282558690509787 0.0021949411686567736 0 -0.020319923561122524 0.0019855492400304396 0 -0.020086125570114716 0.0021501708602675845 0 -0.019831313180266454 0.0019930307537092511 0 -0.0200655251437446 0.0018384608274790084 0 -0.019832088952980203 0.0025337610197507109 0 -0.020160879290689073 0.0024006411572786795 0 -0.020086125570114716 0.0021501708602675845 0 -0.019832088952980203 0.0025337610197507109 0 -0.019478034490652534 0.0021463141782740564 0 -0.019831313180266454 0.0019930307537092511 0 -0.019478034490652534 0.0021463141782740564 0 -0.019831313180266454 0.0019930307537092511 0 -0.019751582924514212 0.0016912953984534584 0 -0.020902729471162434 0.00071028707949067303 0 -0.019759437703062942 0.0011372246062014114 0 -0.020942718955989155 0.00067352060237556429 0 -0.020852805434052206 0.0013125588018667433 0 -0.021240810118538421 0.0013956734780699734 0 -0.020376593774523947 0.0010432515693631478 0 -0.020942718955989155 0.00067352060237556429 0 -0.020852805434052206 0.0013125588018667433 0 -0.020376593774523947 0.0010432515693631478 0 -0.020852805434052206 0.0013125588018667433 0 -0.020568328293061058 0.0015797204414871085 0 -0.020441541975792 0.0030114417092229019 0 -0.02022776005598876 0.0026202124790155054 0 -0.020556102173568232 0.0023935757302196688 0 -0.019759437703062942 0.0011372246062014114 0 -0.020787057465256931 0.0022006780699018839 0 -0.020441541975792 0.0030114417092229019 0 -0.020828126425240619 0.0029701209197686425 0 -0.02057248933041015 0.0023313675530497692 0 -0.020410191263021432 0.0030344547439642841 0 -0.020787057465256931 0.0022006780699018839 0 -0.02022776005598876 0.0026202124790155054 0 -0.020556102173568232 0.0023935757302196688 0 -0.020341275521981245 0.0023643197086990015 0 -0.020852805434052206 0.0013125588018667433 0 -0.021240810118538421 0.0013956734780699734 0 -0.021118142184178443 0.0019946778639271657 0 -0.020545770128498238 0.0023786503922367665 0 -0.020479129430858643 0.0022293730913253008 0 -0.020610108798170532 0.0019276683244014389 0 -0.020787057465256931 0.0022006780699018839 0 -0.020798892449182968 0.0018967208172766842 0 -0.020787057465256931 0.0022006780699018839 0 -0.020698331883441317 0.0022111249744655049 0 -0.020160879290689073 0.0024006411572786795 0 -0.020341275521981245 0.0023643197086990015 0 -0.020282558690509787 0.0021949411686567736 0 -0.020556102173568232 0.0023935757302196688 0 -0.020479129430858643 0.0022293730913253008 0 -0.020341275521981245 0.0023643197086990015 0 -0.020479129430858643 0.0022293730913253008 0 -0.020341275521981245 0.0023643197086990015 0 -0.020282558690509787 0.0021949411686567736 0 -0.020479129430858643 0.0022293730913253008 0 -0.020282558690509787 0.0021949411686567736 0 -0.020319923561122524 0.0019855492400304396 0 -0.020479129430858643 0.0022293730913253008 0 -0.020319923561122524 0.0019855492400304396 0 -0.020610108798170532 0.0019276683244014389 0 -0.020914760603828852 0.0014303746751731855 0 -0.020798892449182968 0.0018967208172766842 0 -0.020852805434052206 0.0013125588018667433 0 -0.020843347294479248 0.0017828533348511343 0 -0.021059598929899049 0.0020096305680366356 0 -0.020852805434052206 0.0013125588018667433 0 -0.020843347294479248 0.0017828533348511343 0 -0.020568328293061058 0.0015797204414871085 0 -0.020843347294479248 0.0017828533348511343 0 -0.020568328293061058 0.0015797204414871085 0 -0.020623530317718727 0.002041387647930935 0 -0.020842964235589002 0.0019097850175264232 0 -0.020677455796673839 0.0020522319951874731 0 -0.020843347294479248 0.0017828533348511343 0 -0.020623530317718727 0.002041387647930935 0 -0.020720528310531443 0.0021481201982433283 0 -0.020843347294479248 0.0017828533348511343 0 -0.020971217852562059 0.0024173804334277687 0 -0.021059598929899049 0.0020096305680366356 0 -0.020623530317718727 0.002041387647930935 0 -0.020720528310531443 0.0021481201982433283 0 -0.020630931073794982 0.0021680119754092023 0 -0.020677455796673839 0.0020522319951874731 0 -0.020798892449182968 0.0018967208172766842 0 -0.020798892449182968 0.0018967208172766842 0 -0.020329349283943997 0.0015109042469631212 0 -0.02050973404973359 0.0017058981090799182 0 -0.020472587899133293 0.0019028995465136098 0 -0.020337323695136425 0.0015714484685655581 0 -0.020610108798170532 0.0019276683244014389 0 -0.020283136305791129 0.0017499903768073005 0 -0.020355209345653651 0.0014518955695014817 0 -0.020319923561122524 0.0019855492400304396 0 -0.020610108798170532 0.0019276683244014389 0 -0.020283136305791129 0.0017499903768073005 0 -0.020283136305791129 0.0017499903768073005 0 -0.020355209345653651 0.0014518955695014817 0 -0.020084912151640998 0.0015934928927616003 0 -0.02050973404973359 0.0017058981090799182 0 -0.020337323695136425 0.0015714484685655581 0 -0.02041739509921256 0.0013408223245158671 0 -0.020329349283943997 0.0015109042469631212 0 -0.020200047055298955 0.0011993647763247732 0 -0.020677455796673839 0.0020522319951874731 0 -0.020408283695096095 0.0015695605416909673 0 -0.020720528310531443 0.0021481201982433283 0 -0.020557913914803952 0.0020375807770058544 0 -0.020630931073794982 0.0021680119754092023 0 -0.020677455796673839 0.0020522319951874731 0 -0.020582249937313096 0.0019845571366540731 0 -0.020521813468080536 0.0022012268281497616 0 -0.020573120062966573 0.0019311467543533967 0 -0.020432569410545626 0.0018443129360710526 0 -0.020557913914803952 0.0020375807770058544 0 -0.020630931073794982 0.0021680119754092023 0 -0.020752599377419609 0.0019276412635482851 0 -0.019155305315530322 0.0018223434400864073 0 -0.019478034490652534 0.0021463141782740564 0 -0.019751582924514212 0.0016912953984534584 0 -0.019155305315530322 0.0018223434400864073 0 -0.019751582924514212 0.0016912953984534584 0 -0.019565729506518456 0.0013716900085863726 0 -0.019751582924514212 0.0016912953984534584 0 -0.0200655251437446 0.0018384608274790084 0 -0.020084912151640998 0.0015934928927616003 0 -0.019831313180266454 0.0019930307537092511 0 -0.019751582924514212 0.0016912953984534584 0 -0.0200655251437446 0.0018384608274790084 0 -0.020319923561122524 0.0019855492400304396 0 -0.020283136305791129 0.0017499903768073005 0 -0.0200655251437446 0.0018384608274790084 0 -0.020283136305791129 0.0017499903768073005 0 -0.0200655251437446 0.0018384608274790084 0 -0.020084912151640998 0.0015934928927616003 0 -0.020355209345653651 0.0014518955695014817 0 -0.020084912151640998 0.0015934928927616003 0 -0.019975661821058355 0.0013651797363035752 0 -0.020355209345653651 0.0014518955695014817 0 -0.019975661821058355 0.0013651797363035752 0 -0.0201609007978664 0.0011416697921223123 0 -0.019751582924514212 0.0016912953984534584 0 -0.020084912151640998 0.0015934928927616003 0 -0.019975661821058355 0.0013651797363035752 0 -0.019975661821058355 0.0013651797363035752 0 -0.019565729506518456 0.0013716900085863726 0 -0.019873537731331381 0.0011493017495933847 0 -0.019751582924514212 0.0016912953984534584 0 -0.019975661821058355 0.0013651797363035752 0 -0.019565729506518456 0.0013716900085863726 0 -0.019975661821058355 0.0013651797363035752 0 -0.019873537731331381 0.0011493017495933847 0 -0.0201609007978664 0.0011416697921223123 0 -0.019873537731331381 0.0011493017495933847 0 -0.0201609007978664 0.0011416697921223123 0 -0.020131353273899769 0.00097275075811784073 0 -0.020218847298099744 0.0012530205011928952 0 -0.020131353273899769 0.00097275075811784073 0 -0.020323919174279163 0.0010195307802939905 0 -0.020200047055298955 0.0011993647763247732 0 -0.020129042907618671 0.00098936618978074362 0 -0.019818632127972302 0.001020067169276679 0 -0.019959137601513844 0.0008570557580016981 0 -0.020131353273899769 0.00097275075811784073 0 -0.019818632127972302 0.001020067169276679 0 -0.019873537731331381 0.0011493017495933847 0 -0.020131353273899769 0.00097275075811784073 0 -0.020573120062966573 0.0019311467543533967 0 -0.020636944766163724 0.0016514393233864864 0 -0.020432569410545626 0.0018443129360710526 0 -0.020557913914803952 0.0020375807770058544 0 -0.020636944766163724 0.0016514393233864864 0 -0.020752599377419609 0.0019276412635482851 0 -0.020582249937313096 0.0019845571366540731 0 -0.020627906077129936 0.0016894500846841392 0 -0.020636944766163724 0.0016514393233864864 0 -0.020832090872029106 0.0016740070228458664 0 -0.020752599377419609 0.0019276412635482851 0 -0.020337323695136425 0.0015714484685655581 0 -0.020218847298099744 0.0012530205011928952 0 -0.02041739509921256 0.0013408223245158671 0 -0.020408283695096095 0.0015695605416909673 0 -0.020347130064094391 0.0012216556621493276 0 -0.020636944766163724 0.0016514393233864864 0 -0.020432569410545626 0.0018443129360710526 0 -0.020349576259502955 0.0014204157103280821 0 -0.020218847298099744 0.0012530205011928952 0 -0.02041739509921256 0.0013408223245158671 0 -0.020323919174279163 0.0010195307802939905 0 -0.020636944766163724 0.0016514393233864864 0 -0.020349576259502955 0.0014204157103280821 0 -0.020658869804702017 0.0013109291073810279 0 -0.020636944766163724 0.0016514393233864864 0 -0.020658869804702017 0.0013109291073810279 0 -0.020928236969102655 0.0014210344252293433 0 -0.020928236969102655 0.0014210344252293433 0 -0.021277551711917485 0.001474773005094496 0 -0.021015035177141348 0.0017071637224759259 0 -0.020928236969102655 0.0014210344252293433 0 -0.020832090872029106 0.0016740070228458664 0 -0.021015035177141348 0.0017071637224759259 0 -0.020636944766163724 0.0016514393233864864 0 -0.020928236969102655 0.0014210344252293433 0 -0.020832090872029106 0.0016740070228458664 0 -0.02131823524573347 0.0011361252107301969 0 -0.020928236969102655 0.0014210344252293433 0 -0.021277551711917485 0.001474773005094496 0 -0.021277551711917485 0.001474773005094496 0 -0.021240500073282119 0.0017427081471984517 0 -0.021558678084306351 0.001556767503986608 0 -0.021240500073282119 0.0017427081471984517 0 -0.021015035177141348 0.0017071637224759259 0 -0.020967771392939649 0.0020141132950045933 0 -0.021240500073282119 0.0017427081471984517 0 -0.020967771392939649 0.0020141132950045933 0 -0.021395905183865291 0.0019833089825431437 0 -0.021277551711917485 0.001474773005094496 0 -0.021240500073282119 0.0017427081471984517 0 -0.021015035177141348 0.0017071637224759259 0 -0.021015035177141348 0.0017071637224759259 0 -0.020752599377419609 0.0019276412635482851 0 -0.020967771392939649 0.0020141132950045933 0 -0.020832090872029106 0.0016740070228458664 0 -0.021015035177141348 0.0017071637224759259 0 -0.020752599377419609 0.0019276412635482851 0 -0.020630931073794982 0.0021680119754092023 0 -0.020752599377419609 0.0019276412635482851 0 -0.020565384721914329 0.0022969190278557417 0 -0.020752599377419609 0.0019276412635482851 0 -0.020967771392939649 0.0020141132950045933 0 -0.020565384721914329 0.0022969190278557417 0 -0.020967771392939649 0.0020141132950045933 0 -0.021285925949390178 0.0025329888945663493 0 -0.020565384721914329 0.0022969190278557417 0 -0.020967771392939649 0.0020141132950045933 0 -0.021285925949390178 0.0025329888945663493 0 -0.021395905183865291 0.0019833089825431437 0 -0.020119426868653392 0.0020733023273268249 0 -0.020637763166536045 0.0023897103087580822 0 -0.019903872421478487 0.0019009892001639072 0 -0.019430563159649208 0.0022358362189467225 0 -0.020565384721914329 0.0022969190278557417 0 -0.020289058172497862 0.0018139848243702952 0 -0.019903872421478487 0.0019009892001639072 0 -0.020565384721914329 0.0022969190278557417 0 -0.020289058172497862 0.0018139848243702952 0 -0.020623530317718727 0.002041387647930935 0 -0.020565384721914329 0.0022969190278557417 0 -0.020623530317718727 0.002041387647930935 0 -0.020630931073794982 0.0021680119754092023 0 -0.020565384721914329 0.0022969190278557417 0 -0.020777673064471123 0.00025695006808169825 0 -0.02145445079414298 0.0010698705654115319 0 -0.021000993841789089 0.0012183227866769757 0 -0.020777673064471123 0.00025695006808169825 0 -0.021000993841789089 0.0012183227866769757 0 -0.020366750281735502 0.0010456652613310034 0 -0.021963345123693793 0.00076628050891279866 0 -0.020777673064471123 0.00025695006808169825 0 -0.02145445079414298 0.0010698705654115319 0 -0.018171925552829624 0.0023583518979935505 0 -0.01876977045338165 0.0030777373136860239 0 -0.017184265583357901 0.0025866423105107583 0 -0.020119426868653392 0.0020733023273268249 0 -0.019546838294927687 0.0015463171947009528 0 -0.021963345123693793 0.00076628050891279866 0 -0.02145445079414298 0.0010698705654115319 0 -0.021694076897819586 0.0015748438496700095 0 -0.02145445079414298 0.0010698705654115319 0 -0.021694076897819586 0.0015748438496700095 0 -0.021370366550663197 0.0014932317120908347 0 -0.020119426868653392 0.0020733023273268249 0 -0.021667023648602932 0.0016307352123868938 0 -0.021694076897819586 0.0015748438496700095 0 -0.021370366550663197 0.0014932317120908347 0 -0.021594426092466531 0.0015940066030463039 0 -0.021370366550663197 0.0014932317120908347 0 -0.021000993841789089 0.0012183227866769757 0 -0.020901553407386832 0.0015625853464973556 0 -0.02145445079414298 0.0010698705654115319 0 -0.021370366550663197 0.0014932317120908347 0 -0.021000993841789089 0.0012183227866769757 0 -0.021000993841789089 0.0012183227866769757 0 -0.020366750281735502 0.0010456652613310034 0 -0.020185560361438436 0.0017748153319966287 0 -0.021234662614008519 0.0009646771539629375 0 -0.018518349580954691 0.0013806462498654483 0 -0.020901553407386832 0.0015625853464973556 0 -0.02062409248720691 0.0014816459451953716 0 -0.02067873512970686 0.0015991479093161957 0 -0.021000993841789089 0.0012183227866769757 0 -0.020901553407386832 0.0015625853464973556 0 -0.02062409248720691 0.0014816459451953716 0 -0.021370366550663197 0.0014932317120908347 0 -0.020901553407386832 0.0015625853464973556 0 -0.020676996246557156 0.0020173133265942627 0 -0.021594426092466531 0.0015940066030463039 0 -0.021558678084306351 0.001556767503986608 0 -0.021949811509124187 0.0016010881555548763 0 -0.021370366550663197 0.0014932317120908347 0 -0.021594426092466531 0.0015940066030463039 0 -0.021949811509124187 0.0016010881555548763 0 -0.020901553407386832 0.0015625853464973556 0 -0.020676996246557156 0.0020173133265942627 0 -0.02067873512970686 0.0015991479093161957 0 -0.021397236481880581 0.0014865223305543195 0 -0.021335546037664112 0.0017635496843381383 0 -0.021667023648602932 0.0016307352123868938 0 -0.021541293063635888 0.0016155872286045803 0 -0.021240500073282119 0.0017427081471984517 0 -0.021395905183865291 0.0019833089825431437 0 -0.021558678084306351 0.001556767503986608 0 -0.021694076897819586 0.0015748438496700095 0 -0.021594426092466531 0.0015940066030463039 0 -0.021558678084306351 0.001556767503986608 0 -0.021888596878125752 0.0012821528968880048 0 -0.021572139595876859 0.0012759817434097147 0 -0.021558678084306351 0.001556767503986608 0 -0.021572139595876859 0.0012759817434097147 0 -0.021277551711917485 0.001474773005094496 0 -0.021558678084306351 0.001556767503986608 0 -0.021888596878125752 0.0012821528968880048 0 -0.021558678084306351 0.001556767503986608 0 -0.021949811509124187 0.0016010881555548763 0 -0.02140291126156562 0.001697894289750742 0 -0.021335546037664112 0.0017635496843381383 0 -0.020676996246557156 0.0020173133265942627 0 -0.020502852193108104 0.0018162640801663208 0 -0.020314306899405631 0.0020170324157870018 0 -0.020366458864513524 0.0022045091347085064 0 -0.020676996246557156 0.0020173133265942627 0 -0.020314306899405631 0.0020170324157870018 0 -0.020502852193108104 0.0018162640801663208 0 -0.020277536211245038 0.0017799325296182613 0 -0.020623841149796575 0.0015147085729913055 0 -0.020676996246557156 0.0020173133265942627 0 -0.020502852193108104 0.0018162640801663208 0 -0.02067873512970686 0.0015991479093161957 0 -0.016028934699169339 0.0011403943693217957 0 -0.018518349580954691 0.0013806462498654483 0 -0.020502852193108104 0.0018162640801663208 0 -0.020623841149796575 0.0015147085729913055 0 -0.02067873512970686 0.0015991479093161957 0 -0.012033874547489512 0.00037837441243116599 0 -0.011774581252910791 0.00055306886118570877 0 -0.011760428478050797 0.00018001020171204407 0 -0.016028934699169339 0.0011403943693217957 0 -0.014748609466783996 0.00065195225497075124 0 -0.020502852193108104 0.0018162640801663208 0 -0.020277536211245038 0.0017799325296182613 0 -0.020314306899405631 0.0020170324157870018 0 -0.020277536211245038 0.0017799325296182613 0 -0.020314306899405631 0.0020170324157870018 0 -0.020088663927814967 0.0019438403079690032 0 -0.015665169866145776 0.00060143522195924275 0 -0.015654538282592858 0.00049004080952635271 0 -0.015594331809736219 0.00052688872063426655 0 -0.020137480475493328 0.0021864525104613652 0 -0.020314306899405631 0.0020170324157870018 0 -0.020088663927814967 0.0019438403079690032 0 -0.018239934152985041 0.0014531681753012359 0 -0.014748609466783996 0.00065195225497075124 0 -0.014748609466783996 0.00065195225497075124 0 -0.013590483269965791 0.00036485025517425489 0 -0.011608543093681452 0.00018484164503038754 0 -0.011568413778282244 0.0001639802731157568 0 -0.011610938499967218 0.00017002388929266766 0 -0.011683422123459382 0.00019903707484942979 0 -0.011608543093681452 0.00018484164503038754 0 -0.011610938499967218 0.00017002388929266766 0 -0.011529324568211463 0.00013708201663061121 0 -0.011533169428129823 0.00014670891572171588 0 -0.011608543093681452 0.00018484164503038754 0 -0.011529324568211463 0.00013708201663061121 0 -0.011608543093681452 0.00018484164503038754 0 -0.011568413778282244 0.0001639802731157568 0 -0.012642149055705834 0.00010650931734665795 0 -0.013590483269965791 0.00036485025517425489 0 -0.014748609466783996 0.00065195225497075124 0 -0.011304636871674141 0.00012877686382755193 0 -0.011683422123459382 0.00019903707484942979 0 -0.011610938499967218 0.00017002388929266766 0 -0.011760428478050797 0.00018001020171204407 0 -0.011610938499967218 0.00017002388929266766 0 -0.011760428478050797 0.00018001020171204407 0 -0.011629356970472252 0.00011496219523021452 0 -0.011760428478050797 0.00018001020171204407 0 -0.011629356970472252 0.00011496219523021452 0 -0.011654811815247411 5.4990181214765401e-06 0 -0.011610938499967218 0.00017002388929266766 0 -0.011629356970472252 0.00011496219523021452 0 -0.011520777671396339 8.3583872793700393e-05 0 -0.011629356970472252 0.00011496219523021452 0 -0.011654811815247411 5.4990181214765401e-06 0 -0.011520777671396339 8.3583872793700393e-05 0 -0.011654811815247411 5.4990181214765401e-06 0 -0.011520777671396339 8.3583872793700393e-05 0 -0.011474822010471043 -0.00012677759373127035 0 -0.011654811815247411 5.4990181214765401e-06 0 -0.011868855487873305 1.0663688619597426e-05 0 -0.011793284262911388 -7.7961333602739882e-05 0 -0.011760428478050797 0.00018001020171204407 0 -0.011654811815247411 5.4990181214765401e-06 0 -0.011868855487873305 1.0663688619597426e-05 0 -0.011868855487873305 1.0663688619597426e-05 0 -0.012131381799676851 1.4039088449131505e-05 0 -0.012014047399619279 0.00015525219911798001 0 -0.011868855487873305 1.0663688619597426e-05 0 -0.012131381799676851 1.4039088449131505e-05 0 -0.011999236127238416 -0.00016406982356877129 0 -0.015775900815672737 0.00016649207769452911 0 -0.014908177272152792 0.00032335441400126283 0 -0.020777673064471123 0.00025695006808169825 0 -0.019691213094536135 0.0007770704175573904 0 -0.020366750281735502 0.0010456652613310034 0 -0.020777673064471123 0.00025695006808169825 0 -0.019691213094536135 0.0007770704175573904 0 -0.019158419435469982 -0.00025720611693900308 0 -0.012131381799676851 1.4039088449131505e-05 0 -0.012291564307637361 0.00023324120746559223 0 -0.012014047399619279 0.00015525219911798001 0 -0.012033874547489512 0.00037837441243116599 0 -0.012291564307637361 0.00023324120746559223 0 -0.012014047399619279 0.00015525219911798001 0 -0.019691213094536135 0.0007770704175573904 0 -0.020366750281735502 0.0010456652613310034 0 -0.020185560361438436 0.0017748153319966287 0 -0.015775900815672737 0.00016649207769452911 0 -0.018518349580954691 0.0013806462498654483 0 -0.018518349580954691 0.0013806462498654483 0 -0.019011455116695167 0.0017292446884829024 0 -0.012033874547489512 0.00037837441243116599 0 -0.011760428478050797 0.00018001020171204407 0 -0.012014047399619279 0.00015525219911798001 0 -0.011760428478050797 0.00018001020171204407 0 -0.011868855487873305 1.0663688619597426e-05 0 -0.012014047399619279 0.00015525219911798001 0 -0.010264169765386038 0.00061940133919720591 0 -0.010306020389259082 0.00065228739065014286 0 -0.010305503870438923 0.00066393683591271682 0 -0.010306020389259082 0.00065228739065014286 0 -0.010305503870438923 0.00066393683591271682 0 -0.010396599074308458 0.00074647494262118316 0 -0.010279738966703542 0.00062398189164570715 0 -0.010264169765386038 0.00061940133919720591 0 -0.010305503870438923 0.00066393683591271682 0 -0.011883330228620547 0.00017818162852346994 0 -0.011823571070944399 0.00018873402049777332 0 -0.011554345299759638 0.00046246355050122678 0 -0.010285081508386385 0.00063072788840515541 0 -0.010305503870438923 0.00066393683591271682 0 -0.010396599074308458 0.00074647494262118316 0 -0.010279738966703542 0.00062398189164570715 0 -0.010290191902182912 0.0006376639251037408 0 -0.010305503870438923 0.00066393683591271682 0 -0.010281200686759345 0.00061273189545453966 0 -0.010285081508386385 0.00063072788840515541 0 -0.010285653596589976 0.00062845160808170264 0 -0.010279738966703542 0.00062398189164570715 0 -0.010290191902182912 0.0006376639251037408 0 -0.010285653596589976 0.00062845160808170264 0 -0.010290191902182912 0.0006376639251037408 0 -0.010285081508386385 0.00063072788840515541 0 -0.010305503870438923 0.00066393683591271682 0 -0.010290191902182912 0.0006376639251037408 0 -0.010285081508386385 0.00063072788840515541 0 -0.010285653596589976 0.00062845160808170264 0 -0.011124736117024967 0.00044757873472779045 0 -0.010973847570532934 0.00057658315835477361 0 -0.011823571070944399 0.00018873402049777332 0 -0.011660907731438203 0.00022172168431915161 0 -0.011554345299759638 0.00046246355050122678 0 -0.01174106819626811 0.00016204416866571564 0 -0.011823571070944399 0.00018873402049777332 0 -0.011660907731438203 0.00022172168431915161 0 -0.01163770251356523 0.00010630406684941404 0 -0.011660907731438203 0.00022172168431915161 0 -0.011545523094845161 0.00021325381151562328 0 -0.011660907731438203 0.00022172168431915161 0 -0.011545523094845161 0.00021325381151562328 0 -0.011554345299759638 0.00046246355050122678 0 -0.011545523094845161 0.00021325381151562328 0 -0.011554345299759638 0.00046246355050122678 0 -0.011382478561691408 0.00027187921715858397 0 -0.010306020389259082 0.00065228739065014286 0 -0.010396599074308458 0.00074647494262118316 0 -0.010394857889847261 0.00061772300219862608 0 -0.011554345299759638 0.00046246355050122678 0 -0.011382478561691408 0.00027187921715858397 0 -0.010891230641397494 0.00050716062708684837 0 -0.011554345299759638 0.00046246355050122678 0 -0.010891230641397494 0.00050716062708684837 0 -0.010793023483885384 0.00068031470682122146 0 -0.010973847570532934 0.00057658315835477361 0 -0.010835665461254595 0.0006644566209571234 0 -0.011466061887550189 9.0390994882607836e-05 0 -0.011382478561691408 0.00027187921715858397 0 -0.010891230641397494 0.00050716062708684837 0 -0.011513620682375356 0.00014147862578905003 0 -0.011545523094845161 0.00021325381151562328 0 -0.011382478561691408 0.00027187921715858397 0 -0.011466061887550189 9.0390994882607836e-05 0 -0.011513620682375356 0.00014147862578905003 0 -0.011382478561691408 0.00027187921715858397 0 -0.011419920367359865 0.00013130561313351948 0 -0.011229625699554373 0.00034386636637773671 0 -0.011529324568211463 0.00013708201663061121 0 -0.011466061887550189 9.0390994882607836e-05 0 -0.011543234384708242 0.00016291374660707227 0 -0.011529324568211463 0.00013708201663061121 0 -0.011568413778282244 0.0001639802731157568 0 -0.011543234384708242 0.00016291374660707227 0 -0.011610938499967218 0.00017002388929266766 0 -0.011543234384708242 0.00016291374660707227 0 -0.011520777671396339 8.3583872793700393e-05 0 -0.011568413778282244 0.0001639802731157568 0 -0.011610938499967218 0.00017002388929266766 0 -0.011543234384708242 0.00016291374660707227 0 -0.011229625699554373 0.00034386636637773671 0 -0.011130641270651916 0.00038116824334924471 0 -0.010891230641397494 0.00050716062708684837 0 -0.010732976199176927 0.00068369020826267364 0 -0.010793023483885384 0.00068031470682122146 0 -0.010732976199176927 0.00068369020826267364 0 -0.010492362697534384 0.00050509348526556999 0 -0.010550015407065535 0.00043721596663381116 0 -0.011130641270651916 0.00038116824334924471 0 -0.011168558789974616 0.00012117198794985285 0 -0.010732976199176927 0.00068369020826267364 0 -0.010492362697534384 0.00050509348526556999 0 -0.010549512036181386 0.00058094221515477809 0 -0.010492362697534384 0.00050509348526556999 0 -0.010549512036181386 0.00058094221515477809 0 -0.01031117135541644 0.00051008106055364924 0 -0.010549512036181386 0.00058094221515477809 0 -0.010793023483885384 0.00068031470682122146 0 -0.010394857889847261 0.00061772300219862608 0 -0.010732976199176927 0.00068369020826267364 0 -0.010549512036181386 0.00058094221515477809 0 -0.010793023483885384 0.00068031470682122146 0 -0.010396599074308458 0.00074647494262118316 0 -0.010793023483885384 0.00068031470682122146 0 -0.010394857889847261 0.00061772300219862608 0 -0.010549512036181386 0.00058094221515477809 0 -0.010394857889847261 0.00061772300219862608 0 -0.01031117135541644 0.00051008106055364924 0 -0.010394857889847261 0.00061772300219862608 0 -0.01031117135541644 0.00051008106055364924 0 -0.010249827535572251 0.00057900377738529657 0 -0.010165103673081448 0.00056420888539430688 0 -0.01031117135541644 0.00051008106055364924 0 -0.010249827535572251 0.00057900377738529657 0 -0.010306020389259082 0.00065228739065014286 0 -0.010394857889847261 0.00061772300219862608 0 -0.010249827535572251 0.00057900377738529657 0 -0.010212915809961145 0.00059740051888673522 0 -0.010306020389259082 0.00065228739065014286 0 -0.010249827535572251 0.00057900377738529657 0 -0.010150731399246932 0.00047735741887605437 0 -0.010226725541843991 0.00044054534342229123 0 -0.010192992205869273 0.00035790386137115568 0 -0.010165103673081448 0.00056420888539430688 0 -0.010150731399246932 0.00047735741887605437 0 -0.010226725541843991 0.00044054534342229123 0 -0.010165103673081448 0.00056420888539430688 0 -0.01031117135541644 0.00051008106055364924 0 -0.010226725541843991 0.00044054534342229123 0 -0.010492362697534384 0.00050509348526556999 0 -0.01031117135541644 0.00051008106055364924 0 -0.010316525269467528 0.00035329309148533587 0 -0.01031117135541644 0.00051008106055364924 0 -0.010226725541843991 0.00044054534342229123 0 -0.010316525269467528 0.00035329309148533587 0 -0.010226725541843991 0.00044054534342229123 0 -0.010192992205869273 0.00035790386137115568 0 -0.010316525269467528 0.00035329309148533587 0 -0.010192992205869273 0.00035790386137115568 0 -0.010316525269467528 0.00035329309148533587 0 -0.010255688827804041 0.00022395964975484401 0 -0.010316525269467528 0.00035329309148533587 0 -0.010397488194564748 0.00016257261109356877 0 -0.010255688827804041 0.00022395964975484401 0 -0.010397488194564748 0.00016257261109356877 0 -0.01017214098239411 0.00015571826081910183 0 -0.010255688827804041 0.00022395964975484401 0 -0.010492362697534384 0.00050509348526556999 0 -0.010316525269467528 0.00035329309148533587 0 -0.010550015407065535 0.00043721596663381116 0 -0.010316525269467528 0.00035329309148533587 0 -0.010550015407065535 0.00043721596663381116 0 -0.010397488194564748 0.00016257261109356877 0 -0.010550015407065535 0.00043721596663381116 0 -0.010397488194564748 0.00016257261109356877 0 -0.010840418468051331 0.00043683872650810356 0 -0.010732976199176927 0.00068369020826267364 0 -0.010550015407065535 0.00043721596663381116 0 -0.010840418468051331 0.00043683872650810356 0 -0.010397488194564748 0.00016257261109356877 0 -0.010840418468051331 0.00043683872650810356 0 -0.011321625980513466 -0.00050925069048612004 0 -0.010417815538908489 0.00011198044143482506 0 -0.010466175256872398 -0.00018876425058619053 0 -0.010397488194564748 0.00016257261109356877 0 -0.011321625980513466 -0.00050925069048612004 0 -0.011219894082647237 -0.00061360384030678477 0 -0.010397488194564748 0.00016257261109356877 0 -0.01017214098239411 0.00015571826081910183 0 -0.0099659251152650116 9.6666927540841048e-05 0 -0.01017214098239411 0.00015571826081910183 0 -0.010062237805221454 0.00016277524792474314 0 -0.01015671712716204 0.00019872283933016686 0 -0.01017214098239411 0.00015571826081910183 0 -0.010036827740621711 0.00013941466632841755 0 -0.0099659251152650116 9.6666927540841048e-05 0 -0.010036827740621711 0.00013941466632841755 0 -0.010062237805221454 0.00016277524792474314 0 -0.0099473952203401762 0.00013691231649072219 0 -0.01017214098239411 0.00015571826081910183 0 -0.010036827740621711 0.00013941466632841755 0 -0.010062237805221454 0.00016277524792474314 0 -0.009972104408563616 0.00016837527002613398 0 -0.0099473952203401762 0.00013691231649072219 0 -0.0098719981003157903 0.00014223030466725459 0 -0.010062237805221454 0.00016277524792474314 0 -0.009972104408563616 0.00016837527002613398 0 -0.0099473952203401762 0.00013691231649072219 0 -0.0098925226780218495 0.00017146443255070733 0 -0.009972104408563616 0.00016837527002613398 0 -0.0098719981003157903 0.00014223030466725459 0 -0.0098925226780218495 0.00017146443255070733 0 -0.009972104408563616 0.00016837527002613398 0 -0.0099884129579322026 0.0002064560879860514 0 -0.009972104408563616 0.00016837527002613398 0 -0.010061213218936408 0.00019218185647812598 0 -0.0099884129579322026 0.0002064560879860514 0 -0.010061213218936408 0.00019218185647812598 0 -0.01011058511896931 0.00023021047366333233 0 -0.0099884129579322026 0.0002064560879860514 0 -0.010062237805221454 0.00016277524792474314 0 -0.010061213218936408 0.00019218185647812598 0 -0.01015671712716204 0.00019872283933016686 0 -0.010062237805221454 0.00016277524792474314 0 -0.009972104408563616 0.00016837527002613398 0 -0.010061213218936408 0.00019218185647812598 0 -0.01011058511896931 0.00023021047366333233 0 -0.010177228122455863 0.00025914727564691078 0 -0.010122521774704255 0.00027331454605498208 0 -0.010061213218936408 0.00019218185647812598 0 -0.01011058511896931 0.00023021047366333233 0 -0.01015671712716204 0.00019872283933016686 0 -0.01011058511896931 0.00023021047366333233 0 -0.010054198773128482 0.00025281224684664099 0 -0.0099884129579322026 0.0002064560879860514 0 -0.01011058511896931 0.00023021047366333233 0 -0.010122521774704255 0.00027331454605498208 0 -0.010054198773128482 0.00025281224684664099 0 -0.01011058511896931 0.00023021047366333233 0 -0.01015671712716204 0.00019872283933016686 0 -0.010177228122455863 0.00025914727564691078 0 -0.01017214098239411 0.00015571826081910183 0 -0.01015671712716204 0.00019872283933016686 0 -0.010255688827804041 0.00022395964975484401 0 -0.01015671712716204 0.00019872283933016686 0 -0.010255688827804041 0.00022395964975484401 0 -0.010177228122455863 0.00025914727564691078 0 -0.010192992205869273 0.00035790386137115568 0 -0.010255688827804041 0.00022395964975484401 0 -0.010177228122455863 0.00025914727564691078 0 -0.010192992205869273 0.00035790386137115568 0 -0.010177228122455863 0.00025914727564691078 0 -0.010136401617098958 0.00032830292638376965 0 -0.010177228122455863 0.00025914727564691078 0 -0.010136401617098958 0.00032830292638376965 0 -0.010122521774704255 0.00027331454605498208 0 -0.010096801238657376 0.0004455353701831072 0 -0.01006279597489158 0.00036095149839917705 0 -0.010136401617098958 0.00032830292638376965 0 -0.010150731399246932 0.00047735741887605437 0 -0.010096801238657376 0.0004455353701831072 0 -0.010192992205869273 0.00035790386137115568 0 -0.010096801238657376 0.0004455353701831072 0 -0.010192992205869273 0.00035790386137115568 0 -0.010136401617098958 0.00032830292638376965 0 -0.01628272140407545 0.0010098417181408665 0 -0.015672272002814517 0.0020725157389561181 0 -0.015070782258701123 0.0006266682483340966 0 -0.014908177272152792 0.00032335441400126283 0 -0.013604213216082741 0.0001678107652670634 0 -0.012157841113815048 -1.6143522696739391e-05 0 -0.011668732919607457 -0.00017260547910521328 0 -0.0119115855247222 -0.00046171680363118643 0 -0.016875695841671541 0.0016477276897841813 0 -0.01628272140407545 0.0010098417181408665 0 -0.015672272002814517 0.0020725157389561181 0 -0.019546838294927687 0.0015463171947009528 0 -0.014908177272152792 0.00032335441400126283 0 -0.016875695841671541 0.0016477276897841813 0 -0.017184265583357901 0.0025866423105107583 0 -0.015672272002814517 0.0020725157389561181 0 -0.011868855487873305 1.0663688619597426e-05 0 -0.011999236127238416 -0.00016406982356877129 0 -0.011793284262911388 -7.7961333602739882e-05 0 -0.014908177272152792 0.00032335441400126283 0 -0.010538909609475136 -0.00041873952134593024 0 -0.011654811815247411 5.4990181214765401e-06 0 -0.011793284262911388 -7.7961333602739882e-05 0 -0.011668732919607457 -0.00017260547910521328 0 -0.011999236127238416 -0.00016406982356877129 0 -0.011793284262911388 -7.7961333602739882e-05 0 -0.011668732919607457 -0.00017260547910521328 0 -0.011654811815247411 5.4990181214765401e-06 0 -0.011668732919607457 -0.00017260547910521328 0 -0.011474822010471043 -0.00012677759373127035 0 -0.011668732919607457 -0.00017260547910521328 0 -0.011474822010471043 -0.00012677759373127035 0 -0.011519413002676348 -0.00029438284863081708 0 -0.011168558789974616 0.00012117198794985285 0 -0.011313575355543361 -0.00049516891656357183 0 -0.011474822010471043 -0.00012677759373127035 0 -0.011519413002676348 -0.00029438284863081708 0 -0.011321625980513466 -0.00050925069048612004 0 -0.011668732919607457 -0.00017260547910521328 0 -0.011519413002676348 -0.00029438284863081708 0 -0.011610493611375264 -0.00040424926784437615 0 -0.011519413002676348 -0.00029438284863081708 0 -0.011610493611375264 -0.00040424926784437615 0 -0.011321625980513466 -0.00050925069048612004 0 -0.011668732919607457 -0.00017260547910521328 0 -0.011610493611375264 -0.00040424926784437615 0 -0.0119115855247222 -0.00046171680363118643 0 -0.011565424384403186 -0.00059643789048701454 0 -0.011673507939854909 -0.001021463729654168 0 -0.0119115855247222 -0.00046171680363118643 0 -0.011401682995064799 -0.00043156740543257022 0 -0.013604213216082741 0.0001678107652670634 0 -0.011610493611375264 -0.00040424926784437615 0 -0.011565424384403186 -0.00059643789048701454 0 -0.0119115855247222 -0.00046171680363118643 0 -0.011565424384403186 -0.00059643789048701454 0 -0.011219894082647237 -0.00061360384030678477 0 -0.011673507939854909 -0.001021463729654168 0 -0.011321625980513466 -0.00050925069048612004 0 -0.011565424384403186 -0.00059643789048701454 0 -0.011219894082647237 -0.00061360384030678477 0 -0.011610493611375264 -0.00040424926784437615 0 -0.011321625980513466 -0.00050925069048612004 0 -0.011565424384403186 -0.00059643789048701454 0 -0.010036827740621711 0.00013941466632841755 0 -0.0099659251152650116 9.6666927540841048e-05 0 -0.0099473952203401762 0.00013691231649072219 0 -0.0099659251152650116 9.6666927540841048e-05 0 -0.0099473952203401762 0.00013691231649072219 0 -0.0098206709832003043 0.00011984879501312058 0 -0.010466175256872398 -0.00018876425058619053 0 -0.011401682995064799 -0.00043156740543257022 0 -0.0099659251152650116 9.6666927540841048e-05 0 -0.0098206709832003043 0.00011984879501312058 0 -0.0096979453982972974 9.1659573427052218e-05 0 -0.0099473952203401762 0.00013691231649072219 0 -0.0098206709832003043 0.00011984879501312058 0 -0.0098719981003157903 0.00014223030466725459 0 -0.0098206709832003043 0.00011984879501312058 0 -0.0096979453982972974 9.1659573427052218e-05 0 -0.009649376301318402 8.7516820901757574e-05 0 -0.0098206709832003043 0.00011984879501312058 0 -0.009649376301318402 8.7516820901757574e-05 0 -0.0097826351847502598 0.00014050539290993874 0 -0.0098925226780218495 0.00017146443255070733 0 -0.0098719981003157903 0.00014223030466725459 0 -0.0097826351847502598 0.00014050539290993874 0 -0.0098206709832003043 0.00011984879501312058 0 -0.0098719981003157903 0.00014223030466725459 0 -0.0097826351847502598 0.00014050539290993874 0 -0.014514115219949532 -0.00066829182271014979 0 -0.0152427402546817 -0.00054719806213311922 0 -0.01524055229970586 -0.0013809347350067685 0 -0.014514115219949532 -0.00066829182271014979 0 -0.0152427402546817 -0.00054719806213311922 0 -0.015070782258701123 0.0006266682483340966 0 -0.011401682995064799 -0.00043156740543257022 0 -0.010556050047986805 -0.00033736774689626774 0 -0.0152427402546817 -0.00054719806213311922 0 -0.015729102787415197 -0.00025325377100127812 0 -0.015646282814112358 -0.0010119353367829215 0 -0.015729102787415197 -0.00025325377100127812 0 -0.016263802959664973 -0.00074491302734957458 0 -0.015646282814112358 -0.0010119353367829215 0 -0.01628272140407545 0.0010098417181408665 0 -0.015070782258701123 0.0006266682483340966 0 -0.015876442953873186 0.00035293575196889489 0 -0.015729102787415197 -0.00025325377100127812 0 -0.015070782258701123 0.0006266682483340966 0 -0.015876442953873186 0.00035293575196889489 0 -0.0152427402546817 -0.00054719806213311922 0 -0.015729102787415197 -0.00025325377100127812 0 -0.015070782258701123 0.0006266682483340966 0 -0.017106514108789283 2.2087196630310935e-05 0 -0.01628272140407545 0.0010098417181408665 0 -0.016346091399092794 -8.2068525038182758e-05 0 -0.01628272140407545 0.0010098417181408665 0 -0.015876442953873186 0.00035293575196889489 0 -0.016346091399092794 -8.2068525038182758e-05 0 -0.015729102787415197 -0.00025325377100127812 0 -0.015876442953873186 0.00035293575196889489 0 -0.016346091399092794 -8.2068525038182758e-05 0 -0.016810897311262649 -0.00062786190449540659 0 -0.016346091399092794 -8.2068525038182758e-05 0 -0.016263802959664973 -0.00074491302734957458 0 -0.015729102787415197 -0.00025325377100127812 0 -0.016346091399092794 -8.2068525038182758e-05 0 -0.016263802959664973 -0.00074491302734957458 0 -0.016810897311262649 -0.00062786190449540659 0 -0.016263802959664973 -0.00074491302734957458 0 -0.016653091704676756 -0.0010332400886441117 0 -0.016653091704676756 -0.0010332400886441117 0 -0.016352761147752519 -0.0013089053217175436 0 -0.016671392773191195 -0.0013676353513606915 0 -0.016263802959664973 -0.00074491302734957458 0 -0.016653091704676756 -0.0010332400886441117 0 -0.016352761147752519 -0.0013089053217175436 0 -0.016352761147752519 -0.0013089053217175436 0 -0.016073174456340829 -0.0017786478923036838 0 -0.015646282814112358 -0.0010119353367829215 0 -0.016263802959664973 -0.00074491302734957458 0 -0.016352761147752519 -0.0013089053217175436 0 -0.015646282814112358 -0.0010119353367829215 0 -0.016352761147752519 -0.0013089053217175436 0 -0.016475239821731692 -0.0016780844259057183 0 -0.016671392773191195 -0.0013676353513606915 0 -0.016352761147752519 -0.0013089053217175436 0 -0.016475239821731692 -0.0016780844259057183 0 -0.016073174456340829 -0.0017786478923036838 0 -0.016475239821731692 -0.0016780844259057183 0 -0.016073174456340829 -0.0017786478923036838 0 -0.016479502307809649 -0.0020213239656527177 0 -0.012997274633734929 -0.0011213604589202111 0 -0.0139765983588158 -0.0022010686157511047 0 -0.008911440272674518 0.00029527097621857493 0 -0.009237857442663094 0.00011691281115203798 0 -0.0092335892511133874 0.00030303779785857633 0 -0.008911440272674518 0.00029527097621857493 0 -0.0092335892511133874 0.00030303779785857633 0 -0.0090783247350318674 0.00042174595968070519 0 -0.012997274633734929 -0.0011213604589202111 0 -0.01220675020812086 -0.000588144803870705 0 -0.015838296557911788 -0.0020476641538516131 0 -0.01524055229970586 -0.0013809347350067685 0 -0.015646282814112358 -0.0010119353367829215 0 -0.012997274633734929 -0.0011213604589202111 0 -0.016252004288276087 -0.0015227249881429471 0 -0.0152427402546817 -0.00054719806213311922 0 -0.01524055229970586 -0.0013809347350067685 0 -0.015646282814112358 -0.0010119353367829215 0 -0.0095773801038064061 -6.0520841031284359e-05 0 -0.009237857442663094 0.00011691281115203798 0 -0.0094872157604384399 0.00016812699437893328 0 -0.011401682995064799 -0.00043156740543257022 0 -0.01220675020812086 -0.000588144803870705 0 -0.0095773801038064061 -6.0520841031284359e-05 0 -0.009649376301318402 8.7516820901757574e-05 0 -0.0094872157604384399 0.00016812699437893328 0 -0.009649376301318402 8.7516820901757574e-05 0 -0.0094872157604384399 0.00016812699437893328 0 -0.009670843664917746 0.0001975319577103942 0 -0.0094872157604384399 0.00016812699437893328 0 -0.009670843664917746 0.0001975319577103942 0 -0.0095049273666230893 0.00029400888171844853 0 -0.009237857442663094 0.00011691281115203798 0 -0.0094872157604384399 0.00016812699437893328 0 -0.0092335892511133874 0.00030303779785857633 0 -0.0098925226780218495 0.00017146443255070733 0 -0.0097826351847502598 0.00014050539290993874 0 -0.0098403884123905994 0.00020837346358221846 0 -0.0097826351847502598 0.00014050539290993874 0 -0.009670843664917746 0.0001975319577103942 0 -0.0098403884123905994 0.00020837346358221846 0 -0.009649376301318402 8.7516820901757574e-05 0 -0.0097826351847502598 0.00014050539290993874 0 -0.009670843664917746 0.0001975319577103942 0 -0.009670843664917746 0.0001975319577103942 0 -0.0098403884123905994 0.00020837346358221846 0 -0.009752404251127918 0.00031162751625629908 0 -0.009752404251127918 0.00031162751625629908 0 -0.0095481850564438728 0.00040974946487360331 0 -0.0097139332708889338 0.00050468676708037964 0 -0.009670843664917746 0.0001975319577103942 0 -0.009752404251127918 0.00031162751625629908 0 -0.0095049273666230893 0.00029400888171844853 0 -0.009752404251127918 0.00031162751625629908 0 -0.0095481850564438728 0.00040974946487360331 0 -0.0095049273666230893 0.00029400888171844853 0 -0.0094872157604384399 0.00016812699437893328 0 -0.0092335892511133874 0.00030303779785857633 0 -0.0095049273666230893 0.00029400888171844853 0 -0.0095481850564438728 0.00040974946487360331 0 -0.0095049273666230893 0.00029400888171844853 0 -0.0092882700593251311 0.00044156405824720879 0 -0.0092335892511133874 0.00030303779785857633 0 -0.0095049273666230893 0.00029400888171844853 0 -0.0092882700593251311 0.00044156405824720879 0 -0.0092335892511133874 0.00030303779785857633 0 -0.0092882700593251311 0.00044156405824720879 0 -0.0090783247350318674 0.00042174595968070519 0 -0.0092882700593251311 0.00044156405824720879 0 -0.0090783247350318674 0.00042174595968070519 0 -0.0090582052473776303 0.00055766995105399988 0 -0.0095481850564438728 0.00040974946487360331 0 -0.0092882700593251311 0.00044156405824720879 0 -0.0094275102120869141 0.0005993175702690653 0 -0.0092882700593251311 0.00044156405824720879 0 -0.009200778144179118 0.00063883081769984529 0 -0.0094275102120869141 0.0005993175702690653 0 -0.009200778144179118 0.00063883081769984529 0 -0.0089821422788825978 0.00072866190292570894 0 -0.0090582052473776303 0.00055766995105399988 0 -0.0092882700593251311 0.00044156405824720879 0 -0.009200778144179118 0.00063883081769984529 0 -0.0090582052473776303 0.00055766995105399988 0 -0.0095481850564438728 0.00040974946487360331 0 -0.0097139332708889338 0.00050468676708037964 0 -0.0094275102120869141 0.0005993175702690653 0 -0.0097139332708889338 0.00050468676708037964 0 -0.0094275102120869141 0.0005993175702690653 0 -0.0096074010925128669 0.00075614717990447943 0 -0.0096074010925128669 0.00075614717990447943 0 -0.0092574518519434532 0.00088061700565443145 0 -0.0096539294773904782 0.0010468826290408323 0 -0.0094275102120869141 0.0005993175702690653 0 -0.0096074010925128669 0.00075614717990447943 0 -0.0092574518519434532 0.00088061700565443145 0 -0.0092574518519434532 0.00088061700565443145 0 -0.0089821422788825978 0.00072866190292570894 0 -0.0088432564596175982 0.00092352719060397623 0 -0.009200778144179118 0.00063883081769984529 0 -0.0092574518519434532 0.00088061700565443145 0 -0.0089821422788825978 0.00072866190292570894 0 -0.009200778144179118 0.00063883081769984529 0 -0.0094275102120869141 0.0005993175702690653 0 -0.0092574518519434532 0.00088061700565443145 0 -0.0089821422788825978 0.00072866190292570894 0 -0.0088094035939980907 0.00071583532250832534 0 -0.0088432564596175982 0.00092352719060397623 0 -0.0089821422788825978 0.00072866190292570894 0 -0.0088094035939980907 0.00071583532250832534 0 -0.0089097647337740352 0.00062310437105344652 0 -0.0088094035939980907 0.00071583532250832534 0 -0.0089097647337740352 0.00062310437105344652 0 -0.0087923279491406922 0.00059813923774114429 0 -0.0088094035939980907 0.00071583532250832534 0 -0.0086641208966980066 0.00083160434507089688 0 -0.0088432564596175982 0.00092352719060397623 0 -0.0070864584221536743 -0.0011376138696625403 0 -0.0099941807872396642 -0.0020313961592924408 0 -0.0086641208966980066 0.00083160434507089688 0 -0.0086236789183723843 0.00061125148568627673 0 -0.0083089971604491056 0.0011055717117080647 0 -0.0031679140046327291 -0.0029861016980649129 0 -0.0027091181335298603 -0.0016933071178206701 0 -0.0023520886732980376 -0.002850464310463781 0 -0.0070864584221536743 -0.0011376138696625403 0 -0.0053262074414521078 -0.00028039648902879015 0 -0.0088094035939980907 0.00071583532250832534 0 -0.0086641208966980066 0.00083160434507089688 0 -0.0086236789183723843 0.00061125148568627673 0 -0.0088094035939980907 0.00071583532250832534 0 -0.0086236789183723843 0.00061125148568627673 0 -0.0087923279491406922 0.00059813923774114429 0 -0.0070864584221536743 -0.0011376138696625403 0 -0.0082370888771461405 -0.00067433851251701626 0 -0.012997274633734929 -0.0011213604589202111 0 -0.0070864584221536743 -0.0011376138696625403 0 -0.010954698970791245 -0.0013360619059462715 0 -0.010797907688300875 -0.0016111638302832671 0 -0.01045407428609723 -0.0012493809333748861 0 -0.011151227554362498 -0.0019728892551932526 0 -0.010954698970791245 -0.0013360619059462715 0 -0.010797907688300875 -0.0016111638302832671 0 -0.008911440272674518 0.00029527097621857493 0 -0.0086996968673471106 0.0006155934804780741 0 -0.0088977650734791986 0.00051446961946664284 0 -0.0086996968673471106 0.0006155934804780741 0 -0.0088977650734791986 0.00051446961946664284 0 -0.0087923279491406922 0.00059813923774114429 0 -0.008911440272674518 0.00029527097621857493 0 -0.0088977650734791986 0.00051446961946664284 0 -0.0090783247350318674 0.00042174595968070519 0 -0.0088977650734791986 0.00051446961946664284 0 -0.0090783247350318674 0.00042174595968070519 0 -0.0090582052473776303 0.00055766995105399988 0 -0.0088977650734791986 0.00051446961946664284 0 -0.0090582052473776303 0.00055766995105399988 0 -0.0089097647337740352 0.00062310437105344652 0 -0.0089821422788825978 0.00072866190292570894 0 -0.0090582052473776303 0.00055766995105399988 0 -0.0089097647337740352 0.00062310437105344652 0 -0.0088977650734791986 0.00051446961946664284 0 -0.0089097647337740352 0.00062310437105344652 0 -0.0087923279491406922 0.00059813923774114429 0 -0.010039340874367159 0.00025515091380496995 0 -0.010102021131658352 0.00029882966285738342 0 -0.010056502375061198 0.00029936605749884625 0 -0.01006279597489158 0.00036095149839917705 0 -0.010136401617098958 0.00032830292638376965 0 -0.010102021131658352 0.00029882966285738342 0 -0.010039340874367159 0.00025515091380496995 0 -0.01006279597489158 0.00036095149839917705 0 -0.010102021131658352 0.00029882966285738342 0 -0.010136401617098958 0.00032830292638376965 0 -0.010102021131658352 0.00029882966285738342 0 -0.010122521774704255 0.00027331454605498208 0 -0.010102021131658352 0.00029882966285738342 0 -0.010122521774704255 0.00027331454605498208 0 -0.010053112065835843 0.00030364440304345408 0 -0.010102021131658352 0.00029882966285738342 0 -0.010053112065835843 0.00030364440304345408 0 -0.010056664730575593 0.00034184586110420174 0 -0.010102021131658352 0.00029882966285738342 0 -0.010056664730575593 0.00034184586110420174 0 -0.010056502375061198 0.00029936605749884625 0 -0.010053112065835843 0.00030364440304345408 0 -0.010009684212897964 0.00042326572439152911 0 -0.010056664730575593 0.00034184586110420174 0 -0.010053112065835843 0.00030364440304345408 0 -0.00991842509219968 0.00034610777452467287 0 -0.010009684212897964 0.00042326572439152911 0 -0.010122521774704255 0.00027331454605498208 0 -0.010053112065835843 0.00030364440304345408 0 -0.010054198773128482 0.00025281224684664099 0 -0.010053112065835843 0.00030364440304345408 0 -0.010054198773128482 0.00025281224684664099 0 -0.0099519128550730872 0.00026632574938220997 0 -0.010054198773128482 0.00025281224684664099 0 -0.0099519128550730872 0.00026632574938220997 0 -0.0099884129579322026 0.0002064560879860514 0 -0.0098403884123905994 0.00020837346358221846 0 -0.0099519128550730872 0.00026632574938220997 0 -0.0099884129579322026 0.0002064560879860514 0 -0.0098925226780218495 0.00017146443255070733 0 -0.0098403884123905994 0.00020837346358221846 0 -0.0099884129579322026 0.0002064560879860514 0 -0.0098403884123905994 0.00020837346358221846 0 -0.009752404251127918 0.00031162751625629908 0 -0.0099519128550730872 0.00026632574938220997 0 -0.009752404251127918 0.00031162751625629908 0 -0.0097139332708889338 0.00050468676708037964 0 -0.00991842509219968 0.00034610777452467287 0 -0.009752404251127918 0.00031162751625629908 0 -0.0099519128550730872 0.00026632574938220997 0 -0.00991842509219968 0.00034610777452467287 0 -0.010053112065835843 0.00030364440304345408 0 -0.0099519128550730872 0.00026632574938220997 0 -0.00991842509219968 0.00034610777452467287 0 -0.0097139332708889338 0.00050468676708037964 0 -0.0098347513841524278 0.00067118085827646082 0 -0.010009684212897964 0.00042326572439152911 0 -0.0097139332708889338 0.00050468676708037964 0 -0.00991842509219968 0.00034610777452467287 0 -0.010009684212897964 0.00042326572439152911 0 -0.0097139332708889338 0.00050468676708037964 0 -0.0096074010925128669 0.00075614717990447943 0 -0.0098347513841524278 0.00067118085827646082 0 -0.0096074010925128669 0.00075614717990447943 0 -0.0098044885803122896 0.00090734060243332281 0 -0.0098347513841524278 0.00067118085827646082 0 -0.0098347513841524278 0.00067118085827646082 0 -0.010006627117988666 0.00091315057747300566 0 -0.010009684212897964 0.00042326572439152911 0 -0.0096074010925128669 0.00075614717990447943 0 -0.0098044885803122896 0.00090734060243332281 0 -0.0096539294773904782 0.0010468826290408323 0 -0.0098780837197195333 0.00087380471920767838 0 -0.0096668982423016355 0.00082264125137298735 0 -0.0098044885803122896 0.00090734060243332281 0 -0.0098347513841524278 0.00067118085827646082 0 -0.010006627117988666 0.00091315057747300566 0 -0.0096668982423016355 0.00082264125137298735 0 -0.010072421125709288 0.00035860369084091993 0 -0.010040878975198625 0.00035398880184823062 0 -0.010022578047985405 0.00037271580897215242 0 -0.010009684212897964 0.00042326572439152911 0 -0.0096668982423016355 0.00082264125137298735 0 -0.0095420304752397694 0.00070795165482178183 0 -0.010040878975198625 0.00035398880184823062 0 -0.010022578047985405 0.00037271580897215242 0 -0.010020857930833325 0.00034871621315988742 0 -0.010022578047985405 0.00037271580897215242 0 -0.010009684212897964 0.00042326572439152911 0 -0.010056664730575593 0.00034184586110420174 0 -0.010022578047985405 0.00037271580897215242 0 -0.010056664730575593 0.00034184586110420174 0 -0.010038235030811084 0.00033567393719060267 0 -0.010056664730575593 0.00034184586110420174 0 -0.010038235030811084 0.00033567393719060267 0 -0.010056502375061198 0.00029936605749884625 0 -0.010020857930833325 0.00034871621315988742 0 -0.010031983899534727 0.00032394374781510079 0 -0.010029675738971398 0.00032244772061875191 0 -0.0095420304752397694 0.00070795165482178183 0 -0.0085688073228884915 0.00075303799086872357 0 -0.010022578047985405 0.00037271580897215242 0 -0.010038235030811084 0.00033567393719060267 0 -0.010020857930833325 0.00034871621315988742 0 -0.010038235030811084 0.00033567393719060267 0 -0.010020857930833325 0.00034871621315988742 0 -0.010031983899534727 0.00032394374781510079 0 -0.010038235030811084 0.00033567393719060267 0 -0.010031983899534727 0.00032394374781510079 0 -0.010039630056562606 0.0003070352930610761 0 -0.010031983899534727 0.00032394374781510079 0 -0.010039630056562606 0.0003070352930610761 0 -0.010034280560922157 0.000307025092864072 0 -0.010031983899534727 0.00032394374781510079 0 -0.010029675738971398 0.00032244772061875191 0 -0.010034280560922157 0.000307025092864072 0 -0.0085688073228884915 0.00075303799086872357 0 -0.0065062280475079578 0.00066395448101759047 0 -0.0076973260813855988 0.00066500518242329184 0 -0.0080584865349973365 0.00055197357569881586 0 -0.007796619460538369 0.00053694217735022565 0 -0.0084136651260599271 -1.5288060734962632e-05 0 -0.0085688073228884915 0.00075303799086872357 0 -0.010038530549934865 0.00030325215826468586 0 -0.010029675738971398 0.00032244772061875191 0 -0.010034280560922157 0.000307025092864072 0 -0.0084136651260599271 -1.5288060734962632e-05 0 -0.0065062280475079578 0.00066395448101759047 0 -0.010035682017816093 0.00027524658367581356 0 -0.010039630056562606 0.0003070352930610761 0 -0.010034280560922157 0.000307025092864072 0 -0.010035682017816093 0.00027524658367581356 0 -0.010038530549934865 0.00030325215826468586 0 -0.010034280560922157 0.000307025092864072 0 -0.010035682017816093 0.00027524658367581356 0 -0.010039630056562606 0.0003070352930610761 0 -0.010056502375061198 0.00029936605749884625 0 -0.010039340874367159 0.00025515091380496995 0 -0.010035682017816093 0.00027524658367581356 0 -0.010056502375061198 0.00029936605749884625 0 -0.010038235030811084 0.00033567393719060267 0 -0.010039630056562606 0.0003070352930610761 0 -0.010056502375061198 0.00029936605749884625 0 -0.0051292069303932467 0.00084678001873484884 0 -0.0045761607323207588 0.00090629002975034251 0 -0.0048915073775950193 0.0014549416788506245 0 -0.0074426517955276219 0.001306613026633093 0 -0.0074810540503763515 0.0013053386137868788 0 -0.0074108656939748828 0.0014084686332631799 0 -0.0051292069303932467 0.00084678001873484884 0 -0.0050243926222023529 0.00017473566151784842 0 -0.0045761607323207588 0.00090629002975034251 0 -0.0065062280475079578 0.00066395448101759047 0 -0.0059670612680049213 0.0011775926279838354 0 -0.0088448901628963416 0.0010679544913667538 0 -0.0085899797638213163 0.0010510698221824005 0 -0.0088478339204388842 0.0009722965180099612 0 -0.0085688073228884915 0.00075303799086872357 0 -0.0078655421588411465 0.0012313257988119377 0 -0.0074426517955276219 0.001306613026633093 0 -0.0073520668173471101 0.0013459420583837645 0 -0.0074108656939748828 0.0014084686332631799 0 -0.0073520668173471101 0.0013459420583837645 0 -0.0074108656939748828 0.0014084686332631799 0 -0.0073203758587281958 0.0014328238181504167 0 -0.0059670612680049213 0.0011775926279838354 0 -0.0057490001831843312 0.0014641170125166236 0 -0.0074108656939748828 0.0014084686332631799 0 -0.0073203758587281958 0.0014328238181504167 0 -0.0073401440164967916 0.0015114794040737459 0 -0.0045761607323207588 0.00090629002975034251 0 -0.0042464391675580276 0.0014680813374293828 0 -0.0048915073775950193 0.0014549416788506245 0 -0.0073203758587281958 0.0014328238181504167 0 -0.0072638565037198349 0.0013802558334529359 0 -0.007251604379246295 0.0014727833398645543 0 -0.0073203758587281958 0.0014328238181504167 0 -0.007251604379246295 0.0014727833398645543 0 -0.0072836165850827979 0.0015206849322405014 0 -0.0073520668173471101 0.0013459420583837645 0 -0.0073203758587281958 0.0014328238181504167 0 -0.0072638565037198349 0.0013802558334529359 0 -0.0090992782157728897 0.0010793769755555282 0 -0.0088448901628963416 0.0010679544913667538 0 -0.0088478339204388842 0.0009722965180099612 0 -0.0078655421588411465 0.0012313257988119377 0 -0.008978257884842503 0.0013117263145363738 0 -0.0090992782157728897 0.0010793769755555282 0 -0.0088478339204388842 0.0009722965180099612 0 -0.0091054397538321771 0.00088881436049733015 0 -0.0096668982423016355 0.00082264125137298735 0 -0.008978257884842503 0.0013117263145363738 0 -0.008978257884842503 0.0013117263145363738 0 -0.0098392875835917794 0.0011424790925028984 0 -0.0099692689552089171 0.0012002999003146591 0 -0.0098284429532622206 0.0010703621096021115 0 -0.0097778678797943667 0.0012652016461583461 0 -0.0096539294773904782 0.0010468826290408323 0 -0.0097778678797943667 0.0012652016461583461 0 -0.0096210839221196141 0.0013895121087572036 0 -0.0099847621940389129 0.0009151524874837422 0 -0.0099692689552089171 0.0012002999003146591 0 -0.0098284429532622206 0.0010703621096021115 0 -0.0098044885803122896 0.00090734060243332281 0 -0.0099847621940389129 0.0009151524874837422 0 -0.0098284429532622206 0.0010703621096021115 0 -0.0098044885803122896 0.00090734060243332281 0 -0.0098284429532622206 0.0010703621096021115 0 -0.0096539294773904782 0.0010468826290408323 0 -0.0098284429532622206 0.0010703621096021115 0 -0.0096539294773904782 0.0010468826290408323 0 -0.0097778678797943667 0.0012652016461583461 0 -0.009915653652213233 0.0012181818894223763 0 -0.0098914397312755628 0.0015058465082508441 0 -0.0097859771143556859 0.0014299976619526391 0 -0.0097778678797943667 0.0012652016461583461 0 -0.0097859771143556859 0.0014299976619526391 0 -0.0096210839221196141 0.0013895121087572036 0 -0.008978257884842503 0.0013117263145363738 0 -0.0085754401111415527 0.0014653447367206586 0 -0.0097859771143556859 0.0014299976619526391 0 -0.0098716404410199941 0.0017798936011629008 0 -0.0096210839221196141 0.0013895121087572036 0 -0.009915653652213233 0.0012181818894223763 0 -0.0097778678797943667 0.0012652016461583461 0 -0.0097859771143556859 0.0014299976619526391 0 -0.0086768549931896793 0.0018312369858433885 0 -0.0096324574883946256 0.0013532051292060681 0 -0.0095186166463342228 0.0017150870010086017 0 -0.0093035613576352896 0.0012869355401652217 0 -0.0092422140575186759 0.0016221414371271434 0 -0.0095186166463342228 0.0017150870010086017 0 -0.0093251290412084947 0.0018384192225964985 0 -0.0092422140575186759 0.0016221414371271434 0 -0.0085754401111415527 0.0014653447367206586 0 -0.0086768549931896793 0.0018312369858433885 0 -0.0098914397312755628 0.0015058465082508441 0 -0.0097859771143556859 0.0014299976619526391 0 -0.0098716404410199941 0.0017798936011629008 0 -0.0086768549931896793 0.0018312369858433885 0 -0.0080911786269655256 0.0022901310539888355 0 -0.0095186166463342228 0.0017150870010086017 0 -0.0093251290412084947 0.0018384192225964985 0 -0.0094908539866871925 0.0020066305201895231 0 -0.0093251290412084947 0.0018384192225964985 0 -0.0094908539866871925 0.0020066305201895231 0 -0.0092159555915889632 0.0020210392354391318 0 -0.0079494843454273878 0.001937337978155164 0 -0.0079343667495484164 0.0022153279124861583 0 -0.0080362869257133759 0.0020782923410564524 0 -0.0086768549931896793 0.0018312369858433885 0 -0.0062314681136547787 0.0020583951124522114 0 -0.0080911786269655256 0.0022901310539888355 0 -0.0062314681136547787 0.0020583951124522114 0 -0.007251604379246295 0.0014727833398645543 0 -0.0072402593738940049 0.0015718812830172221 0 -0.0072836165850827979 0.0015206849322405014 0 -0.0062314681136547787 0.0020583951124522114 0 -0.0057490001831843312 0.0014641170125166236 0 -0.007264612715844815 0.0016185222730918287 0 -0.0072836165850827979 0.0015206849322405014 0 -0.0073401440164967916 0.0015114794040737459 0 -0.0072402593738940049 0.0015718812830172221 0 -0.007264612715844815 0.0016185222730918287 0 -0.0072836165850827979 0.0015206849322405014 0 -0.0073203758587281958 0.0014328238181504167 0 -0.0072836165850827979 0.0015206849322405014 0 -0.0073401440164967916 0.0015114794040737459 0 -0.0042464391675580276 0.0014680813374293828 0 -0.00449482487758519 0.0019474567334063493 0 -0.0048915073775950193 0.0014549416788506245 0 -0.0040346899171809173 0.001889774861016084 0 -0.0042464391675580276 0.0014680813374293828 0 -0.00449482487758519 0.0019474567334063493 0 -0.0040346899171809173 0.001889774861016084 0 -0.00449482487758519 0.0019474567334063493 0 -0.0044218909254055772 0.0023135192681057949 0 -0.0049099495487464227 0.0020733877467139401 0 -0.00449482487758519 0.0019474567334063493 0 -0.0048915073775950193 0.0014549416788506245 0 -0.0049099495487464227 0.0020733877467139401 0 -0.00449482487758519 0.0019474567334063493 0 -0.0045606051511374738 0.0022110520768528178 0 -0.0086408245366708224 0.0011959412219205057 0 -0.0086662688216134452 0.0014732073037768477 0 -0.0083542219689756204 0.0015753035424886255 0 -0.0086408245366708224 0.0011959412219205057 0 -0.0088792767381662904 0.0013390424555884929 0 -0.0086662688216134452 0.0014732073037768477 0 -0.0086408245366708224 0.0011959412219205057 0 -0.0089499544977894516 0.0011183680496155764 0 -0.0088792767381662904 0.0013390424555884929 0 -0.0086408245366708224 0.0011959412219205057 0 -0.0083089971604491056 0.0011055717117080647 0 -0.0083542219689756204 0.0015753035424886255 0 -0.0086641208966980066 0.00083160434507089688 0 -0.0083089971604491056 0.0011055717117080647 0 -0.008615133762674379 0.0010139907825539652 0 -0.0086408245366708224 0.0011959412219205057 0 -0.0083089971604491056 0.0011055717117080647 0 -0.008615133762674379 0.0010139907825539652 0 -0.0086408245366708224 0.0011959412219205057 0 -0.008615133762674379 0.0010139907825539652 0 -0.0088432564596175982 0.00092352719060397623 0 -0.0086641208966980066 0.00083160434507089688 0 -0.008615133762674379 0.0010139907825539652 0 -0.0088432564596175982 0.00092352719060397623 0 -0.0086408245366708224 0.0011959412219205057 0 -0.0088432564596175982 0.00092352719060397623 0 -0.0089499544977894516 0.0011183680496155764 0 -0.0092574518519434532 0.00088061700565443145 0 -0.0089499544977894516 0.0011183680496155764 0 -0.0091147228248898062 0.0012459577258882063 0 -0.0092574518519434532 0.00088061700565443145 0 -0.0088432564596175982 0.00092352719060397623 0 -0.0089499544977894516 0.0011183680496155764 0 -0.0091961779349172077 0.00087493781130655211 0 -0.0096324574883946256 0.0013532051292060681 0 -0.0092574518519434532 0.00088061700565443145 0 -0.0096539294773904782 0.0010468826290408323 0 -0.0096210839221196141 0.0013895121087572036 0 -0.0092574518519434532 0.00088061700565443145 0 -0.0093035613576352896 0.0012869355401652217 0 -0.0091147228248898062 0.0012459577258882063 0 -0.0093035613576352896 0.0012869355401652217 0 -0.0091640743662801949 0.0014378985790515979 0 -0.0092422140575186759 0.0016221414371271434 0 -0.0093035613576352896 0.0012869355401652217 0 -0.0091640743662801949 0.0014378985790515979 0 -0.0091147228248898062 0.0012459577258882063 0 -0.0091640743662801949 0.0014378985790515979 0 -0.0091147228248898062 0.0012459577258882063 0 -0.0090180253075782292 0.0014814382319983293 0 -0.0089499544977894516 0.0011183680496155764 0 -0.0091147228248898062 0.0012459577258882063 0 -0.0088792767381662904 0.0013390424555884929 0 -0.0091147228248898062 0.0012459577258882063 0 -0.0088792767381662904 0.0013390424555884929 0 -0.0090180253075782292 0.0014814382319983293 0 -0.0088792767381662904 0.0013390424555884929 0 -0.0090180253075782292 0.0014814382319983293 0 -0.0088595644781050923 0.0016068111961449892 0 -0.0088792767381662904 0.0013390424555884929 0 -0.0088595644781050923 0.0016068111961449892 0 -0.0086662688216134452 0.0014732073037768477 0 -0.0090180253075782292 0.0014814382319983293 0 -0.0089912494957851228 0.0016372822247484897 0 -0.0088595644781050923 0.0016068111961449892 0 -0.0090180253075782292 0.0014814382319983293 0 -0.0089912494957851228 0.0016372822247484897 0 -0.0090995294516671484 0.0015825694476384758 0 -0.0089912494957851228 0.0016372822247484897 0 -0.0090750352761748004 0.0017251693662090372 0 -0.0089211608256694296 0.0017582849857219864 0 -0.0089912494957851228 0.0016372822247484897 0 -0.0088595644781050923 0.0016068111961449892 0 -0.0089211608256694296 0.0017582849857219864 0 -0.0088595644781050923 0.0016068111961449892 0 -0.0087734527166674712 0.0017746010275942541 0 -0.0086202654619192114 0.0016762568294635466 0 -0.0088595644781050923 0.0016068111961449892 0 -0.0087734527166674712 0.0017746010275942541 0 -0.0089211608256694296 0.0017582849857219864 0 -0.0091640743662801949 0.0014378985790515979 0 -0.0090180253075782292 0.0014814382319983293 0 -0.0090995294516671484 0.0015825694476384758 0 -0.0091640743662801949 0.0014378985790515979 0 -0.0090995294516671484 0.0015825694476384758 0 -0.0092422140575186759 0.0016221414371271434 0 -0.0089912494957851228 0.0016372822247484897 0 -0.0090995294516671484 0.0015825694476384758 0 -0.0090750352761748004 0.0017251693662090372 0 -0.0090995294516671484 0.0015825694476384758 0 -0.0090750352761748004 0.0017251693662090372 0 -0.0092422140575186759 0.0016221414371271434 0 -0.0090750352761748004 0.0017251693662090372 0 -0.0092422140575186759 0.0016221414371271434 0 -0.0091618696696107553 0.0018431964933817834 0 -0.0093251290412084947 0.0018384192225964985 0 -0.0092422140575186759 0.0016221414371271434 0 -0.0091618696696107553 0.0018431964933817834 0 -0.0090750352761748004 0.0017251693662090372 0 -0.0091618696696107553 0.0018431964933817834 0 -0.0090075736965927848 0.001855409840532885 0 -0.0091618696696107553 0.0018431964933817834 0 -0.0090830860619320504 0.0019617078921874988 0 -0.0090075736965927848 0.001855409840532885 0 -0.0090830860619320504 0.0019617078921874988 0 -0.0090075736965927848 0.001855409840532885 0 -0.0089546759866133384 0.0019811260404146757 0 -0.0090830860619320504 0.0019617078921874988 0 -0.0089546759866133384 0.0019811260404146757 0 -0.0090652062466307082 0.0021038591899159302 0 -0.0091618696696107553 0.0018431964933817834 0 -0.0090830860619320504 0.0019617078921874988 0 -0.0092159555915889632 0.0020210392354391318 0 -0.0093251290412084947 0.0018384192225964985 0 -0.0091618696696107553 0.0018431964933817834 0 -0.0092159555915889632 0.0020210392354391318 0 -0.0087734527166674712 0.0017746010275942541 0 -0.008868064265445284 0.0018865089378745539 0 -0.0087377856262678289 0.0019232968403059532 0 -0.0087734527166674712 0.0017746010275942541 0 -0.0089211608256694296 0.0017582849857219864 0 -0.008868064265445284 0.0018865089378745539 0 -0.0090750352761748004 0.0017251693662090372 0 -0.0089211608256694296 0.0017582849857219864 0 -0.0090075736965927848 0.001855409840532885 0 -0.0089211608256694296 0.0017582849857219864 0 -0.0090075736965927848 0.001855409840532885 0 -0.008868064265445284 0.0018865089378745539 0 -0.0090075736965927848 0.001855409840532885 0 -0.008868064265445284 0.0018865089378745539 0 -0.0089546759866133384 0.0019811260404146757 0 -0.008868064265445284 0.0018865089378745539 0 -0.0089546759866133384 0.0019811260404146757 0 -0.0088191303178661966 0.0020008234098256323 0 -0.008868064265445284 0.0018865089378745539 0 -0.0088191303178661966 0.0020008234098256323 0 -0.0087377856262678289 0.0019232968403059532 0 -0.0088191303178661966 0.0020008234098256323 0 -0.0087377856262678289 0.0019232968403059532 0 -0.008721782452505893 0.0020545640203578478 0 -0.0087377856262678289 0.0019232968403059532 0 -0.0086019660210451092 0.0019666349063226034 0 -0.0086344194023008219 0.0018184530617005722 0 -0.0087377856262678289 0.0019232968403059532 0 -0.0086019660210451092 0.0019666349063226034 0 -0.008721782452505893 0.0020545640203578478 0 -0.0086019660210451092 0.0019666349063226034 0 -0.0084593062958793746 0.0018410460484119743 0 -0.0086344194023008219 0.0018184530617005722 0 -0.0084593062958793746 0.0018410460484119743 0 -0.0082825405123038241 0.0019696468593450463 0 -0.0084504643563863939 0.0020638745508638565 0 -0.0086019660210451092 0.0019666349063226034 0 -0.0084593062958793746 0.0018410460484119743 0 -0.0084504643563863939 0.0020638745508638565 0 -0.0087734527166674712 0.0017746010275942541 0 -0.0086344194023008219 0.0018184530617005722 0 -0.0086202654619192114 0.0016762568294635466 0 -0.0087734527166674712 0.0017746010275942541 0 -0.0087377856262678289 0.0019232968403059532 0 -0.0086344194023008219 0.0018184530617005722 0 -0.0084593062958793746 0.0018410460484119743 0 -0.0086344194023008219 0.0018184530617005722 0 -0.0086202654619192114 0.0016762568294635466 0 -0.0088595644781050923 0.0016068111961449892 0 -0.0086202654619192114 0.0016762568294635466 0 -0.0086662688216134452 0.0014732073037768477 0 -0.0086202654619192114 0.0016762568294635466 0 -0.0086662688216134452 0.0014732073037768477 0 -0.0083542219689756204 0.0015753035424886255 0 -0.0084593062958793746 0.0018410460484119743 0 -0.0086202654619192114 0.0016762568294635466 0 -0.0083542219689756204 0.0015753035424886255 0 -0.0083089971604491056 0.0011055717117080647 0 -0.0083542219689756204 0.0015753035424886255 0 -0.0079820424684608066 0.0015885889848839033 0 -0.0083542219689756204 0.0015753035424886255 0 -0.0081791647557123131 0.0017933197636298185 0 -0.0079820424684608066 0.0015885889848839033 0 -0.0084593062958793746 0.0018410460484119743 0 -0.0083542219689756204 0.0015753035424886255 0 -0.0081791647557123131 0.0017933197636298185 0 -0.0084593062958793746 0.0018410460484119743 0 -0.0081791647557123131 0.0017933197636298185 0 -0.0082825405123038241 0.0019696468593450463 0 -0.0081791647557123131 0.0017933197636298185 0 -0.0079247676789569767 0.001956768911584768 0 -0.0080887566811516706 0.0020280060281862387 0 -0.0081791647557123131 0.0017933197636298185 0 -0.0082825405123038241 0.0019696468593450463 0 -0.0080887566811516706 0.0020280060281862387 0 -0.0081791647557123131 0.0017933197636298185 0 -0.0079247676789569767 0.001956768911584768 0 -0.0079820424684608066 0.0015885889848839033 0 -0.0079247676789569767 0.001956768911584768 0 -0.0079820424684608066 0.0015885889848839033 0 -0.0075937977163719654 0.0021436840360579226 0 -0.0051075209621861597 0.00050741586409773693 0 -0.0045992492716348038 0.0012749284452096578 0 -0.0016627256968818659 -0.00011983854646919479 0 -0.0021880263083891918 -0.00055277940955162372 0 -0.0015974930649093313 0.0004154623794918009 0 -0.0016627256968818659 -0.00011983854646919479 0 -0.0013620525301385835 -0.00052231635441749719 0 -0.0013879491543231021 0.00036656797582258868 0 -0.0011215052332533594 0.00018959123647501914 0 -0.0011356715856273077 -0.00021708405312845908 0 -0.00090348764650396995 1.2622371648659031e-05 0 -0.0011215052332533594 0.00018959123647501914 0 -0.0011356715856273077 -0.00021708405312845908 0 -0.0013879491543231021 0.00036656797582258868 0 -0.00093000274153106635 -0.00041749160099304155 0 -0.0014825147292153158 0.00038348160738445829 0 -0.0016627256968818659 -0.00011983854646919479 0 -0.0013620525301385835 -0.00052231635441749719 0 -0.0021880263083891918 -0.00055277940955162372 0 -0.0013620525301385835 -0.00052231635441749719 0 -0.0021880263083891918 -0.00055277940955162372 0 -0.0015116511619710643 -0.0010108361532216014 0 -0.0021880263083891918 -0.00055277940955162372 0 -0.0020030878977096815 -0.0012322658019705509 0 -0.0015116511619710643 -0.0010108361532216014 0 -0.00065237779819474575 7.7961850521880526e-05 0 -0.00022039492987722294 4.7833139711667088e-05 0 -0.000364681348534844 0.00028218241800114272 0 -0.00065237779819474575 7.7961850521880526e-05 0 -0.00072898150632132392 -0.00021997907895698706 0 -0.00022039492987722294 4.7833139711667088e-05 0 -0.00065237779819474575 7.7961850521880526e-05 0 -0.00065006452757330091 0.00030205720095174586 0 -0.000364681348534844 0.00028218241800114272 0 -0.00065237779819474575 7.7961850521880526e-05 0 -0.00090348764650396995 1.2622371648659031e-05 0 -0.00072898150632132392 -0.00021997907895698706 0 -0.00065237779819474575 7.7961850521880526e-05 0 -0.00088980427991825796 0.00025168707230861098 0 -0.00065006452757330091 0.00030205720095174586 0 -0.00065237779819474575 7.7961850521880526e-05 0 -0.00090348764650396995 1.2622371648659031e-05 0 -0.00088980427991825796 0.00025168707230861098 0 -0.0011215052332533594 0.00018959123647501914 0 -0.00090348764650396995 1.2622371648659031e-05 0 -0.00088980427991825796 0.00025168707230861098 0 -0.0011356715856273077 -0.00021708405312845908 0 -0.00089089065474820084 -0.00040738886081679839 0 -0.00072898150632132392 -0.00021997907895698706 0 -0.0011356715856273077 -0.00021708405312845908 0 -0.00090348764650396995 1.2622371648659031e-05 0 -0.00072898150632132392 -0.00021997907895698706 0 -0.00089089065474820084 -0.00040738886081679839 0 -0.00072898150632132392 -0.00021997907895698706 0 -0.00068826161095576993 -0.00045507420169240071 0 -0.00072898150632132392 -0.00021997907895698706 0 -0.00051517915753014772 -0.00051905740051749413 0 -0.00022039492987722294 4.7833139711667088e-05 0 -0.00072898150632132392 -0.00021997907895698706 0 -0.00051517915753014772 -0.00051905740051749413 0 -0.00068826161095576993 -0.00045507420169240071 0 -0.0065686133219376988 0.0012079826829257114 0 -0.0073574808004280819 -0.00011922599634218452 0 -0.0058338816247600787 -0.00021874633022534571 0 -0.002789020505108875 -1.3588258720556842e-05 0 -0.0021931852955586941 -0.00053645470037923845 0 -0.00051517915753014772 -0.00051905740051749413 0 -0.00068826161095576993 -0.00045507420169240071 0 -0.0008439601378942617 -0.00061713261587478319 0 -0.002789020505108875 -1.3588258720556842e-05 0 -0.0058676153673831513 -0.0004180051054702219 0 -0.003798678773585226 0.00030862696153083553 0 -0.0047954171062675457 3.2963574378423041e-05 0 -0.0043929834158471411 -0.00070499358523239066 0 -0.0011356715856273077 -0.00021708405312845908 0 -0.00089089065474820084 -0.00040738886081679839 0 -0.00099713127374530903 -0.00077352379932024294 0 -0.00089089065474820084 -0.00040738886081679839 0 -0.00086170581089945635 -0.0005309482811037573 0 -0.00099713127374530903 -0.00077352379932024294 0 -0.0047954171062675457 3.2963574378423041e-05 0 -0.0053108477154754372 -0.00051998423555081163 0 -0.0043929834158471411 -0.00070499358523239066 0 -0.00086170581089945635 -0.0005309482811037573 0 -0.00083196991446175513 -0.00060587355974451294 0 -0.00099713127374530903 -0.00077352379932024294 0 -0.00068826161095576993 -0.00045507420169240071 0 -0.00086170581089945635 -0.0005309482811037573 0 -0.00083196991446175513 -0.00060587355974451294 0 -0.00089089065474820084 -0.00040738886081679839 0 -0.00068826161095576993 -0.00045507420169240071 0 -0.00086170581089945635 -0.0005309482811037573 0 -0.0010403509867410717 -0.00015208863219877742 0 -0.0021931852955586941 -0.00053645470037923845 0 -0.0021931852955586941 -0.00053645470037923845 0 -0.0033652183232971231 -0.0011674961588610318 0 -0.0046571793792791784 -0.0016113516039518272 0 -0.0036979136771068321 -0.0020379080876656171 0 -0.0011449305533799089 -0.0015452767001923392 0 -0.0012362128166346579 -0.00163812649962816 0 -0.0012995043418915337 -0.0014585085925528478 0 -0.0053108477154754372 -0.00051998423555081163 0 -0.0043929834158471411 -0.00070499358523239066 0 -0.0049891599840025556 -0.0017113875791370913 0 -0.0073574808004280819 -0.00011922599634218452 0 -0.0081490777517174012 -0.0014508604760653169 0 -0.0071534426777019305 -0.0018740445665068192 0 -0.0056348501133912376 -0.0020958061343678831 0 -0.0054199940875089879 -0.0018604526791018779 0 -0.006140957422738515 -0.0005037313851322837 0 -0.0033652183232971231 -0.0011674961588610318 0 -0.0082470224848690977 -0.0012159371149642042 0 -0.0033652183232971231 -0.0011674961588610318 0 -0.0046571793792791784 -0.0016113516039518272 0 -0.0046571793792791784 -0.0016113516039518272 0 -0.0082470224848690977 -0.0012159371149642042 0 -0.0058676153673831513 -0.0004180051054702219 0 -0.0082470224848690977 -0.0012159371149642042 0 -0.010727303814221729 -0.00033002432631802837 0 -0.0070634382920244472 0.00022186163805103731 0 -0.0073574808004280819 -0.00011922599634218452 0 -0.0071534426777019305 -0.0018740445665068192 0 -0.0058338816247600787 -0.00021874633022534571 0 -0.0097498385792311147 -0.00084995884928777568 0 -0.0083257951693227108 -0.0005969792077824272 0 -0.0086554137494434611 0.00053171601838489322 0 -0.0053262074414521078 -0.00028039648902879015 0 -0.0051075209621861597 0.00050741586409773693 0 -0.0027091181335298603 -0.0016933071178206701 0 -0.0020030878977096815 -0.0012322658019705509 0 -0.0016880130974017895 -0.0017448281226293467 0 -0.0027091181335298603 -0.0016933071178206701 0 -0.0021880263083891918 -0.00055277940955162372 0 -0.0020030878977096815 -0.0012322658019705509 0 -0.0020030878977096815 -0.0012322658019705509 0 -0.0015116511619710643 -0.0010108361532216014 0 -0.0016232217838006724 -0.0013601407766321656 0 -0.0013620525301385835 -0.00052231635441749719 0 -0.0011449305533799089 -0.0015452767001923392 0 -0.0015116511619710643 -0.0010108361532216014 0 -0.00093000274153106635 -0.00041749160099304155 0 -0.0033652183232971231 -0.0011674961588610318 0 -0.0015116511619710643 -0.0010108361532216014 0 -0.0012995043418915337 -0.0014585085925528478 0 -0.0016232217838006724 -0.0013601407766321656 0 -0.0011449305533799089 -0.0015452767001923392 0 -0.0015116511619710643 -0.0010108361532216014 0 -0.0012995043418915337 -0.0014585085925528478 0 -0.0012995043418915337 -0.0014585085925528478 0 -0.0016232217838006724 -0.0013601407766321656 0 -0.0016880130974017895 -0.0017448281226293467 0 -0.0020030878977096815 -0.0012322658019705509 0 -0.0016232217838006724 -0.0013601407766321656 0 -0.0016880130974017895 -0.0017448281226293467 0 -0.0083995824829691621 -0.0012761089066295882 0 -0.0088136514259337766 -0.0017042505108448001 0 -0.0081929727944030622 -0.0017403679716225218 0 -0.001217908050539999 -0.0016605861736314887 0 -0.0012995043418915337 -0.0014585085925528478 0 -0.0016880130974017895 -0.0017448281226293467 0 -0.001217908050539999 -0.0016605861736314887 0 -0.0016880130974017895 -0.0017448281226293467 0 -0.0017545690013108925 -0.0022458368121592146 0 -0.0046571793792791784 -0.0016113516039518272 0 -0.004940466979599995 -0.001693070479898315 0 -0.0027091181335298603 -0.0016933071178206701 0 -0.0016880130974017895 -0.0017448281226293467 0 -0.0017545690013108925 -0.0022458368121592146 0 -0.0027091181335298603 -0.0016933071178206701 0 -0.0017545690013108925 -0.0022458368121592146 0 -0.0023520886732980376 -0.002850464310463781 0 -0.004940466979599995 -0.001693070479898315 0 -0.0099941807872396642 -0.0020313961592924408 0 -0.0139765983588158 -0.0022010686157511047 0 -0.0099941807872396642 -0.0020313961592924408 0 -0.016479502307809649 -0.0020213239656527177 0 -0.016706396870701922 -0.002194161816779699 0 -0.016939877321599905 -0.0020076708525823546 0 -0.016479502307809649 -0.0020213239656527177 0 -0.016939877321599905 -0.0020076708525823546 0 -0.016818481277185715 -0.0016482019758756448 0 -0.016939877321599905 -0.0020076708525823546 0 -0.017099842340070927 -0.0021205727187724064 0 -0.017108784750657274 -0.0017810066592996443 0 -0.016706396870701922 -0.002194161816779699 0 -0.016939877321599905 -0.0020076708525823546 0 -0.017099842340070927 -0.0021205727187724064 0 -0.0088136514259337766 -0.0017042505108448001 0 -0.0092215700106485603 -0.0021363559839965972 0 -0.0083343962221007258 -0.001972341646476878 0 -0.016706396870701922 -0.002194161816779699 0 -0.017099842340070927 -0.0021205727187724064 0 -0.017146309225367022 -0.0022186477511260141 0 -0.0099941807872396642 -0.0020313961592924408 0 -0.013418044227108948 -0.00201515753152392 0 -0.0088136514259337766 -0.0017042505108448001 0 -0.0081929727944030622 -0.0017403679716225218 0 -0.0083343962221007258 -0.001972341646476878 0 -0.011940694477758898 -0.001334472622591139 0 -0.013418044227108948 -0.00201515753152392 0 -0.0082470224848690977 -0.0012159371149642042 0 -0.013418044227108948 -0.00201515753152392 0 -0.0081490777517174012 -0.0014508604760653169 0 -0.0079919530465743412 -0.0020226606803625344 0 -0.0071534426777019305 -0.0018740445665068192 0 -0.011940694477758898 -0.001334472622591139 0 -0.010727303814221729 -0.00033002432631802837 0 -0.0082470224848690977 -0.0012159371149642042 0 -0.011940694477758898 -0.001334472622591139 0 -0.010707037564884768 -0.0010350686536683134 0 -0.01048838438951828 -0.0018131254202520244 0 -0.011237668246891904 -0.0019486270481610878 0 -0.017189295408584104 -0.0022042368431332946 0 -0.01721158839462136 -0.0021605408804063948 0 -0.017129763121416969 -0.0021942694919328152 0 -0.013710340890272897 -0.00052656935563624632 0 -0.013521807868682921 -0.0011894647378303857 0 -0.012280623104632821 -0.00026781388151068144 0 -0.013521807868682921 -0.0011894647378303857 0 -0.013342588798514712 -0.0016303576302472416 0 -0.012280623104632821 -0.00026781388151068144 0 -0.011940694477758898 -0.001334472622591139 0 -0.014393525705466266 -0.0013537998889446247 0 -0.01721158839462136 -0.0021605408804063948 0 -0.017227354145549923 -0.0021349925727102924 0 -0.017153479179007711 -0.0020864380701488819 0 -0.014393525705466266 -0.0013537998889446247 0 -0.01581325811111943 -0.0011889671196885874 0 -0.01721158839462136 -0.0021605408804063948 0 -0.017129763121416969 -0.0021942694919328152 0 -0.017153479179007711 -0.0020864380701488819 0 -0.017099842340070927 -0.0021205727187724064 0 -0.017129763121416969 -0.0021942694919328152 0 -0.017153479179007711 -0.0020864380701488819 0 -0.015525382076198954 -0.0029135134498372971 0 -0.013418044227108948 -0.00201515753152392 0 -0.013717903440684793 0.0010962117243322619 0 -0.013525475917218399 0.00078837488705907495 0 -0.01296686343877645 0.0012270451388316334 0 -0.013525475917218399 0.00078837488705907495 0 -0.013397767476654167 0.00025343688296681447 0 -0.01296686343877645 0.0012270451388316334 0 -0.010727303814221729 -0.00033002432631802837 0 -0.010995916265675497 0.00067318124269429588 0 -0.013995708695857053 0.00075141520131979283 0 -0.013717903440684793 0.0010962117243322619 0 -0.013525475917218399 0.00078837488705907495 0 -0.01581325811111943 -0.0011889671196885874 0 -0.010727303814221729 -0.00033002432631802837 0 -0.013995708695857053 0.00075141520131979283 0 -0.013397767476654167 0.00025343688296681447 0 -0.013618613130445356 -0.00025277701382740323 0 -0.017744623917961177 -0.0017594034145922573 0 -0.018027602632515686 -0.0013804428064990669 0 -0.017909493028666734 -0.001477939449038777 0 -0.01581325811111943 -0.0011889671196885874 0 -0.015630801104519396 -0.00080637972822588701 0 -0.013995708695857053 0.00075141520131979283 0 -0.013525475917218399 0.00078837488705907495 0 -0.013397767476654167 0.00025343688296681447 0 -0.01581325811111943 -0.0011889671196885874 0 -0.017700134077092537 -0.0018445529464788688 0 -0.017099842340070927 -0.0021205727187724064 0 -0.017153479179007711 -0.0020864380701488819 0 -0.017108784750657274 -0.0017810066592996443 0 -0.017227354145549923 -0.0021349925727102924 0 -0.017153479179007711 -0.0020864380701488819 0 -0.017108784750657274 -0.0017810066592996443 0 -0.017877863579809038 -0.0017943127515534134 0 -0.017829529068860182 -0.0015898078517568239 0 -0.017971523937915245 -0.0015232996291755221 0 -0.017877863579809038 -0.0017943127515534134 0 -0.017829529068860182 -0.0015898078517568239 0 -0.01760998575068912 -0.0014757144487150692 0 -0.01581325811111943 -0.0011889671196885874 0 -0.018001601956906147 -0.0015245844778805783 0 -0.017829529068860182 -0.0015898078517568239 0 -0.017814938630004752 -0.0014860029208498284 0 -0.01760998575068912 -0.0014757144487150692 0 -0.017829529068860182 -0.0015898078517568239 0 -0.017814938630004752 -0.0014860029208498284 0 -0.017971523937915245 -0.0015232996291755221 0 -0.017814938630004752 -0.0014860029208498284 0 -0.017821229444063062 -0.0012942086624456409 0 -0.017971523937915245 -0.0015232996291755221 0 -0.017814938630004752 -0.0014860029208498284 0 -0.017821229444063062 -0.0012942086624456409 0 -0.01760998575068912 -0.0014757144487150692 0 -0.018001601956906147 -0.0015245844778805783 0 -0.018036080466075619 -0.001230882762306088 0 -0.017821229444063062 -0.0012942086624456409 0 -0.017971523937915245 -0.0015232996291755221 0 -0.018057541940710471 -0.0012009335973048165 0 -0.018027602632515686 -0.0013804428064990669 0 -0.017909493028666734 -0.001477939449038777 0 -0.018057541940710471 -0.0012009335973048165 0 -0.017244743600939427 -0.00074767639115116958 0 -0.015630801104519396 -0.00080637972822588701 0 -0.018226687305854122 -0.00099017118160425678 0 -0.018027602632515686 -0.0013804428064990669 0 -0.018057541940710471 -0.0012009335973048165 0 -0.017849394768778594 -0.0009212247457974532 0 -0.018226687305854122 -0.00099017118160425678 0 -0.018057541940710471 -0.0012009335973048165 0 -0.017849394768778594 -0.0009212247457974532 0 -0.017821229444063062 -0.0012942086624456409 0 -0.018057541940710471 -0.0012009335973048165 0 -0.017849394768778594 -0.0009212247457974532 0 -0.017821229444063062 -0.0012942086624456409 0 -0.017603298912530905 -0.0011041479902072686 0 -0.017603298912530905 -0.0011041479902072686 0 -0.017065793189954676 -0.0010666158771485087 0 -0.01760998575068912 -0.0014757144487150692 0 -0.017471244263034386 -0.00073617286466922836 0 -0.017603298912530905 -0.0011041479902072686 0 -0.017065793189954676 -0.0010666158771485087 0 -0.016916085489933768 -0.00096150121492538198 0 -0.017700134077092537 -0.0018445529464788688 0 -0.017065793189954676 -0.0010666158771485087 0 -0.016671392773191195 -0.0013676353513606915 0 -0.016818481277185715 -0.0016482019758756448 0 -0.016653091704676756 -0.0010332400886441117 0 -0.017065793189954676 -0.0010666158771485087 0 -0.016671392773191195 -0.0013676353513606915 0 -0.016475239821731692 -0.0016780844259057183 0 -0.016479502307809649 -0.0020213239656527177 0 -0.016818481277185715 -0.0016482019758756448 0 -0.017065793189954676 -0.0010666158771485087 0 -0.016818481277185715 -0.0016482019758756448 0 -0.017108784750657274 -0.0017810066592996443 0 -0.016475239821731692 -0.0016780844259057183 0 -0.016671392773191195 -0.0013676353513606915 0 -0.016818481277185715 -0.0016482019758756448 0 -0.017821229444063062 -0.0012942086624456409 0 -0.017603298912530905 -0.0011041479902072686 0 -0.01760998575068912 -0.0014757144487150692 0 -0.016939877321599905 -0.0020076708525823546 0 -0.016818481277185715 -0.0016482019758756448 0 -0.017108784750657274 -0.0017810066592996443 0 -0.010468149024779898 5.5823762930896644e-05 0 -0.011435146687652347 -0.000311756766811795 0 -0.010761681059455137 -0.00105881084462365 0 -0.011435146687652347 -0.000311756766811795 0 -0.010761681059455137 -0.00105881084462365 0 -0.011989149945341246 -0.0011947173055394708 0 -0.015069572453177721 0.0014400220644371965 0 -0.013386409934714414 -0.00013121005283523048 0 -0.011435146687652347 -0.000311756766811795 0 -0.011989149945341246 -0.0011947173055394708 0 -0.012726075639212627 -0.00031261663242274177 0 -0.017244743600939427 -0.00074767639115116958 0 -0.013386409934714414 -0.00013121005283523048 0 -0.013213052025632542 -0.0013272788366389975 0 -0.011989149945341246 -0.0011947173055394708 0 -0.012726075639212627 -0.00031261663242274177 0 -0.013213052025632542 -0.0013272788366389975 0 -0.013618613130445356 -0.00025277701382740323 0 -0.012726075639212627 -0.00031261663242274177 0 -0.013397767476654167 0.00025343688296681447 0 -0.013618613130445356 -0.00025277701382740323 0 -0.012726075639212627 -0.00031261663242274177 0 -0.011435146687652347 -0.000311756766811795 0 -0.012726075639212627 -0.00031261663242274177 0 -0.01197603410637839 0.00044534292254892212 0 -0.012726075639212627 -0.00031261663242274177 0 -0.01197603410637839 0.00044534292254892212 0 -0.012668623672362609 0.00065733319085227871 0 -0.013397767476654167 0.00025343688296681447 0 -0.012726075639212627 -0.00031261663242274177 0 -0.012668623672362609 0.00065733319085227871 0 -0.013397767476654167 0.00025343688296681447 0 -0.012668623672362609 0.00065733319085227871 0 -0.012958452468761117 0.0013506403069560623 0 -0.01384877458992489 0.00042577829063773575 0 -0.010995916265675497 0.00067318124269429588 0 -0.012668623672362609 0.00065733319085227871 0 -0.012958452468761117 0.0013506403069560623 0 -0.011664506995721994 0.0015916855115861734 0 -0.01197603410637839 0.00044534292254892212 0 -0.012668623672362609 0.00065733319085227871 0 -0.011664506995721994 0.0015916855115861734 0 -0.01197603410637839 0.00044534292254892212 0 -0.011210217330604906 0.00057252420027598225 0 -0.011664506995721994 0.0015916855115861734 0 -0.011435146687652347 -0.000311756766811795 0 -0.01197603410637839 0.00044534292254892212 0 -0.011210217330604906 0.00057252420027598225 0 -0.010468149024779898 5.5823762930896644e-05 0 -0.011210217330604906 0.00057252420027598225 0 -0.010507408168008997 0.001084090774827334 0 -0.010468149024779898 5.5823762930896644e-05 0 -0.011435146687652347 -0.000311756766811795 0 -0.011210217330604906 0.00057252420027598225 0 -0.011210217330604906 0.00057252420027598225 0 -0.010507408168008997 0.001084090774827334 0 -0.011664506995721994 0.0015916855115861734 0 -0.0077188817724743149 0.00064877171522131753 0 -0.0083862740065734926 0.00052392856864220364 0 -0.008192429746966658 0.00086007391490380261 0 -0.0051248661857051705 0.00041387823458481892 0 -0.0056139083815846978 0.0006266351119184803 0 -0.0055197445002635832 0.00068234521997156332 0 -0.0051248661857051705 0.00041387823458481892 0 -0.0049317334097344753 0.000525941158385252 0 -0.0055197445002635832 0.00068234521997156332 0 -0.010357715725408438 0.0018251442401088685 0 -0.010507408168008997 0.001084090774827334 0 -0.011664506995721994 0.0015916855115861734 0 -0.0076740126937862212 0.0007547497459458192 0 -0.0069123626488599224 0.00072942691127289355 0 -0.0076740126937862212 0.0007547497459458192 0 -0.010316635700252572 0.0011368464119762582 0 -0.0083862740065734926 0.00052392856864220364 0 -0.008192429746966658 0.00086007391490380261 0 -0.0085844106246451904 0.00077112899115519974 0 -0.008192429746966658 0.00086007391490380261 0 -0.0085844106246451904 0.00077112899115519974 0 -0.0086602715659913326 0.0010765926167360892 0 -0.0069123626488599224 0.00072942691127289355 0 -0.0060388512805429079 0.00090423055738099185 0 -0.0039836353778095893 0.00053036132621725972 0 -0.0060388512805429079 0.00090423055738099185 0 -0.0027242615172336738 0.00043810461497512538 0 -0.0037962611918621247 0.00074216955857261545 0 -0.0028473589980257353 0.0013679117863567797 0 -0.0056139083815846978 0.0006266351119184803 0 -0.0055197445002635832 0.00068234521997156332 0 -0.0060996022365703093 0.00083336257379457168 0 -0.0028738035119863213 0.00031875094005269381 0 -0.0039836353778095893 0.00053036132621725972 0 -0.0017654030908367544 0.00088370029033503484 0 -0.0027242615172336738 0.00043810461497512538 0 -0.0028473589980257353 0.0013679117863567797 0 -0.0090737396806823394 0.00039773826847652516 0 -0.0089119520259202181 0.00076126668150716594 0 -0.0085844106246451904 0.00077112899115519974 0 -0.0083257951693227108 -0.0005969792077824272 0 -0.0086554137494434611 0.00053171601838489322 0 -0.0078262176875218362 0.00060304663622861698 0 -0.010995916265675497 0.00067318124269429588 0 -0.0083767839960494465 0.00066286185978049359 0 -0.0090737396806823394 0.00039773826847652516 0 -0.0083862740065734926 0.00052392856864220364 0 -0.0085844106246451904 0.00077112899115519974 0 -0.010995916265675497 0.00067318124269429588 0 -0.010316635700252572 0.0011368464119762582 0 -0.0083767839960494465 0.00066286185978049359 0 -0.0058114947151449801 0.00085117879737693148 0 -0.0089119520259202181 0.00076126668150716594 0 -0.0086602715659913326 0.0010765926167360892 0 -0.0087467892533899683 0.0011168494129417247 0 -0.0078262176875218362 0.00060304663622861698 0 -0.007556453198290413 0.0019031387201412467 0 -0.0073224307758277159 0.0017967337727185784 0 -0.0037962611918621247 0.00074216955857261545 0 -0.0039638561913388944 0.0008171458657532276 0 -0.0038454205139022341 0.0010992253025954028 0 -0.0060388512805429079 0.00090423055738099185 0 -0.0058114947151449801 0.00085117879737693148 0 -0.0052643652570673978 0.00075738504206015046 0 -0.0058114947151449801 0.00085117879737693148 0 -0.0089119520259202181 0.00076126668150716594 0 -0.0085844106246451904 0.00077112899115519974 0 -0.0086602715659913326 0.0010765926167360892 0 -0.0086554137494434611 0.00053171601838489322 0 -0.0078262176875218362 0.00060304663622861698 0 -0.007556453198290413 0.0019031387201412467 0 -0.0070634382920244472 0.00022186163805103731 0 -0.0052643652570673978 0.00075738504206015046 0 -0.0065686133219376988 0.0012079826829257114 0 -0.0058338816247600787 -0.00021874633022534571 0 -0.0047067109107742609 0.0015064954800733303 0 -0.0058338816247600787 -0.00021874633022534571 0 -0.0045319218289060015 0.0014266495250512413 0 -0.0047067109107742609 0.0015064954800733303 0 -0.0052643652570673978 0.00075738504206015046 0 -0.0052105703317035347 0.00077578671745823409 0 -0.00054385299589363107 -0.00040785723435186742 0 -0.00011210612372826097 -9.8425986305577948e-05 0 -3.677023465808097e-06 -0.00026721831035527843 0 -0.002789020505108875 -1.3588258720556842e-05 0 -0.0026906890935823554 0.00088479576735151291 0 -0.00054385299589363107 -0.00040785723435186742 0 -0.00011210612372826097 -9.8425986305577948e-05 0 -0.00022039492987722294 4.7833139711667088e-05 0 -0.002789020505108875 -1.3588258720556842e-05 0 0.00038595909742128752 2.1755572375476555e-05 0 -0.0065686133219376988 0.0012079826829257114 0 -0.0047067109107742609 0.0015064954800733303 0 -0.0041980702751672604 0.0018502977781406429 0 -0.0037962611918621247 0.00074216955857261545 0 -0.0038454205139022341 0.0010992253025954028 0 -0.0028473589980257353 0.0013679117863567797 0 -1.3859823670008757e-05 0.00018534807667392605 0 1.8609636316186839e-05 0.0002550457180430138 0 0.00035942203408897635 0.00028638632902675497 0 -0.00011210612372826097 -9.8425986305577948e-05 0 7.7633180737918833e-05 -0.00016291541425015471 0 0.00014974428559248767 2.6347893799396648e-05 0 -0.00011210612372826097 -9.8425986305577948e-05 0 -3.677023465808097e-06 -0.00026721831035527843 0 7.7633180737918833e-05 -0.00016291541425015471 0 -0.0052643652570673978 0.00075738504206015046 0 -0.0026906890935823554 0.00088479576735151291 0 -0.0045310852472836968 0.0014260972595726456 0 -0.0047067109107742609 0.0015064954800733303 0 -0.0041980702751672604 0.0018502977781406429 0 -0.0045870619243992775 0.00042275459469389288 0 -0.0041592678986020828 0.00022892332443135921 0 -0.0040807797340868396 0.0010733800354309885 0 -0.0058114947151449801 0.00085117879737693148 0 -0.0025012046274601974 0.00075857511711830143 0 -0.0041592678986020828 0.00022892332443135921 0 -0.0037844681830482181 0.0011551266591211049 0 -0.0040807797340868396 0.0010733800354309885 0 -0.0026906890935823554 0.00088479576735151291 0 -0.0010997309674699344 0.0005568311823587772 0 -0.0025012046274601974 0.00075857511711830143 0 -0.0010997309674699344 0.0005568311823587772 0 -0.0019521832861151473 0.00053312211571500563 0 -0.0021108234167029078 0.00048979247065440679 0 -0.0018171245697245629 0.00086415852267408843 0 -0.0025012046274601974 0.00075857511711830143 0 -0.0026906890935823554 0.00088479576735151291 0 -0.0010997309674699344 0.0005568311823587772 0 -0.00042404138713727531 0.00017817708688195756 0 8.7855022440184766e-05 -0.0001606287059889676 0 0.00014974428559248767 2.6347893799396648e-05 0 0.00039232014417312329 0.00031101034769108227 0 0.00014974428559248767 2.6347893799396648e-05 0 -1.6861203728080836e-05 0.00015347331112681783 0 0.00016529787957065238 0.00030052110930385611 0 -0.00011210612372826097 -9.8425986305577948e-05 0 0.00014974428559248767 2.6347893799396648e-05 0 -1.6861203728080836e-05 0.00015347331112681783 0 -1.6861203728080836e-05 0.00015347331112681783 0 -0.00022039492987722294 4.7833139711667088e-05 0 -0.000364681348534844 0.00028218241800114272 0 -0.00011210612372826097 -9.8425986305577948e-05 0 -1.6861203728080836e-05 0.00015347331112681783 0 -0.00022039492987722294 4.7833139711667088e-05 0 -0.0017654030908367544 0.00088370029033503484 0 -0.0018626117238548154 0.0016330173894715883 0 -0.0028473589980257353 0.0013679117863567797 0 -0.00051865367757311979 0.0010616974547800074 0 -0.0011562846202320101 0.00082536708521019819 0 -0.0025012046274601974 0.00075857511711830143 0 -0.0011562846202320101 0.00082536708521019819 0 1.8609636316186839e-05 0.0002550457180430138 0 0.00035942203408897635 0.00028638632902675497 0 0.00031566435504155074 0.00055529403588537097 0 -0.0010997309674699344 0.0005568311823587772 0 0.00051820613041783496 0.00038880451702937941 0 0.00014974428559248767 2.6347893799396648e-05 0 0.00039232014417312329 0.00031101034769108227 0 0.00016529787957065238 0.00030052110930385611 0 0.00065323049652605463 0.00040193917065885508 0 0.00035942203408897635 0.00028638632902675497 0 0.00051122534528967947 0.00050771713791069348 0 0.00035942203408897635 0.00028638632902675497 0 0.00031566435504155074 0.00055529403588537097 0 0.00051122534528967947 0.00050771713791069348 0 0.00051122534528967947 0.00050771713791069348 0 0.0005785400743211109 0.00075607235624558565 0 0.00067070075510511828 0.00055282189803181796 0 0.00051820613041783496 0.00038880451702937941 0 0.0005129908733638314 0.00073067980521747432 0 0.00031566435504155074 0.00055529403588537097 0 0.00051122534528967947 0.00050771713791069348 0 0.0005785400743211109 0.00075607235624558565 0 0.00039232014417312329 0.00031101034769108227 0 0.00028302251978148013 0.00061245723074543465 0 0.0005785400743211109 0.00075607235624558565 0 0.00039232014417312329 0.00031101034769108227 0 0.00028302251978148013 0.00061245723074543465 0 0.00016529787957065238 0.00030052110930385611 0 0.00028302251978148013 0.00061245723074543465 0 0.0005785400743211109 0.00075607235624558565 0 0.00029139869208868888 0.00091027679920150316 0 -7.1492174593594291e-06 0.00043815384893987368 0 -0.00021745470547421004 0.00057486759535152997 0 -0.000364681348534844 0.00028218241800114272 0 -1.6861203728080836e-05 0.00015347331112681783 0 -7.1492174593594291e-06 0.00043815384893987368 0 -0.000364681348534844 0.00028218241800114272 0 -7.1492174593594291e-06 0.00043815384893987368 0 8.3350092507464911e-05 0.00068350817217610366 0 -0.00021745470547421004 0.00057486759535152997 0 0.00028302251978148013 0.00061245723074543465 0 -7.1492174593594291e-06 0.00043815384893987368 0 0.00016529787957065238 0.00030052110930385611 0 0.00028302251978148013 0.00061245723074543465 0 -7.1492174593594291e-06 0.00043815384893987368 0 8.3350092507464911e-05 0.00068350817217610366 0 -1.6861203728080836e-05 0.00015347331112681783 0 -7.1492174593594291e-06 0.00043815384893987368 0 0.00016529787957065238 0.00030052110930385611 0 0.00028302251978148013 0.00061245723074543465 0 8.3350092507464911e-05 0.00068350817217610366 0 0.00029139869208868888 0.00091027679920150316 0 8.3350092507464911e-05 0.00068350817217610366 0 -6.8082768592688466e-05 0.00083722390034949982 0 0.00029139869208868888 0.00091027679920150316 0 -0.00021745470547421004 0.00057486759535152997 0 -6.8082768592688466e-05 0.00083722390034949982 0 -0.00038547533756084666 0.00073552728329741356 0 8.3350092507464911e-05 0.00068350817217610366 0 -0.00021745470547421004 0.00057486759535152997 0 -6.8082768592688466e-05 0.00083722390034949982 0 4.6135933564570536e-05 0.0010639339363585029 0 -0.00015118267415794152 0.0012251306951787946 0 -0.0002798674959838434 0.00096754258593058969 0 -6.8082768592688466e-05 0.00083722390034949982 0 4.6135933564570536e-05 0.0010639339363585029 0 -0.0002798674959838434 0.00096754258593058969 0 -6.8082768592688466e-05 0.00083722390034949982 0 -0.0002798674959838434 0.00096754258593058969 0 -0.00038547533756084666 0.00073552728329741356 0 4.6135933564570536e-05 0.0010639339363585029 0 0.00029139869208868888 0.00091027679920150316 0 0.00028930473067625636 0.0011797219715552825 0 -6.8082768592688466e-05 0.00083722390034949982 0 4.6135933564570536e-05 0.0010639339363585029 0 0.00029139869208868888 0.00091027679920150316 0 0.00011506169516553652 0.0012640543084178107 0 0.00028930473067625636 0.0011797219715552825 0 0.00027472406639335669 0.0013607827191013749 0 4.6135933564570536e-05 0.0010639339363585029 0 0.00011506169516553652 0.0012640543084178107 0 0.00028930473067625636 0.0011797219715552825 0 0.00011506169516553652 0.0012640543084178107 0 -0.00015118267415794152 0.0012251306951787946 0 1.6808266905833314e-05 0.0013618221597926959 0 4.6135933564570536e-05 0.0010639339363585029 0 0.00011506169516553652 0.0012640543084178107 0 -0.00015118267415794152 0.0012251306951787946 0 0.0005785400743211109 0.00075607235624558565 0 0.00052151285221054792 0.0011032695118511266 0 0.00079187863754104251 0.0011055139704297637 0 0.0005785400743211109 0.00075607235624558565 0 0.00029139869208868888 0.00091027679920150316 0 0.00052151285221054792 0.0011032695118511266 0 0.00029139869208868888 0.00091027679920150316 0 0.00028930473067625636 0.0011797219715552825 0 0.00052151285221054792 0.0011032695118511266 0 0.00028930473067625636 0.0011797219715552825 0 0.00052151285221054792 0.0011032695118511266 0 0.00044029949521850494 0.0013466152601628513 0 0.00028930473067625636 0.0011797219715552825 0 0.00044029949521850494 0.0013466152601628513 0 0.00027472406639335669 0.0013607827191013749 0 0.00052151285221054792 0.0011032695118511266 0 0.00044029949521850494 0.0013466152601628513 0 0.00066271429100164109 0.0013264530450452334 0 0.00053806876596773059 0.0015201849552258857 0 0.00044029949521850494 0.0013466152601628513 0 0.00066271429100164109 0.0013264530450452334 0 0.00053806876596773059 0.0015201849552258857 0 0.00060955170425849403 0.0016675426721743287 0 0.00043500185677915019 0.0017094307857068113 0 0.00053806876596773059 0.0015201849552258857 0 0.00060955170425849403 0.0016675426721743287 0 0.00074277187965623331 0.0015178200028403909 0 0.00053806876596773059 0.0015201849552258857 0 0.00074277187965623331 0.0015178200028403909 0 0.00066271429100164109 0.0013264530450452334 0 0.00053806876596773059 0.0015201849552258857 0 0.00033203852805486984 0.0015540494477431464 0 0.00043500185677915019 0.0017094307857068113 0 0.00044029949521850494 0.0013466152601628513 0 0.00027472406639335669 0.0013607827191013749 0 0.00033203852805486984 0.0015540494477431464 0 0.00053806876596773059 0.0015201849552258857 0 0.00044029949521850494 0.0013466152601628513 0 0.00033203852805486984 0.0015540494477431464 0 0.00011506169516553652 0.0012640543084178107 0 0.00016100153669482812 0.001464679494793479 0 1.6808266905833314e-05 0.0013618221597926959 0 0.00011506169516553652 0.0012640543084178107 0 0.00027472406639335669 0.0013607827191013749 0 0.00016100153669482812 0.001464679494793479 0 0.00027472406639335669 0.0013607827191013749 0 0.00016100153669482812 0.001464679494793479 0 0.00033203852805486984 0.0015540494477431464 0 0.00016100153669482812 0.001464679494793479 0 -6.7717838554451506e-05 0.0014728536056664628 0 0.00015052959556037149 0.0016245221924303054 0 -0.00015118267415794152 0.0012251306951787946 0 1.6808266905833314e-05 0.0013618221597926959 0 -6.7717838554451506e-05 0.0014728536056664628 0 0.00016100153669482812 0.001464679494793479 0 1.6808266905833314e-05 0.0013618221597926959 0 -6.7717838554451506e-05 0.0014728536056664628 0 -6.7717838554451506e-05 0.0014728536056664628 0 0.00015052959556037149 0.0016245221924303054 0 -2.9358591390964993e-05 0.0016606065019772196 0 0.00015052959556037149 0.0016245221924303054 0 0.000276377414750859 0.0017244748021712256 0 0.00015550102092976714 0.0017778102817674361 0 0.00015052959556037149 0.0016245221924303054 0 0.00015550102092976714 0.0017778102817674361 0 -2.9358591390964993e-05 0.0016606065019772196 0 0.00015550102092976714 0.0017778102817674361 0 -4.7260876576849057e-06 0.0018035490876892465 0 -2.9358591390964993e-05 0.0016606065019772196 0 0.00015052959556037149 0.0016245221924303054 0 0.00033203852805486984 0.0015540494477431464 0 0.000276377414750859 0.0017244748021712256 0 0.00033203852805486984 0.0015540494477431464 0 0.000276377414750859 0.0017244748021712256 0 0.00043500185677915019 0.0017094307857068113 0 0.00016100153669482812 0.001464679494793479 0 0.00015052959556037149 0.0016245221924303054 0 0.00033203852805486984 0.0015540494477431464 0 0.000276377414750859 0.0017244748021712256 0 0.00035344582759473436 0.0017968826854722216 0 0.00043500185677915019 0.0017094307857068113 0 0.00035344582759473436 0.0017968826854722216 0 0.00025269875920470115 0.0018498113589137468 0 0.00032403246763419241 0.0018976332373715624 0 0.000276377414750859 0.0017244748021712256 0 0.00035344582759473436 0.0017968826854722216 0 0.00025269875920470115 0.0018498113589137468 0 0.00015550102092976714 0.0017778102817674361 0 0.00016993570343630632 0.0018859690118116425 0 -4.7260876576849057e-06 0.0018035490876892465 0 0.00015550102092976714 0.0017778102817674361 0 0.00025269875920470115 0.0018498113589137468 0 0.00016993570343630632 0.0018859690118116425 0 0.000276377414750859 0.0017244748021712256 0 0.00015550102092976714 0.0017778102817674361 0 0.00025269875920470115 0.0018498113589137468 0 0.00016993570343630632 0.0018859690118116425 0 0.00024515640130423372 0.001940261568130337 0 0.00017496587506117168 0.0019849644485443432 0 0.00025269875920470115 0.0018498113589137468 0 0.00016993570343630632 0.0018859690118116425 0 0.00024515640130423372 0.001940261568130337 0 0.00025269875920470115 0.0018498113589137468 0 0.00024515640130423372 0.001940261568130337 0 0.00032403246763419241 0.0018976332373715624 0 0.00032996106399547047 0.0019314695240833855 0 0.00032403246763419241 0.0018976332373715624 0 0.00036267876930700613 0.0019117049863634371 0 0.00024515640130423372 0.001940261568130337 0 0.00032996106399547047 0.0019314695240833855 0 0.00032403246763419241 0.0018976332373715624 0 0.00024515640130423372 0.001940261568130337 0 0.00032996106399547047 0.0019314695240833855 0 0.00036152929131667854 0.0019568088797989082 0 0.00035344582759473436 0.0017968826854722216 0 0.00032403246763419241 0.0018976332373715624 0 0.00042253523074478833 0.0018444024777508989 0 0.00032403246763419241 0.0018976332373715624 0 0.00042253523074478833 0.0018444024777508989 0 0.00039877152984017317 0.0018998942173571805 0 0.00042253523074478833 0.0018444024777508989 0 0.00045873624362625855 0.0018813142428456919 0 0.00039877152984017317 0.0018998942173571805 0 0.00042253523074478833 0.0018444024777508989 0 0.00053913210819650492 0.0018539344511562187 0 0.00052483232502394562 0.0017727348462220885 0 0.00042253523074478833 0.0018444024777508989 0 0.00053913210819650492 0.0018539344511562187 0 0.00045873624362625855 0.0018813142428456919 0 0.00053913210819650492 0.0018539344511562187 0 0.00064724568735681531 0.0017972534313844639 0 0.00052483232502394562 0.0017727348462220885 0 0.00064724568735681531 0.0017972534313844639 0 0.00052483232502394562 0.0017727348462220885 0 0.00060955170425849403 0.0016675426721743287 0 0.00052483232502394562 0.0017727348462220885 0 0.00060955170425849403 0.0016675426721743287 0 0.00043500185677915019 0.0017094307857068113 0 0.00042253523074478833 0.0018444024777508989 0 0.00052483232502394562 0.0017727348462220885 0 0.00043500185677915019 0.0017094307857068113 0 0.00035344582759473436 0.0017968826854722216 0 0.00042253523074478833 0.0018444024777508989 0 0.00043500185677915019 0.0017094307857068113 0 0.00069190995068904267 0.0020023741057551298 0 0.00082011386302586304 0.002037007230694336 0 0.00058433343684978966 0.0020927717334056494 0 0.00081177218132449252 0.001933779574851546 0 0.00069190995068904267 0.0020023741057551298 0 0.00082011386302586304 0.002037007230694336 0 0.00081177218132449252 0.001933779574851546 0 0.00069190995068904267 0.0020023741057551298 0 0.00067019768353633591 0.0018873904229237449 0 0.00082011386302586304 0.002037007230694336 0 0.00094431517833550808 0.001939382006632969 0 0.00097410899760731924 0.0020730058298146256 0 0.00094431517833550808 0.001939382006632969 0 0.00097410899760731924 0.0020730058298146256 0 0.0010691907822293286 0.0019638519716646198 0 0.00081177218132449252 0.001933779574851546 0 0.00082011386302586304 0.002037007230694336 0 0.00094431517833550808 0.001939382006632969 0 0.00094431517833550808 0.001939382006632969 0 0.00088455054457360453 0.0017793881612652427 0 0.0010755878448376695 0.0017930377041077302 0 0.00081177218132449252 0.001933779574851546 0 0.00094431517833550808 0.001939382006632969 0 0.00088455054457360453 0.0017793881612652427 0 0.00081177218132449252 0.001933779574851546 0 0.00088455054457360453 0.0017793881612652427 0 0.00067019768353633591 0.0018873904229237449 0 0.00088455054457360453 0.0017793881612652427 0 0.00067019768353633591 0.0018873904229237449 0 0.00070295328917388729 0.00167199001624254 0 0.00038142387638451545 0.0019880190528521729 0 0.00072807877706472979 0.0018497785246617874 0 0.00067019768353633591 0.0018873904229237449 0 0.00034113600320123829 0.0019916824916486079 0 0.00070295328917388729 0.00167199001624254 0 0.00034113600320123829 0.0019916824916486079 0 0.00051891065574182047 0.0019748818386321637 0 0.00075197838483490444 0.0020398541980533335 0 0.00036152929131667854 0.0019568088797989082 0 0.00034113600320123829 0.0019916824916486079 0 0.00051891065574182047 0.0019748818386321637 0 0.00032996106399547047 0.0019314695240833855 0 0.00036152929131667854 0.0019568088797989082 0 0.00044796956886251454 0.0019319987682559828 0 0.00036152929131667854 0.0019568088797989082 0 0.00017496587506117168 0.0019849644485443432 0 0.00034113600320123829 0.0019916824916486079 0 0.00024515640130423372 0.001940261568130337 0 0.00036152929131667854 0.0019568088797989082 0 0.00017496587506117168 0.0019849644485443432 0 0.00083458196883102868 0.0019324250221748639 0 -0.0019570792501287172 0.0028142668437071928 0 0.00017496587506117168 0.0019849644485443432 0 -4.7260876576849057e-06 0.0018035490876892465 0 -0.00053680226490139321 0.0018638373709779445 0 0.00017496587506117168 0.0019849644485443432 0 0.00034113600320123829 0.0019916824916486079 0 0.00058432209824967572 0.0021800218541475078 0 0.00016993570343630632 0.0018859690118116425 0 0.00017496587506117168 0.0019849644485443432 0 -4.7260876576849057e-06 0.0018035490876892465 0 0.00067019768353633591 0.0018873904229237449 0 0.00034113600320123829 0.0019916824916486079 0 0.00054586996995606397 0.0020267603963979876 0 0.00069190995068904267 0.0020023741057551298 0 0.00067019768353633591 0.0018873904229237449 0 0.00054586996995606397 0.0020267603963979876 0 0.00034113600320123829 0.0019916824916486079 0 0.00054586996995606397 0.0020267603963979876 0 0.00058432209824967572 0.0021800218541475078 0 -0.00068020225692740912 0.0023856834109738058 0 -0.0019570792501287172 0.0028142668437071928 0 0.00069190995068904267 0.0020023741057551298 0 0.00054586996995606397 0.0020267603963979876 0 0.00058433343684978966 0.0020927717334056494 0 -0.00053680226490139321 0.0018638373709779445 0 -0.00023426126135636563 0.0016863277728650862 0 -0.0004432553279367603 0.0015657954235111244 0 -0.0019570792501287172 0.0028142668437071928 0 -0.0040778758851307204 0.0025053138946027468 0 -0.00053680226490139321 0.0018638373709779445 0 -0.0004432553279367603 0.0015657954235111244 0 -0.00078743207031386109 0.0014060762582866866 0 -4.7260876576849057e-06 0.0018035490876892465 0 -0.00053680226490139321 0.0018638373709779445 0 -0.00023426126135636563 0.0016863277728650862 0 -4.7260876576849057e-06 0.0018035490876892465 0 -0.00023426126135636563 0.0016863277728650862 0 -2.9358591390964993e-05 0.0016606065019772196 0 -0.00023426126135636563 0.0016863277728650862 0 -0.00023521680919012436 0.0015469108926542668 0 -0.0004432553279367603 0.0015657954235111244 0 -6.7717838554451506e-05 0.0014728536056664628 0 -2.9358591390964993e-05 0.0016606065019772196 0 -0.00023521680919012436 0.0015469108926542668 0 -0.00023426126135636563 0.0016863277728650862 0 -2.9358591390964993e-05 0.0016606065019772196 0 -0.00023521680919012436 0.0015469108926542668 0 -6.7717838554451506e-05 0.0014728536056664628 0 -0.00023521680919012436 0.0015469108926542668 0 -0.00041212974198232477 0.0013550753439856272 0 -0.00015118267415794152 0.0012251306951787946 0 -6.7717838554451506e-05 0.0014728536056664628 0 -0.00041212974198232477 0.0013550753439856272 0 -0.00023521680919012436 0.0015469108926542668 0 -0.00041212974198232477 0.0013550753439856272 0 -0.0004432553279367603 0.0015657954235111244 0 -0.00041212974198232477 0.0013550753439856272 0 -0.0004432553279367603 0.0015657954235111244 0 -0.00078743207031386109 0.0014060762582866866 0 -0.0068675097908065183 0.003608098316979265 0 -0.0070514454766639314 0.0037084797519152438 0 -0.0072070134386871508 0.0034165191897810687 0 -0.0066603176745833274 0.0040916950739027479 0 -0.0070514454766639314 0.0037084797519152438 0 -0.007186140039166268 0.003823543501627297 0 -0.0066603176745833274 0.0040916950739027479 0 -0.0068675097908065183 0.003608098316979265 0 -0.0070514454766639314 0.0037084797519152438 0 0.00082011386302586304 0.002037007230694336 0 0.00058433343684978966 0.0020927717334056494 0 0.00088422033041160076 0.0021601521350352632 0 -0.0019570792501287172 0.0028142668437071928 0 -0.0034936056688409291 0.0030144530334677679 0 0.00082011386302586304 0.002037007230694336 0 0.00097410899760731924 0.0020730058298146256 0 0.00088422033041160076 0.0021601521350352632 0 0.00097410899760731924 0.0020730058298146256 0 0.00088422033041160076 0.0021601521350352632 0 0.00091468003824248239 0.0021422108319336325 0 -0.0070514454766639314 0.0037084797519152438 0 -0.0072589716443989885 0.0036107390219983029 0 -0.0072070134386871508 0.0034165191897810687 0 -0.0070514454766639314 0.0037084797519152438 0 -0.007186140039166268 0.003823543501627297 0 -0.0072589716443989885 0.0036107390219983029 0 -0.007583681063705449 0.003265379152612788 0 -0.0072070134386871508 0.0034165191897810687 0 -0.0078709029751431112 0.0035111869421355578 0 -0.0071582125958081725 0.0034270941584652139 0 -0.0078218887717168787 0.003538101522989293 0 -0.007583681063705449 0.003265379152612788 0 -0.0072070134386871508 0.0034165191897810687 0 -0.0071673096353862438 0.0029081904416756259 0 -0.0072589716443989885 0.0036107390219983029 0 -0.0072070134386871508 0.0034165191897810687 0 -0.0073315153237505067 0.0035219878585142812 0 -0.00078743207031386109 0.0014060762582866866 0 -0.0011226964129433228 0.00099508680758091518 0 -0.00073380399883527642 0.0011551827243213453 0 -0.0068675097908065183 0.003608098316979265 0 -0.0072070134386871508 0.0034165191897810687 0 -0.0071673096353862438 0.0029081904416756259 0 -0.0040778758851307204 0.0025053138946027468 0 -0.0041163648925903237 0.0019509615124607435 0 -0.0011226964129433228 0.00099508680758091518 0 -0.00076152441921724032 0.00091450381232771431 0 -0.00097370559991113959 0.00069061514646272346 0 -0.007583681063705449 0.003265379152612788 0 -0.0071673096353862438 0.0029081904416756259 0 -0.0077284187729616512 0.0029511140125356265 0 -0.0071673096353862438 0.0029081904416756259 0 -0.0077284187729616512 0.0029511140125356265 0 -0.0076692139608086733 0.0027052457122980645 0 -0.0077284187729616512 0.0029511140125356265 0 -0.0076692139608086733 0.0027052457122980645 0 -0.0079839647484278436 0.0026902335906561253 0 -0.00015118267415794152 0.0012251306951787946 0 -0.00041212974198232477 0.0013550753439856272 0 -0.00050063675659226805 0.0010827611900508273 0 -0.00041212974198232477 0.0013550753439856272 0 -0.00073380399883527642 0.0011551827243213453 0 -0.00050063675659226805 0.0010827611900508273 0 -0.00041212974198232477 0.0013550753439856272 0 -0.00078743207031386109 0.0014060762582866866 0 -0.00073380399883527642 0.0011551827243213453 0 -0.0011226964129433228 0.00099508680758091518 0 -0.00073380399883527642 0.0011551827243213453 0 -0.00076152441921724032 0.00091450381232771431 0 -0.00076152441921724032 0.00091450381232771431 0 -0.00050063675659226805 0.0010827611900508273 0 -0.00054948341553067652 0.00085889349090987569 0 -0.00073380399883527642 0.0011551827243213453 0 -0.00076152441921724032 0.00091450381232771431 0 -0.00050063675659226805 0.0010827611900508273 0 -0.00015118267415794152 0.0012251306951787946 0 -0.00050063675659226805 0.0010827611900508273 0 -0.0002798674959838434 0.00096754258593058969 0 -0.00050063675659226805 0.0010827611900508273 0 -0.00054948341553067652 0.00085889349090987569 0 -0.0002798674959838434 0.00096754258593058969 0 -0.00054948341553067652 0.00085889349090987569 0 -0.0002798674959838434 0.00096754258593058969 0 -0.00038547533756084666 0.00073552728329741356 0 -0.00021745470547421004 0.00057486759535152997 0 -0.00038547533756084666 0.00073552728329741356 0 -0.00054446291815373729 0.000495007025082074 0 -0.00054948341553067652 0.00085889349090987569 0 -0.00038547533756084666 0.00073552728329741356 0 -0.00068060834112673545 0.00067699177859450305 0 -0.00038547533756084666 0.00073552728329741356 0 -0.00068060834112673545 0.00067699177859450305 0 -0.00054446291815373729 0.000495007025082074 0 -0.00076152441921724032 0.00091450381232771431 0 -0.00054948341553067652 0.00085889349090987569 0 -0.00068060834112673545 0.00067699177859450305 0 -0.00076152441921724032 0.00091450381232771431 0 -0.00068060834112673545 0.00067699177859450305 0 -0.00097370559991113959 0.00069061514646272346 0 -0.00068060834112673545 0.00067699177859450305 0 -0.00097370559991113959 0.00069061514646272346 0 -0.00081326221041597754 0.00047395015788819763 0 -0.00097370559991113959 0.00069061514646272346 0 -0.00081326221041597754 0.00047395015788819763 0 -0.001073811421134169 0.00044355319032407785 0 -0.0011215052332533594 0.00018959123647501914 0 -0.00088980427991825796 0.00025168707230861098 0 -0.001073811421134169 0.00044355319032407785 0 -0.00088980427991825796 0.00025168707230861098 0 -0.00081326221041597754 0.00047395015788819763 0 -0.001073811421134169 0.00044355319032407785 0 -0.00088980427991825796 0.00025168707230861098 0 -0.00081326221041597754 0.00047395015788819763 0 -0.00065006452757330091 0.00030205720095174586 0 -0.00081326221041597754 0.00047395015788819763 0 -0.00054446291815373729 0.000495007025082074 0 -0.00065006452757330091 0.00030205720095174586 0 -0.00068060834112673545 0.00067699177859450305 0 -0.00081326221041597754 0.00047395015788819763 0 -0.00054446291815373729 0.000495007025082074 0 -0.00021745470547421004 0.00057486759535152997 0 -0.00054446291815373729 0.000495007025082074 0 -0.000364681348534844 0.00028218241800114272 0 -0.00054446291815373729 0.000495007025082074 0 -0.00065006452757330091 0.00030205720095174586 0 -0.000364681348534844 0.00028218241800114272 0 -0.0071673096353862438 0.0029081904416756259 0 -0.0076243537665082531 0.0024726093911927038 0 -0.0075937977163719654 0.0021436840360579226 0 -0.0071673096353862438 0.0029081904416756259 0 -0.0076243537665082531 0.0024726093911927038 0 -0.0076692139608086733 0.0027052457122980645 0 -0.0076243537665082531 0.0024726093911927038 0 -0.0077939255291166378 0.0023566158986770679 0 -0.007726454297336682 0.0022588240182452885 0 -0.0077939255291166378 0.0023566158986770679 0 -0.0078398567637277296 0.0024838470140798653 0 -0.0079556145121326693 0.002313455701269093 0 -0.0076243537665082531 0.0024726093911927038 0 -0.0077939255291166378 0.0023566158986770679 0 -0.0078398567637277296 0.0024838470140798653 0 -0.0078398567637277296 0.0024838470140798653 0 -0.0076692139608086733 0.0027052457122980645 0 -0.0079839647484278436 0.0026902335906561253 0 -0.0076243537665082531 0.0024726093911927038 0 -0.0078398567637277296 0.0024838470140798653 0 -0.0076692139608086733 0.0027052457122980645 0 -0.0011226964129433228 0.00099508680758091518 0 -0.00097370559991113959 0.00069061514646272346 0 -0.0012319770781962286 0.00059018543070530596 0 -0.0041163648925903237 0.0019509615124607435 0 -0.0045992492716348038 0.0012749284452096578 0 -0.0011226964129433228 0.00099508680758091518 0 -0.0012319770781962286 0.00059018543070530596 0 -0.0015974930649093313 0.0004154623794918009 0 -0.00097370559991113959 0.00069061514646272346 0 -0.0012319770781962286 0.00059018543070530596 0 -0.001073811421134169 0.00044355319032407785 0 -0.0012319770781962286 0.00059018543070530596 0 -0.0013879491543231021 0.00036656797582258868 0 -0.0015974930649093313 0.0004154623794918009 0 -0.0016627256968818659 -0.00011983854646919479 0 -0.0013879491543231021 0.00036656797582258868 0 -0.0015974930649093313 0.0004154623794918009 0 -0.0012319770781962286 0.00059018543070530596 0 -0.001073811421134169 0.00044355319032407785 0 -0.0013879491543231021 0.00036656797582258868 0 -0.0011215052332533594 0.00018959123647501914 0 -0.001073811421134169 0.00044355319032407785 0 -0.0013879491543231021 0.00036656797582258868 0 -0.0076243537665082531 0.0024726093911927038 0 -0.0075937977163719654 0.0021436840360579226 0 -0.007726454297336682 0.0022588240182452885 0 -0.0075937977163719654 0.0021436840360579226 0 -0.007726454297336682 0.0022588240182452885 0 -0.0078083309886992679 0.0021292946518169601 0 -0.0077939255291166378 0.0023566158986770679 0 -0.0078556202230031912 0.0022173276279224868 0 -0.0079556145121326693 0.002313455701269093 0 -0.0077939255291166378 0.0023566158986770679 0 -0.007726454297336682 0.0022588240182452885 0 -0.0078556202230031912 0.0022173276279224868 0 -0.007726454297336682 0.0022588240182452885 0 -0.0078556202230031912 0.0022173276279224868 0 -0.0078083309886992679 0.0021292946518169601 0 -0.0079247676789569767 0.001956768911584768 0 -0.0079397902664544683 0.0020844171461185603 0 -0.0078083309886992679 0.0021292946518169601 0 -0.0078556202230031912 0.0022173276279224868 0 -0.0079397902664544683 0.0020844171461185603 0 -0.0078083309886992679 0.0021292946518169601 0 -0.0079247676789569767 0.001956768911584768 0 -0.0075937977163719654 0.0021436840360579226 0 -0.0078083309886992679 0.0021292946518169601 0 -0.0079247676789569767 0.001956768911584768 0 -0.0079397902664544683 0.0020844171461185603 0 -0.0080887566811516706 0.0020280060281862387 0 -0.0080887566811516706 0.0020280060281862387 0 -0.0082323871736408125 0.0021338563309861807 0 -0.0080326077347842167 0.0021743491153007814 0 -0.0079397902664544683 0.0020844171461185603 0 -0.0080887566811516706 0.0020280060281862387 0 -0.0080326077347842167 0.0021743491153007814 0 -0.0078556202230031912 0.0022173276279224868 0 -0.0079397902664544683 0.0020844171461185603 0 -0.0080326077347842167 0.0021743491153007814 0 -0.0082825405123038241 0.0019696468593450463 0 -0.0082323871736408125 0.0021338563309861807 0 -0.0084504643563863939 0.0020638745508638565 0 -0.0082825405123038241 0.0019696468593450463 0 -0.0080887566811516706 0.0020280060281862387 0 -0.0082323871736408125 0.0021338563309861807 0 -0.0082323871736408125 0.0021338563309861807 0 -0.0082665101204560543 0.0022513434310648911 0 -0.0083706705555696495 0.002193210990494457 0 -0.0082323871736408125 0.0021338563309861807 0 -0.0081370450512311971 0.0022757026369618341 0 -0.0082665101204560543 0.0022513434310648911 0 -0.0081370450512311971 0.0022757026369618341 0 -0.0082665101204560543 0.0022513434310648911 0 -0.0082374171035141802 0.00236876675846175 0 -0.0082665101204560543 0.0022513434310648911 0 -0.0082374171035141802 0.00236876675846175 0 -0.0083688059433191693 0.0022975870150785185 0 -0.0078556202230031912 0.0022173276279224868 0 -0.0080326077347842167 0.0021743491153007814 0 -0.0079556145121326693 0.002313455701269093 0 -0.0082323871736408125 0.0021338563309861807 0 -0.0081370450512311971 0.0022757026369618341 0 -0.0080326077347842167 0.0021743491153007814 0 -0.0081370450512311971 0.0022757026369618341 0 -0.0080326077347842167 0.0021743491153007814 0 -0.0079556145121326693 0.002313455701269093 0 -0.0078398567637277296 0.0024838470140798653 0 -0.0079556145121326693 0.002313455701269093 0 -0.0080635407993121036 0.0024361392292560884 0 -0.0081370450512311971 0.0022757026369618341 0 -0.0079556145121326693 0.002313455701269093 0 -0.0080635407993121036 0.0024361392292560884 0 -0.0081370450512311971 0.0022757026369618341 0 -0.0080635407993121036 0.0024361392292560884 0 -0.0082374171035141802 0.00236876675846175 0 -0.0082374171035141802 0.00236876675846175 0 -0.008217345832236992 0.0025457802453912803 0 -0.0083651332011525671 0.0024338014772482481 0 -0.0080635407993121036 0.0024361392292560884 0 -0.0082374171035141802 0.00236876675846175 0 -0.008217345832236992 0.0025457802453912803 0 -0.008217345832236992 0.0025457802453912803 0 -0.0079839647484278436 0.0026902335906561253 0 -0.0082798545336673791 0.0027402503000207809 0 -0.0080635407993121036 0.0024361392292560884 0 -0.008217345832236992 0.0025457802453912803 0 -0.0079839647484278436 0.0026902335906561253 0 -0.0078398567637277296 0.0024838470140798653 0 -0.0080635407993121036 0.0024361392292560884 0 -0.0079839647484278436 0.0026902335906561253 0 -0.0085932056637662482 0.0025324195581638222 0 -0.0084175059741385169 0.0025653742800815574 0 -0.0085034210936363423 0.0024476979375895845 0 -0.0085932056637662482 0.0025324195581638222 0 -0.0085486473190994495 0.0026890368038171584 0 -0.0084175059741385169 0.0025653742800815574 0 -0.0085932056637662482 0.0025324195581638222 0 -0.0085486473190994495 0.0026890368038171584 0 -0.0087077116771005474 0.0026305662790281075 0 -0.0085486473190994495 0.0026890368038171584 0 -0.0084175059741385169 0.0025653742800815574 0 -0.0082798545336673791 0.0027402503000207809 0 -0.008217345832236992 0.0025457802453912803 0 -0.0084175059741385169 0.0025653742800815574 0 -0.0082798545336673791 0.0027402503000207809 0 -0.008217345832236992 0.0025457802453912803 0 -0.0084175059741385169 0.0025653742800815574 0 -0.0083651332011525671 0.0024338014772482481 0 -0.0084175059741385169 0.0025653742800815574 0 -0.0083651332011525671 0.0024338014772482481 0 -0.0085034210936363423 0.0024476979375895845 0 -0.0082374171035141802 0.00236876675846175 0 -0.0083651332011525671 0.0024338014772482481 0 -0.0083688059433191693 0.0022975870150785185 0 -0.0083651332011525671 0.0024338014772482481 0 -0.0083688059433191693 0.0022975870150785185 0 -0.0084987542057690241 0.002320777491857003 0 -0.0083651332011525671 0.0024338014772482481 0 -0.0085034210936363423 0.0024476979375895845 0 -0.0084987542057690241 0.002320777491857003 0 -0.0085034210936363423 0.0024476979375895845 0 -0.008644427804892817 0.0023737172689904749 0 -0.0084987542057690241 0.002320777491857003 0 -0.0085932056637662482 0.0025324195581638222 0 -0.0085034210936363423 0.0024476979375895845 0 -0.008644427804892817 0.0023737172689904749 0 -0.0085932056637662482 0.0025324195581638222 0 -0.008644427804892817 0.0023737172689904749 0 -0.0087511013792666587 0.0024703522515244574 0 -0.008644427804892817 0.0023737172689904749 0 -0.0086263594994031075 0.0022401009905511425 0 -0.0087566423285063769 0.002252088987337916 0 -0.008644427804892817 0.0023737172689904749 0 -0.0086263594994031075 0.0022401009905511425 0 -0.0084987542057690241 0.002320777491857003 0 -0.0086263594994031075 0.0022401009905511425 0 -0.0084987542057690241 0.002320777491857003 0 -0.0084935051355248259 0.0022060075308761875 0 -0.0086263594994031075 0.0022401009905511425 0 -0.0084935051355248259 0.0022060075308761875 0 -0.0086038457147214996 0.0021232972336487545 0 -0.0086263594994031075 0.0022401009905511425 0 -0.0086038457147214996 0.0021232972336487545 0 -0.008704513242663664 0.0021606071860653243 0 -0.0083688059433191693 0.0022975870150785185 0 -0.0084987542057690241 0.002320777491857003 0 -0.0084935051355248259 0.0022060075308761875 0 -0.0083688059433191693 0.0022975870150785185 0 -0.0084935051355248259 0.0022060075308761875 0 -0.0083706705555696495 0.002193210990494457 0 -0.0082665101204560543 0.0022513434310648911 0 -0.0083688059433191693 0.0022975870150785185 0 -0.0083706705555696495 0.002193210990494457 0 -0.0082323871736408125 0.0021338563309861807 0 -0.0083706705555696495 0.002193210990494457 0 -0.0084504643563863939 0.0020638745508638565 0 -0.0084935051355248259 0.0022060075308761875 0 -0.0083706705555696495 0.002193210990494457 0 -0.0084504643563863939 0.0020638745508638565 0 -0.0084935051355248259 0.0022060075308761875 0 -0.0084504643563863939 0.0020638745508638565 0 -0.0086038457147214996 0.0021232972336487545 0 -0.0086019660210451092 0.0019666349063226034 0 -0.0084504643563863939 0.0020638745508638565 0 -0.0086038457147214996 0.0021232972336487545 0 -0.0086019660210451092 0.0019666349063226034 0 -0.0086038457147214996 0.0021232972336487545 0 -0.008721782452505893 0.0020545640203578478 0 -0.0086038457147214996 0.0021232972336487545 0 -0.008721782452505893 0.0020545640203578478 0 -0.008704513242663664 0.0021606071860653243 0 -0.008721782452505893 0.0020545640203578478 0 -0.008704513242663664 0.0021606071860653243 0 -0.0088096015705508516 0.002135960231039223 0 -0.0088191303178661966 0.0020008234098256323 0 -0.008721782452505893 0.0020545640203578478 0 -0.0088096015705508516 0.002135960231039223 0 -0.0088191303178661966 0.0020008234098256323 0 -0.0088096015705508516 0.002135960231039223 0 -0.0089327977141506424 0.0020988819214430732 0 -0.0089546759866133384 0.0019811260404146757 0 -0.0088191303178661966 0.0020008234098256323 0 -0.0089327977141506424 0.0020988819214430732 0 -0.0089546759866133384 0.0019811260404146757 0 -0.0089327977141506424 0.0020988819214430732 0 -0.0090652062466307082 0.0021038591899159302 0 -0.0089327977141506424 0.0020988819214430732 0 -0.0089134842955734313 0.0021861224178418024 0 -0.0090031706623955599 0.0021858079554567091 0 -0.0088096015705508516 0.002135960231039223 0 -0.0089327977141506424 0.0020988819214430732 0 -0.0089134842955734313 0.0021861224178418024 0 -0.0088096015705508516 0.002135960231039223 0 -0.0089134842955734313 0.0021861224178418024 0 -0.0088378741811835759 0.002219907701347184 0 -0.0089134842955734313 0.0021861224178418024 0 -0.0089938180126574972 0.0022768659996864902 0 -0.0090031706623955599 0.0021858079554567091 0 -0.0089134842955734313 0.0021861224178418024 0 -0.0089938180126574972 0.0022768659996864902 0 -0.0088699786132689796 0.0023054661078262262 0 -0.0089134842955734313 0.0021861224178418024 0 -0.0088699786132689796 0.0023054661078262262 0 -0.0088378741811835759 0.002219907701347184 0 -0.0088699786132689796 0.0023054661078262262 0 -0.0087566423285063769 0.002252088987337916 0 -0.0088378741811835759 0.002219907701347184 0 -0.0088699786132689796 0.0023054661078262262 0 -0.0087566423285063769 0.002252088987337916 0 -0.0087769260665545076 0.0023581262086971207 0 -0.008704513242663664 0.0021606071860653243 0 -0.0088096015705508516 0.002135960231039223 0 -0.0087566423285063769 0.002252088987337916 0 -0.0086263594994031075 0.0022401009905511425 0 -0.008704513242663664 0.0021606071860653243 0 -0.0087566423285063769 0.002252088987337916 0 -0.0088096015705508516 0.002135960231039223 0 -0.0087566423285063769 0.002252088987337916 0 -0.0088378741811835759 0.002219907701347184 0 -0.0092159555915889632 0.0020210392354391318 0 -0.0091655984161022382 0.0021982435628175563 0 -0.0092554572841199757 0.0022474200147724992 0 -0.0092159555915889632 0.0020210392354391318 0 -0.0090652062466307082 0.0021038591899159302 0 -0.0091655984161022382 0.0021982435628175563 0 -0.0089327977141506424 0.0020988819214430732 0 -0.0090652062466307082 0.0021038591899159302 0 -0.0090031706623955599 0.0021858079554567091 0 -0.0090830860619320504 0.0019617078921874988 0 -0.0092159555915889632 0.0020210392354391318 0 -0.0090652062466307082 0.0021038591899159302 0 -0.0090652062466307082 0.0021038591899159302 0 -0.0091018363905760041 0.0022588688052473985 0 -0.0091655984161022382 0.0021982435628175563 0 -0.0090652062466307082 0.0021038591899159302 0 -0.0090031706623955599 0.0021858079554567091 0 -0.0091018363905760041 0.0022588688052473985 0 -0.0089938180126574972 0.0022768659996864902 0 -0.0091018363905760041 0.0022588688052473985 0 -0.009068891638920714 0.0023252110463368755 0 -0.0089938180126574972 0.0022768659996864902 0 -0.0090031706623955599 0.0021858079554567091 0 -0.0091018363905760041 0.0022588688052473985 0 -0.0091018363905760041 0.0022588688052473985 0 -0.0091655984161022382 0.0021982435628175563 0 -0.0091785488700430705 0.0023088223097896925 0 -0.0091655984161022382 0.0021982435628175563 0 -0.0091785488700430705 0.0023088223097896925 0 -0.0092554572841199757 0.0022474200147724992 0 -0.0091785488700430705 0.0023088223097896925 0 -0.0091435722060656636 0.0023430607110361402 0 -0.0091534774961881584 0.0023582015569596263 0 -0.0091785488700430705 0.0023088223097896925 0 -0.0091534774961881584 0.0023582015569596263 0 -0.0091770890925365108 0.0023348954354722499 0 -0.0091435722060656636 0.0023430607110361402 0 -0.0091137031140231476 0.0023806322470142859 0 -0.0091534774961881584 0.0023582015569596263 0 -0.0091018363905760041 0.0022588688052473985 0 -0.0091785488700430705 0.0023088223097896925 0 -0.0091435722060656636 0.0023430607110361402 0 -0.0091435722060656636 0.0023430607110361402 0 -0.0091137031140231476 0.0023806322470142859 0 -0.009068891638920714 0.0023252110463368755 0 -0.0091018363905760041 0.0022588688052473985 0 -0.0091435722060656636 0.0023430607110361402 0 -0.009068891638920714 0.0023252110463368755 0 -0.009068891638920714 0.0023252110463368755 0 -0.0089959391284615692 0.0023328634778233444 0 -0.0090292578726982858 0.0023648734860366215 0 -0.0089938180126574972 0.0022768659996864902 0 -0.009068891638920714 0.0023252110463368755 0 -0.0089959391284615692 0.0023328634778233444 0 -0.0091137031140231476 0.0023806322470142859 0 -0.009068891638920714 0.0023252110463368755 0 -0.0090292578726982858 0.0023648734860366215 0 -0.0091137031140231476 0.0023806322470142859 0 -0.0090292578726982858 0.0023648734860366215 0 -0.0088901136655831787 0.0028228948837813305 0 -0.0091534774961881584 0.0023582015569596263 0 -0.0091712457057685111 0.0023452919585587929 0 -0.0091770890925365108 0.0023348954354722499 0 -0.0090292578726982858 0.0023648734860366215 0 -0.0088608058480718691 0.0025183719627223599 0 -0.0087942146904486269 0.0029540701716129704 0 -0.0089570194298570476 0.0024276285767739002 0 -0.0087431137111057787 0.0030397049032465481 0 -0.0088396113817326323 0.0024012608822487061 0 -0.0087511013792666587 0.0024703522515244574 0 -0.0087769260665545076 0.0023581262086971207 0 -0.0088396113817326323 0.0024012608822487061 0 -0.0087511013792666587 0.0024703522515244574 0 -0.0088608058480718691 0.0025183719627223599 0 -0.008644427804892817 0.0023737172689904749 0 -0.0087566423285063769 0.002252088987337916 0 -0.0087769260665545076 0.0023581262086971207 0 -0.008644427804892817 0.0023737172689904749 0 -0.0087511013792666587 0.0024703522515244574 0 -0.0087769260665545076 0.0023581262086971207 0 -0.0088699786132689796 0.0023054661078262262 0 -0.0088396113817326323 0.0024012608822487061 0 -0.0087769260665545076 0.0023581262086971207 0 -0.0088699786132689796 0.0023054661078262262 0 -0.0088396113817326323 0.0024012608822487061 0 -0.0089362077380033302 0.0023629984126007624 0 -0.0090292578726982858 0.0023648734860366215 0 -0.0089362077380033302 0.0023629984126007624 0 -0.0088608058480718691 0.0025183719627223599 0 -0.0089938180126574972 0.0022768659996864902 0 -0.0089959391284615692 0.0023328634778233444 0 -0.0089362077380033302 0.0023629984126007624 0 -0.0089938180126574972 0.0022768659996864902 0 -0.0088699786132689796 0.0023054661078262262 0 -0.0089362077380033302 0.0023629984126007624 0 -0.0089959391284615692 0.0023328634778233444 0 -0.0090292578726982858 0.0023648734860366215 0 -0.0089362077380033302 0.0023629984126007624 0 -0.0088396113817326323 0.0024012608822487061 0 -0.0089362077380033302 0.0023629984126007624 0 -0.0088608058480718691 0.0025183719627223599 0 -0.0087511013792666587 0.0024703522515244574 0 -0.0088608058480718691 0.0025183719627223599 0 -0.0087077116771005474 0.0026305662790281075 0 -0.0085932056637662482 0.0025324195581638222 0 -0.0087511013792666587 0.0024703522515244574 0 -0.0087077116771005474 0.0026305662790281075 0 -0.0090292578726982858 0.0023648734860366215 0 -0.0088901136655831787 0.0028228948837813305 0 -0.0083949378570423241 0.0030771811450253381 0 -0.0085486473190994495 0.0026890368038171584 0 -0.0087077116771005474 0.0026305662790281075 0 -0.0087942146904486269 0.0029540701716129704 0 -0.0088608058480718691 0.0025183719627223599 0 -0.0087077116771005474 0.0026305662790281075 0 -0.0087942146904486269 0.0029540701716129704 0 -0.0088901136655831787 0.0028228948837813305 0 -0.0083949378570423241 0.0030771811450253381 0 -0.008896036101609061 0.0031871917057339138 0 -0.0083949378570423241 0.0030771811450253381 0 -0.008896036101609061 0.0031871917057339138 0 -0.0087512849099484914 0.0035879483315985413 0 -0.0091137031140231476 0.0023806322470142859 0 -0.0088901136655831787 0.0028228948837813305 0 -0.009392460957520497 0.0032262277805491226 0 -0.0091534774961881584 0.0023582015569596263 0 -0.0091730376534492914 0.0023363382834324445 0 -0.0091618376925210795 0.0023455516785225012 0 -0.008896036101609061 0.0031871917057339138 0 -0.009392460957520497 0.0032262277805491226 0 -0.0087512849099484914 0.0035879483315985413 0 -0.0091137031140231476 0.0023806322470142859 0 -0.0091534774961881584 0.0023582015569596263 0 -0.0091730376534492914 0.0023363382834324445 0 -0.0093842210709808704 0.0026038190795661326 0 -0.008135415043266099 0.002455254433993706 0 -0.0088901136655831787 0.0028228948837813305 0 -0.008896036101609061 0.0031871917057339138 0 -0.009392460957520497 0.0032262277805491226 0 -0.008135415043266099 0.002455254433993706 0 -0.0070654395003324757 0.0027065139585897317 0 -0.0056055966859949015 0.0016695041631691271 0 -0.0054294417527455804 0.0020567367190241414 0 -0.0058494355087503223 0.002396889531051436 0 -0.0054294417527455804 0.0020567367190241414 0 -0.0058494355087503223 0.002396889531051436 0 -0.0051755305123209194 0.002325360718758167 0 -0.0056055966859949015 0.0016695041631691271 0 -0.0054294417527455804 0.0020567367190241414 0 -0.0050492020996725159 0.0019542311387129273 0 -0.0054294417527455804 0.0020567367190241414 0 -0.0050492020996725159 0.0019542311387129273 0 -0.0051755305123209194 0.002325360718758167 0 -0.0083949378570423241 0.0030771811450253381 0 -0.0087512849099484914 0.0035879483315985413 0 -0.0080286076743851225 0.0039644155699711317 0 -0.0070654395003324757 0.0027065139585897317 0 -0.0040778477080365329 0.0024056596549770002 0 -0.0040778477080365329 0.0024056596549770002 0 -0.0025418040576280286 0.001690988511379019 0 -0.0050492020996725159 0.0019542311387129273 0 -0.0044839632512619736 0.0022544360353977042 0 -0.0051755305123209194 0.002325360718758167 0 -0.0087942146904486269 0.0029540701716129704 0 -0.0084260362397743423 0.0032687727800840304 0 -0.008420025060718905 0.0035520784596434606 0 -0.0087431137111057787 0.0030397049032465481 0 -0.0067522956300339306 0.0031868251229222131 0 -0.0083949378570423241 0.0030771811450253381 0 -0.0080286076743851225 0.0039644155699711317 0 -0.0077466734433017997 0.0039303331489331291 0 -0.0040778477080365329 0.0024056596549770002 0 -0.0067522956300339306 0.0031868251229222131 0 -0.0084260362397743423 0.0032687727800840304 0 -0.0081730855023509231 0.0033354358498990429 0 -0.0083812414888595321 0.0031138498830810689 0 -0.0084260362397743423 0.0032687727800840304 0 -0.008420025060718905 0.0035520784596434606 0 -0.0081730855023509231 0.0033354358498990429 0 -0.0067522956300339306 0.0031868251229222131 0 -0.0078218887717168787 0.003538101522989293 0 -0.008420025060718905 0.0035520784596434606 0 -0.0078709029751431112 0.0035111869421355578 0 -0.0081730855023509231 0.0033354358498990429 0 -0.0078709029751431112 0.0035111869421355578 0 -0.0081730855023509231 0.0033354358498990429 0 -0.0080724940480919414 0.0030306095779239943 0 -0.0074834459726107853 0.0035388548294100946 0 -0.0073315153237505067 0.0035219878585142812 0 -0.0074505045605734706 0.0035934744223781756 0 -0.007583681063705449 0.003265379152612788 0 -0.0078709029751431112 0.0035111869421355578 0 -0.0080724940480919414 0.0030306095779239943 0 -0.0081730855023509231 0.0033354358498990429 0 -0.0080724940480919414 0.0030306095779239943 0 -0.0083812414888595321 0.0031138498830810689 0 -0.007583681063705449 0.003265379152612788 0 -0.0077284187729616512 0.0029511140125356265 0 -0.0080724940480919414 0.0030306095779239943 0 -0.0077284187729616512 0.0029511140125356265 0 -0.0079839647484278436 0.0026902335906561253 0 -0.0080724940480919414 0.0030306095779239943 0 -0.0079839647484278436 0.0026902335906561253 0 -0.0080724940480919414 0.0030306095779239943 0 -0.0082798545336673791 0.0027402503000207809 0 -0.0085486473190994495 0.0026890368038171584 0 -0.0082798545336673791 0.0027402503000207809 0 -0.0084735456016189221 0.0029055707668505103 0 -0.0080724940480919414 0.0030306095779239943 0 -0.0082798545336673791 0.0027402503000207809 0 -0.0084735456016189221 0.0029055707668505103 0 -0.0085486473190994495 0.0026890368038171584 0 -0.0087942146904486269 0.0029540701716129704 0 -0.0084735456016189221 0.0029055707668505103 0 -0.0087942146904486269 0.0029540701716129704 0 -0.0084260362397743423 0.0032687727800840304 0 -0.0083812414888595321 0.0031138498830810689 0 -0.0087942146904486269 0.0029540701716129704 0 -0.0084735456016189221 0.0029055707668505103 0 -0.0083812414888595321 0.0031138498830810689 0 -0.0080724940480919414 0.0030306095779239943 0 -0.0084735456016189221 0.0029055707668505103 0 -0.0083812414888595321 0.0031138498830810689 0 -0.0044859405026048708 0.0024067641008136478 0 -0.0044218909254055772 0.0023135192681057949 0 -0.004625523563889752 0.0021952352022364847 0 -0.0044859405026048708 0.0024067641008136478 0 -0.0045606051511374738 0.0022110520768528178 0 -0.0044218909254055772 0.0023135192681057949 0 -0.0049099495487464227 0.0020733877467139401 0 -0.0044859405026048708 0.0024067641008136478 0 -0.0045606051511374738 0.0022110520768528178 0 -0.00449482487758519 0.0019474567334063493 0 -0.0045606051511374738 0.0022110520768528178 0 -0.0044218909254055772 0.0023135192681057949 0 -0.0044728990311306855 0.0022734207925407452 0 -0.0046271478255410824 0.0018433255932300404 0 -0.0049869732810093135 0.0022466619738636655 0 -0.0052470015981969723 0.0016902141211081259 0 -0.0044401238959685821 0.001440670270200489 0 -0.0052470015981969723 0.0016902141211081259 0 -0.0054485872747700691 0.0023871692515938449 0 -0.0057464196070300703 0.0020205869330798404 0 -0.0049869732810093135 0.0022466619738636655 0 -0.0052470015981969723 0.0016902141211081259 0 -0.0054485872747700691 0.0023871692515938449 0 -0.0062314681136547787 0.0020583951124522114 0 -0.0044728990311306855 0.0022734207925407452 0 -0.0057180289560557632 0.0027746528981099478 0 -0.0055239756955738888 0.0030323558169134796 0 -0.0054485872747700691 0.0023871692515938449 0 -0.0055239756955738888 0.0030323558169134796 0 -0.0049869732810093135 0.0022466619738636655 0 -0.0054485872747700691 0.0023871692515938449 0 -0.0057180289560557632 0.0027746528981099478 0 -0.0054485872747700691 0.0023871692515938449 0 -0.0057464196070300703 0.0020205869330798404 0 -0.0080911786269655256 0.0022901310539888355 0 -0.0074195063895781954 0.002193572225626684 0 -0.0092777613608656211 0.0022075390523340556 0 -0.0092554572841199757 0.0022474200147724992 0 -0.009232575810728904 0.0023140543816127599 0 -0.0080911786269655256 0.0022901310539888355 0 -0.0093730117771154472 0.0019611402934849743 0 -0.0094908539866871925 0.0020066305201895231 0 -0.0092159555915889632 0.0020210392354391318 0 -0.0092554572841199757 0.0022474200147724992 0 -0.0092554572841199757 0.0022474200147724992 0 -0.0092010878497136 0.0023222514439900713 0 -0.009232575810728904 0.0023140543816127599 0 -0.0091785488700430705 0.0023088223097896925 0 -0.0092554572841199757 0.0022474200147724992 0 -0.0092010878497136 0.0023222514439900713 0 -0.009232575810728904 0.0023140543816127599 0 -0.0091799550366279941 0.0023361839428015286 0 -0.0091328040025653329 0.0023296724900551068 0 -0.0091785488700430705 0.0023088223097896925 0 -0.0092010878497136 0.0023222514439900713 0 -0.0091770890925365108 0.0023348954354722499 0 -0.0092010878497136 0.0023222514439900713 0 -0.009232575810728904 0.0023140543816127599 0 -0.0091799550366279941 0.0023361839428015286 0 -0.0091799550366279941 0.0023361839428015286 0 -0.0091712457057685111 0.0023452919585587929 0 -0.0091618376925210795 0.0023455516785225012 0 -0.0091534774961881584 0.0023582015569596263 0 -0.0091712457057685111 0.0023452919585587929 0 -0.0091618376925210795 0.0023455516785225012 0 -0.0092010878497136 0.0023222514439900713 0 -0.0091712457057685111 0.0023452919585587929 0 -0.0091770890925365108 0.0023348954354722499 0 -0.0092010878497136 0.0023222514439900713 0 -0.0091799550366279941 0.0023361839428015286 0 -0.0091712457057685111 0.0023452919585587929 0 -0.0074195063895781954 0.002193572225626684 0 -0.0076412568005221459 0.0018396955306490988 0 -0.009232575810728904 0.0023140543816127599 0 -0.0091328040025653329 0.0023296724900551068 0 -0.0090933913082888625 0.0023332678328030145 0 -0.0091730376534492914 0.0023363382834324445 0 -0.0091618376925210795 0.0023455516785225012 0 -0.0091328040025653329 0.0023296724900551068 0 -0.0091799550366279941 0.0023361839428015286 0 -0.0091618376925210795 0.0023455516785225012 0 -0.0091328040025653329 0.0023296724900551068 0 -0.009101216705813148 0.0023285356928913008 0 -0.0091328040025653329 0.0023296724900551068 0 -0.0090933913082888625 0.0023332678328030145 0 -0.008135415043266099 0.002455254433993706 0 -0.0093461216388766449 0.0021738397443567233 0 -0.008135415043266099 0.002455254433993706 0 -0.0050835900403536118 0.0018644842090494403 0 -0.0076412568005221459 0.0018396955306490988 0 -0.0049353737330546411 0.00097649332428708041 0 -0.0090933913082888625 0.0023332678328030145 0 -0.0090266069599916968 0.002258446159703437 0 -0.0090464212389188385 0.0022627803523093365 0 -0.009101216705813148 0.0023285356928913008 0 -0.0090933913082888625 0.0023332678328030145 0 -0.0090464212389188385 0.0022627803523093365 0 -0.0057766790545839613 0.0012494646433093097 0 -0.0051898008264637226 0.00096950573391472723 0 -0.0058021827865648995 0.00046605578316375373 0 -0.0052470015981969723 0.0016902141211081259 0 -0.0057464196070300703 0.0020205869330798404 0 -0.0057766790545839613 0.0012494646433093097 0 -0.0052470015981969723 0.0016902141211081259 0 -0.0057766790545839613 0.0012494646433093097 0 -0.0051898008264637226 0.00096950573391472723 0 -0.0052470015981969723 0.0016902141211081259 0 -0.0051898008264637226 0.00096950573391472723 0 -0.0044401238959685821 0.001440670270200489 0 -0.0051898008264637226 0.00096950573391472723 0 -0.0045093446579749655 0.00073080365800357342 0 -0.0049570159216619069 0.00036123541659021426 0 -0.0051898008264637226 0.00096950573391472723 0 -0.0045093446579749655 0.00073080365800357342 0 -0.0044401238959685821 0.001440670270200489 0 -0.0046271478255410824 0.0018433255932300404 0 -0.003551445377225286 0.00062536052507770391 0 -0.0045093446579749655 0.00073080365800357342 0 -0.0044401238959685821 0.001440670270200489 0 -0.0038912585934953348 0.00061276158842496931 0 -0.004625523563889752 0.0021952352022364847 0 -0.0041874391366831937 0.0020732798853144141 0 -0.0041025530154952979 0.00090850522882003485 0 -0.0044859405026048708 0.0024067641008136478 0 -0.004625523563889752 0.0021952352022364847 0 -0.0041874391366831937 0.0020732798853144141 0 -0.0020574923217400215 -0.0002478607634188529 0 -0.0021164358514983057 -0.0004407146488839961 0 -0.001219936184420158 -0.00011783408708954166 0 -0.0023406084846125151 -0.00021837646792572844 0 -0.0020574923217400215 -0.0002478607634188529 0 -0.0024155805580687744 -0.00028591282172968298 0 -0.0023406084846125151 -0.00021837646792572844 0 -0.0024155805580687744 -0.00028591282172968298 0 -0.0024484084936401119 -0.000198652764990203 0 -0.0020574923217400215 -0.0002478607634188529 0 -0.0021164358514983057 -0.0004407146488839961 0 -0.0024155805580687744 -0.00028591282172968298 0 -0.0026165443929018449 -0.00024794853767001659 0 -0.0024155805580687744 -0.00028591282172968298 0 -0.0025006084346210233 -0.00012074555034811637 0 -0.0019678908982022473 -0.00052157605480751014 0 -0.0022946378368925097 -0.00044266527235559654 0 -0.0024155805580687744 -0.00028591282172968298 0 -0.0025006084346210233 -0.00012074555034811637 0 -0.0024960035535485001 -0.00014935960754111369 0 -0.0026165443929018449 -0.00024794853767001659 0 -0.0025006084346210233 -0.00012074555034811637 0 -0.0025431946740462705 -1.7073161694452662e-05 0 -0.0019678908982022473 -0.00052157605480751014 0 -0.0031459077184002524 -7.9027349330046444e-06 0 -0.0045093446579749655 0.00073080365800357342 0 -0.004107036363077945 0.00025880236621326802 0 -0.0049570159216619069 0.00036123541659021426 0 -0.0045093446579749655 0.00073080365800357342 0 -0.004107036363077945 0.00025880236621326802 0 -0.0038912585934953348 0.00061276158842496931 0 -0.0025006084346210233 -0.00012074555034811637 0 -0.002536871770518632 -2.5904766434381301e-05 0 -0.0025751059559346303 -4.3304965822236692e-05 0 -0.002604703628363523 6.2397013606050334e-05 0 -0.002612821907982408 5.5662224588990421e-05 0 -0.002596589796020034 6.0605741706565205e-05 0 -0.0025006084346210233 -0.00012074555034811637 0 -0.002536871770518632 -2.5904766434381301e-05 0 -0.0025431946740462705 -1.7073161694452662e-05 0 -0.0030102297619945921 -2.0344094456792225e-05 0 -0.0031459077184002524 -7.9027349330046444e-06 0 -0.002536871770518632 -2.5904766434381301e-05 0 -0.0024669574645443336 -3.4353318917072439e-05 0 -0.0026746028605550277 -0.00029384130411378866 0 -0.0031459077184002524 -7.9027349330046444e-06 0 -0.003551445377225286 0.00062536052507770391 0 -0.002604703628363523 6.2397013606050334e-05 0 -0.002596589796020034 6.0605741706565205e-05 0 -0.0025905537212667917 6.6062919497348886e-05 0 -0.0031459077184002524 -7.9027349330046444e-06 0 -0.0036640619649607122 0.00015070331143260705 0 -0.0019678908982022473 -0.00052157605480751014 0 -0.00072474122155224377 -0.00011957744286344235 0 -0.0010481207203023922 -0.0012009220497651177 0 1.7318792809549973e-05 -0.0012290914430423429 0 -0.00039018651938589529 -0.00016699605585609065 0 -0.0019678908982022473 -0.00052157605480751014 0 -0.0013518732517275166 -0.00063416072880760263 0 1.7318792809549973e-05 -0.0012290914430423429 0 0.00083156656974738821 -0.00054281013421441011 0 0.00021481928805466196 -0.00046703234065227178 0 -0.0025905537212667917 6.6062919497348886e-05 0 -0.0025854046542296972 6.9060718298427187e-05 0 -0.0025747678121705005 7.398301607662404e-05 0 -0.0013518732517275166 -0.00063416072880760263 0 -0.00025325903964736925 0.00012515590177778981 0 1.7318792809549973e-05 -0.0012290914430423429 0 0.0011362910397073049 -0.0012449051050303324 0 0.00083156656974738821 -0.00054281013421441011 0 -0.0036640619649607122 0.00015070331143260705 0 -0.0049353737330546411 0.00097649332428708041 0 -0.0051898008264637226 0.00096950573391472723 0 -0.0049570159216619069 0.00036123541659021426 0 -0.0058021827865648995 0.00046605578316375373 0 -0.002596589796020034 6.0605741706565205e-05 0 -0.0025905537212667917 6.6062919497348886e-05 0 -0.002591657341330929 6.5334375808139106e-05 0 -0.0025905537212667917 6.6062919497348886e-05 0 -0.002591657341330929 6.5334375808139106e-05 0 -0.0025854046542296972 6.9060718298427187e-05 0 -0.002596589796020034 6.0605741706565205e-05 0 -0.002591657341330929 6.5334375808139106e-05 0 -0.0025943656180065682 6.9528329033214129e-05 0 -0.002596589796020034 6.0605741706565205e-05 0 -0.0025943656180065682 6.9528329033214129e-05 0 -0.002595899865616042 7.283760024654761e-05 0 -0.002591657341330929 6.5334375808139106e-05 0 -0.0025943656180065682 6.9528329033214129e-05 0 -0.0025854046542296972 6.9060718298427187e-05 0 -0.0025943656180065682 6.9528329033214129e-05 0 -0.0025854046542296972 6.9060718298427187e-05 0 -0.0025774565231304327 7.0504172840509538e-05 0 -0.0025854046542296972 6.9060718298427187e-05 0 -0.0025774565231304327 7.0504172840509538e-05 0 -0.0025766889869002409 7.1798363539085533e-05 0 -0.0023588610493467865 0.00069541066386582986 0 -0.0049353737330546411 0.00097649332428708041 0 -0.0025943656180065682 6.9528329033214129e-05 0 -0.0025949340331115583 7.73555096165461e-05 0 -0.002595899865616042 7.283760024654761e-05 0 -0.0023588610493467865 0.00069541066386582986 0 -0.0014199770708503961 0.00034223287994612447 0 -0.0027126431626341174 0.0001182575332734683 0 -0.0023588610493467865 0.00069541066386582986 0 -0.0037547612792734955 0.00075095659699639199 0 -0.0036505075316776575 0.0014572671330032141 0 -0.0040317999398014059 0.0015026286550435008 0 -0.0049353737330546411 0.00097649332428708041 0 -0.0050835900403536118 0.0018644842090494403 0 -0.0024692183745673407 0.0019611144441240261 0 -0.0022608048984782145 0.0013597177306825729 0 -0.0021011415667176107 0.0018418758425202942 0 -0.0023588610493467865 0.00069541066386582986 0 -0.0050835900403536118 0.0018644842090494403 0 -0.0021011415667176107 0.0018418758425202942 0 -0.0020907196510483454 0.0023091304915572545 0 -0.0015828249813560212 0.0017386928569599774 0 -0.0022608048984782145 0.0013597177306825729 0 -0.0021011415667176107 0.0018418758425202942 0 -0.0015828249813560212 0.0017386928569599774 0 -0.0024692183745673407 0.0019611144441240261 0 -0.0021011415667176107 0.0018418758425202942 0 -0.0020907196510483454 0.0023091304915572545 0 -0.0023588610493467865 0.00069541066386582986 0 0.00012510807897478762 0.0016429752521763829 0 0.00012510807897478762 0.0016429752521763829 0 -0.00025325903964736925 0.00012515590177778981 0 -0.00059046652877817684 0.0012532338739234589 0 -0.0014347307926397218 0.00088598185747038993 0 -0.0014153304754454012 0.0012711643845544423 0 -0.0013244872121770249 0.00057474168631170086 0 -0.00059046652877817684 0.0012532338739234589 0 -0.0014347307926397218 0.00088598185747038993 0 -0.0014199770708503961 0.00034223287994612447 0 -0.00025325903964736925 0.00012515590177778981 0 -0.0025854046542296972 6.9060718298427187e-05 0 -0.0025766889869002409 7.1798363539085533e-05 0 -0.0025747678121705005 7.398301607662404e-05 0 -0.00025325903964736925 0.00012515590177778981 0 0.0010359846213011082 -0.0011540723825807207 0 0.0013895986858305132 0.0015168829504662482 0 0.0013801635266029381 0.0015171526025013265 0 0.0013971870251210177 0.0015331345712851342 0 -0.00025325903964736925 0.00012515590177778981 0 0.0015077189765137498 0.00082623529660636743 0 0.0013801635266029381 0.0015171526025013265 0 0.0014110132622434301 0.0015299106486576619 0 0.0013971870251210177 0.0015331345712851342 0 0.0011261783911135214 -0.0012492948406031951 0 0.0012535653450931907 8.4309273962103432e-05 0 0.00083156656974738821 -0.00054281013421441011 0 0.0012535653450931907 8.4309273962103432e-05 0 0.00051491214648677949 8.8968509137119244e-05 0 0.00083156656974738821 -0.00054281013421441011 0 0.0014110132622434301 0.0015299106486576619 0 0.0013971870251210177 0.0015331345712851342 0 0.0013980046518526491 0.0015291370576466781 0 0.0014110132622434301 0.0015299106486576619 0 0.0013980046518526491 0.0015291370576466781 0 0.001394802409588694 0.0014964073561132079 0 0.0015077189765137498 0.00082623529660636743 0 0.0013194237991459182 0.001389946568455262 0 0.0014110132622434301 0.0015299106486576619 0 0.001394802409588694 0.0014964073561132079 0 0.0013615667056727971 0.0014253852087250812 0 0.0012535653450931907 8.4309273962103432e-05 0 0.00086363940125210601 0.00079428449266773693 0 0.0013615667056727971 0.0014253852087250812 0 0.0012535653450931907 8.4309273962103432e-05 0 0.00086363940125210601 0.00079428449266773693 0 0.00051491214648677949 8.8968509137119244e-05 0 0.00021079135325307392 0.00087187079933829701 0 0.00051491214648677949 8.8968509137119244e-05 0 -0.00039018651938589529 -0.00016699605585609065 0 0.00086363940125210601 0.00079428449266773693 0 0.00021079135325307392 0.00087187079933829701 0 0.00051491214648677949 8.8968509137119244e-05 0 0.00051491214648677949 8.8968509137119244e-05 0 0.00021481928805466196 -0.00046703234065227178 0 -0.00039018651938589529 -0.00016699605585609065 0 0.00051491214648677949 8.8968509137119244e-05 0 0.00083156656974738821 -0.00054281013421441011 0 0.00021481928805466196 -0.00046703234065227178 0 1.7318792809549973e-05 -0.0012290914430423429 0 0.00021481928805466196 -0.00046703234065227178 0 -0.00039018651938589529 -0.00016699605585609065 0 0.00021079135325307392 0.00087187079933829701 0 -0.001219936184420158 -0.00011783408708954166 0 -0.0014946931738402522 0.00079313791686068077 0 0.00011367988094104008 0.00086496739571915212 0 -0.00072474122155224377 -0.00011957744286344235 0 0.00089724237857712866 0.0012408205739169137 0 0.00069032194273674341 0.0012550296850608374 0 0.00057323089002401368 0.0010550407572802302 0 -0.00027735414030194931 0.00097005277250100783 0 -0.0010157542093355741 0.00022302224706223148 0 0.00089724237857712866 0.0012408205739169137 0 0.00057323089002401368 0.0010550407572802302 0 0.00051296182625327135 0.0005325359090936955 0 -0.001219936184420158 -0.00011783408708954166 0 -0.0014946931738402522 0.00079313791686068077 0 -0.0020726855408031305 -8.1161566199984661e-05 0 -0.0014946931738402522 0.00079313791686068077 0 -0.0020726855408031305 -8.1161566199984661e-05 0 -0.0025488538760905107 -0.00013796574662879504 0 -0.0020574923217400215 -0.0002478607634188529 0 -0.001219936184420158 -0.00011783408708954166 0 -0.0020726855408031305 -8.1161566199984661e-05 0 -0.0023406084846125151 -0.00021837646792572844 0 -0.0020574923217400215 -0.0002478607634188529 0 -0.0020726855408031305 -8.1161566199984661e-05 0 -0.0023406084846125151 -0.00021837646792572844 0 -0.0020726855408031305 -8.1161566199984661e-05 0 -0.0023964650146104534 -0.00017935084962154407 0 0.0012551785009078671 0.0020552150229105276 0 0.0010550174666764996 0.0021465344829712783 0 0.0013975139111459096 0.0021431995142828187 0 0.0010537375854408526 0.0021414723726080093 0 0.00036473886812055621 0.0022664689095909353 0 0.0012551785009078671 0.0020552150229105276 0 0.0011593544880809145 0.0020670990042111728 0 0.0010550174666764996 0.0021465344829712783 0 0.0011593544880809145 0.0020670990042111728 0 0.001117580956673187 0.0020777739799383035 0 0.0010550174666764996 0.0021465344829712783 0 0.00097410899760731924 0.0020730058298146256 0 0.001117580956673187 0.0020777739799383035 0 0.0011697602721473526 0.0021514133244971605 0 0.00094211703450416137 0.0020298593106876021 0 0.001040411997729583 0.0023316193187246253 0 0.001117580956673187 0.0020777739799383035 0 0.0010550174666764996 0.0021465344829712783 0 0.0011697602721473526 0.0021514133244971605 0 -0.0034936056688409291 0.0030144530334677679 0 -0.0025974158225295072 0.002647688059568542 0 0.001040411997729583 0.0023316193187246253 0 -0.0025974158225295072 0.002647688059568542 0 0.0010550174666764996 0.0021465344829712783 0 0.0011697602721473526 0.0021514133244971605 0 0.00084927951931311062 0.0014677963711881787 0 0.00088422033041160076 0.0021601521350352632 0 0.00091468003824248239 0.0021422108319336325 0 0.00089839061297439194 0.0021439582117539365 0 -0.007186140039166268 0.003823543501627297 0 -0.0072589716443989885 0.0036107390219983029 0 -0.0074505045605734706 0.0035934744223781756 0 -0.0072589716443989885 0.0036107390219983029 0 -0.0073315153237505067 0.0035219878585142812 0 -0.0074505045605734706 0.0035934744223781756 0 -0.0049489192053725657 0.0021602502388449068 0 -0.0042498564598100344 0.0020810311022732915 0 -0.0037507017802899728 0.0028042814123181966 0 -0.0040778477080365329 0.0024056596549770002 0 -0.0025974158225295072 0.002647688059568542 0 -0.0067522956300339306 0.0031868251229222131 0 -0.0025974158225295072 0.002647688059568542 0 0.0010550174666764996 0.0021465344829712783 0 0.00014831809252901398 0.0017121383847202162 0 -0.0004968160508713531 0.0022676529842656883 0 0.0010550174666764996 0.0021465344829712783 0 0.00084927951931311062 0.0014677963711881787 0 0.00014831809252901398 0.0017121383847202162 0 0.00019309359468871619 0.0010925140949756198 0 0.00084927951931311062 0.0014677963711881787 0 0.00014831809252901398 0.0017121383847202162 0 0.00014831809252901398 0.0017121383847202162 0 -0.0010232365627319802 0.0012202205560511326 0 -0.0004968160508713531 0.0022676529842656883 0 0.00019309359468871619 0.0010925140949756198 0 0.00014831809252901398 0.0017121383847202162 0 -0.0010232365627319802 0.0012202205560511326 0 -0.0020907196510483454 0.0023091304915572545 0 -0.0015828249813560212 0.0017386928569599774 0 -0.0004968160508713531 0.0022676529842656883 0 -0.0010232365627319802 0.0012202205560511326 0 -0.0015828249813560212 0.0017386928569599774 0 -0.0004968160508713531 0.0022676529842656883 0 -0.0022608048984782145 0.0013597177306825729 0 -0.0010232365627319802 0.0012202205560511326 0 -0.0015828249813560212 0.0017386928569599774 0 -0.0050835900403536118 0.0018644842090494403 0 -0.0025418040576280286 0.001690988511379019 0 0.0013895986858305132 0.0015168829504662482 0 0.0014028559059281276 0.0015570669533858175 0 0.0013971870251210177 0.0015331345712851342 0 0.00012510807897478762 0.0016429752521763829 0 0.00036473886812055621 0.0022664689095909353 0 0.0015915688642694659 0.0021234016931674852 0 0.0013975139111459096 0.0021431995142828187 0 0.0014422039848265462 0.0019453496557100096 0 0.00012510807897478762 0.0016429752521763829 0 0.0016958462967777261 0.0018455147192170992 0 0.0012551785009078671 0.0020552150229105276 0 0.0013975139111459096 0.0021431995142828187 0 0.0014422039848265462 0.0019453496557100096 0 0.0014028559059281276 0.0015570669533858175 0 0.0013971870251210177 0.0015331345712851342 0 0.0013980046518526491 0.0015291370576466781 0 0.0014028559059281276 0.0015570669533858175 0 0.0013980046518526491 0.0015291370576466781 0 0.0014223697996944469 0.0015445894188444559 0 0.0013980046518526491 0.0015291370576466781 0 0.001394802409588694 0.0014964073561132079 0 0.0014223697996944469 0.0015445894188444559 0 0.0014028559059281276 0.0015570669533858175 0 0.001318505550463162 0.0016746927882779568 0 0.0014223697996944469 0.0015445894188444559 0 0.0016958462967777261 0.0018455147192170992 0 0.0012044749131601791 0.0016113817309797746 0 0.0012551785009078671 0.0020552150229105276 0 0.0014422039848265462 0.0019453496557100096 0 0.0012221317690165698 0.0019341060438542617 0 0.0014422039848265462 0.0019453496557100096 0 0.001318505550463162 0.0016746927882779568 0 0.0012221317690165698 0.0019341060438542617 0 0.0011593544880809145 0.0020670990042111728 0 0.001117580956673187 0.0020777739799383035 0 0.0012221317690165698 0.0019341060438542617 0 0.0012551785009078671 0.0020552150229105276 0 0.0011593544880809145 0.0020670990042111728 0 0.0012221317690165698 0.0019341060438542617 0 0.0012221317690165698 0.0019341060438542617 0 0.0010691907822293286 0.0019638519716646198 0 0.0010755878448376695 0.0017930377041077302 0 0.00097410899760731924 0.0020730058298146256 0 0.001117580956673187 0.0020777739799383035 0 0.0010691907822293286 0.0019638519716646198 0 0.001117580956673187 0.0020777739799383035 0 0.0012221317690165698 0.0019341060438542617 0 0.0010691907822293286 0.0019638519716646198 0 0.00094431517833550808 0.001939382006632969 0 0.0010691907822293286 0.0019638519716646198 0 0.0010755878448376695 0.0017930377041077302 0 0.001318505550463162 0.0016746927882779568 0 0.0012221317690165698 0.0019341060438542617 0 0.0010755878448376695 0.0017930377041077302 0 0.001425677310879321 0.0015281819549850769 0 0.0013828912767762131 0.0013925122516449742 0 0.001056262705100974 0.0014833965522177677 0 0.001318505550463162 0.0016746927882779568 0 0.001425677310879321 0.0015281819549850769 0 0.001056262705100974 0.0014833965522177677 0 0.001318505550463162 0.0016746927882779568 0 0.0010755878448376695 0.0017930377041077302 0 0.001056262705100974 0.0014833965522177677 0 0.001318505550463162 0.0016746927882779568 0 0.001425677310879321 0.0015281819549850769 0 0.0014223697996944469 0.0015445894188444559 0 0.001425677310879321 0.0015281819549850769 0 0.0014223697996944469 0.0015445894188444559 0 0.0015055615641745123 0.0015148958858561153 0 0.0014223697996944469 0.0015445894188444559 0 0.0014209001327825696 0.001483125693453956 0 0.0015055615641745123 0.0015148958858561153 0 0.001394802409588694 0.0014964073561132079 0 0.0014223697996944469 0.0015445894188444559 0 0.0014209001327825696 0.001483125693453956 0 0.0014141936439096081 0.0014698038695852365 0 0.0015055615641745123 0.0015148958858561153 0 0.0014861338245975499 0.0013407004342330287 0 0.0014209001327825696 0.001483125693453956 0 0.0014141936439096081 0.0014698038695852365 0 0.0015055615641745123 0.0015148958858561153 0 0.001425677310879321 0.0015281819549850769 0 0.0015055615641745123 0.0015148958858561153 0 0.0016014760901141849 0.0014632560077461813 0 0.0015055615641745123 0.0015148958858561153 0 0.0016014760901141849 0.0014632560077461813 0 0.0017541313732687559 0.0014438997407861989 0 0.0015055615641745123 0.0015148958858561153 0 0.0017541313732687559 0.0014438997407861989 0 0.0018801833982657595 0.0014411320830866421 0 0.0015055615641745123 0.0015148958858561153 0 0.0014861338245975499 0.0013407004342330287 0 0.0014900190653527534 0.0010795496515549233 0 0.0015387422312857768 0.001504718833688686 0 0.0016456117746401172 0.0011732131727090914 0 0.0017541313732687559 0.0014438997407861989 0 0.0018723634917973168 0.001420991003500122 0 0.0018801833982657595 0.0014411320830866421 0 0.0017541313732687559 0.0014438997407861989 0 0.001910791842736853 0.0014278495894123108 0 0.0018723634917973168 0.001420991003500122 0 0.001910791842736853 0.0014278495894123108 0 0.0018723634917973168 0.001420991003500122 0 0.0019016645747910006 0.0014269555272679634 0 0.0016014760901141849 0.0014632560077461813 0 0.0017541313732687559 0.0014438997407861989 0 0.0018788791235354243 0.0014561467742126896 0 0.0017541313732687559 0.0014438997407861989 0 0.001910791842736853 0.0014278495894123108 0 0.0018788791235354243 0.0014561467742126896 0 0.001832175538414488 0.0014594574544142698 0 0.0014823391506306161 0.0015758898124746798 0 0.0016014760901141849 0.0014632560077461813 0 0.0018788791235354243 0.0014561467742126896 0 0.0013828912767762131 0.0013925122516449742 0 0.0015804550943315291 0.0017422562712355691 0 0.0011466548315281053 0.0019453654954680372 0 0.0012296695275616314 0.0015593859776937915 0 0.0018788791235354243 0.0014561467742126896 0 0.0015804550943315291 0.0017422562712355691 0 0.0016867164243233959 0.0014621034948990098 0 0.0015804550943315291 0.0017422562712355691 0 0.0016867164243233959 0.0014621034948990098 0 0.0012296695275616314 0.0015593859776937915 0 0.0014823391506306161 0.0015758898124746798 0 0.0011033877191462906 0.001712195434592071 0 0.001425677310879321 0.0015281819549850769 0 0.0016014760901141849 0.0014632560077461813 0 0.0013828912767762131 0.0013925122516449742 0 0.00076547803908456229 0.0014915974089245573 0 0.00079507877495740647 0.0013592035889179422 0 0.00091035823722919169 0.0014083499835018697 0 0.00076547803908456229 0.0014915974089245573 0 0.00079507877495740647 0.0013592035889179422 0 0.00064234036188174509 0.001330520124636648 0 0.00069032194273674341 0.0012550296850608374 0 0.00079507877495740647 0.0013592035889179422 0 0.00064234036188174509 0.001330520124636648 0 0.00089724237857712866 0.0012408205739169137 0 0.00069032194273674341 0.0012550296850608374 0 0.00079507877495740647 0.0013592035889179422 0 0.00089724237857712866 0.0012408205739169137 0 0.00091035823722919169 0.0014083499835018697 0 0.00091154448903708874 0.0014399448640137168 0 0.00089724237857712866 0.0012408205739169137 0 0.00079507877495740647 0.0013592035889179422 0 0.00091035823722919169 0.0014083499835018697 0 -0.00027735414030194931 0.00097005277250100783 0 0.00080726638943226091 0.0014335663564084696 0 0.00076547803908456229 0.0014915974089245573 0 0.00091035823722919169 0.0014083499835018697 0 0.0010203106136071323 0.001574724983585047 0 0.0029165872754072027 0.0012197646230236942 0 0.0022412234746360996 0.0012950865532783923 0 0.0026613960444941561 0.0010108694074769952 0 0.0018380112821027245 0.0013528218080589155 0 0.0016154139103748332 0.0014136322521304627 0 0.00091035823722919169 0.0014083499835018697 0 0.0010203106136071323 0.001574724983585047 0 0.00097291755091773343 0.0014565057026808431 0 0.00097291755091773343 0.0014565057026808431 0 0.00091154448903708874 0.0014399448640137168 0 0.0012135066740602161 0.0014867700730619505 0 0.0010203106136071323 0.001574724983585047 0 0.00097291755091773343 0.0014565057026808431 0 0.0012135066740602161 0.0014867700730619505 0 0.00021079135325307392 0.00087187079933829701 0 -0.0014946931738402522 0.00079313791686068077 0 0.00091154448903708874 0.0014399448640137168 0 0.00091035823722919169 0.0014083499835018697 0 0.00097291755091773343 0.0014565057026808431 0 0.00091154448903708874 0.0014399448640137168 0 0.00086363940125210601 0.00079428449266773693 0 0.00021079135325307392 0.00087187079933829701 0 0.00091154448903708874 0.0014399448640137168 0 0.00091154448903708874 0.0014399448640137168 0 0.0013615667056727971 0.0014253852087250812 0 0.0012135066740602161 0.0014867700730619505 0 0.00086363940125210601 0.00079428449266773693 0 0.00091154448903708874 0.0014399448640137168 0 0.0013615667056727971 0.0014253852087250812 0 0.001394802409588694 0.0014964073561132079 0 0.0014209001327825696 0.001483125693453956 0 0.0013615667056727971 0.0014253852087250812 0 0.0014209001327825696 0.001483125693453956 0 0.0014141936439096081 0.0014698038695852365 0 0.0013615667056727971 0.0014253852087250812 0 0.0014141936439096081 0.0014698038695852365 0 0.0013615667056727971 0.0014253852087250812 0 0.0012135066740602161 0.0014867700730619505 0 0.0010203106136071323 0.001574724983585047 0 0.0012135066740602161 0.0014867700730619505 0 0.0014861338245975499 0.0013407004342330287 0 0.0014141936439096081 0.0014698038695852365 0 0.0012135066740602161 0.0014867700730619505 0 0.0014861338245975499 0.0013407004342330287 0 0.0016154139103748332 0.0014136322521304627 0 0.0014625886095781921 0.0013487344895612677 0 0.0014861338245975499 0.0013407004342330287 0 0.0014900190653527534 0.0010795496515549233 0 0.0020651143438659451 0.0010412580182931699 0 0.0016456117746401172 0.0011732131727090914 0 0.0023648465573259999 0.0013335385107143887 0 0.0014900190653527534 0.0010795496515549233 0 0.0020257500011095306 0.00078020519585870042 0 0.0020711936871088748 0.00026318110896203923 0 0.0018801833982657595 0.0014411320830866421 0 0.0018747454922553664 0.0014335299736832586 0 0.0018598879645976426 0.0014361805734470188 0 0.0014900190653527534 0.0010795496515549233 0 0.0020257500011095306 0.00078020519585870042 0 0.0020651143438659451 0.0010412580182931699 0 0.0018723634917973168 0.001420991003500122 0 0.0018801833982657595 0.0014411320830866421 0 0.0018747454922553664 0.0014335299736832586 0 0.0018723634917973168 0.001420991003500122 0 0.0018747454922553664 0.0014335299736832586 0 0.0019016645747910006 0.0014269555272679634 0 0.0020257500011095306 0.00078020519585870042 0 0.0024047353888783261 0.00071330242055825724 0 0.0020711936871088748 0.00026318110896203923 0 0.0020257500011095306 0.00078020519585870042 0 0.0020651143438659451 0.0010412580182931699 0 0.0024047353888783261 0.00071330242055825724 0 0.0022412234746360996 0.0012950865532783923 0 0.0014861338245975499 0.0013407004342330287 0 0.0020651143438659451 0.0010412580182931699 0 0.0022412234746360996 0.0012950865532783923 0 0.0020651143438659451 0.0010412580182931699 0 0.0026613960444941561 0.0010108694074769952 0 0.0020651143438659451 0.0010412580182931699 0 0.0026613960444941561 0.0010108694074769952 0 0.0024047353888783261 0.00071330242055825724 0 0.0024047353888783261 0.00071330242055825724 0 0.002727463096418838 0.00071898823763428773 0 0.0028384634134867789 0.00042200162917268257 0 0.0026613960444941561 0.0010108694074769952 0 0.0024047353888783261 0.00071330242055825724 0 0.002727463096418838 0.00071898823763428773 0 0.0024047353888783261 0.00071330242055825724 0 0.0028384634134867789 0.00042200162917268257 0 0.0020711936871088748 0.00026318110896203923 0 0.0028575775715765006 0.00016175905012555091 0 0.0045389816235084915 0.0014697881359698581 0 0.0029506326023791027 -0.00026625378700188785 0 0.0029944131261657844 0.00019257053215773144 0 0.0028119704238782129 -0.00034196622238132237 0 0.002727463096418838 0.00071898823763428773 0 0.0029553537610669568 0.00074945115161693693 0 0.0028384634134867789 0.00042200162917268257 0 0.0029506326023791027 -0.00026625378700188785 0 0.0031312567574353543 -5.0676679777870876e-05 0 0.0029944131261657844 0.00019257053215773144 0 0.0047982742858339832 0.00099496565049938287 0 0.0038342234676909987 0.00062370818625689332 0 0.0031312567574353543 -5.0676679777870876e-05 0 0.0030926458674122937 -0.00029655724760083521 0 0.0032573874956995414 -0.0002772450783709101 0 0.0029506326023791027 -0.00026625378700188785 0 0.0031312567574353543 -5.0676679777870876e-05 0 0.0030926458674122937 -0.00029655724760083521 0 0.0039684712262755906 0.00086369066047655904 0 0.0047982742858339832 0.00099496565049938287 0 0.0031312567574353543 -5.0676679777870876e-05 0 0.0029944131261657844 0.00019257053215773144 0 0.0033529410750774585 0.00035205092846341094 0 0.0028575775715765006 0.00016175905012555091 0 0.003224530497084 0.00096182526324045659 0 0.0029944131261657844 0.00019257053215773144 0 0.003207034173654344 0.00087984102657365053 0 0.0033529410750774585 0.00035205092846341094 0 0.0029553537610669568 0.00074945115161693693 0 0.0029268313490128611 0.00090097453330371035 0 0.003207034173654344 0.00087984102657365053 0 0.0026613960444941561 0.0010108694074769952 0 0.002727463096418838 0.00071898823763428773 0 0.0029268313490128611 0.00090097453330371035 0 0.002727463096418838 0.00071898823763428773 0 0.0029553537610669568 0.00074945115161693693 0 0.0029268313490128611 0.00090097453330371035 0 0.0029165872754072027 0.0012197646230236942 0 0.0026613960444941561 0.0010108694074769952 0 0.0029268313490128611 0.00090097453330371035 0 0.0029165872754072027 0.0012197646230236942 0 0.0029268313490128611 0.00090097453330371035 0 0.003207034173654344 0.00087984102657365053 0 0.0061248546887256311 0.0024774444010360738 0 0.0085145915036530379 0.0029821874159726551 0 0.007648283116158788 0.0021964589182306539 0 0.0069233483622417194 0.0029345657278308291 0 0.0083363758066469819 0.0029460502728326076 0 0.007648283116158788 0.0021964589182306539 0 0.0083363758066469819 0.0029460502728326076 0 0.008778389567958296 0.0019780490961276852 0 0.0078715575716525356 0.0034672782127594024 0 0.0086538142518489611 0.0033948512920736968 0 0.0083363758066469819 0.0029460502728326076 0 0.0078715575716525356 0.0034672782127594024 0 0.00698498494857716 0.002867069482500231 0 0.0083363758066469819 0.0029460502728326076 0 0.0078715575716525356 0.0034672782127594024 0 0.0080541195044639361 0.0040419936009787154 0 0.0086538142518489611 0.0033948512920736968 0 0.0078715575716525356 0.0034672782127594024 0 0.0080541195044639361 0.0040419936009787154 0 0.0074463514502727092 0.003931635032742257 0 0.0029506326023791027 -0.00026625378700188785 0 0.0030910752063992276 -0.00028518152795381231 0 0.0028119704238782129 -0.00034196622238132237 0 0.0047982742858339832 0.00099496565049938287 0 0.0045389816235084915 0.0014697881359698581 0 0.0078715575716525356 0.0034672782127594024 0 0.0074463514502727092 0.003931635032742257 0 0.00698498494857716 0.002867069482500231 0 0.0048416970584245645 0.0021156474343476603 0 0.0045162952860256398 0.0013660568239868961 0 0.0038931659288095628 0.0013455868995901094 0 0.0045389816235084915 0.0014697881359698581 0 0.0023648465573259999 0.0013335385107143887 0 0.0048416970584245645 0.0021156474343476603 0 0.0038931659288095628 0.0013455868995901094 0 0.0034595264967158929 0.0018632734331625257 0 0.0045389816235084915 0.0014697881359698581 0 0.0061248546887256311 0.0024774444010360738 0 0.0057424911352917741 0.0021954016564220574 0 0.0054839698277992224 0.0016009099070105704 0 0.0050108328499449224 0.0021707957801896036 0 0.0061248546887256311 0.0024774444010360738 0 0.0041419707488557812 0.0017082241953044802 0 0.0060084994175246091 0.0018677203475723704 0 0.0041419707488557812 0.0017082241953044802 0 0.0061248546887256311 0.0024774444010360738 0 0.0060084994175246091 0.0018677203475723704 0 0.007648283116158788 0.0021964589182306539 0 0.0069233483622417194 0.0029345657278308291 0 0.0066008629822796846 0.0022034176609123696 0 0.0057531404975202909 0.0015151729495861334 0 0.005335589110080273 0.0020571972535680062 0 0.0050823470307970681 0.0012980538349435982 0 0.0045598636646749808 0.0015202407621950826 0 0.005335589110080273 0.0020571972535680062 0 0.0039103979289153729 0.0019899185480398143 0 0.0041419707488557812 0.0017082241953044802 0 0.0029671167407078788 0.0017044999201529713 0 0.0045598636646749808 0.0015202407621950826 0 0.005335589110080273 0.0020571972535680062 0 0.0050823470307970681 0.0012980538349435982 0 0.0023793965804429188 0.001449526949119906 0 0.002286778172702605 0.0015466842543712693 0 0.0021420031472456206 0.0014634688182608342 0 0.0041419707488557812 0.0017082241953044802 0 0.0023648465573259999 0.0013335385107143887 0 0.0018598879645976426 0.0014361805734470188 0 0.0018710056046337988 0.0014466087359089272 0 0.0018691287117066021 0.0014752639192760783 0 0.0023648465573259999 0.0013335385107143887 0 0.0019735510742721423 0.001475915500473345 0 0.0018747454922553664 0.0014335299736832586 0 0.0018598879645976426 0.0014361805734470188 0 0.0018710056046337988 0.0014466087359089272 0 0.002286778172702605 0.0015466842543712693 0 0.0021410428296092178 0.0014937583910576157 0 0.0021420031472456206 0.0014634688182608342 0 0.0018710056046337988 0.0014466087359089272 0 0.0018691287117066021 0.0014752639192760783 0 0.0019016645747910006 0.0014269555272679634 0 0.0018747454922553664 0.0014335299736832586 0 0.0018710056046337988 0.0014466087359089272 0 0.0019016645747910006 0.0014269555272679634 0 0.0045598636646749808 0.0015202407621950826 0 0.0039103979289153729 0.0019899185480398143 0 0.0038676476388904281 0.0012124217188104649 0 0.0039103979289153729 0.0019899185480398143 0 0.0038676476388904281 0.0012124217188104649 0 0.0031679458640557281 0.0013358403471303007 0 0.0038676476388904281 0.0012124217188104649 0 0.0041911227402530336 0.00046751974462479786 0 0.0032062181577161702 0.00081456100974298181 0 0.0038676476388904281 0.0012124217188104649 0 0.0041911227402530336 0.00046751974462479786 0 0.0045541924028607902 0.001029952649677475 0 0.0045598636646749808 0.0015202407621950826 0 0.0038676476388904281 0.0012124217188104649 0 0.0045541924028607902 0.001029952649677475 0 0.0036068116777340838 -0.00016672631796252682 0 0.0041911227402530336 0.00046751974462479786 0 0.0032062181577161702 0.00081456100974298181 0 0.0036068116777340838 -0.00016672631796252682 0 0.0041911227402530336 0.00046751974462479786 0 0.0047132535162239539 -0.00061766790343394172 0 0.0041911227402530336 0.00046751974462479786 0 0.0053734102236195633 0.00030840220608364894 0 0.0047132535162239539 -0.00061766790343394172 0 0.0041911227402530336 0.00046751974462479786 0 0.0053734102236195633 0.00030840220608364894 0 0.0045541924028607902 0.001029952649677475 0 0.0053734102236195633 0.00030840220608364894 0 0.0045541924028607902 0.001029952649677475 0 0.0050823470307970681 0.0012980538349435982 0 0.0057531404975202909 0.0015151729495861334 0 0.0053734102236195633 0.00030840220608364894 0 0.0050823470307970681 0.0012980538349435982 0 0.0045598636646749808 0.0015202407621950826 0 0.0045541924028607902 0.001029952649677475 0 0.0050823470307970681 0.0012980538349435982 0 0.0060084994175246091 0.0018677203475723704 0 0.0054059599256441829 0.00043987982003589651 0 0.0062880252998646618 0.0024659999392276236 0 0.0053734102236195633 0.00030840220608364894 0 0.0076090044807023 0.00088973363923566719 0 0.0060084994175246091 0.0018677203475723704 0 0.0076132419534875049 0.0010781784585245377 0 0.0053734102236195633 0.00030840220608364894 0 0.0076090044807023 0.00088973363923566719 0 0.0070056265244193804 -0.00068524109955961832 0 0.0076090044807023 0.00088973363923566719 0 0.008194699279182243 -0.00049806716864321337 0 0.0070056265244193804 -0.00068524109955961832 0 0.007648283116158788 0.0021964589182306539 0 0.0076090044807023 0.00088973363923566719 0 0.008778389567958296 0.0019780490961276852 0 0.007648283116158788 0.0021964589182306539 0 0.0066008629822796846 0.0022034176609123696 0 0.0076090044807023 0.00088973363923566719 0 0.0019286513298545206 0.001164120801277808 0 0.0014992699929674243 0.0012241967010282841 0 0.0015628593457472279 0.00081165614451613854 0 0.0014992699929674243 0.0012241967010282841 0 0.0015628593457472279 0.00081165614451613854 0 0.0011417788873137502 0.0011763982194755746 0 0.0014992699929674243 0.0012241967010282841 0 0.0016867164243233959 0.0014621034948990098 0 0.0012296695275616314 0.0015593859776937915 0 0.0019286513298545206 0.001164120801277808 0 0.0016867164243233959 0.0014621034948990098 0 0.0020580199269721422 0.0014337033739793591 0 0.0019286513298545206 0.001164120801277808 0 0.0014992699929674243 0.0012241967010282841 0 0.0016867164243233959 0.0014621034948990098 0 0.0018788791235354243 0.0014561467742126896 0 0.0016867164243233959 0.0014621034948990098 0 0.0020580199269721422 0.0014337033739793591 0 0.0018788791235354243 0.0014561467742126896 0 0.0020144798407254524 0.0014470914954422547 0 0.0020580199269721422 0.0014337033739793591 0 0.001910791842736853 0.0014278495894123108 0 0.0018788791235354243 0.0014561467742126896 0 0.0020144798407254524 0.0014470914954422547 0 0.0020580199269721422 0.0014337033739793591 0 0.0021535168158266335 0.0014709588454216748 0 0.0022534357133021997 0.0014899233421336515 0 0.0020144798407254524 0.0014470914954422547 0 0.0020580199269721422 0.0014337033739793591 0 0.0021535168158266335 0.0014709588454216748 0 0.0018691287117066021 0.0014752639192760783 0 0.0019796217509233708 0.0014366833960506331 0 0.0021535168158266335 0.0014709588454216748 0 0.0021410428296092178 0.0014937583910576157 0 0.0021420031472456206 0.0014634688182608342 0 0.0021535168158266335 0.0014709588454216748 0 0.0019735510742721423 0.001475915500473345 0 0.0021458344999256401 0.0014821211375789852 0 0.0018691287117066021 0.0014752639192760783 0 0.0019796217509233708 0.0014366833960506331 0 0.0019016645747910006 0.0014269555272679634 0 0.001910791842736853 0.0014278495894123108 0 0.0019796217509233708 0.0014366833960506331 0 0.0019016645747910006 0.0014269555272679634 0 0.001910791842736853 0.0014278495894123108 0 0.0020144798407254524 0.0014470914954422547 0 0.0019796217509233708 0.0014366833960506331 0 0.0020144798407254524 0.0014470914954422547 0 0.0019796217509233708 0.0014366833960506331 0 0.0021535168158266335 0.0014709588454216748 0 0.0029671167407078788 0.0017044999201529713 0 0.0023560435451858218 0.0015395662381519606 0 0.0039103979289153729 0.0019899185480398143 0 0.0031679458640557281 0.0013358403471303007 0 0.0022534357133021997 0.0014899233421336515 0 0.0021420031472456206 0.0014634688182608342 0 0.0021535168158266335 0.0014709588454216748 0 0.0022534357133021997 0.0014899233421336515 0 0.0026497092724723299 0.0011721907381612117 0 0.0031679458640557281 0.0013358403471303007 0 0.0022534357133021997 0.0014899233421336515 0 0.0019286513298545206 0.001164120801277808 0 0.0020580199269721422 0.0014337033739793591 0 0.0022316660925157327 0.0012808238799835671 0 0.0020580199269721422 0.0014337033739793591 0 0.0022534357133021997 0.0014899233421336515 0 0.0022316660925157327 0.0012808238799835671 0 0.0026497092724723299 0.0011721907381612117 0 0.0022316660925157327 0.0012808238799835671 0 0.002428608526044233 0.00089221962981486007 0 0.0026497092724723299 0.0011721907381612117 0 0.0022534357133021997 0.0014899233421336515 0 0.0022316660925157327 0.0012808238799835671 0 0.0019286513298545206 0.001164120801277808 0 0.0022316660925157327 0.0012808238799835671 0 0.002428608526044233 0.00089221962981486007 0 0.0019286513298545206 0.001164120801277808 0 0.002428608526044233 0.00089221962981486007 0 0.0020849328616280882 0.0005972858204470094 0 0.002428608526044233 0.00089221962981486007 0 0.0027590725691166024 0.00022886572764853303 0 0.0020849328616280882 0.0005972858204470094 0 0.0026497092724723299 0.0011721907381612117 0 0.002428608526044233 0.00089221962981486007 0 0.0032062181577161702 0.00081456100974298181 0 0.002428608526044233 0.00089221962981486007 0 0.0032062181577161702 0.00081456100974298181 0 0.0027590725691166024 0.00022886572764853303 0 0.0038676476388904281 0.0012124217188104649 0 0.0031679458640557281 0.0013358403471303007 0 0.0032062181577161702 0.00081456100974298181 0 0.0026497092724723299 0.0011721907381612117 0 0.0031679458640557281 0.0013358403471303007 0 0.0032062181577161702 0.00081456100974298181 0 0.0036068116777340838 -0.00016672631796252682 0 0.0032062181577161702 0.00081456100974298181 0 0.0027590725691166024 0.00022886572764853303 0 0.0027590725691166024 0.00022886572764853303 0 0.0020849328616280882 0.0005972858204470094 0 0.0024647113310425225 -0.00024603958385878167 0 0.0015628593457472279 0.00081165614451613854 0 0.0011955936721879195 0.00045440962800861909 0 0.0017243674355168421 -0.0002709438848331107 0 0.0020849328616280882 0.0005972858204470094 0 0.0017243674355168421 -0.0002709438848331107 0 0.0024647113310425225 -0.00024603958385878167 0 0.0020849328616280882 0.0005972858204470094 0 0.0015628593457472279 0.00081165614451613854 0 0.0017243674355168421 -0.0002709438848331107 0 0.0019286513298545206 0.001164120801277808 0 0.0020849328616280882 0.0005972858204470094 0 0.0015628593457472279 0.00081165614451613854 0 0.0061280067530556656 0.0017640787258944746 0 0.0065436127962179274 0.0012754860763454926 0 0.0011955936721879195 0.00045440962800861909 0 0.00088106694442034728 0.00093058399166772788 0 0.0011417788873137502 0.0011763982194755746 0 0.0015628593457472279 0.00081165614451613854 0 0.0011955936721879195 0.00045440962800861909 0 0.0011417788873137502 0.0011763982194755746 0 0.011072025242580887 0.0030806811366435286 0 0.010904582235961479 0.0032341170554983918 0 0.010951988347452571 0.0029846589226118856 0 0.011072025242580887 0.0030806811366435286 0 0.010951988347452571 0.0029846589226118856 0 0.011061478629017881 0.0029466894332001977 0 0.0061280067530556656 0.0017640787258944746 0 0.0059133366780815691 0.0020711625921707327 0 0.00088106694442034728 0.00093058399166772788 0 0.0011417788873137502 0.0011763982194755746 0 0.00079614849028649163 0.0014709725245411536 0 0.0011417788873137502 0.0011763982194755746 0 0.0012296695275616314 0.0015593859776937915 0 0.00079614849028649163 0.0014709725245411536 0 0.0014992699929674243 0.0012241967010282841 0 0.0011417788873137502 0.0011763982194755746 0 0.0012296695275616314 0.0015593859776937915 0 0.00088106694442034728 0.00093058399166772788 0 0.00062896486592603973 0.0012840073762486347 0 0.00079614849028649163 0.0014709725245411536 0 0.010904582235961479 0.0032341170554983918 0 0.010733052364736102 0.0034023454193932365 0 0.010691424206027884 0.0032430297725954244 0 0.00062896486592603973 0.0012840073762486347 0 0.00053371132209404856 0.0016810905355512677 0 0.00079614849028649163 0.0014709725245411536 0 0.0059133366780815691 0.0020711625921707327 0 0.0056122217178991192 0.0023532943452634434 0 0.010904582235961479 0.0032341170554983918 0 0.010691424206027884 0.0032430297725954244 0 0.010787728674656856 0.0031069068909420029 0 0.010904582235961479 0.0032341170554983918 0 0.010787728674656856 0.0031069068909420029 0 0.010951988347452571 0.0029846589226118856 0 0.010787728674656856 0.0031069068909420029 0 0.010626325305806194 0.0030605026026732018 0 0.010818730148603179 0.0029719311372569065 0 0.010626325305806194 0.0030605026026732018 0 0.010447588068164862 0.0031637390667901112 0 0.010520009833379869 0.0032896456650725802 0 0.010691424206027884 0.0032430297725954244 0 0.010787728674656856 0.0031069068909420029 0 0.010626325305806194 0.0030605026026732018 0 0.010691424206027884 0.0032430297725954244 0 0.010626325305806194 0.0030605026026732018 0 0.010520009833379869 0.0032896456650725802 0 0.010626325305806194 0.0030605026026732018 0 0.010447588068164862 0.0031637390667901112 0 0.010509154132887864 0.0030269992497393141 0 0.010447588068164862 0.0031637390667901112 0 0.010261480574210599 0.0032910440283546115 0 0.010520009833379869 0.0032896456650725802 0 0.010349071676278432 0.003107304544860121 0 0.010447588068164862 0.0031637390667901112 0 0.010509154132887864 0.0030269992497393141 0 0.010349071676278432 0.003107304544860121 0 0.010261480574210599 0.0032910440283546115 0 0.010247494068410259 0.0032313153109967273 0 0.010349071676278432 0.003107304544860121 0 0.010447588068164862 0.0031637390667901112 0 0.010261480574210599 0.0032910440283546115 0 0.010261480574210599 0.0032910440283546115 0 0.010520009833379869 0.0032896456650725802 0 0.010378981338123025 0.0034344871642382831 0 0.010261480574210599 0.0032910440283546115 0 0.010225309427328886 0.0033157322097865536 0 0.01023985314326022 0.0033744993730440058 0 0.010261480574210599 0.0032910440283546115 0 0.010378981338123025 0.0034344871642382831 0 0.010151196713907679 0.0035521766782584674 0 0.010397256606827363 0.0032161673838356532 0 0.0096784462216044573 0.0035959186137499619 0 0.010154025800386216 0.0035366220467292439 0 0.0096784462216044573 0.0035959186137499619 0 0.010261480574210599 0.0032910440283546115 0 0.010151196713907679 0.0035521766782584674 0 0.010038658418582464 0.0035293299893545587 0 0.010378981338123025 0.0034344871642382831 0 0.010547120140521237 0.0035926623397179694 0 0.010151196713907679 0.0035521766782584674 0 0.010733052364736102 0.0034023454193932365 0 0.010691424206027884 0.0032430297725954244 0 0.010520009833379869 0.0032896456650725802 0 0.010520009833379869 0.0032896456650725802 0 0.010378981338123025 0.0034344871642382831 0 0.010547120140521237 0.0035926623397179694 0 0.0056122217178991192 0.0023532943452634434 0 0.0058820059759303071 0.0026217930253323598 0 0.010733052364736102 0.0034023454193932365 0 0.010520009833379869 0.0032896456650725802 0 0.010547120140521237 0.0035926623397179694 0 0.00062896486592603973 0.0012840073762486347 0 0.00053371132209404856 0.0016810905355512677 0 0.00045543609163908714 0.0016026632389447568 0 0.00053371132209404856 0.0016810905355512677 0 0.00045543609163908714 0.0016026632389447568 0 0.00045749603468230412 0.0016968820955339046 0 0.00045543609163908714 0.0016026632389447568 0 0.00045749603468230412 0.0016968820955339046 0 0.00047088655017679242 0.0018062758346230412 0 0.0058820059759303071 0.0026217930253323598 0 0.0032973763388691028 0.0022244032863124718 0 -0.00043639845209366671 0.0019568149118053095 0 0.0032973763388691028 0.0022244032863124718 0 0.00045749603468230412 0.0016968820955339046 0 0.0004463856262456204 0.0018206377780597043 0 0.0004529777467301898 0.0018978902725145443 0 0.00045749603468230412 0.0016968820955339046 0 0.0004463856262456204 0.0018206377780597043 0 0.00047032648191463431 0.0017882004688712283 0 0.0004463856262456204 0.0018206377780597043 0 0.00044471474861724043 0.0018753306691903491 0 0.00044378134414075514 0.0018468454915067964 0 0.00044471474861724043 0.0018753306691903491 0 0.00044378134414075514 0.0018468454915067964 0 0.00043712355582633297 0.0018850865321377354 0 0.0004463856262456204 0.0018206377780597043 0 0.00044471474861724043 0.0018753306691903491 0 0.0004529777467301898 0.0018978902725145443 0 0.0004463856262456204 0.0018206377780597043 0 0.00044378134414075514 0.0018468454915067964 0 0.00047032648191463431 0.0017882004688712283 0 0.00044378134414075514 0.0018468454915067964 0 0.00047032648191463431 0.0017882004688712283 0 0.00043377734536656108 0.0018677142771044491 0 0.00053371132209404856 0.0016810905355512677 0 0.00045749603468230412 0.0016968820955339046 0 0.00047032648191463431 0.0017882004688712283 0 0.00053371132209404856 0.0016810905355512677 0 0.00047032648191463431 0.0017882004688712283 0 0.00052159526507092736 0.0018042819405182657 0 0.00047032648191463431 0.0017882004688712283 0 0.00043377734536656108 0.0018677142771044491 0 0.00052159526507092736 0.0018042819405182657 0 0.010547120140521237 0.0035926623397179694 0 0.010151196713907679 0.0035521766782584674 0 0.01023274714905897 0.0039548560361286319 0 0.0098007179279511695 0.0038546531217243593 0 0.010151196713907679 0.0035521766782584674 0 0.0095759720708581669 0.0034281642573336896 0 0.0098007179279511695 0.0038546531217243593 0 0.010151196713907679 0.0035521766782584674 0 0.01023274714905897 0.0039548560361286319 0 0.00044471474861724043 0.0018753306691903491 0 0.0004529777467301898 0.0018978902725145443 0 0.00046562267593409289 0.0019139042810007111 0 0.0032973763388691028 0.0022244032863124718 0 0.00024220991070741842 0.0024817077240984454 0 0.0004529777467301898 0.0018978902725145443 0 0.00056268572685803453 0.0019779730597931262 0 0.00046562267593409289 0.0019139042810007111 0 0.0032973763388691028 0.0022244032863124718 0 0.0054855850853811599 0.0031550263955623884 0 0.00050062648883354472 0.0019816074758772563 0 0.00056268572685803453 0.0019779730597931262 0 0.00064576221519607442 0.0020185486358062451 0 0.0098007179279511695 0.0038546531217243593 0 0.01023274714905897 0.0039548560361286319 0 0.0096575427545899685 0.0043095669773156415 0 0.00063127822838386421 0.0019702357480616871 0 0.00056973405434796397 0.0019332538295058568 0 0.00065335149986338477 0.0019095394216076043 0 0.00056268572685803453 0.0019779730597931262 0 0.00064576221519607442 0.0020185486358062451 0 0.00063127822838386421 0.0019702357480616871 0 0.00064576221519607442 0.0020185486358062451 0 0.00063127822838386421 0.0019702357480616871 0 0.00071686216305582022 0.0019734963355032904 0 0.00056268572685803453 0.0019779730597931262 0 0.00063127822838386421 0.0019702357480616871 0 0.00052916603732212268 0.0019378779893057516 0 0.00063127822838386421 0.0019702357480616871 0 0.00056973405434796397 0.0019332538295058568 0 0.00052916603732212268 0.0019378779893057516 0 0.00052916603732212268 0.0019378779893057516 0 0.00046562267593409289 0.0019139042810007111 0 0.0004738237815449852 0.0019070723680016644 0 0.00056973405434796397 0.0019332538295058568 0 0.00052916603732212268 0.0019378779893057516 0 0.0004738237815449852 0.0019070723680016644 0 0.00056268572685803453 0.0019779730597931262 0 0.00052916603732212268 0.0019378779893057516 0 0.00046562267593409289 0.0019139042810007111 0 0.00046562267593409289 0.0019139042810007111 0 0.0004738237815449852 0.0019070723680016644 0 0.00042531283771075055 0.0019016147876637576 0 0.0004738237815449852 0.0019070723680016644 0 0.00045873624362625855 0.0018813142428456919 0 0.00039877152984017317 0.0018998942173571805 0 0.00053913210819650492 0.0018539344511562187 0 0.00045873624362625855 0.0018813142428456919 0 0.00054219811908203723 0.0018995165999727587 0 0.00056973405434796397 0.0019332538295058568 0 0.0004738237815449852 0.0019070723680016644 0 0.00054219811908203723 0.0018995165999727587 0 0.0004738237815449852 0.0019070723680016644 0 0.00045873624362625855 0.0018813142428456919 0 0.00054219811908203723 0.0018995165999727587 0 0.00053913210819650492 0.0018539344511562187 0 0.00064724568735681531 0.0017972534313844639 0 0.00065335149986338477 0.0019095394216076043 0 0.00056973405434796397 0.0019332538295058568 0 0.00054219811908203723 0.0018995165999727587 0 0.00065335149986338477 0.0019095394216076043 0 0.00053913210819650492 0.0018539344511562187 0 0.00054219811908203723 0.0018995165999727587 0 0.00065335149986338477 0.0019095394216076043 0 0.00043377734536656108 0.0018677142771044491 0 0.00045382952119585302 0.0018861021798593572 0 0.00052159526507092736 0.0018042819405182657 0 0.00043377734536656108 0.0018677142771044491 0 0.00040028636500648583 0.0019012798280484407 0 0.00045382952119585302 0.0018861021798593572 0 0.00044378134414075514 0.0018468454915067964 0 0.00043377734536656108 0.0018677142771044491 0 0.00043712355582633297 0.0018850865321377354 0 0.00044471474861724043 0.0018753306691903491 0 0.00046562267593409289 0.0019139042810007111 0 0.00043712355582633297 0.0018850865321377354 0 0.00046562267593409289 0.0019139042810007111 0 0.00043712355582633297 0.0018850865321377354 0 0.00042531283771075055 0.0019016147876637576 0 0.00043377734536656108 0.0018677142771044491 0 0.00043712355582633297 0.0018850865321377354 0 0.00042531283771075055 0.0019016147876637576 0 0.00043377734536656108 0.0018677142771044491 0 0.00042531283771075055 0.0019016147876637576 0 0.00040028636500648583 0.0019012798280484407 0 0.00042531283771075055 0.0019016147876637576 0 0.00039877152984017317 0.0018998942173571805 0 0.00040028636500648583 0.0019012798280484407 0 0.0004738237815449852 0.0019070723680016644 0 0.00042531283771075055 0.0019016147876637576 0 0.00039877152984017317 0.0018998942173571805 0 0.00032403246763419241 0.0018976332373715624 0 0.00039877152984017317 0.0018998942173571805 0 0.00036267876930700613 0.0019117049863634371 0 0.00039877152984017317 0.0018998942173571805 0 0.00036267876930700613 0.0019117049863634371 0 0.00040028636500648583 0.0019012798280484407 0 0.00036267876930700613 0.0019117049863634371 0 0.00040028636500648583 0.0019012798280484407 0 0.0003899392101415165 0.001913880410234642 0 0.00040028636500648583 0.0019012798280484407 0 0.0003899392101415165 0.001913880410234642 0 0.00045382952119585302 0.0018861021798593572 0 0.00032996106399547047 0.0019314695240833855 0 0.00036267876930700613 0.0019117049863634371 0 0.0003899392101415165 0.001913880410234642 0 0.00032996106399547047 0.0019314695240833855 0 0.0003899392101415165 0.001913880410234642 0 0.00044796956886251454 0.0019319987682559828 0 0.00044796956886251454 0.0019319987682559828 0 0.00045382952119585302 0.0018861021798593572 0 0.00064227277067173915 0.0018841959686978892 0 0.00036152929131667854 0.0019568088797989082 0 0.00044796956886251454 0.0019319987682559828 0 0.00051891065574182047 0.0019748818386321637 0 0.0003899392101415165 0.001913880410234642 0 0.00044796956886251454 0.0019319987682559828 0 0.00045382952119585302 0.0018861021798593572 0 0.00045382952119585302 0.0018861021798593572 0 0.00064227277067173915 0.0018841959686978892 0 0.00052159526507092736 0.0018042819405182657 0 0.00064227277067173915 0.0018841959686978892 0 0.00052159526507092736 0.0018042819405182657 0 0.00066469146433537009 0.0017278182257376318 0 0.00044796956886251454 0.0019319987682559828 0 0.00064227277067173915 0.0018841959686978892 0 0.00051891065574182047 0.0019748818386321637 0 0.00064227277067173915 0.0018841959686978892 0 0.00051891065574182047 0.0019748818386321637 0 0.00075197838483490444 0.0020398541980533335 0 0.00064227277067173915 0.0018841959686978892 0 0.00075197838483490444 0.0020398541980533335 0 0.0011466548315281053 0.0019453654954680372 0 0.00072807877706472979 0.0018497785246617874 0 0.0011033877191462906 0.001712195434592071 0 0.00088455054457360453 0.0017793881612652427 0 0.00070295328917388729 0.00167199001624254 0 0.001056262705100974 0.0014833965522177677 0 0.00064227277067173915 0.0018841959686978892 0 0.0011466548315281053 0.0019453654954680372 0 0.00088580243951367219 0.0017245082077056446 0 0.00088455054457360453 0.0017793881612652427 0 0.0010755878448376695 0.0017930377041077302 0 0.001056262705100974 0.0014833965522177677 0 0.0011466548315281053 0.0019453654954680372 0 0.00088580243951367219 0.0017245082077056446 0 0.0012296695275616314 0.0015593859776937915 0 0.00088580243951367219 0.0017245082077056446 0 0.0012296695275616314 0.0015593859776937915 0 0.00079614849028649163 0.0014709725245411536 0 0.00088580243951367219 0.0017245082077056446 0 0.00079614849028649163 0.0014709725245411536 0 0.00066469146433537009 0.0017278182257376318 0 0.00053371132209404856 0.0016810905355512677 0 0.00079614849028649163 0.0014709725245411536 0 0.00066469146433537009 0.0017278182257376318 0 0.00053371132209404856 0.0016810905355512677 0 0.00052159526507092736 0.0018042819405182657 0 0.00066469146433537009 0.0017278182257376318 0 0.00064227277067173915 0.0018841959686978892 0 0.00088580243951367219 0.0017245082077056446 0 0.00066469146433537009 0.0017278182257376318 0 0.0045981675222188162 -6.5772651224923711e-05 0 0.0055537951678000909 -5.0032561230558349e-05 0 0.0041123562200963554 -9.8777167810137252e-05 0 0.0071075565816370425 0.00083992736438920769 0 0.0046404470572146486 0.00011123806261160771 0 0.0083300508309458472 0.0013125346152154335 0 0.0078436069096382739 0.0015813345531993019 0 0.0080840291378985567 0.0019464740926434126 0 0.0045981675222188162 -6.5772651224923711e-05 0 0.0041453522698140684 -0.00012026972033476183 0 0.0041123562200963554 -9.8777167810137252e-05 0 0.0045981675222188162 -6.5772651224923711e-05 0 0.0050105489707693096 -3.1508598270568879e-05 0 0.0055537951678000909 -5.0032561230558349e-05 0 0.0044018560950499792 -5.7626721239963335e-05 0 0.0045981675222188162 -6.5772651224923711e-05 0 0.0050105489707693096 -3.1508598270568879e-05 0 0.0050105489707693096 -3.1508598270568879e-05 0 0.0058870572497329247 -6.5483958064542877e-08 0 0.0044920188437671312 -1.754850935498853e-07 0 0.0044018560950499792 -5.7626721239963335e-05 0 0.0045981675222188162 -6.5772651224923711e-05 0 0.0041453522698140684 -0.00012026972033476183 0 0.0044018560950499792 -5.7626721239963335e-05 0 0.0050105489707693096 -3.1508598270568879e-05 0 0.0044920188437671312 -1.754850935498853e-07 0 0.0050105489707693096 -3.1508598270568879e-05 0 0.0058870572497329247 -6.5483958064542877e-08 0 0.0055537951678000909 -5.0032561230558349e-05 0 0.0083300508309458472 0.0013125346152154335 0 0.0078436069096382739 0.0015813345531993019 0 0.0077386832998348415 0.001134243642537173 0 0.0074210287051090758 0.0015316893211146092 0 0.0078436069096382739 0.0015813345531993019 0 0.0077386832998348415 0.001134243642537173 0 0.0074210287051090758 0.0015316893211146092 0 0.0069457284556313651 0.0014606294415445559 0 0.0072382773497410803 0.0010324809772805491 0 0.0074210287051090758 0.0015316893211146092 0 0.0072382773497410803 0.0010324809772805491 0 0.0077386832998348415 0.001134243642537173 0 0.0074210287051090758 0.0015316893211146092 0 0.0071977285960855807 0.0019934839595797753 0 0.0069457284556313651 0.0014606294415445559 0 0.0074210287051090758 0.0015316893211146092 0 0.0076444233522642751 0.0019730333982629581 0 0.0071977285960855807 0.0019934839595797753 0 0.0074210287051090758 0.0015316893211146092 0 0.0078436069096382739 0.0015813345531993019 0 0.0076444233522642751 0.0019730333982629581 0 0.0078436069096382739 0.0015813345531993019 0 0.0076444233522642751 0.0019730333982629581 0 0.0080840291378985567 0.0019464740926434126 0 0.0049117565555301043 0.00077244987960086776 0 0.0046404470572146486 0.00011123806261160771 0 0.0017979376105345226 -0.00042758922211799926 0 0.0015442331433772858 5.5452903836578732e-06 0 0.0020908040342808962 -9.4624875635407438e-05 0 0.0017979376105345226 -0.00042758922211799926 0 0.0013814660688872486 -0.00038893569510621274 0 0.0015442331433772858 5.5452903836578732e-06 0 0.0036745245430027272 0.00083512436147973462 0 0.0011099005470667298 -0.00061359525726874709 0 0.0013935431786514577 -0.00014356970298087826 0 0.0015442331433772858 5.5452903836578732e-06 0 0.0012268639921653745 8.9109192588862193e-05 0 0.0049117565555301043 0.00077244987960086776 0 0.0036745245430027272 0.00083512436147973462 0 0.0015442331433772858 5.5452903836578732e-06 0 0.0014338616891093647 0.00034225252683560935 0 0.0012268639921653745 8.9109192588862193e-05 0 0.0015442331433772858 5.5452903836578732e-06 0 0.0020037471337161126 0.00016689337473067318 0 0.0014338616891093647 0.00034225252683560935 0 0.0015442331433772858 5.5452903836578732e-06 0 0.0020908040342808962 -9.4624875635407438e-05 0 0.0020037471337161126 0.00016689337473067318 0 0.0028009744727569962 5.6240621191095385e-05 0 0.0029919824044179742 -6.1284579290199067e-05 0 0.0020037471337161126 0.00016689337473067318 0 0.0028009744727569962 5.6240621191095385e-05 0 0.0029919824044179742 -6.1284579290199067e-05 0 0.0037496110422585997 -2.7120048247254087e-05 0 0.0025211665735007925 1.0760592079762993e-05 0 0.002145516424498819 0.00022000707644333385 0 0.0029919824044179742 -6.1284579290199067e-05 0 0.0039211189761872269 -0.00014183081321646489 0 0.0037496110422585997 -2.7120048247254087e-05 0 0.0025211665735007925 1.0760592079762993e-05 0 0.0046404470572146486 0.00011123806261160771 0 0.0017979376105345226 -0.00042758922211799926 0 0.0020908040342808962 -9.4624875635407438e-05 0 0.0022206414418967481 -0.00045702576219644535 0 0.0041453522698140684 -0.00012026972033476183 0 0.0039211189761872269 -0.00014183081321646489 0 0.0037496110422585997 -2.7120048247254087e-05 0 0.0043871246709302767 8.5818972696528612e-05 0 0.0046404470572146486 0.00011123806261160771 0 0.0044018560950499792 -5.7626721239963335e-05 0 0.0041453522698140684 -0.00012026972033476183 0 0.0037496110422585997 -2.7120048247254087e-05 0 0.0044018560950499792 -5.7626721239963335e-05 0 0.0044920188437671312 -1.754850935498853e-07 0 0.0037496110422585997 -2.7120048247254087e-05 0 0.0028009744727569962 5.6240621191095385e-05 0 0.0037496110422585997 -2.7120048247254087e-05 0 0.0030970975915989678 2.0820452668874423e-07 0 0.0044920188437671312 -1.754850935498853e-07 0 0.0037496110422585997 -2.7120048247254087e-05 0 0.0030970975915989678 2.0820452668874423e-07 0 0.0028009744727569962 5.6240621191095385e-05 0 0.0030970975915989678 2.0820452668874423e-07 0 0.0021672776897388815 0.00019780523169585443 0 0.0030970975915989678 2.0820452668874423e-07 0 0.0021672776897388815 0.00019780523169585443 0 0.0017021743209300936 4.4717918433845252e-07 0 0.0021672776897388815 0.00019780523169585443 0 0.0015497905541370471 0.00034002862850208087 0 0.0020037471337161126 0.00016689337473067318 0 0.0028009744727569962 5.6240621191095385e-05 0 0.0021672776897388815 0.00019780523169585443 0 0.0020037471337161126 0.00016689337473067318 0 0.0021672776897388815 0.00019780523169585443 0 0.0013466477627627608 0.00031730875442719496 0 0.0015497905541370471 0.00034002862850208087 0 0.0021672776897388815 0.00019780523169585443 0 0.0017021743209300936 4.4717918433845252e-07 0 0.0013466477627627608 0.00031730875442719496 0 0.0017021743209300936 4.4717918433845252e-07 0 0.0013466477627627608 0.00031730875442719496 0 0.00083671918060458422 0.00023066183178262938 0 0.0017021743209300936 4.4717918433845252e-07 0 0.00083671918060458422 0.00023066183178262938 0 0.00030743742097801816 5.4923194028213884e-07 0 0.0013466477627627608 0.00031730875442719496 0 0.00083671918060458422 0.00023066183178262938 0 0.00078605406463159457 0.0003640216037966009 0 -2.5868165013780106e-05 0.00022263994662417096 0 0.00083671918060458422 0.00023066183178262938 0 0.00078605406463159457 0.0003640216037966009 0 -2.5868165013780106e-05 0.00022263994662417096 0 0.00083671918060458422 0.00023066183178262938 0 0.00030743742097801816 5.4923194028213884e-07 0 0.00080308696253742872 0.00037749778693313012 0 0.00078605406463159457 0.0003640216037966009 0 0.001106189690406209 0.00041466219388144805 0 0.00082456514577982384 0.00060017328608362973 0 0.0011329126399242386 0.00059422940208458735 0 0.0013466477627627608 0.00031730875442719496 0 0.00078605406463159457 0.0003640216037966009 0 0.001106189690406209 0.00041466219388144805 0 0.0011553182937178445 0.0007823290937587575 0 0.0014338616891093647 0.00034225252683560935 0 0.0010957669045821114 0.00048944816917143941 0 0.0011329126399242386 0.00059422940208458735 0 0.0013865745593650495 0.00035835857115860048 0 0.001106189690406209 0.00041466219388144805 0 0.0015497905541370471 0.00034002862850208087 0 0.0014338616891093647 0.00034225252683560935 0 0.0013466477627627608 0.00031730875442719496 0 0.001106189690406209 0.00041466219388144805 0 0.0015497905541370471 0.00034002862850208087 0 0.0015497905541370471 0.00034002862850208087 0 0.0020037471337161126 0.00016689337473067318 0 0.0014338616891093647 0.00034225252683560935 0 0.0014338616891093647 0.00034225252683560935 0 0.0010957669045821114 0.00048944816917143941 0 0.0012268639921653745 8.9109192588862193e-05 0 0.0010957669045821114 0.00048944816917143941 0 0.00086930957165595821 0.00057244716024743133 0 0.00098685606986337869 0.00031001739215246414 0 0.0010957669045821114 0.00048944816917143941 0 0.00094236076930261396 0.00076902814448672179 0 0.00086930957165595821 0.00057244716024743133 0 0.0011553182937178445 0.0007823290937587575 0 0.0010957669045821114 0.00048944816917143941 0 0.00094236076930261396 0.00076902814448672179 0 0.0011553182937178445 0.0007823290937587575 0 0.00094236076930261396 0.00076902814448672179 0 0.00090224133197712659 0.00086151133845761851 0 0.00094236076930261396 0.00076902814448672179 0 0.00083187565717716592 0.00089163841993543857 0 0.00090224133197712659 0.00086151133845761851 0 0.00094236076930261396 0.00076902814448672179 0 0.00083187565717716592 0.00089163841993543857 0 0.00076852842541815956 0.0008553803501692008 0 0.00086006463793730737 0.00078871501241030407 0 0.00083187565717716592 0.00089163841993543857 0 0.00090224133197712659 0.00086151133845761851 0 0.00083131511570028128 0.00084923707111841322 0 0.0011553182937178445 0.0007823290937587575 0 0.00090224133197712659 0.00086151133845761851 0 0.00074810756268003183 0.00090020760240604538 0 0.00068026604470342814 0.00098875312143621025 0 0.00064200383493116721 0.0010055952287882728 0 0.00068026604470342814 0.00098875312143621025 0 0.00064200383493116721 0.0010055952287882728 0 0.00048050529698042202 0.0011736752565045805 0 0.00074810756268003183 0.00090020760240604538 0 0.00083187565717716592 0.00089163841993543857 0 0.00068026604470342814 0.00098875312143621025 0 0.00083187565717716592 0.00089163841993543857 0 0.00068026604470342814 0.00098875312143621025 0 0.00076852842541815956 0.0008553803501692008 0 0.00068026604470342814 0.00098875312143621025 0 0.00076852842541815956 0.0008553803501692008 0 0.00048050529698042202 0.0011736752565045805 0 0.00076852842541815956 0.0008553803501692008 0 0.00067353183461028756 0.00067214440648272992 0 0.00048050529698042202 0.0011736752565045805 0 0.00094236076930261396 0.00076902814448672179 0 0.00076852842541815956 0.0008553803501692008 0 0.00086930957165595821 0.00057244716024743133 0 0.00076852842541815956 0.0008553803501692008 0 0.00067353183461028756 0.00067214440648272992 0 0.00086930957165595821 0.00057244716024743133 0 0.00067353183461028756 0.00067214440648272992 0 0.00074914839579012576 0.00049762727636223068 0 0.00086930957165595821 0.00057244716024743133 0 0.00074914839579012576 0.00049762727636223068 0 0.00086930957165595821 0.00057244716024743133 0 0.00082165197296121177 0.00035205862134714939 0 0.00086930957165595821 0.00057244716024743133 0 0.00082165197296121177 0.00035205862134714939 0 0.00098685606986337869 0.00031001739215246414 0 0.00074914839579012576 0.00049762727636223068 0 0.00063629316576483406 0.00037127814600896144 0 0.00082165197296121177 0.00035205862134714939 0 0.00067353183461028756 0.00067214440648272992 0 0.00074914839579012576 0.00049762727636223068 0 0.00063629316576483406 0.00037127814600896144 0 0.00067353183461028756 0.00067214440648272992 0 0.00063629316576483406 0.00037127814600896144 0 0.00033486209162624669 0.00059743971649216406 0 0.00067949081460753858 0.0002319026509342391 0 0.00071373146716687799 0.00015321022845965384 0 0.00075814014381480688 0.00022867656023275348 0 0.00063629316576483406 0.00037127814600896144 0 0.00067949081460753858 0.0002319026509342391 0 0.00075814014381480688 0.00022867656023275348 0 0.00063629316576483406 0.00037127814600896144 0 0.00060728701818049669 0.00019782487178259374 0 0.00048716676467406878 0.00026217906153530422 0 0.00063629316576483406 0.00037127814600896144 0 0.00067949081460753858 0.0002319026509342391 0 0.00060728701818049669 0.00019782487178259374 0 0.00060728701818049669 0.00019782487178259374 0 0.00066169842753500898 0.00012393270837003021 0 0.00056084144820361384 0.00013703477436538612 0 0.00060728701818049669 0.00019782487178259374 0 0.00071373146716687799 0.00015321022845965384 0 0.00066169842753500898 0.00012393270837003021 0 0.00067949081460753858 0.0002319026509342391 0 0.00060728701818049669 0.00019782487178259374 0 0.00071373146716687799 0.00015321022845965384 0 0.00071373146716687799 0.00015321022845965384 0 0.00066169842753500898 0.00012393270837003021 0 0.00077765871639017632 9.0113217106462239e-05 0 0.00066169842753500898 0.00012393270837003021 0 0.00091651243921243419 0.00013213098236649956 0 0.00071972109079606933 1.3915178775624988e-05 0 0.0004675033385743647 0.00017488526312899654 0 0.0016613136975844173 0.00049853995816469591 0 0.00066169842753500898 0.00012393270837003021 0 0.00059630514624828593 1.8695425958775457e-05 0 0.00056084144820361384 0.00013703477436538612 0 0.00066169842753500898 0.00012393270837003021 0 0.00071972109079606933 1.3915178775624988e-05 0 0.00059630514624828593 1.8695425958775457e-05 0 0.00071373146716687799 0.00015321022845965384 0 0.00077765871639017632 9.0113217106462239e-05 0 0.0007834612390539259 0.00012307911359009014 0 0.0016613136975844173 0.00049853995816469591 0 0.0013899284370244051 0.00017961694688615944 0 0.00071373146716687799 0.00015321022845965384 0 0.0007834612390539259 0.00012307911359009014 0 0.00075814014381480688 0.00022867656023275348 0 0.00077752744511457473 3.6933789667883079e-05 0 0.0007834612390539259 0.00012307911359009014 0 0.0009451111518174102 0.00011128558861784028 0 0.0007834612390539259 0.00012307911359009014 0 0.00075814014381480688 0.00022867656023275348 0 0.0009451111518174102 0.00011128558861784028 0 0.00075814014381480688 0.00022867656023275348 0 0.00082165197296121177 0.00035205862134714939 0 0.0009451111518174102 0.00011128558861784028 0 0.00063629316576483406 0.00037127814600896144 0 0.00075814014381480688 0.00022867656023275348 0 0.00082165197296121177 0.00035205862134714939 0 0.00098685606986337869 0.00031001739215246414 0 0.0012268639921653745 8.9109192588862193e-05 0 0.0009451111518174102 0.00011128558861784028 0 0.00082165197296121177 0.00035205862134714939 0 0.00098685606986337869 0.00031001739215246414 0 0.0009451111518174102 0.00011128558861784028 0 0.0010957669045821114 0.00048944816917143941 0 0.00098685606986337869 0.00031001739215246414 0 0.0012268639921653745 8.9109192588862193e-05 0 0.0036745245430027272 0.00083512436147973462 0 0.0022661960947647766 0.00045366769934389707 0 0.0013935431786514577 -0.00014356970298087826 0 0.0012268639921653745 8.9109192588862193e-05 0 0.0010712601707626977 -5.5668040738318219e-05 0 0.00077752744511457473 3.6933789667883079e-05 0 0.0010712601707626977 -5.5668040738318219e-05 0 0.0009451111518174102 0.00011128558861784028 0 0.0012268639921653745 8.9109192588862193e-05 0 0.0010712601707626977 -5.5668040738318219e-05 0 0.0009451111518174102 0.00011128558861784028 0 0.0016613136975844173 0.00049853995816469591 0 0.0022661960947647766 0.00045366769934389707 0 0.0036741228781185307 0.0010148931854096518 0 0.0035617915015707575 0.00074104431432694474 0 0.0038813940627254306 0.00061274581267620686 0 0.0032768989218274658 0.0010349314682500141 0 0.0036741228781185307 0.0010148931854096518 0 0.0035617915015707575 0.00074104431432694474 0 0.0036745245430027272 0.00083512436147973462 0 0.0056477088368098605 0.00121490335090911 0 0.0040625516364483898 0.00099344408109031351 0 0.0036741228781185307 0.0010148931854096518 0 0.0038813940627254306 0.00061274581267620686 0 0.0038813940627254306 0.00061274581267620686 0 0.0034826100483371565 0.00045620357040105058 0 0.0037012901889615728 0.00022865415302537854 0 0.0035617915015707575 0.00074104431432694474 0 0.0038813940627254306 0.00061274581267620686 0 0.0034826100483371565 0.00045620357040105058 0 0.0035617915015707575 0.00074104431432694474 0 0.0034826100483371565 0.00045620357040105058 0 0.0032613790190361429 0.00068581002736532802 0 0.0043977461754670395 0.00047175130051520752 0 0.002706521377730762 0.00027863421295732586 0 0.0041337701590414841 0.00031950480016621765 0 0.002706521377730762 0.00027863421295732586 0 0.0052404618877239881 0.0005503589470453855 0 0.0051871863525961744 0.00055076947096386892 0 0.0051751417191573902 0.00060317573106936538 0 0.0041337701590414841 0.00031950480016621765 0 0.0036047287251084283 0.00084439291364995237 0 0.00091893749358715161 -0.00034565701129373805 0 0.00073760709809497533 -0.00012166002858968122 0 0.00054266206877757615 -0.00016731913213870102 0 0.0074896780061494391 0.001471747313211959 0 0.0066500375943743164 0.0019779066512458708 0 0.0068979576735822895 0.0012525900893307748 0 0.00091893749358715161 -0.00034565701129373805 0 0.00073760709809497533 -0.00012166002858968122 0 0.00092137083344127262 -0.00014792648591339629 0 0.00073760709809497533 -0.00012166002858968122 0 0.00071972109079606933 1.3915178775624988e-05 0 0.00092137083344127262 -0.00014792648591339629 0 0.00091651243921243419 0.00013213098236649956 0 0.00071972109079606933 1.3915178775624988e-05 0 0.00090611644674920143 -0.00017761286308004453 0 0.00059284156763402278 0.00022597754360484081 0 0.002706521377730762 0.00027863421295732586 0 0.00073760709809497533 -0.00012166002858968122 0 0.00071972109079606933 1.3915178775624988e-05 0 0.00059630514624828593 1.8695425958775457e-05 0 0.0016613136975844173 0.00049853995816469591 0 0.002706521377730762 0.00027863421295732586 0 0.0032768989218274658 0.0010349314682500141 0 0.0035617915015707575 0.00074104431432694474 0 0.0032613790190361429 0.00068581002736532802 0 0.0036047287251084283 0.00084439291364995237 0 0.0029659031204850054 0.0020185505040642643 0 0.00054266206877757615 -0.00016731913213870102 0 0.0002516862230110842 -1.5737392587309403e-06 0 0.00044730328421322015 7.5020019080885591e-05 0 0.00059630514624828593 1.8695425958775457e-05 0 0.00054266206877757615 -0.00016731913213870102 0 0.00044730328421322015 7.5020019080885591e-05 0 0.00073760709809497533 -0.00012166002858968122 0 0.00059630514624828593 1.8695425958775457e-05 0 0.00054266206877757615 -0.00016731913213870102 0 0.0066500375943743164 0.0019779066512458708 0 0.0060773223897657869 0.0014951805191892303 0 0.0068979576735822895 0.0012525900893307748 0 0.0066500375943743164 0.0019779066512458708 0 0.0060773223897657869 0.0014951805191892303 0 0.0055326351540894618 0.0026035978067522427 0 0.0060773223897657869 0.0014951805191892303 0 0.005044483973206627 0.0015188807215768564 0 0.0055326351540894618 0.0026035978067522427 0 0.005044483973206627 0.0015188807215768564 0 0.0039963766958476367 0.0021515157081724535 0 0.0052441957441955343 0.0027770707120810647 0 0.0056381362518846236 0.0019957974050197353 0 0.0029659031204850054 0.0020185505040642643 0 0.005044483973206627 0.0015188807215768564 0 0.0039508123152356862 0.0013677829440204125 0 0.0039963766958476367 0.0021515157081724535 0 0.0039508123152356862 0.0013677829440204125 0 0.0039963766958476367 0.0021515157081724535 0 0.003176262160959543 0.0015066937864807273 0 0.0039963766958476367 0.0021515157081724535 0 0.003374207453904043 0.0025732665919510067 0 0.0029612742215203258 0.0020837376109503797 0 0.0039963766958476367 0.0021515157081724535 0 0.003374207453904043 0.0025732665919510067 0 0.0040525048858116161 0.0031951162592021728 0 0.003374207453904043 0.0025732665919510067 0 0.0040525048858116161 0.0031951162592021728 0 0.0028257107221697103 0.0028936506496265238 0 0.0029659031204850054 0.0020185505040642643 0 0.0025579494339601286 0.0033494894976457846 0 0.0039963766958476367 0.0021515157081724535 0 0.0052441957441955343 0.0027770707120810647 0 0.0040525048858116161 0.0031951162592021728 0 0.00040320707459814856 0.0036535733519547685 0 0.00070337827326004832 0.0026905394523826635 0 0.0011889768511825808 0.003409371114859065 0 0.0011889768511825808 0.003409371114859065 0 0.0012465199784698904 0.0024400184771257633 0 0.0024953559805957672 0.003190049187195617 0 0.0025579494339601286 0.0033494894976457846 0 0.0026235771558225686 0.0031776439380899616 0 0.0040525048858116161 0.0031951162592021728 0 0.0024953559805957672 0.003190049187195617 0 0.0028257107221697103 0.0028936506496265238 0 0.00070337827326004832 0.0026905394523826635 0 0.0011889768511825808 0.003409371114859065 0 0.0012465199784698904 0.0024400184771257633 0 0.0012465199784698904 0.0024400184771257633 0 0.0007123594528601311 0.0014039816244106201 0 0.0026291750546904276 0.0029092140815864891 0 0.00078033857613503692 0.0014216438449096006 0 0.00082572622805279858 0.001432809012458045 0 0.00070337827326004832 0.0026905394523826635 0 0.0012465199784698904 0.0024400184771257633 0 0.00052274460685180916 0.0018499037523660397 0 0.00070337827326004832 0.0026905394523826635 0 0.00011532525590316617 0.0024251842449888026 0 0.00052274460685180916 0.0018499037523660397 0 -0.00011808652179289116 0.0012405292150523136 0 0.0003791630557326962 0.0012182298511004884 0 0.00040320707459814856 0.0036535733519547685 0 0.00070337827326004832 0.0026905394523826635 0 0.00011532525590316617 0.0024251842449888026 0 0.0002516862230110842 -1.5737392587309403e-06 0 0.00031299294303711297 0.00027298295527808196 0 0.00044730328421322015 7.5020019080885591e-05 0 0.0029659031204850054 0.0020185505040642643 0 -0.00011808652179289116 0.0012405292150523136 0 0.00031299294303711297 0.00027298295527808196 0 0.00044730328421322015 7.5020019080885591e-05 0 0.00048716676467406878 0.00026217906153530422 0 0.00056084144820361384 0.00013703477436538612 0 0.00044730328421322015 7.5020019080885591e-05 0 0.00048716676467406878 0.00026217906153530422 0 0.00059630514624828593 1.8695425958775457e-05 0 0.00056084144820361384 0.00013703477436538612 0 0.00044730328421322015 7.5020019080885591e-05 0 0.00060728701818049669 0.00019782487178259374 0 0.00056084144820361384 0.00013703477436538612 0 0.00048716676467406878 0.00026217906153530422 0 0.00031299294303711297 0.00027298295527808196 0 0.00048716676467406878 0.00026217906153530422 0 0.00033486209162624669 0.00059743971649216406 0 0.00063629316576483406 0.00037127814600896144 0 0.00048716676467406878 0.00026217906153530422 0 0.00033486209162624669 0.00059743971649216406 0 0.00011532525590316617 0.0024251842449888026 0 0.00030056540736246676 0.0017011912128057614 0 0.00052274460685180916 0.0018499037523660397 0 0.00030056540736246676 0.0017011912128057614 0 0.00059253730651977296 0.0016124265413391785 0 0.00052274460685180916 0.0018499037523660397 0 0.00067353183461028756 0.00067214440648272992 0 0.00033486209162624669 0.00059743971649216406 0 0.00048050529698042202 0.0011736752565045805 0 0.0003791630557326962 0.0012182298511004884 0 0.00044472562242955216 0.0011737452783454495 0 0.00030056540736246676 0.0017011912128057614 0 0.00059253730651977296 0.0016124265413391785 0 0.00048050529698042202 0.0011736752565045805 0 0.00059253730651977296 0.0016124265413391785 0 0.00048050529698042202 0.0011736752565045805 0 0.00070560089280514125 0.0016811644189683051 0 0.00048050529698042202 0.0011736752565045805 0 0.00061123876042475133 0.0012098219106545986 0 0.00070560089280514125 0.0016811644189683051 0 0.00086792667166593444 0.0011127206655499654 0 0.00061123876042475133 0.0012098219106545986 0 0.00070560089280514125 0.0016811644189683051 0 0.00059955323300624631 0.0010610045696670335 0 0.00048050529698042202 0.0011736752565045805 0 0.00061123876042475133 0.0012098219106545986 0 0.00059955323300624631 0.0010610045696670335 0 0.00064200383493116721 0.0010055952287882728 0 0.00048050529698042202 0.0011736752565045805 0 -0.0028401121983376897 0.0020747189033321605 0 -0.0037578554278914385 0.0026339586696641081 0 0.00053028710449585733 0.0028710442136376498 0 0.00022660369368474642 0.0023260793500304443 0 -0.00027312062989731265 0.0026895160679577513 0 -0.0077718341065707791 0.0021233916820422053 0 -0.0071740061277299622 0.0020663268171552903 0 -0.0069137956338680088 0.0025264756511748894 0 0.00045640498990068995 0.0027347245752228559 0 0.00022660369368474642 0.0023260793500304443 0 0.00070560089280514125 0.0016811644189683051 0 -0.0027834554309856055 0.0014956329753851385 0 0.0014514003872077611 0.0016925734945539203 0 -0.0028401121983376897 0.0020747189033321605 0 0.00073505606861457181 0.0030240275502704697 0 0.00056251482246267193 0.0027895482201064068 0 0.00045640498990068995 0.0027347245752228559 0 0.00070560089280514125 0.0016811644189683051 0 0.00022660369368474642 0.0023260793500304443 0 0.00070560089280514125 0.0016811644189683051 0 0.00049621734771837555 0.0017949249629301595 0 0.00022660369368474642 0.0023260793500304443 0 -0.00022421253285343897 0.002109941884009179 0 -0.00027312062989731265 0.0026895160679577513 0 0.00022660369368474642 0.0023260793500304443 0 0.00049621734771837555 0.0017949249629301595 0 -0.00022421253285343897 0.002109941884009179 0 0.00049621734771837555 0.0017949249629301595 0 0.0007123594528601311 0.0014039816244106201 0 -0.00022421253285343897 0.002109941884009179 0 0.00059253730651977296 0.0016124265413391785 0 0.00049621734771837555 0.0017949249629301595 0 0.0007123594528601311 0.0014039816244106201 0 0.00059253730651977296 0.0016124265413391785 0 0.00070560089280514125 0.0016811644189683051 0 0.00049621734771837555 0.0017949249629301595 0 0.00059253730651977296 0.0016124265413391785 0 0.00052274460685180916 0.0018499037523660397 0 0.0007123594528601311 0.0014039816244106201 0 0.0012465199784698904 0.0024400184771257633 0 0.00052274460685180916 0.0018499037523660397 0 0.0007123594528601311 0.0014039816244106201 0 0.0007123594528601311 0.0014039816244106201 0 -0.00086149835215414171 0.0012673256253234581 0 -0.00086401613930783187 -0.00014030166841605185 0 -0.00086149835215414171 0.0012673256253234581 0 -0.0015682052316510059 0.0009353216934556033 0 -0.0018945364206072455 0.0015154479343147797 0 -0.0015682052316510059 0.0009353216934556033 0 -0.0021951924892230287 0.00085262451276965807 0 -0.0018568089135900373 0.00037654057540318286 0 -0.00086149835215414171 0.0012673256253234581 0 -0.0015682052316510059 0.0009353216934556033 0 -0.0012804070826864656 0.00046366288109688398 0 -0.0015682052316510059 0.0009353216934556033 0 -0.0018945364206072455 0.0015154479343147797 0 -0.0021951924892230287 0.00085262451276965807 0 -0.00086149835215414171 0.0012673256253234581 0 -0.0010960246732735933 0.0019287394940697539 0 -0.0018945364206072455 0.0015154479343147797 0 -0.0010960246732735933 0.0019287394940697539 0 -0.0018945364206072455 0.0015154479343147797 0 -0.001518072174626016 0.002883744578121301 0 -0.00086149835215414171 0.0012673256253234581 0 -0.0010960246732735933 0.0019287394940697539 0 -0.00022421253285343897 0.002109941884009179 0 0.0007123594528601311 0.0014039816244106201 0 -0.00086149835215414171 0.0012673256253234581 0 -0.00022421253285343897 0.002109941884009179 0 -0.00022421253285343897 0.002109941884009179 0 -0.001518072174626016 0.002883744578121301 0 -0.00027312062989731265 0.0026895160679577513 0 -0.0010960246732735933 0.0019287394940697539 0 -0.00022421253285343897 0.002109941884009179 0 -0.001518072174626016 0.002883744578121301 0 -0.0036477570215544706 0.0027587316833808492 0 -0.0037578554278914385 0.0026339586696641081 0 -0.0057011607718621005 0.0027998325626257866 0 -0.0058246095750476446 0.002274441501218897 0 -0.0069137956338680088 0.0025264756511748894 0 -0.0057011607718621005 0.0027998325626257866 0 -0.0058246095750476446 0.002274441501218897 0 -0.0049050650203036096 0.0023458767851689518 0 -0.0064577229553351911 0.0019374782632708228 0 -0.0071740061277299622 0.0020663268171552903 0 -0.0069137956338680088 0.0025264756511748894 0 -0.0064577229553351911 0.0019374782632708228 0 -0.0058246095750476446 0.002274441501218897 0 -0.0069137956338680088 0.0025264756511748894 0 -0.0049099495487464227 0.0020733877467139401 0 -0.0044859405026048708 0.0024067641008136478 0 -0.0049050650203036096 0.0023458767851689518 0 -0.0055536687679628516 0.0019591072068664292 0 -0.0058246095750476446 0.002274441501218897 0 -0.0049050650203036096 0.0023458767851689518 0 -0.0055536687679628516 0.0019591072068664292 0 -0.0049099495487464227 0.0020733877467139401 0 -0.0049050650203036096 0.0023458767851689518 0 -0.0057011607718621005 0.0027998325626257866 0 -0.0049050650203036096 0.0023458767851689518 0 -0.0039070096724375981 0.0024517551011783482 0 -0.0036477570215544706 0.0027587316833808492 0 -0.0039964745585087018 0.0024637697397712184 0 -0.0044859405026048708 0.0024067641008136478 0 -0.0049050650203036096 0.0023458767851689518 0 -0.0039070096724375981 0.0024517551011783482 0 -0.0039070096724375981 0.0024517551011783482 0 -0.0028750345411425941 0.0013575456322227097 0 -0.0036472197748590477 0.0014303905611744911 0 -0.0041874391366831937 0.0020732798853144141 0 -0.0039070096724375981 0.0024517551011783482 0 -0.0036472197748590477 0.0014303905611744911 0 -0.0044859405026048708 0.0024067641008136478 0 -0.0041874391366831937 0.0020732798853144141 0 -0.0039070096724375981 0.0024517551011783482 0 -0.0018945364206072455 0.0015154479343147797 0 -0.001518072174626016 0.002883744578121301 0 -0.0039070096724375981 0.0024517551011783482 0 -0.0018945364206072455 0.0015154479343147797 0 -0.0039070096724375981 0.0024517551011783482 0 -0.0028750345411425941 0.0013575456322227097 0 -0.0018945364206072455 0.0015154479343147797 0 -0.0028750345411425941 0.0013575456322227097 0 -0.0021951924892230287 0.00085262451276965807 0 -0.0028750345411425941 0.0013575456322227097 0 -0.0027225611912542538 0.00070771443204293454 0 -0.0036472197748590477 0.0014303905611744911 0 -0.0028750345411425941 0.0013575456322227097 0 -0.0027225611912542538 0.00070771443204293454 0 -0.0021951924892230287 0.00085262451276965807 0 -0.0027225611912542538 0.00070771443204293454 0 -0.0021951924892230287 0.00085262451276965807 0 -0.0022917610088898591 0.00039743138935326806 0 -0.0041874391366831937 0.0020732798853144141 0 -0.0036472197748590477 0.0014303905611744911 0 -0.0041025530154952979 0.00090850522882003485 0 -0.0027225611912542538 0.00070771443204293454 0 -0.0036472197748590477 0.0014303905611744911 0 -0.0030830128395412286 0.00055554914092582691 0 -0.0036472197748590477 0.0014303905611744911 0 -0.003624525967333851 0.00060884630917705323 0 -0.0030830128395412286 0.00055554914092582691 0 -0.0035605355715292654 0.0012975639442097181 0 -0.003551445377225286 0.00062536052507770391 0 -0.002536871770518632 -2.5904766434381301e-05 0 -0.0026746028605550277 -0.00029384130411378866 0 -0.0028789175706962016 5.6900061912819273e-05 0 -0.003624525967333851 0.00060884630917705323 0 -0.0030830128395412286 0.00055554914092582691 0 -0.0028789175706962016 5.6900061912819273e-05 0 -0.003551445377225286 0.00062536052507770391 0 -0.0030142786290531486 1.760050703764182e-05 0 -0.0030830128395412286 0.00055554914092582691 0 -0.0028789175706962016 5.6900061912819273e-05 0 -0.0025250258546206258 0.00015971546278393408 0 -0.0028789175706962016 5.6900061912819273e-05 0 -0.0025789144836414648 -1.4547172911432061e-05 0 -0.0025779000237261401 -6.9098353544905789e-05 0 -0.0028789175706962016 5.6900061912819273e-05 0 -0.0025789144836414648 -1.4547172911432061e-05 0 -0.0025250258546206258 0.00015971546278393408 0 -0.0028789175706962016 5.6900061912819273e-05 0 -0.0025751059559346303 -4.3304965822236692e-05 0 -0.0025779000237261401 -6.9098353544905789e-05 0 -0.002536871770518632 -2.5904766434381301e-05 0 -0.0028789175706962016 5.6900061912819273e-05 0 -0.0025751059559346303 -4.3304965822236692e-05 0 -0.0025006084346210233 -0.00012074555034811637 0 -0.0025751059559346303 -4.3304965822236692e-05 0 -0.0024960035535485001 -0.00014935960754111369 0 -0.0024484084936401119 -0.000198652764990203 0 -0.0025779000237261401 -6.9098353544905789e-05 0 -0.0024728703034137332 -0.00011421805942158084 0 -0.0024960035535485001 -0.00014935960754111369 0 -0.0024484084936401119 -0.000198652764990203 0 -0.0025779000237261401 -6.9098353544905789e-05 0 -0.0025751059559346303 -4.3304965822236692e-05 0 -0.0024960035535485001 -0.00014935960754111369 0 -0.0025779000237261401 -6.9098353544905789e-05 0 -0.0024155805580687744 -0.00028591282172968298 0 -0.0024960035535485001 -0.00014935960754111369 0 -0.0024484084936401119 -0.000198652764990203 0 -0.0025789144836414648 -1.4547172911432061e-05 0 -0.0024728703034137332 -0.00011421805942158084 0 -0.0023101498802613396 -5.8612982397102043e-05 0 -0.0025789144836414648 -1.4547172911432061e-05 0 -0.0025779000237261401 -6.9098353544905789e-05 0 -0.0024728703034137332 -0.00011421805942158084 0 -0.0024266490379699669 -0.00017772756172800637 0 -0.0022998035268174959 -0.00013876875616521285 0 -0.002389553606756249 -0.00016448458145700085 0 -0.0024728703034137332 -0.00011421805942158084 0 -0.0024266490379699669 -0.00017772756172800637 0 -0.0022998035268174959 -0.00013876875616521285 0 -0.0023406084846125151 -0.00021837646792572844 0 -0.0024266490379699669 -0.00017772756172800637 0 -0.0023964650146104534 -0.00017935084962154407 0 -0.0024484084936401119 -0.000198652764990203 0 -0.0024728703034137332 -0.00011421805942158084 0 -0.0024266490379699669 -0.00017772756172800637 0 -0.0023406084846125151 -0.00021837646792572844 0 -0.0024484084936401119 -0.000198652764990203 0 -0.0024266490379699669 -0.00017772756172800637 0 -0.0018011072216214832 -0.00016177817025754893 0 -0.0020947997814558029 -0.00017312831203569751 0 -0.0015395024016146067 -0.00025583299383592935 0 -0.0018011072216214832 -0.00016177817025754893 0 -0.0020947997814558029 -0.00017312831203569751 0 -0.0020885016289756706 -0.00010736118034195447 0 -0.0020947997814558029 -0.00017312831203569751 0 -0.0022998035268174959 -0.00013876875616521285 0 -0.0020885016289756706 -0.00010736118034195447 0 -0.0020947997814558029 -0.00017312831203569751 0 -0.0022998035268174959 -0.00013876875616521285 0 -0.002389553606756249 -0.00016448458145700085 0 -0.0024728703034137332 -0.00011421805942158084 0 -0.0022998035268174959 -0.00013876875616521285 0 -0.0023101498802613396 -5.8612982397102043e-05 0 -0.0023101498802613396 -5.8612982397102043e-05 0 -0.0020885016289756706 -0.00010736118034195447 0 -0.0021174739219017753 7.0095389546455381e-05 0 -0.0022998035268174959 -0.00013876875616521285 0 -0.0023101498802613396 -5.8612982397102043e-05 0 -0.0020885016289756706 -0.00010736118034195447 0 -0.0020885016289756706 -0.00010736118034195447 0 -0.0018393627075481715 -6.892765865944102e-05 0 -0.0021174739219017753 7.0095389546455381e-05 0 -0.0018011072216214832 -0.00016177817025754893 0 -0.0020885016289756706 -0.00010736118034195447 0 -0.0018393627075481715 -6.892765865944102e-05 0 -0.0018393627075481715 -6.892765865944102e-05 0 -0.0021174739219017753 7.0095389546455381e-05 0 -0.0017229545745174053 6.7773175078117087e-05 0 -0.0021174739219017753 7.0095389546455381e-05 0 -0.0025250258546206258 0.00015971546278393408 0 -0.0022917610088898591 0.00039743138935326806 0 -0.0023101498802613396 -5.8612982397102043e-05 0 -0.0021174739219017753 7.0095389546455381e-05 0 -0.0025250258546206258 0.00015971546278393408 0 -0.0025789144836414648 -1.4547172911432061e-05 0 -0.0023101498802613396 -5.8612982397102043e-05 0 -0.0025250258546206258 0.00015971546278393408 0 -0.0027225611912542538 0.00070771443204293454 0 -0.0025250258546206258 0.00015971546278393408 0 -0.0022917610088898591 0.00039743138935326806 0 -0.0027225611912542538 0.00070771443204293454 0 -0.0030830128395412286 0.00055554914092582691 0 -0.0025250258546206258 0.00015971546278393408 0 -0.0021951924892230287 0.00085262451276965807 0 -0.0022917610088898591 0.00039743138935326806 0 -0.0018568089135900373 0.00037654057540318286 0 -0.0021174739219017753 7.0095389546455381e-05 0 -0.0022917610088898591 0.00039743138935326806 0 -0.0018568089135900373 0.00037654057540318286 0 -0.0015682052316510059 0.0009353216934556033 0 -0.0018568089135900373 0.00037654057540318286 0 -0.0012804070826864656 0.00046366288109688398 0 -0.0018568089135900373 0.00037654057540318286 0 -0.0012804070826864656 0.00046366288109688398 0 -0.0015133132415220418 0.00019321063090042766 0 -0.0012804070826864656 0.00046366288109688398 0 -0.0015133132415220418 0.00019321063090042766 0 -0.0012599005477916016 0.00012303839505361115 0 -0.0015133132415220418 0.00019321063090042766 0 -0.0012599005477916016 0.00012303839505361115 0 -0.0013833752854079896 -4.6785372474517255e-06 0 -0.0018568089135900373 0.00037654057540318286 0 -0.0015133132415220418 0.00019321063090042766 0 -0.0017229545745174053 6.7773175078117087e-05 0 -0.0021174739219017753 7.0095389546455381e-05 0 -0.0018568089135900373 0.00037654057540318286 0 -0.0017229545745174053 6.7773175078117087e-05 0 -0.0015133132415220418 0.00019321063090042766 0 -0.0013833752854079896 -4.6785372474517255e-06 0 -0.0017229545745174053 6.7773175078117087e-05 0 0.0012465199784698904 0.0024400184771257633 0 0.0026291750546904276 0.0029092140815864891 0 0.0024953559805957672 0.003190049187195617 0 -0.00086149835215414171 0.0012673256253234581 0 -0.0012804070826864656 0.00046366288109688398 0 -0.00086401613930783187 -0.00014030166841605185 0 -0.0012804070826864656 0.00046366288109688398 0 -0.0012599005477916016 0.00012303839505361115 0 -0.00086401613930783187 -0.00014030166841605185 0 -0.0012599005477916016 0.00012303839505361115 0 -0.0013833752854079896 -4.6785372474517255e-06 0 -0.00086401613930783187 -0.00014030166841605185 0 0.0026291750546904276 0.0029092140815864891 0 0.0023461566043230853 0.0029544108462053005 0 0.0025113657481417966 0.0030703387022989414 0 0.0026291750546904276 0.0029092140815864891 0 0.0024953559805957672 0.003190049187195617 0 0.0025113657481417966 0.0030703387022989414 0 0.0023461566043230853 0.0029544108462053005 0 0.0025113657481417966 0.0030703387022989414 0 0.0028257107221697103 0.0028936506496265238 0 0.0024953559805957672 0.003190049187195617 0 0.0025113657481417966 0.0030703387022989414 0 0.0028257107221697103 0.0028936506496265238 0 -0.0013833752854079896 -4.6785372474517255e-06 0 -0.00086401613930783187 -0.00014030166841605185 0 -0.0015207247268566992 -0.00010903154239775089 0 -0.00086401613930783187 -0.00014030166841605185 0 -0.0015207247268566992 -0.00010903154239775089 0 -0.0015395024016146067 -0.00025583299383592935 0 0.0026291750546904276 0.0029092140815864891 0 0.0023461566043230853 0.0029544108462053005 0 0.0018504662255294361 0.002956384222028608 0 -0.00086401613930783187 -0.00014030166841605185 0 -0.0015395024016146067 -0.00025583299383592935 0 -0.0015374821515682134 -8.9634372492716863e-05 0 0.00082572622805279858 0.001432809012458045 0 0.00022055032448080962 0.0013733557091821112 0 -0.0018011072216214832 -0.00016177817025754893 0 -0.0018393627075481715 -6.892765865944102e-05 0 -0.0015207247268566992 -0.00010903154239775089 0 -0.0018393627075481715 -6.892765865944102e-05 0 -0.0017229545745174053 6.7773175078117087e-05 0 -0.0015207247268566992 -0.00010903154239775089 0 -0.0013833752854079896 -4.6785372474517255e-06 0 -0.0017229545745174053 6.7773175078117087e-05 0 -0.0015207247268566992 -0.00010903154239775089 0 -0.0018011072216214832 -0.00016177817025754893 0 -0.0015207247268566992 -0.00010903154239775089 0 -0.0015395024016146067 -0.00025583299383592935 0 -0.0015395024016146067 -0.00025583299383592935 0 -0.0015374821515682134 -8.9634372492716863e-05 0 -0.00040046011532426739 0.00042439791369339419 0 0.0023461566043230853 0.0029544108462053005 0 0.0018504662255294361 0.002956384222028608 0 0.002226227340701699 0.0027474684322749562 0 0.0018504662255294361 0.002956384222028608 0 0.002226227340701699 0.0027474684322749562 0 0.0020694353507110324 0.0025187244968181317 0 0.002226227340701699 0.0027474684322749562 0 0.0020694353507110324 0.0025187244968181317 0 0.0024192058770566923 0.0024096859416303795 0 0.0020694353507110324 0.0025187244968181317 0 0.0024192058770566923 0.0024096859416303795 0 0.0020536350547784368 0.002132137159270324 0 0.0020694353507110324 0.0025187244968181317 0 0.0017863185837324633 0.0023374311405298942 0 0.0020536350547784368 0.002132137159270324 0 0.0018504662255294361 0.002956384222028608 0 0.0017863185837324633 0.0023374311405298942 0 0.001370965379243444 0.0020333078158675994 0 0.0018504662255294361 0.002956384222028608 0 0.0020694353507110324 0.0025187244968181317 0 0.0017863185837324633 0.0023374311405298942 0 0.0028257107221697103 0.0028936506496265238 0 0.0025346473155129501 0.0027369388351659186 0 0.0028440538072421378 0.0025247491992864937 0 0.003374207453904043 0.0025732665919510067 0 0.0028257107221697103 0.0028936506496265238 0 0.0028440538072421378 0.0025247491992864937 0 0.0023461566043230853 0.0029544108462053005 0 0.0028257107221697103 0.0028936506496265238 0 0.0025346473155129501 0.0027369388351659186 0 0.0023461566043230853 0.0029544108462053005 0 0.002226227340701699 0.0027474684322749562 0 0.0025346473155129501 0.0027369388351659186 0 0.0025346473155129501 0.0027369388351659186 0 0.0024192058770566923 0.0024096859416303795 0 0.0028440538072421378 0.0025247491992864937 0 0.0024192058770566923 0.0024096859416303795 0 0.0028440538072421378 0.0025247491992864937 0 0.0029612742215203258 0.0020837376109503797 0 0.002226227340701699 0.0027474684322749562 0 0.0025346473155129501 0.0027369388351659186 0 0.0024192058770566923 0.0024096859416303795 0 0.003374207453904043 0.0025732665919510067 0 0.0028440538072421378 0.0025247491992864937 0 0.0029612742215203258 0.0020837376109503797 0 0.0039963766958476367 0.0021515157081724535 0 0.0029612742215203258 0.0020837376109503797 0 0.003176262160959543 0.0015066937864807273 0 0.0024192058770566923 0.0024096859416303795 0 0.0029612742215203258 0.0020837376109503797 0 0.00241242804702745 0.0020010599719549318 0 0.0029612742215203258 0.0020837376109503797 0 0.00241242804702745 0.0020010599719549318 0 0.0025182776521171834 0.0016774142507859971 0 0.0029612742215203258 0.0020837376109503797 0 0.0025182776521171834 0.0016774142507859971 0 0.003176262160959543 0.0015066937864807273 0 0.0025182776521171834 0.0016774142507859971 0 0.0026256457355646992 0.0013734572262801459 0 0.003176262160959543 0.0015066937864807273 0 0.0026256457355646992 0.0013734572262801459 0 0.003176262160959543 0.0015066937864807273 0 0.0027914354581985829 0.0010696587611125324 0 0.0025182776521171834 0.0016774142507859971 0 0.0026256457355646992 0.0013734572262801459 0 0.0023095967190568572 0.0014192335998453318 0 0.0017026982533630058 0.0019657940195816083 0 0.0019041457639333021 0.0018295624166464342 0 0.0017178078006943218 0.0016609296263242459 0 0.0017026982533630058 0.0019657940195816083 0 0.0017178078006943218 0.0016609296263242459 0 0.001437869084484199 0.0017328531014714204 0 0.0017026982533630058 0.0019657940195816083 0 0.001370965379243444 0.0020333078158675994 0 0.001437869084484199 0.0017328531014714204 0 0.0017863185837324633 0.0023374311405298942 0 0.0017026982533630058 0.0019657940195816083 0 0.001370965379243444 0.0020333078158675994 0 0.0017863185837324633 0.0023374311405298942 0 0.0017026982533630058 0.0019657940195816083 0 0.0020536350547784368 0.002132137159270324 0 0.0024192058770566923 0.0024096859416303795 0 0.00241242804702745 0.0020010599719549318 0 0.0020536350547784368 0.002132137159270324 0 0.00241242804702745 0.0020010599719549318 0 0.0020536350547784368 0.002132137159270324 0 0.002172277711909712 0.0018085991054276297 0 0.00241242804702745 0.0020010599719549318 0 0.0025182776521171834 0.0016774142507859971 0 0.002172277711909712 0.0018085991054276297 0 0.0020536350547784368 0.002132137159270324 0 0.002172277711909712 0.0018085991054276297 0 0.0019041457639333021 0.0018295624166464342 0 0.0017026982533630058 0.0019657940195816083 0 0.0020536350547784368 0.002132137159270324 0 0.0019041457639333021 0.0018295624166464342 0 0.0019041457639333021 0.0018295624166464342 0 0.0019596980557542317 0.0016168862536581176 0 0.0017178078006943218 0.0016609296263242459 0 0.002172277711909712 0.0018085991054276297 0 0.0019596980557542317 0.0016168862536581176 0 0.0021800233636497701 0.0015722874033513021 0 0.002172277711909712 0.0018085991054276297 0 0.0019041457639333021 0.0018295624166464342 0 0.0019596980557542317 0.0016168862536581176 0 0.0019596980557542317 0.0016168862536581176 0 0.0021800233636497701 0.0015722874033513021 0 0.0020342632218806199 0.0014325767666333623 0 0.0025182776521171834 0.0016774142507859971 0 0.0021800233636497701 0.0015722874033513021 0 0.0023095967190568572 0.0014192335998453318 0 0.0025182776521171834 0.0016774142507859971 0 0.002172277711909712 0.0018085991054276297 0 0.0021800233636497701 0.0015722874033513021 0 0.0026256457355646992 0.0013734572262801459 0 0.0023095967190568572 0.0014192335998453318 0 0.0023602023458611124 0.0012072565672946499 0 0.0021800233636497701 0.0015722874033513021 0 0.0023095967190568572 0.0014192335998453318 0 0.0020342632218806199 0.0014325767666333623 0 0.0023095967190568572 0.0014192335998453318 0 0.0020342632218806199 0.0014325767666333623 0 0.002123056155114589 0.0012360959586336013 0 0.0019596980557542317 0.0016168862536581176 0 0.0020342632218806199 0.0014325767666333623 0 0.0017960634174788719 0.0014718558367523467 0 0.0020342632218806199 0.0014325767666333623 0 0.0018917402864325862 0.0012909216818186293 0 0.002123056155114589 0.0012360959586336013 0 0.0020342632218806199 0.0014325767666333623 0 0.0018917402864325862 0.0012909216818186293 0 0.0017960634174788719 0.0014718558367523467 0 0.0018917402864325862 0.0012909216818186293 0 0.0016650192556435463 0.0013578970807128763 0 0.0017960634174788719 0.0014718558367523467 0 0.0016650192556435463 0.0013578970807128763 0 0.0013443153530784591 0.0013236126597017726 0 0.0017443801091213856 0.0011886479333408455 0 0.0016650192556435463 0.0013578970807128763 0 0.0017960634174788719 0.0014718558367523467 0 0.0015406286814613323 0.0015080113364348076 0 0.0017178078006943218 0.0016609296263242459 0 0.001437869084484199 0.0017328531014714204 0 0.0015406286814613323 0.0015080113364348076 0 0.0019596980557542317 0.0016168862536581176 0 0.0017960634174788719 0.0014718558367523467 0 0.0017178078006943218 0.0016609296263242459 0 0.0017960634174788719 0.0014718558367523467 0 0.0017178078006943218 0.0016609296263242459 0 0.0015406286814613323 0.0015080113364348076 0 0.001437869084484199 0.0017328531014714204 0 0.0012512129483521577 0.0015394331162129952 0 0.0015406286814613323 0.0015080113364348076 0 0.0012512129483521577 0.0015394331162129952 0 0.0015406286814613323 0.0015080113364348076 0 0.0013443153530784591 0.0013236126597017726 0 0.0016650192556435463 0.0013578970807128763 0 0.0015406286814613323 0.0015080113364348076 0 0.0013443153530784591 0.0013236126597017726 0 0.0008632617338977898 0.001444040127273752 0 0.0010763610248303421 0.0016611857797424689 0 0.00040745789451833089 0.0012806338327232204 0 0.0013443153530784591 0.0013236126597017726 0 0.0008632617338977898 0.001444040127273752 0 0.00049216604368392013 0.0012785447737233872 0 0.0012512129483521577 0.0015394331162129952 0 0.0013443153530784591 0.0013236126597017726 0 0.0008632617338977898 0.001444040127273752 0 0.00022055032448080962 0.0013733557091821112 0 0.0003250686555200282 0.0012863044316502542 0 0.0018504662255294361 0.002956384222028608 0 0.001370965379243444 0.0020333078158675994 0 0.00040745789451833089 0.0012806338327232204 0 0.001437869084484199 0.0017328531014714204 0 0.0012512129483521577 0.0015394331162129952 0 0.0010763610248303421 0.0016611857797424689 0 0.0012512129483521577 0.0015394331162129952 0 0.0008632617338977898 0.001444040127273752 0 0.0010763610248303421 0.0016611857797424689 0 0.001370965379243444 0.0020333078158675994 0 0.0010763610248303421 0.0016611857797424689 0 0.00040745789451833089 0.0012806338327232204 0 0.001370965379243444 0.0020333078158675994 0 0.001437869084484199 0.0017328531014714204 0 0.0010763610248303421 0.0016611857797424689 0 0.00040745789451833089 0.0012806338327232204 0 0.00033102077616026552 0.00086665958698460002 0 -0.00040046011532426739 0.00042439791369339419 0 0.0008632617338977898 0.001444040127273752 0 0.00040745789451833089 0.0012806338327232204 0 0.00049216604368392013 0.0012785447737233872 0 0.00057323089002401368 0.0010550407572802302 0 0.00055235840762114937 0.0012499794665970091 0 0.00045552220307719734 0.001264565164655994 0 0.00040745789451833089 0.0012806338327232204 0 0.00057323089002401368 0.0010550407572802302 0 0.00049216604368392013 0.0012785447737233872 0 0.00065175353197121895 0.0010724293165657081 0 0.00026342998407077937 0.0012878839513650736 0 0.00069032194273674341 0.0012550296850608374 0 0.00057323089002401368 0.0010550407572802302 0 0.00055235840762114937 0.0012499794665970091 0 0.00040745789451833089 0.0012806338327232204 0 0.00057323089002401368 0.0010550407572802302 0 0.00033102077616026552 0.00086665958698460002 0 0.00057323089002401368 0.0010550407572802302 0 0.00033102077616026552 0.00086665958698460002 0 0.00051296182625327135 0.0005325359090936955 0 -0.0020726855408031305 -8.1161566199984661e-05 0 -0.0025488538760905107 -0.00013796574662879504 0 -0.0023964650146104534 -0.00017935084962154407 0 -0.0025488538760905107 -0.00013796574662879504 0 -0.0023964650146104534 -0.00017935084962154407 0 -0.002389553606756249 -0.00016448458145700085 0 -0.0020947997814558029 -0.00017312831203569751 0 -0.0025488538760905107 -0.00013796574662879504 0 -0.002389553606756249 -0.00016448458145700085 0 -0.0024266490379699669 -0.00017772756172800637 0 -0.0023964650146104534 -0.00017935084962154407 0 -0.002389553606756249 -0.00016448458145700085 0 -0.0014823504478350946 -0.0002070758721146664 0 -0.0010157542093355741 0.00022302224706223148 0 -0.0015374821515682134 -8.9634372492716863e-05 0 0.00040745789451833089 0.0012806338327232204 0 -0.00040046011532426739 0.00042439791369339419 0 -0.0015395024016146067 -0.00025583299383592935 0 0.00051296182625327135 0.0005325359090936955 0 -0.00040046011532426739 0.00042439791369339419 0 -0.0020947997814558029 -0.00017312831203569751 0 -0.0015395024016146067 -0.00025583299383592935 0 -0.0025488538760905107 -0.00013796574662879504 0 0.00033102077616026552 0.00086665958698460002 0 0.00051296182625327135 0.0005325359090936955 0 -0.00040046011532426739 0.00042439791369339419 0 0.0038274374577196412 0.0012388783986788682 0 0.0040387720536741549 0.00086451815472586742 0 0.0043721741907379527 0.0009257320238255628 0 0.0040387720536741549 0.00086451815472586742 0 0.0043721741907379527 0.0009257320238255628 0 0.0043328721678903958 0.00063618059020933233 0 0.0038274374577196412 0.0012388783986788682 0 0.0040387720536741549 0.00086451815472586742 0 0.0036280706361033065 0.00090073599828729414 0 0.0040387720536741549 0.00086451815472586742 0 0.0036280706361033065 0.00090073599828729414 0 0.0040208998341975692 0.00061005900604246051 0 0.0018380112821027245 0.0013528218080589155 0 0.0021432232885866078 0.00133524583013024 0 0.0029165872754072027 0.0012197646230236942 0 0.0036280706361033065 0.00090073599828729414 0 0.003207034173654344 0.00087984102657365053 0 0.00076547803908456229 0.0014915974089245573 0 0.00049044654316444979 0.0013700109205574457 0 0.00064234036188174509 0.001330520124636648 0 0.0029165872754072027 0.0012197646230236942 0 0.0038274374577196412 0.0012388783986788682 0 0.0036280706361033065 0.00090073599828729414 0 0.00049044654316444979 0.0013700109205574457 0 0.00064234036188174509 0.001330520124636648 0 0.00055235840762114937 0.0012499794665970091 0 0.00069032194273674341 0.0012550296850608374 0 0.00064234036188174509 0.001330520124636648 0 0.00055235840762114937 0.0012499794665970091 0 0.00049044654316444979 0.0013700109205574457 0 0.00055235840762114937 0.0012499794665970091 0 0.00045552220307719734 0.001264565164655994 0 0.00049044654316444979 0.0013700109205574457 0 0.00045552220307719734 0.001264565164655994 0 0.00040242091239155175 0.0013073424602162041 0 0.00026342998407077937 0.0012878839513650736 0 0.0026301318385446634 0.0010587270404286795 0 0.0021432232885866078 0.00133524583013024 0 0.0026301318385446634 0.0010587270404286795 0 0.0013443153530784591 0.0013236126597017726 0 0.00049216604368392013 0.0012785447737233872 0 0.0017321071285817616 0.0010192152553541558 0 0.00049216604368392013 0.0012785447737233872 0 0.0017321071285817616 0.0010192152553541558 0 0.0023323996016001553 0.00053450121212764764 0 0.0017321071285817616 0.0010192152553541558 0 0.0017443801091213856 0.0011886479333408455 0 0.0019727474785925414 0.0010943768046346415 0 0.0013443153530784591 0.0013236126597017726 0 0.0017321071285817616 0.0010192152553541558 0 0.0017443801091213856 0.0011886479333408455 0 0.0018917402864325862 0.0012909216818186293 0 0.0016650192556435463 0.0013578970807128763 0 0.0017443801091213856 0.0011886479333408455 0 0.0018917402864325862 0.0012909216818186293 0 0.0017443801091213856 0.0011886479333408455 0 0.0019727474785925414 0.0010943768046346415 0 0.0018917402864325862 0.0012909216818186293 0 0.002123056155114589 0.0012360959586336013 0 0.0019727474785925414 0.0010943768046346415 0 0.0019727474785925414 0.0010943768046346415 0 0.0022067799453615563 0.0010432351909013715 0 0.0020871517468336997 0.00097755084676097166 0 0.002123056155114589 0.0012360959586336013 0 0.0019727474785925414 0.0010943768046346415 0 0.0022067799453615563 0.0010432351909013715 0 0.0019727474785925414 0.0010943768046346415 0 0.0019683768948197161 0.00098941809255359645 0 0.0020871517468336997 0.00097755084676097166 0 0.0017321071285817616 0.0010192152553541558 0 0.0019727474785925414 0.0010943768046346415 0 0.0019683768948197161 0.00098941809255359645 0 0.002123056155114589 0.0012360959586336013 0 0.0023602023458611124 0.0012072565672946499 0 0.0022067799453615563 0.0010432351909013715 0 0.0023095967190568572 0.0014192335998453318 0 0.002123056155114589 0.0012360959586336013 0 0.0023602023458611124 0.0012072565672946499 0 0.0023602023458611124 0.0012072565672946499 0 0.0022067799453615563 0.0010432351909013715 0 0.0024127840787205707 0.00093773246785798796 0 0.0024127840787205707 0.00093773246785798796 0 0.0022457890726545237 0.00084015717500718638 0 0.0023323996016001553 0.00053450121212764764 0 0.0022457890726545237 0.00084015717500718638 0 0.002079863628130047 0.00086508153830887563 0 0.0023323996016001553 0.00053450121212764764 0 0.0022067799453615563 0.0010432351909013715 0 0.0022457890726545237 0.00084015717500718638 0 0.0020871517468336997 0.00097755084676097166 0 0.0022067799453615563 0.0010432351909013715 0 0.0024127840787205707 0.00093773246785798796 0 0.0022457890726545237 0.00084015717500718638 0 0.0017321071285817616 0.0010192152553541558 0 0.0019683768948197161 0.00098941809255359645 0 0.002079863628130047 0.00086508153830887563 0 0.0017321071285817616 0.0010192152553541558 0 0.002079863628130047 0.00086508153830887563 0 0.0023323996016001553 0.00053450121212764764 0 0.0022457890726545237 0.00084015717500718638 0 0.0020871517468336997 0.00097755084676097166 0 0.002079863628130047 0.00086508153830887563 0 0.0019683768948197161 0.00098941809255359645 0 0.0020871517468336997 0.00097755084676097166 0 0.002079863628130047 0.00086508153830887563 0 0.0026301318385446634 0.0010587270404286795 0 0.0048115289474080086 0.00055151051696457603 0 0.0023323996016001553 0.00053450121212764764 0 0.0034522257372904797 0.00095385943872649019 0 0.0039880065296589362 0.00033205734311601886 0 0.003176262160959543 0.0015066937864807273 0 0.0034522257372904797 0.00095385943872649019 0 0.0027914354581985829 0.0010696587611125324 0 0.0039508123152356862 0.0013677829440204125 0 0.003176262160959543 0.0015066937864807273 0 0.0034522257372904797 0.00095385943872649019 0 0.0023323996016001553 0.00053450121212764764 0 0.0034522257372904797 0.00095385943872649019 0 0.0027914354581985829 0.0010696587611125324 0 0.0026256457355646992 0.0013734572262801459 0 0.0023602023458611124 0.0012072565672946499 0 0.0027914354581985829 0.0010696587611125324 0 0.0023602023458611124 0.0012072565672946499 0 0.0024127840787205707 0.00093773246785798796 0 0.0027914354581985829 0.0010696587611125324 0 0.0024127840787205707 0.00093773246785798796 0 0.0023323996016001553 0.00053450121212764764 0 0.0027914354581985829 0.0010696587611125324 0 0.0047202289654696217 0.0012947063955159599 0 0.0049118491106124309 0.00076002657412223816 0 0.0053543564826676665 0.00084574723882484379 0 0.0049118491106124309 0.00076002657412223816 0 0.0054115219099686133 0.00041807384623013071 0 0.0053543564826676665 0.00084574723882484379 0 0.0038274374577196412 0.0012388783986788682 0 0.0047202289654696217 0.0012947063955159599 0 0.0043721741907379527 0.0009257320238255628 0 0.0047202289654696217 0.0012947063955159599 0 0.0049118491106124309 0.00076002657412223816 0 0.0043721741907379527 0.0009257320238255628 0 0.0049118491106124309 0.00076002657412223816 0 0.0043721741907379527 0.0009257320238255628 0 0.0046301591372515383 0.00060100893757400486 0 0.0043721741907379527 0.0009257320238255628 0 0.0043328721678903958 0.00063618059020933233 0 0.0046301591372515383 0.00060100893757400486 0 0.0043328721678903958 0.00063618059020933233 0 0.0046301591372515383 0.00060100893757400486 0 0.0045551162084401875 0.00032083650131107942 0 0.0046301591372515383 0.00060100893757400486 0 0.0045551162084401875 0.00032083650131107942 0 0.004960285133524877 0.00036884854214523611 0 0.0045551162084401875 0.00032083650131107942 0 0.004960285133524877 0.00036884854214523611 0 0.0048976718234744754 -6.921896056161457e-05 0 0.0043328721678903958 0.00063618059020933233 0 0.0045551162084401875 0.00032083650131107942 0 0.0041899346773108682 0.00027277230013834892 0 0.0049118491106124309 0.00076002657412223816 0 0.004960285133524877 0.00036884854214523611 0 0.0054115219099686133 0.00041807384623013071 0 0.0049118491106124309 0.00076002657412223816 0 0.0046301591372515383 0.00060100893757400486 0 0.004960285133524877 0.00036884854214523611 0 0.004960285133524877 0.00036884854214523611 0 0.0053705440849931597 3.2715201161396318e-05 0 0.0054115219099686133 0.00041807384623013071 0 0.004960285133524877 0.00036884854214523611 0 0.0048976718234744754 -6.921896056161457e-05 0 0.0053705440849931597 3.2715201161396318e-05 0 0.0048976718234744754 -6.921896056161457e-05 0 0.0052545885178440039 -0.00033631769126471543 0 0.0047660124111437788 -0.000623516634394934 0 0.0048976718234744754 -6.921896056161457e-05 0 0.0052545885178440039 -0.00033631769126471543 0 0.0053705440849931597 3.2715201161396318e-05 0 0.0048976718234744754 -6.921896056161457e-05 0 0.0044003059290718656 -0.00010983740548959515 0 0.0047660124111437788 -0.000623516634394934 0 0.0045551162084401875 0.00032083650131107942 0 0.0044003059290718656 -0.00010983740548959515 0 0.0041899346773108682 0.00027277230013834892 0 0.0045551162084401875 0.00032083650131107942 0 0.0048976718234744754 -6.921896056161457e-05 0 0.0044003059290718656 -0.00010983740548959515 0 0.0044003059290718656 -0.00010983740548959515 0 0.0039855527062921236 -1.1540595555990173e-06 0 0.0039577791655575319 -0.00046782296326708226 0 0.0039855527062921236 -1.1540595555990173e-06 0 0.0035808094137872318 -3.1593979523915145e-05 0 0.0039577791655575319 -0.00046782296326708226 0 0.0039855527062921236 -1.1540595555990173e-06 0 0.0037829686240355592 0.00033592904153335445 0 0.0035808094137872318 -3.1593979523915145e-05 0 0.0039855527062921236 -1.1540595555990173e-06 0 0.0041899346773108682 0.00027277230013834892 0 0.0037829686240355592 0.00033592904153335445 0 0.0044003059290718656 -0.00010983740548959515 0 0.0039855527062921236 -1.1540595555990173e-06 0 0.0041899346773108682 0.00027277230013834892 0 0.0041899346773108682 0.00027277230013834892 0 0.0037829686240355592 0.00033592904153335445 0 0.0040208998341975692 0.00061005900604246051 0 0.0036280706361033065 0.00090073599828729414 0 0.0037829686240355592 0.00033592904153335445 0 0.0040208998341975692 0.00061005900604246051 0 0.0040387720536741549 0.00086451815472586742 0 0.0043328721678903958 0.00063618059020933233 0 0.0040208998341975692 0.00061005900604246051 0 0.0043328721678903958 0.00063618059020933233 0 0.0041899346773108682 0.00027277230013834892 0 0.0040208998341975692 0.00061005900604246051 0 0.0036280706361033065 0.00090073599828729414 0 0.003207034173654344 0.00087984102657365053 0 0.0033529410750774585 0.00035205092846341094 0 0.0036280706361033065 0.00090073599828729414 0 0.0037829686240355592 0.00033592904153335445 0 0.0033529410750774585 0.00035205092846341094 0 0.0031312567574353543 -5.0676679777870876e-05 0 0.0033529410750774585 0.00035205092846341094 0 0.0035808094137872318 -3.1593979523915145e-05 0 0.0035808094137872318 -3.1593979523915145e-05 0 0.0032573874956995414 -0.0002772450783709101 0 0.0039577791655575319 -0.00046782296326708226 0 0.0037829686240355592 0.00033592904153335445 0 0.0033529410750774585 0.00035205092846341094 0 0.0035808094137872318 -3.1593979523915145e-05 0 0.0031312567574353543 -5.0676679777870876e-05 0 0.0035808094137872318 -3.1593979523915145e-05 0 0.0032573874956995414 -0.0002772450783709101 0 0.0030913459831376075 -0.00030216158890424434 0 0.0032573874956995414 -0.0002772450783709101 0 0.0039577791655575319 -0.00046782296326708226 0 0.0080541195044639361 0.0040419936009787154 0 0.0086538142518489611 0.0033948512920736968 0 0.0097015534488609258 0.0036933356166677384 0 0.0047982742858339832 0.00099496565049938287 0 0.0069845426004583383 0.0016818986188003036 0 0.0086538142518489611 0.0033948512920736968 0 0.0097015534488609258 0.0036933356166677384 0 0.0092822820014190448 0.002817606598786227 0 0.0086538142518489611 0.0033948512920736968 0 0.0083363758066469819 0.0029460502728326076 0 0.0092822820014190448 0.002817606598786227 0 0.0097015534488609258 0.0036933356166677384 0 0.010268784259726165 0.0028439181037205039 0 0.0092822820014190448 0.002817606598786227 0 0.010268784259726165 0.0028439181037205039 0 0.0092822820014190448 0.002817606598786227 0 0.0099755741105455615 0.0018275845761517959 0 0.0092822820014190448 0.002817606598786227 0 0.008778389567958296 0.0019780490961276852 0 0.0099755741105455615 0.0018275845761517959 0 0.0083363758066469819 0.0029460502728326076 0 0.0092822820014190448 0.002817606598786227 0 0.008778389567958296 0.0019780490961276852 0 0.0076090044807023 0.00088973363923566719 0 0.008778389567958296 0.0019780490961276852 0 0.0091365390085683985 0.00075271799083473498 0 0.008778389567958296 0.0019780490961276852 0 0.0099755741105455615 0.0018275845761517959 0 0.0091365390085683985 0.00075271799083473498 0 0.0099755741105455615 0.0018275845761517959 0 0.0091365390085683985 0.00075271799083473498 0 0.010965399024601257 0.0006245109411788704 0 0.011561835834905033 0.0017195839219687826 0 0.010277573238135364 0.0008048026343305079 0 0.0091365390085683985 0.00075271799083473498 0 0.010965399024601257 0.0006245109411788704 0 0.0095175059994810109 -0.00060448040686925922 0 0.0091365390085683985 0.00075271799083473498 0 0.0095175059994810109 -0.00060448040686925922 0 0.008194699279182243 -0.00049806716864321337 0 0.0076090044807023 0.00088973363923566719 0 0.0091365390085683985 0.00075271799083473498 0 0.008194699279182243 -0.00049806716864321337 0 0.011925537099497405 0.0028095582025164721 0 0.012302822101456619 0.0025282898213196316 0 0.01285937696841756 0.0024815025731691367 0 0.012178096920078109 0.0027958109464179285 0 0.011925537099497405 0.0028095582025164721 0 0.012302822101456619 0.0025282898213196316 0 0.0099755741105455615 0.0018275845761517959 0 0.010965399024601257 0.0006245109411788704 0 0.01116584821843627 0.0016322652574072549 0 0.011561835834905033 0.0017195839219687826 0 0.011710090085649235 0.0019791185445201536 0 0.010965399024601257 0.0006245109411788704 0 0.01116584821843627 0.0016322652574072549 0 0.011761086274688463 0.0020659545006858461 0 0.0099755741105455615 0.0018275845761517959 0 0.01116584821843627 0.0016322652574072549 0 0.011743939525676669 0.0018249036118777881 0 0.01116584821843627 0.0016322652574072549 0 0.011761086274688463 0.0020659545006858461 0 0.011743939525676669 0.0018249036118777881 0 0.012178096920078109 0.0027958109464179285 0 0.011761086274688463 0.0020659545006858461 0 0.011925537099497405 0.0028095582025164721 0 0.011761086274688463 0.0020659545006858461 0 0.011925537099497405 0.0028095582025164721 0 0.010778410785037686 0.0022854538979783377 0 0.011761086274688463 0.0020659545006858461 0 0.010778533859680504 0.0016010784069324453 0 0.010778410785037686 0.0022854538979783377 0 0.011761086274688463 0.0020659545006858461 0 0.011743939525676669 0.0018249036118777881 0 0.010778533859680504 0.0016010784069324453 0 0.011760464697429945 0.002350458084391356 0 0.0091801037902037221 0.0010050083530371559 0 0.011743939525676669 0.0018249036118777881 0 0.010494237756790261 0.00041877586241462986 0 0.010778533859680504 0.0016010784069324453 0 0.0098587295768521079 0.0017194684412771188 0 0.011760464697429945 0.002350458084391356 0 0.010268784259726165 0.0028439181037205039 0 0.011061381205386696 0.0025880311352717233 0 0.011013930570770969 0.0033018712709477114 0 0.010268784259726165 0.0028439181037205039 0 0.0099755741105455615 0.0018275845761517959 0 0.011061381205386696 0.0025880311352717233 0 0.0069845426004583383 0.0016818986188003036 0 0.0077628873731046084 0.0013623971129879404 0 0.0044003059290718656 -0.00010983740548959515 0 0.0039577791655575319 -0.00046782296326708226 0 0.0047660124111437788 -0.000623516634394934 0 0.0097015534488609258 0.0036933356166677384 0 0.010268784259726165 0.0028439181037205039 0 0.011013930570770969 0.0033018712709477114 0 0.011061381205386696 0.0025880311352717233 0 0.011013930570770969 0.0033018712709477114 0 0.012005738962807048 0.0030767775257301345 0 0.0052545885178440039 -0.00033631769126471543 0 0.0047660124111437788 -0.000623516634394934 0 0.0055317480587713354 -0.00079000220327193763 0 0.0077628873731046084 0.0013623971129879404 0 0.0091801037902037221 0.0010050083530371559 0 0.0055317480587713354 -0.00079000220327193763 0 0.0060730163100203337 -0.00059635413612560677 0 0.0056286199320991475 -0.00032203254361812955 0 0.0091801037902037221 0.0010050083530371559 0 0.0068650628803117921 -0.00036830591399933941 0 0.0052545885178440039 -0.00033631769126471543 0 0.0055317480587713354 -0.00079000220327193763 0 0.0056286199320991475 -0.00032203254361812955 0 0.0068650628803117921 -0.00036830591399933941 0 0.0071669600457442461 -0.00013699579677968032 0 0.0090199593061936582 0.00046000853277781224 0 0.008401633916168617 0.00015788831718361582 0 0.0081415054704930944 0.00069020257693289838 0 0.008401633916168617 0.00015788831718361582 0 0.0081415054704930944 0.00069020257693289838 0 0.0072681736938167707 0.00029303773832289827 0 0.0091801037902037221 0.0010050083530371559 0 0.0084749664285843733 0.00054073511742930118 0 0.010494237756790261 0.00041877586241462986 0 0.0081415054704930944 0.00069020257693289838 0 0.0094168140877553055 0.001387960444552786 0 0.0081415054704930944 0.00069020257693289838 0 0.0094168140877553055 0.001387960444552786 0 0.0082832016366705657 0.0018485439026468709 0 0.010494237756790261 0.00041877586241462986 0 0.0094168140877553055 0.001387960444552786 0 0.010778533859680504 0.0016010784069324453 0 0.0094168140877553055 0.001387960444552786 0 0.010778533859680504 0.0016010784069324453 0 0.0095292158898968252 0.0021995830195666115 0 0.010778533859680504 0.0016010784069324453 0 0.010778410785037686 0.0022854538979783377 0 0.0095292158898968252 0.0021995830195666115 0 0.010778410785037686 0.0022854538979783377 0 0.0095292158898968252 0.0021995830195666115 0 0.0095388059536536726 0.0036378457274899613 0 0.0094168140877553055 0.001387960444552786 0 0.0095292158898968252 0.0021995830195666115 0 0.0082832016366705657 0.0018485439026468709 0 0.0095292158898968252 0.0021995830195666115 0 0.0082259243357487941 0.0029442189744568292 0 0.0082832016366705657 0.0018485439026468709 0 0.0095388059536536726 0.0036378457274899613 0 0.0082259243357487941 0.0029442189744568292 0 0.0079344178026025565 0.0039689079380246196 0 0.0095292158898968252 0.0021995830195666115 0 0.0095388059536536726 0.0036378457274899613 0 0.0082259243357487941 0.0029442189744568292 0 0.011925537099497405 0.0028095582025164721 0 0.010778410785037686 0.0022854538979783377 0 0.0095388059536536726 0.0036378457274899613 0 0.011925537099497405 0.0028095582025164721 0 0.013985142795246994 0.0030752405547309703 0 0.01285937696841756 0.0024815025731691367 0 0.012016951479011644 0.0028516693243198997 0 0.011792565375192009 0.0032916113410637387 0 0.0082259243357487941 0.0029442189744568292 0 0.0071601467772862632 0.0021598619341806772 0 0.0068082545481108585 0.0033757480610222376 0 0.0082259243357487941 0.0029442189744568292 0 0.0079344178026025565 0.0039689079380246196 0 0.0068082545481108585 0.0033757480610222376 0 0.0082259243357487941 0.0029442189744568292 0 0.0082832016366705657 0.0018485439026468709 0 0.0071601467772862632 0.0021598619341806772 0 0.0082832016366705657 0.0018485439026468709 0 0.0071601467772862632 0.0021598619341806772 0 0.0074675891597209814 0.0011316366148149501 0 0.0071601467772862632 0.0021598619341806772 0 0.0068040901787257456 0.0011909129126174741 0 0.0064112062559147521 0.0017168010320936994 0 0.0071601467772862632 0.0021598619341806772 0 0.0068040901787257456 0.0011909129126174741 0 0.0074675891597209814 0.0011316366148149501 0 0.0068040901787257456 0.0011909129126174741 0 0.0074675891597209814 0.0011316366148149501 0 0.0070088042426530465 0.00060081542659826668 0 0.0081415054704930944 0.00069020257693289838 0 0.0082832016366705657 0.0018485439026468709 0 0.0074675891597209814 0.0011316366148149501 0 0.008401633916168617 0.00015788831718361582 0 0.0072681736938167707 0.00029303773832289827 0 0.0069724722319638045 -0.00017534712524060046 0 0.0081415054704930944 0.00069020257693289838 0 0.0074675891597209814 0.0011316366148149501 0 0.0072681736938167707 0.00029303773832289827 0 0.0074675891597209814 0.0011316366148149501 0 0.0072681736938167707 0.00029303773832289827 0 0.0070088042426530465 0.00060081542659826668 0 0.0070088042426530465 0.00060081542659826668 0 0.0068177796444679395 -0.00015049460526468918 0 0.0065414720107040344 0.00053878093046553826 0 0.0072681736938167707 0.00029303773832289827 0 0.0070088042426530465 0.00060081542659826668 0 0.0068177796444679395 -0.00015049460526468918 0 0.0068040901787257456 0.0011909129126174741 0 0.0070088042426530465 0.00060081542659826668 0 0.0065414720107040344 0.00053878093046553826 0 0.0068177796444679395 -0.00015049460526468918 0 0.0068960907684768764 0.00010312226758898677 0 0.0070232408479947838 -5.3261378003445762e-05 0 0.0068177796444679395 -0.00015049460526468918 0 0.0068960907684768764 0.00010312226758898677 0 0.0065400578382780756 0.00016396003060764109 0 0.0068960907684768764 0.00010312226758898677 0 0.0065400578382780756 0.00016396003060764109 0 0.0068914410089326158 0.00046123497315027345 0 0.0068177796444679395 -0.00015049460526468918 0 0.0064987225799777743 3.1517869868967652e-05 0 0.0065400578382780756 0.00016396003060764109 0 0.0064987225799777743 3.1517869868967652e-05 0 0.0065400578382780756 0.00016396003060764109 0 0.0056446592756833154 0.00034397099976629799 0 0.0072681736938167707 0.00029303773832289827 0 0.0068177796444679395 -0.00015049460526468918 0 0.0069724722319638045 -0.00017534712524060046 0 0.0068177796444679395 -0.00015049460526468918 0 0.0064987225799777743 3.1517869868967652e-05 0 0.0069724722319638045 -0.00017534712524060046 0 0.0064987225799777743 3.1517869868967652e-05 0 0.0069724722319638045 -0.00017534712524060046 0 0.0059398401243656177 5.8890653652151178e-05 0 0.0060730163100203337 -0.00059635413612560677 0 0.0059398401243656177 5.8890653652151178e-05 0 0.0056286199320991475 -0.00032203254361812955 0 0.0060730163100203337 -0.00059635413612560677 0 0.0069724722319638045 -0.00017534712524060046 0 0.0059398401243656177 5.8890653652151178e-05 0 0.0059398401243656177 5.8890653652151178e-05 0 0.0056286199320991475 -0.00032203254361812955 0 0.0053705440849931597 3.2715201161396318e-05 0 0.0052545885178440039 -0.00033631769126471543 0 0.0056286199320991475 -0.00032203254361812955 0 0.0053705440849931597 3.2715201161396318e-05 0 0.0059398401243656177 5.8890653652151178e-05 0 0.0053705440849931597 3.2715201161396318e-05 0 0.0054115219099686133 0.00041807384623013071 0 0.0064987225799777743 3.1517869868967652e-05 0 0.0059398401243656177 5.8890653652151178e-05 0 0.0056446592756833154 0.00034397099976629799 0 0.0059398401243656177 5.8890653652151178e-05 0 0.0054115219099686133 0.00041807384623013071 0 0.0056446592756833154 0.00034397099976629799 0 0.0056446592756833154 0.00034397099976629799 0 0.0039880065296589362 0.00033205734311601886 0 0.005809416127362581 0.00086735929529320878 0 0.0054425564887524659 0.00038779987100638928 0 0.0048115289474080086 0.00055151051696457603 0 0.0054115219099686133 0.00041807384623013071 0 0.0056446592756833154 0.00034397099976629799 0 0.0053543564826676665 0.00084574723882484379 0 0.0039508123152356862 0.0013677829440204125 0 0.0034522257372904797 0.00095385943872649019 0 0.0039880065296589362 0.00033205734311601886 0 0.005044483973206627 0.0015188807215768564 0 0.0039508123152356862 0.0013677829440204125 0 0.0039880065296589362 0.00033205734311601886 0 0.005044483973206627 0.0015188807215768564 0 0.0039880065296589362 0.00033205734311601886 0 0.005809416127362581 0.00086735929529320878 0 0.0060773223897657869 0.0014951805191892303 0 0.005044483973206627 0.0015188807215768564 0 0.005809416127362581 0.00086735929529320878 0 0.0060773223897657869 0.0014951805191892303 0 0.005809416127362581 0.00086735929529320878 0 0.0064753166714565172 0.00084898762149007451 0 0.0060773223897657869 0.0014951805191892303 0 0.0068979576735822895 0.0012525900893307748 0 0.0064753166714565172 0.00084898762149007451 0 0.0068979576735822895 0.0012525900893307748 0 0.0064753166714565172 0.00084898762149007451 0 0.0068914410089326158 0.00046123497315027345 0 0.0065400578382780756 0.00016396003060764109 0 0.0064753166714565172 0.00084898762149007451 0 0.0068914410089326158 0.00046123497315027345 0 0.0065400578382780756 0.00016396003060764109 0 0.0056446592756833154 0.00034397099976629799 0 0.005809416127362581 0.00086735929529320878 0 0.0065400578382780756 0.00016396003060764109 0 0.005809416127362581 0.00086735929529320878 0 0.0064753166714565172 0.00084898762149007451 0 0.0052080399911469009 0.00047723938993534678 0 0.0052390614227955145 0.00049866119898613829 0 0.0052599879026763623 0.00041770156661747015 0 0.0068979576735822895 0.0012525900893307748 0 0.0068914410089326158 0.00046123497315027345 0 0.0073912609021620657 0.00073862685260759481 0 0.0064550118314159214 0.00078243550593699006 0 0.0062281975529202014 0.00022998160556140008 0 0.0068914410089326158 0.00046123497315027345 0 0.0073912609021620657 0.00073862685260759481 0 0.0072576502032657645 0.00014843858113900425 0 0.0074896780061494391 0.001471747313211959 0 0.0068979576735822895 0.0012525900893307748 0 0.0073912609021620657 0.00073862685260759481 0 0.0041337701590414841 0.00031950480016621765 0 0.0064550118314159214 0.00078243550593699006 0 0.0051871863525961744 0.00055076947096386892 0 0.0052080399911469009 0.00047723938993534678 0 0.0052390614227955145 0.00049866119898613829 0 0.0052404618877239881 0.0005503589470453855 0 0.0051871863525961744 0.00055076947096386892 0 0.0052390614227955145 0.00049866119898613829 0 0.0052404618877239881 0.0005503589470453855 0 0.0052390614227955145 0.00049866119898613829 0 0.0052891352836814589 0.0005026527064690184 0 0.0043977461754670395 0.00047175130051520752 0 0.0054811232548100377 0.0006402364489949175 0 0.0056477088368098605 0.00121490335090911 0 0.0054811232548100377 0.0006402364489949175 0 0.0069457284556313651 0.0014606294415445559 0 0.0066710894961100791 0.00091588189760293231 0 0.0072382773497410803 0.0010324809772805491 0 0.0066710894961100791 0.00091588189760293231 0 0.0070598636594837319 0.00049012485568895555 0 0.0072382773497410803 0.0010324809772805491 0 0.0054811232548100377 0.0006402364489949175 0 0.0071699202724371325 0.00050158794280252394 0 0.0054811232548100377 0.0006402364489949175 0 0.0057546322494003918 0.00039482794156620119 0 0.0065434780047062147 0.0010488585470062753 0 0.0069845046207479529 0.00056356889075564109 0 0.0061845723512908091 0.00032497777286355625 0 0.0052390614227955145 0.00049866119898613829 0 0.0052891352836814589 0.0005026527064690184 0 0.0052599879026763623 0.00041770156661747015 0 0.0069845046207479529 0.00056356889075564109 0 0.0066890258221395018 0.00012535079542970492 0 0.0061845723512908091 0.00032497777286355625 0 0.0066890258221395018 0.00012535079542970492 0 0.0063543745628087617 -6.2157676998517191e-05 0 0.0061845723512908091 0.00032497777286355625 0 0.0069845046207479529 0.00056356889075564109 0 0.0066890258221395018 0.00012535079542970492 0 0.0070259545824811562 7.1817507121850149e-05 0 0.0070259545824811562 7.1817507121850149e-05 0 0.0067593255689125586 -0.00016818178308830161 0 0.007091360319817646 -0.00030011132431266276 0 0.0066890258221395018 0.00012535079542970492 0 0.0070259545824811562 7.1817507121850149e-05 0 0.0067593255689125586 -0.00016818178308830161 0 0.0067593255689125586 -0.00016818178308830161 0 0.0065427541283189809 -0.00037330639046019619 0 0.0068240203197934982 -0.0004907421206641762 0 0.0067593255689125586 -0.00016818178308830161 0 0.007091360319817646 -0.00030011132431266276 0 0.0068240203197934982 -0.0004907421206641762 0 0.0063543745628087617 -6.2157676998517191e-05 0 0.0065427541283189809 -0.00037330639046019619 0 0.0058263365456390492 -0.0003895203271755001 0 0.0066890258221395018 0.00012535079542970492 0 0.0067593255689125586 -0.00016818178308830161 0 0.0063543745628087617 -6.2157676998517191e-05 0 0.0067593255689125586 -0.00016818178308830161 0 0.0063543745628087617 -6.2157676998517191e-05 0 0.0065427541283189809 -0.00037330639046019619 0 0.0063543745628087617 -6.2157676998517191e-05 0 0.0061845723512908091 0.00032497777286355625 0 0.0058263365456390492 -0.0003895203271755001 0 0.0057546322494003918 0.00039482794156620119 0 0.0057718371766805228 2.0299428018653431e-05 0 0.0052080399911469009 0.00047723938993534678 0 0.0052599879026763623 0.00041770156661747015 0 0.0052184051137732675 0.00040713595674858773 0 0.0052599879026763623 0.00041770156661747015 0 0.0052184051137732675 0.00040713595674858773 0 0.0052365855707489049 0.0003343215207074831 0 0.0068960907684768764 0.00010312226758898677 0 0.0068914410089326158 0.00046123497315027345 0 0.0072576502032657645 0.00014843858113900425 0 0.0068960907684768764 0.00010312226758898677 0 0.0072576502032657645 0.00014843858113900425 0 0.0070232408479947838 -5.3261378003445762e-05 0 0.0069458101142270854 -0.00020263877812188167 0 0.0061877949079665083 0.00013839301529436349 0 0.0052184051137732675 0.00040713595674858773 0 0.005224574158418308 0.00033805633894640853 0 0.0052365855707489049 0.0003343215207074831 0 0.0062281975529202014 0.00022998160556140008 0 0.0061877949079665083 0.00013839301529436349 0 0.0068177796444679395 -0.00015049460526468918 0 0.0070232408479947838 -5.3261378003445762e-05 0 0.0071735765383561818 -0.00028933442962961859 0 0.0072576502032657645 0.00014843858113900425 0 0.0070232408479947838 -5.3261378003445762e-05 0 0.0071735765383561818 -0.00028933442962961859 0 0.0061877949079665083 0.00013839301529436349 0 0.0057718371766805228 2.0299428018653431e-05 0 0.0057718371766805228 2.0299428018653431e-05 0 0.0062720881735320007 0.0010586227916891898 0 0.0068177796444679395 -0.00015049460526468918 0 0.006014202313924067 7.5115782411865401e-05 0 0.0065414720107040344 0.00053878093046553826 0 0.0060302375785808437 0.00037272353431543379 0 0.0057968182312640977 9.6911882987192364e-05 0 0.0062791947007607776 0.0010725851360043983 0 0.006014202313924067 7.5115782411865401e-05 0 0.0060302375785808437 0.00037272353431543379 0 0.0065414720107040344 0.00053878093046553826 0 0.0060055069608306085 3.240862902237966e-05 0 0.0060302375785808437 0.00037272353431543379 0 0.0057968182312640977 9.6911882987192364e-05 0 0.0061877949079665083 0.00013839301529436349 0 0.0061368859214989829 0.00023573896127370271 0 0.0060302375785808437 0.00037272353431543379 0 0.0065414720107040344 0.00053878093046553826 0 0.0062791947007607776 0.0010725851360043983 0 0.0058711898036072803 0.00025014228080522084 0 0.0055220857548699473 0.0010422986119309502 0 0.0047469190749604186 0.00058679907779600373 0 0.0058711898036072803 0.00025014228080522084 0 0.0055220857548699473 0.0010422986119309502 0 0.0062791947007607776 0.0010725851360043983 0 0.0057718371766805228 2.0299428018653431e-05 0 0.0059407130955584694 0.00049064571416319554 0 0.0055220857548699473 0.0010422986119309502 0 0.0058168321091005048 0.001675369201410091 0 0.0062791947007607776 0.0010725851360043983 0 0.0055220857548699473 0.0010422986119309502 0 0.0058168321091005048 0.001675369201410091 0 0.0049912425832254782 0.0019555996838012874 0 0.0068040901787257456 0.0011909129126174741 0 0.0065414720107040344 0.00053878093046553826 0 0.0062791947007607776 0.0010725851360043983 0 0.0058168321091005048 0.001675369201410091 0 0.0062791947007607776 0.0010725851360043983 0 0.0064112062559147521 0.0017168010320936994 0 0.0068040901787257456 0.0011909129126174741 0 0.0062791947007607776 0.0010725851360043983 0 0.0064112062559147521 0.0017168010320936994 0 0.0071601467772862632 0.0021598619341806772 0 0.0060880760924990462 0.0025071512027779255 0 0.0064112062559147521 0.0017168010320936994 0 0.0058168321091005048 0.001675369201410091 0 0.0060880760924990462 0.0025071512027779255 0 0.0064112062559147521 0.0017168010320936994 0 0.0058168321091005048 0.001675369201410091 0 0.0060880760924990462 0.0025071512027779255 0 0.0049912425832254782 0.0019555996838012874 0 0.0060880760924990462 0.0025071512027779255 0 0.0061262655425330251 0.0032675934834779799 0 0.0054055547902560792 0.0033915908814902578 0 0.0060880760924990462 0.0025071512027779255 0 0.0049912425832254782 0.0019555996838012874 0 0.0054055547902560792 0.0033915908814902578 0 0.0060880760924990462 0.0025071512027779255 0 0.0061262655425330251 0.0032675934834779799 0 0.0068082545481108585 0.0033757480610222376 0 0.0071601467772862632 0.0021598619341806772 0 0.0060880760924990462 0.0025071512027779255 0 0.0068082545481108585 0.0033757480610222376 0 0.0050810312261225796 0.0033794733627420543 0 0.0053455629388542321 0.002920259222042595 0 0.0048593833292821503 0.0027579853436016702 0 0.0050810312261225796 0.0033794733627420543 0 0.0055822407393497607 0.0033021793342980043 0 0.0053455629388542321 0.002920259222042595 0 0.0097576985087467379 0.0012755143693983122 0 0.010493042093571844 0.00097333593219214886 0 0.0053555888039689198 0.0024468089616936674 0 0.0057078079317316325 0.0034235897546445251 0 0.0055822407393497607 0.0033021793342980043 0 0.0058826262801222884 0.0026550802333855992 0 0.0059880945595737782 0.003543758241376635 0 0.0055822407393497607 0.0033021793342980043 0 0.0058826262801222884 0.0026550802333855992 0 0.0053455629388542321 0.002920259222042595 0 0.0053455629388542321 0.002920259222042595 0 0.0052392872684391984 0.0024615676864543404 0 0.0048593833292821503 0.0027579853436016702 0 0.0058826262801222884 0.0026550802333855992 0 0.0053455629388542321 0.002920259222042595 0 0.0052392872684391984 0.0024615676864543404 0 0.0052392872684391984 0.0024615676864543404 0 0.0057392937751165954 0.001787046179049736 0 0.0051835805362674863 0.0019688869098262746 0 0.0058826262801222884 0.0026550802333855992 0 0.0052392872684391984 0.0024615676864543404 0 0.0057392937751165954 0.001787046179049736 0 0.0055220857548699473 0.0010422986119309502 0 0.0049912425832254782 0.0019555996838012874 0 0.0047469190749604186 0.00058679907779600373 0 0.0053555888039689198 0.0024468089616936674 0 0.0059407130955584694 0.00049064571416319554 0 0.0065427541283189809 -0.00037330639046019619 0 0.0058263365456390492 -0.0003895203271755001 0 0.0064981246370164449 -0.0005980343576821157 0 0.0065427541283189809 -0.00037330639046019619 0 0.0064979409417531483 -0.00060410007115470669 0 0.0068240203197934982 -0.0004907421206641762 0 0.0061472455188193329 -0.00036041247395628351 0 0.0059407130955584694 0.00049064571416319554 0 0.007091360319817646 -0.00030011132431266276 0 0.0070244184171268081 -0.00076443933809602275 0 0.0068240203197934982 -0.0004907421206641762 0 0.0059407130955584694 0.00049064571416319554 0 0.0059372877290145227 0.00064916817973502861 0 0.0064979409417531483 -0.00060410007115470669 0 0.0070244184171268081 -0.00076443933809602275 0 0.0068240203197934982 -0.0004907421206641762 0 0.0070244184171268081 -0.00076443933809602275 0 0.0074031288311567495 -0.00047280576055251254 0 0.0075419961350396596 -0.00091694665510206361 0 0.007091360319817646 -0.00030011132431266276 0 0.0070244184171268081 -0.00076443933809602275 0 0.0074031288311567495 -0.00047280576055251254 0 0.0074031288311567495 -0.00047280576055251254 0 0.0075419961350396596 -0.00091694665510206361 0 0.0078079742539657214 -0.00028148145209045322 0 0.0077407520386244969 -0.00071578533779876523 0 0.0081684624622611543 -0.00047604351635234028 0 0.0079678598529708527 -0.00012535754779455374 0 0.00722116629001521 0.00055503010496400806 0 0.0078868828419911326 -0.00047029474590889824 0 0.00722116629001521 0.00055503010496400806 0 0.010167535640533389 -9.1397620315176794e-05 0 0.0091660148985351787 0.00072258306491521085 0 0.0091583006667153959 0.00097182166043762309 0 0.0089822722675127944 0.00077981434235150184 0 0.0077407520386244969 -0.00071578533779876523 0 0.0082163841339113058 -0.00086754224192883418 0 0.0081684624622611543 -0.00047604351635234028 0 0.00722116629001521 0.00055503010496400806 0 0.0069028994451688259 0.0020630180135462893 0 0.0052392872684391984 0.0024615676864543404 0 0.0051835805362674863 0.0019688869098262746 0 0.0046447079812864094 0.0021393343732109557 0 0.0052392872684391984 0.0024615676864543404 0 0.0046447079812864094 0.0021393343732109557 0 0.0048593833292821503 0.0027579853436016702 0 0.0059372877290145227 0.00064916817973502861 0 0.00722116629001521 0.00055503010496400806 0 0.0091660148985351787 0.00072258306491521085 0 0.0092570844343951384 0.0009424798442877148 0 0.0091583006667153959 0.00097182166043762309 0 0.011097679278542324 0.00049299587923031158 0 0.010167535640533389 -9.1397620315176794e-05 0 0.012565329250767121 -4.6046843892515451e-05 0 0.012285333516407015 0.00016665036665503179 0 0.012309349480428099 -0.00041928469076921388 0 0.012565329250767121 -4.6046843892515451e-05 0 0.012464163367853751 0.00014110166277334709 0 0.012285333516407015 0.00016665036665503179 0 0.012565329250767121 -4.6046843892515451e-05 0 0.012464163367853751 0.00014110166277334709 0 0.012523623035555265 0.00010876921530090334 0 0.0093508702201312733 0.0011756006390352531 0 0.0092570844343951384 0.0009424798442877148 0 0.0091583006667153959 0.00097182166043762309 0 0.012647805917694953 9.9552121528496344e-05 0 0.012565329250767121 -4.6046843892515451e-05 0 0.012523623035555265 0.00010876921530090334 0 0.0097576985087467379 0.0012755143693983122 0 0.011097679278542324 0.00049299587923031158 0 0.0097576985087467379 0.0012755143693983122 0 0.0069028994451688259 0.0020630180135462893 0 0.012285333516407015 0.00016665036665503179 0 0.011093944648366265 -9.0229703837110501e-07 0 0.012573343503122312 6.1616127592180748e-07 0 0.012285333516407015 0.00016665036665503179 0 0.012573343503122312 6.1616127592180748e-07 0 0.012755941329206176 7.8476927305265112e-05 0 0.012464163367853751 0.00014110166277334709 0 0.012285333516407015 0.00016665036665503179 0 0.012566574906720675 7.0872183758441672e-05 0 0.012285333516407015 0.00016665036665503179 0 0.011093944648366265 -9.0229703837110501e-07 0 0.012309349480428099 -0.00041928469076921388 0 0.011089107673051733 -3.8380106385195868e-07 0 0.010062541394369262 -0.00012030238325119453 0 0.010240792555997778 9.5366434754911333e-05 0 0.011092882766907864 -5.2484378131447743e-07 0 0.010167535640533389 -9.1397620315176794e-05 0 0.011089107673051733 -3.8380106385195868e-07 0 0.010156106286626587 3.7682653359360105e-07 0 0.010240792555997778 9.5366434754911333e-05 0 0.010167535640533389 -9.1397620315176794e-05 0 0.0092449550229721841 -0.00030174353359101999 0 0.0081684624622611543 -0.00047604351635234028 0 0.0085761708096425554 -0.00054206923500639103 0 0.0083402777436468213 -3.7308102233950339e-05 0 0.0082163841339113058 -0.00086754224192883418 0 0.0081684624622611543 -0.00047604351635234028 0 0.0085761708096425554 -0.00054206923500639103 0 0.0085761708096425554 -0.00054206923500639103 0 0.0092176144770406126 -1.0970329565947573e-06 0 0.0087058741653380095 2.0967432276176e-05 0 0.010156106286626587 3.7682653359360105e-07 0 0.010240792555997778 9.5366434754911333e-05 0 0.0092206648918561323 -3.7579635642614903e-07 0 0.0092449550229721841 -0.00030174353359101999 0 0.0092201961401521849 1.4550056270255414e-07 0 0.0087058741653380095 2.0967432276176e-05 0 0.0086795678156424087 1.1031672885435936e-06 0 0.0084917164311317309 0.00025932935908920128 0 0.0085761708096425554 -0.00054206923500639103 0 0.0087058741653380095 2.0967432276176e-05 0 0.0083402777436468213 -3.7308102233950339e-05 0 0.0087058741653380095 2.0967432276176e-05 0 0.0084917164311317309 0.00025932935908920128 0 0.0083402777436468213 -3.7308102233950339e-05 0 0.0092176144770406126 -1.0970329565947573e-06 0 0.0087058741653380095 2.0967432276176e-05 0 0.0086795678156424087 1.1031672885435936e-06 0 0.0086772284352284422 3.0549906485201246e-07 0 0.0077999304764589245 0.00036046351712279407 0 0.0086795678156424087 1.1031672885435936e-06 0 0.0084917164311317309 0.00025932935908920128 0 0.0085885775746435931 0.00064626930449011985 0 0.0084917164311317309 0.00025932935908920128 0 0.008090182579130847 0.00034785627909019823 0 0.0083402777436468213 -3.7308102233950339e-05 0 0.0084917164311317309 0.00025932935908920128 0 0.008090182579130847 0.00034785627909019823 0 0.0085885775746435931 0.00064626930449011985 0 0.0081684624622611543 -0.00047604351635234028 0 0.0083402777436468213 -3.7308102233950339e-05 0 0.0079678598529708527 -0.00012535754779455374 0 0.008090182579130847 0.00034785627909019823 0 0.0083402777436468213 -3.7308102233950339e-05 0 0.0079678598529708527 -0.00012535754779455374 0 0.007091360319817646 -0.00030011132431266276 0 0.0074031288311567495 -0.00047280576055251254 0 0.0074415264868412014 5.6268531292970309e-05 0 0.0074031288311567495 -0.00047280576055251254 0 0.0078079742539657214 -0.00028148145209045322 0 0.0074415264868412014 5.6268531292970309e-05 0 0.0070259545824811562 7.1817507121850149e-05 0 0.007091360319817646 -0.00030011132431266276 0 0.0074415264868412014 5.6268531292970309e-05 0 0.0071699202724371325 0.00050158794280252394 0 0.0073709865563540717 0.00011040829731412086 0 0.0069845046207479529 0.00056356889075564109 0 0.0070259545824811562 7.1817507121850149e-05 0 0.0074415264868412014 5.6268531292970309e-05 0 0.0070598636594837319 0.00049012485568895555 0 0.0074415264868412014 5.6268531292970309e-05 0 0.0075925959191348417 0.00064182483039058641 0 0.0081008684957624144 0.00042713615785498272 0 0.0078868828419911326 -0.00047029474590889824 0 0.008090182579130847 0.00034785627909019823 0 0.0078079742539657214 -0.00028148145209045322 0 0.0074415264868412014 5.6268531292970309e-05 0 0.008090182579130847 0.00034785627909019823 0 0.0074415264868412014 5.6268531292970309e-05 0 0.0075925959191348417 0.00064182483039058641 0 0.008090182579130847 0.00034785627909019823 0 0.0075925959191348417 0.00064182483039058641 0 0.0080939071846692356 0.00082828883347650889 0 0.0070598636594837319 0.00049012485568895555 0 0.0075925959191348417 0.00064182483039058641 0 0.0072382773497410803 0.0010324809772805491 0 0.0075925959191348417 0.00064182483039058641 0 0.0072382773497410803 0.0010324809772805491 0 0.0077386832998348415 0.001134243642537173 0 0.0075925959191348417 0.00064182483039058641 0 0.0077386832998348415 0.001134243642537173 0 0.0080939071846692356 0.00082828883347650889 0 0.0083300508309458472 0.0013125346152154335 0 0.0080939071846692356 0.00082828883347650889 0 0.0085885775746435931 0.00064626930449011985 0 0.0083300508309458472 0.0013125346152154335 0 0.0077386832998348415 0.001134243642537173 0 0.0080939071846692356 0.00082828883347650889 0 0.0055537951678000909 -5.0032561230558349e-05 0 0.0072821041679063522 -1.2290034080832654e-07 0 0.0071128937447899566 -3.2245182065978925e-05 0 0.0071075565816370425 0.00083992736438920769 0 0.0077999304764589245 0.00036046351712279407 0 0.0058870572497329247 -6.5483958064542877e-08 0 0.0055537951678000909 -5.0032561230558349e-05 0 0.0072821041679063522 -1.2290034080832654e-07 0 0.0086771513924936237 -1.152497194766116e-07 0 0.0072821041679063522 -1.2290034080832654e-07 0 0.0071128937447899566 -3.2245182065978925e-05 0 0.008090182579130847 0.00034785627909019823 0 0.0080939071846692356 0.00082828883347650889 0 0.0085885775746435931 0.00064626930449011985 0 0.018318505854369761 -4.9177334536470154e-05 0 0.019116605122622338 -2.7212896089029482e-05 0 0.018910165889214067 -0.0002335077125966143 0 0.018318505854369761 -4.9177334536470154e-05 0 0.018910165889214067 -0.0002335077125966143 0 0.018079273041556397 -0.00025342715360076164 0 0.018318505854369761 -4.9177334536470154e-05 0 0.017660887709342023 -5.7500818070952473e-05 0 0.018079273041556397 -0.00025342715360076164 0 0.017660887709342023 -5.7500818070952473e-05 0 0.018506567496813529 3.0159205909879988e-07 0 0.017023642756558363 -1.0598840143236179e-06 0 0.018318505854369761 -4.9177334536470154e-05 0 0.017660887709342023 -5.7500818070952473e-05 0 0.018506567496813529 3.0159205909879988e-07 0 0.018318505854369761 -4.9177334536470154e-05 0 0.018506567496813529 3.0159205909879988e-07 0 0.019116605122622338 -2.7212896089029482e-05 0 0.018506567496813529 3.0159205909879988e-07 0 0.019116605122622338 -2.7212896089029482e-05 0 0.019514325921482792 0.0001298950073806123 0 0.019116605122622338 -2.7212896089029482e-05 0 0.019512312872142251 -0.00019185153368884913 0 0.019824955729081755 -5.6104607902880585e-05 0 0.019512312872142251 -0.00019185153368884913 0 0.020160084173686494 -0.00023200511043851947 0 0.019824955729081755 -5.6104607902880585e-05 0 0.019512312872142251 -0.00019185153368884913 0 0.020160084173686494 -0.00023200511043851947 0 0.019463176861440879 -0.00041384099567795134 0 0.021005377576446185 -0.0014684660261688712 0 0.021057678115910503 -0.0014148136427485642 0 0.021867027660934617 -0.0027925113095242054 0 0.022056240412512827 -0.0023264738380379306 0 0.021772855501353137 -0.0023822259306887422 0 0.019512312872142251 -0.00019185153368884913 0 0.019463176861440879 -0.00041384099567795134 0 0.018910165889214067 -0.0002335077125966143 0 0.019116605122622338 -2.7212896089029482e-05 0 0.019512312872142251 -0.00019185153368884913 0 0.018910165889214067 -0.0002335077125966143 0 0.019463176861440879 -0.00041384099567795134 0 0.018910165889214067 -0.0002335077125966143 0 0.018817698155464288 -0.00081579769558776832 0 0.021057678115910503 -0.0014148136427485642 0 0.018500195075987783 -0.0010368812065057991 0 0.019463176861440879 -0.00041384099567795134 0 0.018941788506187836 -0.0012635156571126113 0 0.018817698155464288 -0.00081579769558776832 0 0.022056240412512827 -0.0023264738380379306 0 0.021929151333878516 -0.0019423607988010389 0 0.022187485169797745 -0.0018879055884603703 0 0.022056240412512827 -0.0023264738380379306 0 0.02184118968734863 -0.0021472465903981824 0 0.021772855501353137 -0.0023822259306887422 0 0.022056240412512827 -0.0023264738380379306 0 0.02184118968734863 -0.0021472465903981824 0 0.021929151333878516 -0.0019423607988010389 0 0.021929151333878516 -0.0019423607988010389 0 0.022187485169797745 -0.0018879055884603703 0 0.02179740900437693 -0.0016775639188919393 0 0.021929151333878516 -0.0019423607988010389 0 0.02180326215691444 -0.0018433540813284335 0 0.02179740900437693 -0.0016775639188919393 0 0.018500195075987783 -0.0010368812065057991 0 0.018038956372262865 -0.00088534097204105396 0 0.02184118968734863 -0.0021472465903981824 0 0.021929151333878516 -0.0019423607988010389 0 0.021743182031331056 -0.0019724833998457304 0 0.021929151333878516 -0.0019423607988010389 0 0.02180326215691444 -0.0018433540813284335 0 0.021743182031331056 -0.0019724833998457304 0 0.016784696230685937 -0.00039062293293025841 0 0.016774080905365946 -0.00041114733556954996 0 0.017068409404231662 -0.00054260555052774984 0 0.018500195075987783 -0.0010368812065057991 0 0.018841898286231128 -0.0011680089094705164 0 0.015120730888923357 -0.00019104245977697503 0 0.015201753787535712 -8.8970450631653707e-05 0 0.015556659507500861 -4.8045980802723453e-05 0 0.018500195075987783 -0.0010368812065057991 0 0.017338933833895866 -0.0003140198480734143 0 0.018500195075987783 -0.0010368812065057991 0 0.016264012894802754 -0.00038628806552460976 0 0.019188203400090604 -0.0021199023245573835 0 0.018817698155464288 -0.00081579769558776832 0 0.016804371832868131 -0.00036381901537761897 0 0.015120730888923357 -0.00019104245977697503 0 0.015556659507500861 -4.8045980802723453e-05 0 0.016804371832868131 -0.00036381901537761897 0 0.015556659507500861 -4.8045980802723453e-05 0 0.016804371832868131 -0.00036381901537761897 0 0.015857921530947214 -4.6550728454446205e-05 0 0.015556659507500861 -4.8045980802723453e-05 0 0.015857921530947214 -4.6550728454446205e-05 0 0.015461003400732148 9.7092502369960774e-05 0 0.018910165889214067 -0.0002335077125966143 0 0.018817698155464288 -0.00081579769558776832 0 0.018079273041556397 -0.00025342715360076164 0 0.018817698155464288 -0.00081579769558776832 0 0.018079273041556397 -0.00025342715360076164 0 0.016804371832868131 -0.00036381901537761897 0 0.017660887709342023 -5.7500818070952473e-05 0 0.017023642756558363 -1.0598840143236179e-06 0 0.016804371832868131 -0.00036381901537761897 0 0.017660887709342023 -5.7500818070952473e-05 0 0.018079273041556397 -0.00025342715360076164 0 0.016804371832868131 -0.00036381901537761897 0 0.017023642756558363 -1.0598840143236179e-06 0 0.016804371832868131 -0.00036381901537761897 0 0.015540478062423644 3.4068068889631122e-07 0 0.016804371832868131 -0.00036381901537761897 0 0.015857921530947214 -4.6550728454446205e-05 0 0.015540478062423644 3.4068068889631122e-07 0 0.015857921530947214 -4.6550728454446205e-05 0 0.015540478062423644 3.4068068889631122e-07 0 0.015461003400732148 9.7092502369960774e-05 0 0.015540478062423644 3.4068068889631122e-07 0 0.015461003400732148 9.7092502369960774e-05 0 0.014964441269113492 7.9867818024838635e-05 0 0.017338933833895866 -0.0003140198480734143 0 0.015125541582901763 0.00041520541409055479 0 0.015556659507500861 -4.8045980802723453e-05 0 0.015461003400732148 9.7092502369960774e-05 0 0.015329136140724967 0.00018229891561533044 0 0.015201753787535712 -8.8970450631653707e-05 0 0.015556659507500861 -4.8045980802723453e-05 0 0.015329136140724967 0.00018229891561533044 0 0.015461003400732148 9.7092502369960774e-05 0 0.015329136140724967 0.00018229891561533044 0 0.014964441269113492 7.9867818024838635e-05 0 0.015329136140724967 0.00018229891561533044 0 0.014669277016178324 3.8260765068668625e-05 0 0.014661967332935845 -9.5793620662976982e-05 0 0.015266515020314628 0.00055261998623700565 0 0.01505031685959698 -0.00011102366192615923 0 0.014661967332935845 -9.5793620662976982e-05 0 0.015125541582901763 0.00041520541409055479 0 0.014805641901474728 -7.0221114007526351e-05 0 0.015266515020314628 0.00055261998623700565 0 0.01505031685959698 -0.00011102366192615923 0 0.015765900777789721 0.00034019458366969514 0 0.013863053399306985 -0.00019504822711903269 0 0.014139427802303886 -3.6764283951471381e-05 0 0.015329136140724967 0.00018229891561533044 0 0.014964441269113492 7.9867818024838635e-05 0 0.014669277016178324 3.8260765068668625e-05 0 0.015540478062423644 3.4068068889631122e-07 0 0.014964441269113492 7.9867818024838635e-05 0 0.014057616730575021 -4.5307544513576104e-07 0 0.014669277016178324 3.8260765068668625e-05 0 0.014186039162563478 -2.5653896838322359e-05 0 0.014661967332935845 -9.5793620662976982e-05 0 0.014669277016178324 3.8260765068668625e-05 0 0.014057616730575021 -4.5307544513576104e-07 0 0.014186039162563478 -2.5653896838322359e-05 0 0.014964441269113492 7.9867818024838635e-05 0 0.014669277016178324 3.8260765068668625e-05 0 0.014057616730575021 -4.5307544513576104e-07 0 0.012700546302943153 -0.00038897944278354216 0 0.013510664463654657 -8.0689376688852188e-05 0 0.01278716905816887 -4.7595038982949404e-05 0 0.013863053399306985 -0.00019504822711903269 0 0.013644270868752433 -0.00010668701651781791 0 0.01505031685959698 -0.00011102366192615923 0 0.013510664463654657 -8.0689376688852188e-05 0 0.014661967332935845 -9.5793620662976982e-05 0 0.014057616730575021 -4.5307544513576104e-07 0 0.013510664463654657 -8.0689376688852188e-05 0 0.014186039162563478 -2.5653896838322359e-05 0 0.014057616730575021 -4.5307544513576104e-07 0 0.013510664463654657 -8.0689376688852188e-05 0 0.012573343503122312 6.1616127592180748e-07 0 0.013510664463654657 -8.0689376688852188e-05 0 0.01278716905816887 -4.7595038982949404e-05 0 0.012755941329206176 7.8476927305265112e-05 0 0.013510664463654657 -8.0689376688852188e-05 0 0.014186039162563478 -2.5653896838322359e-05 0 0.014661967332935845 -9.5793620662976982e-05 0 0.012700546302943153 -0.00038897944278354216 0 0.012568722135398506 -0.00014524858357737916 0 0.01278716905816887 -4.7595038982949404e-05 0 0.012700546302943153 -0.00038897944278354216 0 0.012568722135398506 -0.00014524858357737916 0 0.01250736449479877 -0.00027484122125131702 0 0.012568722135398506 -0.00014524858357737916 0 0.01278716905816887 -4.7595038982949404e-05 0 0.012566574906720675 7.0872183758441672e-05 0 0.01278716905816887 -4.7595038982949404e-05 0 0.012566574906720675 7.0872183758441672e-05 0 0.012755941329206176 7.8476927305265112e-05 0 0.012285333516407015 0.00016665036665503179 0 0.012566574906720675 7.0872183758441672e-05 0 0.012755941329206176 7.8476927305265112e-05 0 0.013510664463654657 -8.0689376688852188e-05 0 0.012573343503122312 6.1616127592180748e-07 0 0.012755941329206176 7.8476927305265112e-05 0 0.012523623035555265 0.00010876921530090334 0 0.012626972322512506 0.00018438003746479073 0 0.012576463913118984 0.00026518032268955184 0 0.012626972322512506 0.00018438003746479073 0 0.012685289691942993 0.00026367063318119251 0 0.012672393720748253 0.00020108260280752191 0 0.012647805917694953 9.9552121528496344e-05 0 0.012523623035555265 0.00010876921530090334 0 0.012626972322512506 0.00018438003746479073 0 0.012647805917694953 9.9552121528496344e-05 0 0.012626972322512506 0.00018438003746479073 0 0.012671478054288497 0.00014061159110295585 0 0.012626972322512506 0.00018438003746479073 0 0.012671478054288497 0.00014061159110295585 0 0.012672393720748253 0.00020108260280752191 0 0.012542514641888968 6.9469432821015677e-05 0 0.012343766643504084 0.00011806320765374699 0 0.012464163367853751 0.00014110166277334709 0 0.012566574906720675 7.0872183758441672e-05 0 0.01238271897454306 -8.3487249590689705e-05 0 0.012464163367853751 0.00014110166277334709 0 0.012523623035555265 0.00010876921530090334 0 0.01238271897454306 -8.3487249590689705e-05 0 0.01238271897454306 -8.3487249590689705e-05 0 0.01250736449479877 -0.00027484122125131702 0 0.012417437377736134 -0.00049351891355239072 0 0.012568722135398506 -0.00014524858357737916 0 0.012566574906720675 7.0872183758441672e-05 0 0.01238271897454306 -8.3487249590689705e-05 0 0.012568722135398506 -0.00014524858357737916 0 0.01238271897454306 -8.3487249590689705e-05 0 0.01250736449479877 -0.00027484122125131702 0 0.012576463913118984 0.00026518032268955184 0 0.012685289691942993 0.00026367063318119251 0 0.012685345295813099 0.00034260110961138854 0 0.012626972322512506 0.00018438003746479073 0 0.012576463913118984 0.00026518032268955184 0 0.012685289691942993 0.00026367063318119251 0 0.012685345295813099 0.00034260110961138854 0 0.012704595593645382 0.00041319016851844266 0 0.012595042664367286 0.00039347463030516846 0 0.012685345295813099 0.00034260110961138854 0 0.012704595593645382 0.00041319016851844266 0 0.012756153097474797 0.00040170165626027287 0 0.012700546302943153 -0.00038897944278354216 0 0.01250736449479877 -0.00027484122125131702 0 0.012417437377736134 -0.00049351891355239072 0 0.012343766643504084 0.00011806320765374699 0 0.014139427802303886 -3.6764283951471381e-05 0 0.012576463913118984 0.00026518032268955184 0 0.012685345295813099 0.00034260110961138854 0 0.012595042664367286 0.00039347463030516846 0 0.015586163125455374 0.0012071748817271601 0 0.015266515020314628 0.00055261998623700565 0 0.015765900777789721 0.00034019458366969514 0 0.016774080905365946 -0.00041114733556954996 0 0.0168160684267952 -0.00069212843610998219 0 0.017068409404231662 -0.00054260555052774984 0 0.017338933833895866 -0.0003140198480734143 0 0.014139427802303886 -3.6764283951471381e-05 0 0.014139427802303886 -3.6764283951471381e-05 0 0.018038956372262865 -0.00088534097204105396 0 0.012704595593645382 0.00041319016851844266 0 0.012595042664367286 0.00039347463030516846 0 0.012739101071245235 0.00046773370687051651 0 0.012704595593645382 0.00041319016851844266 0 0.012750256069215647 0.00046049838780435167 0 0.012756153097474797 0.00040170165626027287 0 0.012704595593645382 0.00041319016851844266 0 0.012750256069215647 0.00046049838780435167 0 0.012739101071245235 0.00046773370687051651 0 0.02180326215691444 -0.0018433540813284335 0 0.02179740900437693 -0.0016775639188919393 0 0.021731193231284755 -0.0017264899756592772 0 0.018715105323404684 -0.0012501974793525019 0 0.01824163912685724 -0.00099931937391868815 0 0.019303900382778395 -0.0003073406414637477 0 0.018038956372262865 -0.00088534097204105396 0 0.020126958704659133 -0.00024438696780615182 0 0.017801766486685869 -0.00040147140385093856 0 0.018038956372262865 -0.00088534097204105396 0 0.021550099351092655 9.722973568531341e-05 0 0.021410591599155683 -0.00013125943793174395 0 0.020901569396369359 -1.5021396439557176e-05 0 0.017801766486685869 -0.00040147140385093856 0 0.016960941273053184 0.00047216866617449802 0 0.012750256069215647 0.00046049838780435167 0 0.012846669142240731 0.00041143615163339849 0 0.012756153097474797 0.00040170165626027287 0 0.021550099351092655 9.722973568531341e-05 0 0.020901569396369359 -1.5021396439557176e-05 0 0.020479365026505315 0.00070411087069296953 0 0.017801766486685869 -0.00040147140385093856 0 0.020126958704659133 -0.00024438696780615182 0 0.021410591599155683 -0.00013125943793174395 0 0.020901569396369359 -1.5021396439557176e-05 0 0.020812920761518944 -0.0005460026865417273 0 0.020901569396369359 -1.5021396439557176e-05 0 0.020233516822775084 -0.00020346340857805754 0 0.020812920761518944 -0.0005460026865417273 0 0.020901569396369359 -1.5021396439557176e-05 0 0.020233516822775084 -0.00020346340857805754 0 0.020479365026505315 0.00070411087069296953 0 0.020233516822775084 -0.00020346340857805754 0 0.020479365026505315 0.00070411087069296953 0 0.019492129464215281 0.00026600583316025074 0 0.016960941273053184 0.00047216866617449802 0 0.013690750838310084 0.0014703660966363641 0 0.020479365026505315 0.00070411087069296953 0 0.019341094260899219 0.0013411051564755445 0 0.019492129464215281 0.00026600583316025074 0 0.012846669142240731 0.00041143615163339849 0 0.012847285488408975 0.00033617025174631553 0 0.012959683239412163 0.00036349826490831368 0 0.012846669142240731 0.00041143615163339849 0 0.012847285488408975 0.00033617025174631553 0 0.012771531890522951 0.00032858635850499952 0 0.012846669142240731 0.00041143615163339849 0 0.012756153097474797 0.00040170165626027287 0 0.012771531890522951 0.00032858635850499952 0 0.012685345295813099 0.00034260110961138854 0 0.012756153097474797 0.00040170165626027287 0 0.012771531890522951 0.00032858635850499952 0 0.012685289691942993 0.00026367063318119251 0 0.012812334312569352 0.00023650078134161798 0 0.012672393720748253 0.00020108260280752191 0 0.012685289691942993 0.00026367063318119251 0 0.012771531890522951 0.00032858635850499952 0 0.012812334312569352 0.00023650078134161798 0 0.012685289691942993 0.00026367063318119251 0 0.012685345295813099 0.00034260110961138854 0 0.012771531890522951 0.00032858635850499952 0 0.0055811232352913154 0.0039815032464404288 0 0.0059880945595737782 0.003543758241376635 0 0.005955783327312671 0.0044427008678998908 0 0.0055811232352913154 0.0039815032464404288 0 0.005955783327312671 0.0044427008678998908 0 0.005964571880157768 0.0045882158871528881 0 0.012847285488408975 0.00033617025174631553 0 0.012812334312569352 0.00023650078134161798 0 0.012959683239412163 0.00036349826490831368 0 0.012847285488408975 0.00033617025174631553 0 0.012771531890522951 0.00032858635850499952 0 0.012812334312569352 0.00023650078134161798 0 0.0084267459398695062 0.002117916009663092 0 0.013690750838310084 0.0014703660966363641 0 0.0055822407393497607 0.0033021793342980043 0 0.0055811232352913154 0.0039815032464404288 0 0.0059880945595737782 0.003543758241376635 0 0.012648881929195924 0.00010454160561668699 0 0.012812334312569352 0.00023650078134161798 0 0.012671478054288497 0.00014061159110295585 0 0.0050810312261225796 0.0033794733627420543 0 0.0055822407393497607 0.0033021793342980043 0 0.0055811232352913154 0.0039815032464404288 0 0.012812334312569352 0.00023650078134161798 0 0.012671478054288497 0.00014061159110295585 0 0.012672393720748253 0.00020108260280752191 0 0.0097576985087467379 0.0012755143693983122 0 0.0084267459398695062 0.002117916009663092 0 0.006189034547409507 0.0037748990102878513 0 0.0067521645499295894 0.0042863121063989327 0 0.0068082545481108585 0.0033757480610222376 0 0.0061262655425330251 0.0032675934834779799 0 0.006189034547409507 0.0037748990102878513 0 0.0068082545481108585 0.0033757480610222376 0 0.006189034547409507 0.0037748990102878513 0 0.0054055547902560792 0.0033915908814902578 0 0.005955783327312671 0.0044427008678998908 0 0.0057078079317316325 0.0034235897546445251 0 0.0059280651823612075 0.0043858178157119027 0 0.0061262655425330251 0.0032675934834779799 0 0.006189034547409507 0.0037748990102878513 0 0.0054055547902560792 0.0033915908814902578 0 0.005955783327312671 0.0044427008678998908 0 0.0067521645499295894 0.0042863121063989327 0 0.005964571880157768 0.0045882158871528881 0 0.006189034547409507 0.0037748990102878513 0 0.005955783327312671 0.0044427008678998908 0 0.0067521645499295894 0.0042863121063989327 0 0.011799840282761764 0.0033623841512074892 0 0.013690750838310084 0.0014703660966363641 0 0.017471528250983647 0.0019244136113546913 0 0.018196771936520938 0.00053331989412825655 0 0.018805598519712509 0.0012086358207161413 0 0.017471528250983647 0.0019244136113546913 0 0.018196771936520938 0.00053331989412825655 0 0.017363093728376321 0.00068073734630956549 0 0.018645433528707938 0.00066080948746900781 0 0.019341094260899219 0.0013411051564755445 0 0.019492129464215281 0.00026600583316025074 0 0.018831008083982508 0.0010398989388793307 0 0.013690750838310084 0.0014703660966363641 0 0.020233516822775084 -0.00020346340857805754 0 0.019492129464215281 0.00026600583316025074 0 0.019414595503856543 -0.00073655499410653889 0 0.019492129464215281 0.00026600583316025074 0 0.018754765790223057 -0.00016878966396339839 0 0.019414595503856543 -0.00073655499410653889 0 0.018645433528707938 0.00066080948746900781 0 0.019492129464215281 0.00026600583316025074 0 0.018754765790223057 -0.00016878966396339839 0 0.018831008083982508 0.0010398989388793307 0 0.017682669194145739 -0.0001740469397429039 0 0.018196771936520938 0.00053331989412825655 0 0.017768458815065155 -0.00010471677813029099 0 0.017363093728376321 0.00068073734630956549 0 0.018645433528707938 0.00066080948746900781 0 0.018754765790223057 -0.00016878966396339839 0 0.017768458815065155 -0.00010471677813029099 0 0.018754765790223057 -0.00016878966396339839 0 0.018349351365369498 -0.00088245663635744915 0 0.019414595503856543 -0.00073655499410653889 0 0.018349351365369498 -0.00088245663635744915 0 0.018910511817666016 -0.0017669457404007945 0 0.019414595503856543 -0.00073655499410653889 0 0.018754765790223057 -0.00016878966396339839 0 0.017768458815065155 -0.00010471677813029099 0 0.018349351365369498 -0.00088245663635744915 0 0.018910511817666016 -0.0017669457404007945 0 0.018355637189906914 -0.0022774686512995529 0 0.017583008073452994 -0.0016082384359872321 0 0.018349351365369498 -0.00088245663635744915 0 0.018910511817666016 -0.0017669457404007945 0 0.017583008073452994 -0.0016082384359872321 0 0.018910511817666016 -0.0017669457404007945 0 0.019810429305979822 -0.0016267387002776577 0 0.019414595503856543 -0.00073655499410653889 0 0.018910511817666016 -0.0017669457404007945 0 0.019810429305979822 -0.0016267387002776577 0 0.020048689025612517 -0.0025515165950828447 0 0.019810429305979822 -0.0016267387002776577 0 0.019414595503856543 -0.00073655499410653889 0 0.020189662829887971 -0.0009109378798879713 0 0.020233516822775084 -0.00020346340857805754 0 0.019414595503856543 -0.00073655499410653889 0 0.020189662829887971 -0.0009109378798879713 0 0.020233516822775084 -0.00020346340857805754 0 0.020189662829887971 -0.0009109378798879713 0 0.020812920761518944 -0.0005460026865417273 0 0.020189662829887971 -0.0009109378798879713 0 0.020812920761518944 -0.0005460026865417273 0 0.020662123925216911 -0.0013979500083237211 0 0.020126958704659133 -0.00024438696780615182 0 0.021274352256626876 -0.0018054846932099267 0 0.021731193231284755 -0.0017264899756592772 0 0.021743182031331056 -0.0019724833998457304 0 0.021525949901794583 -0.0020872325593195989 0 0.021406714966702892 -0.000146149767355008 0 0.020812920761518944 -0.0005460026865417273 0 0.020662123925216911 -0.0013979500083237211 0 0.02180326215691444 -0.0018433540813284335 0 0.021731193231284755 -0.0017264899756592772 0 0.021743182031331056 -0.0019724833998457304 0 0.020126958704659133 -0.00024438696780615182 0 0.021071643251285615 -0.0002263192481998665 0 0.02184118968734863 -0.0021472465903981824 0 0.021743182031331056 -0.0019724833998457304 0 0.021721463152249994 -0.0021447840076549473 0 0.021743182031331056 -0.0019724833998457304 0 0.021721463152249994 -0.0021447840076549473 0 0.021525949901794583 -0.0020872325593195989 0 0.02184118968734863 -0.0021472465903981824 0 0.021721463152249994 -0.0021447840076549473 0 0.021772855501353137 -0.0023822259306887422 0 0.021721463152249994 -0.0021447840076549473 0 0.021525949901794583 -0.0020872325593195989 0 0.021772855501353137 -0.0023822259306887422 0 0.019810429305979822 -0.0016267387002776577 0 0.020189662829887971 -0.0009109378798879713 0 0.020662123925216911 -0.0013979500083237211 0 0.019810429305979822 -0.0016267387002776577 0 0.020662123925216911 -0.0013979500083237211 0 0.020048689025612517 -0.0025515165950828447 0 0.021274352256626876 -0.0018054846932099267 0 0.02059288261538067 -0.002530201090418089 0 0.021525949901794583 -0.0020872325593195989 0 0.021198854145102284 -0.0024333807559823784 0 0.021565892828702443 -0.0024727930638571319 0 0.021198854145102284 -0.0024333807559823784 0 0.021565892828702443 -0.0024727930638571319 0 0.021458375796605436 -0.0028380338916601812 0 0.021525949901794583 -0.0020872325593195989 0 0.021772855501353137 -0.0023822259306887422 0 0.021565892828702443 -0.0024727930638571319 0 0.021772855501353137 -0.0023822259306887422 0 0.021565892828702443 -0.0024727930638571319 0 0.02180138001737969 -0.0027741466930741509 0 0.021867027660934617 -0.0027925113095242054 0 0.021772855501353137 -0.0023822259306887422 0 0.02180138001737969 -0.0027741466930741509 0 0.021565892828702443 -0.0024727930638571319 0 0.02180138001737969 -0.0027741466930741509 0 0.021458375796605436 -0.0028380338916601812 0 0.02180138001737969 -0.0027741466930741509 0 0.021458375796605436 -0.0028380338916601812 0 0.021413868461382875 -0.0032259047757154779 0 0.021867027660934617 -0.0027925113095242054 0 0.02180138001737969 -0.0027741466930741509 0 0.021964657702751612 -0.0026244141842167749 0 0.021198854145102284 -0.0024333807559823784 0 0.021458375796605436 -0.0028380338916601812 0 0.021247238661495155 -0.0031180261556172629 0 0.021458375796605436 -0.0028380338916601812 0 0.021247238661495155 -0.0031180261556172629 0 0.021413868461382875 -0.0032259047757154779 0 0.021198854145102284 -0.0024333807559823784 0 0.021247238661495155 -0.0031180261556172629 0 0.020251240487978252 -0.003363339039640464 0 0.020048689025612517 -0.0025515165950828447 0 0.019387077317435653 -0.0027419810085849133 0 0.020251240487978252 -0.003363339039640464 0 0.02059288261538067 -0.002530201090418089 0 0.020234553883065061 -0.0033452858755020787 0 0.019387077317435653 -0.0027419810085849133 0 0.019208479034270049 -0.0035735296783668043 0 0.020251240487978252 -0.003363339039640464 0 0.019387077317435653 -0.0027419810085849133 0 0.017461567478340011 -0.0030306570471791069 0 0.019208479034270049 -0.0035735296783668043 0 0.018355637189906914 -0.0022774686512995529 0 0.019387077317435653 -0.0027419810085849133 0 0.017461567478340011 -0.0030306570471791069 0 0.018910511817666016 -0.0017669457404007945 0 0.018355637189906914 -0.0022774686512995529 0 0.019387077317435653 -0.0027419810085849133 0 0.018910511817666016 -0.0017669457404007945 0 0.020048689025612517 -0.0025515165950828447 0 0.019387077317435653 -0.0027419810085849133 0 0.020704928140669206 -0.0034006119305966882 0 0.020050021771401246 -0.0029026456164548422 0 0.017461567478340011 -0.0030306570471791069 0 0.015812869117518884 -0.0022632478408183285 0 0.016506174671036142 -0.0015559053273812864 0 0.024277952028748852 -0.0037472714928803857 0 0.023984907942095263 -0.0038193802937321782 0 0.024437290678725649 -0.0036568495611596545 0 0.018355637189906914 -0.0022774686512995529 0 0.017461567478340011 -0.0030306570471791069 0 0.017583008073452994 -0.0016082384359872321 0 0.023984907942095263 -0.0038193802937321782 0 0.024192490689899367 -0.0035268117742542986 0 0.023831534804471349 -0.003567171491172738 0 0.020704928140669206 -0.0034006119305966882 0 0.021213242257210212 -0.0035930360056499622 0 0.023984907942095263 -0.0038193802937321782 0 0.023831534804471349 -0.003567171491172738 0 0.023316085813133689 -0.0037829602696997319 0 0.024277952028748852 -0.0037472714928803857 0 0.024192490689899367 -0.0035268117742542986 0 0.024359227048656923 -0.0036235316743855801 0 0.024277952028748852 -0.0037472714928803857 0 0.023984907942095263 -0.0038193802937321782 0 0.024192490689899367 -0.0035268117742542986 0 0.024192490689899367 -0.0035268117742542986 0 0.024359227048656923 -0.0036235316743855801 0 0.024445814250857519 -0.0034050454883763595 0 0.024359227048656923 -0.0036235316743855801 0 0.024566164753415894 -0.003546424386766269 0 0.024445814250857519 -0.0034050454883763595 0 0.024359227048656923 -0.0036235316743855801 0 0.024566164753415894 -0.003546424386766269 0 0.024399400158456121 -0.0036954201291686801 0 0.024277952028748852 -0.0037472714928803857 0 0.024359227048656923 -0.0036235316743855801 0 0.024399400158456121 -0.0036954201291686801 0 0.024566164753415894 -0.003546424386766269 0 0.024925782578205168 -0.0037875990992467033 0 0.024900772945479589 -0.0034192369734391353 0 0.024566164753415894 -0.003546424386766269 0 0.024399400158456121 -0.0036954201291686801 0 0.024925782578205168 -0.0037875990992467033 0 0.024566164753415894 -0.003546424386766269 0 0.024900772945479589 -0.0034192369734391353 0 0.024676346747434675 -0.0033360464747881112 0 0.024566164753415894 -0.003546424386766269 0 0.024676346747434675 -0.0033360464747881112 0 0.024445814250857519 -0.0034050454883763595 0 0.02491887491169599 -0.003900929647426301 0 0.021569534188156301 -0.0037772085617616283 0 0.024181488066777654 -0.0038502565222839295 0 0.022712496247117731 -0.0033382491362930846 0 0.02191848861798374 -0.0045486149934577964 0 0.024399400158456121 -0.0036954201291686801 0 0.024181488066777654 -0.0038502565222839295 0 0.024925782578205168 -0.0037875990992467033 0 0.024277952028748852 -0.0037472714928803857 0 0.024399400158456121 -0.0036954201291686801 0 0.024181488066777654 -0.0038502565222839295 0 0.024277952028748852 -0.0037472714928803857 0 0.024181488066777654 -0.0038502565222839295 0 0.024437290678725649 -0.0036568495611596545 0 0.024181488066777654 -0.0038502565222839295 0 0.024437290678725649 -0.0036568495611596545 0 0.023094078379473811 -0.0022277501207829966 0 0.015812869117518884 -0.0022632478408183285 0 0.014288392683103454 -0.0013614075296667868 0 0.015419240574693623 -0.0011815214948166322 0 0.020050021771401246 -0.0029026456164548422 0 0.018806011196239182 -0.0018459877553088269 0 0.022712496247117731 -0.0033382491362930846 0 0.023094078379473811 -0.0022277501207829966 0 0.021625106246207868 -0.0027248238258218509 0 0.024181488066777654 -0.0038502565222839295 0 0.022712496247117731 -0.0033382491362930846 0 0.023094078379473811 -0.0022277501207829966 0 0.014288392683103454 -0.0013614075296667868 0 0.014600267640609642 -0.00020625347920469892 0 0.012908620990482809 -0.00040814198979250246 0 0.015419240574693623 -0.0011815214948166322 0 0.015982184838002299 -0.00055855836270764768 0 0.014600267640609642 -0.00020625347920469892 0 0.014288392683103454 -0.0013614075296667868 0 0.015419240574693623 -0.0011815214948166322 0 0.014600267640609642 -0.00020625347920469892 0 0.015419240574693623 -0.0011815214948166322 0 0.015982184838002299 -0.00055855836270764768 0 0.016506174671036142 -0.0015559053273812864 0 0.015982184838002299 -0.00055855836270764768 0 0.016506174671036142 -0.0015559053273812864 0 0.017206561142737404 -0.0007591634243438619 0 0.015982184838002299 -0.00055855836270764768 0 0.017206561142737404 -0.0007591634243438619 0 0.016732603816939928 2.1365443051841555e-05 0 0.015812869117518884 -0.0022632478408183285 0 0.015419240574693623 -0.0011815214948166322 0 0.016506174671036142 -0.0015559053273812864 0 0.017461567478340011 -0.0030306570471791069 0 0.016506174671036142 -0.0015559053273812864 0 0.017583008073452994 -0.0016082384359872321 0 0.016506174671036142 -0.0015559053273812864 0 0.017583008073452994 -0.0016082384359872321 0 0.017206561142737404 -0.0007591634243438619 0 0.018349351365369498 -0.00088245663635744915 0 0.017583008073452994 -0.0016082384359872321 0 0.017206561142737404 -0.0007591634243438619 0 0.017768458815065155 -0.00010471677813029099 0 0.018349351365369498 -0.00088245663635744915 0 0.017206561142737404 -0.0007591634243438619 0 0.017768458815065155 -0.00010471677813029099 0 0.017206561142737404 -0.0007591634243438619 0 0.016732603816939928 2.1365443051841555e-05 0 0.017768458815065155 -0.00010471677813029099 0 0.016732603816939928 2.1365443051841555e-05 0 0.017363093728376321 0.00068073734630956549 0 0.015982184838002299 -0.00055855836270764768 0 0.016732603816939928 2.1365443051841555e-05 0 0.015509288772207287 0.00032033682170328197 0 0.016732603816939928 2.1365443051841555e-05 0 0.016364590550785305 0.00081162513976809462 0 0.015509288772207287 0.00032033682170328197 0 0.016364590550785305 0.00081162513976809462 0 0.015561846348503359 0.0016018792874895695 0 0.015509288772207287 0.00032033682170328197 0 0.017471528250983647 0.0019244136113546913 0 0.016364590550785305 0.00081162513976809462 0 0.017363093728376321 0.00068073734630956549 0 0.016732603816939928 2.1365443051841555e-05 0 0.016364590550785305 0.00081162513976809462 0 0.017363093728376321 0.00068073734630956549 0 0.017471528250983647 0.0019244136113546913 0 0.016364590550785305 0.00081162513976809462 0 0.015561846348503359 0.0016018792874895695 0 0.011799840282761764 0.0033623841512074892 0 0.011978685456494071 0.0032341260945184984 0 0.017471528250983647 0.0019244136113546913 0 0.015561846348503359 0.0016018792874895695 0 0.01581839790881303 0.0026309869533743548 0 0.0067521645499295894 0.0042863121063989327 0 0.0079344178026025565 0.0039689079380246196 0 0.0068082545481108585 0.0033757480610222376 0 0.013985142795246994 0.0030752405547309703 0 0.014313792109618959 0.00204153279177282 0 0.01285937696841756 0.0024815025731691367 0 0.013985142795246994 0.0030752405547309703 0 0.01581839790881303 0.0026309869533743548 0 0.014313792109618959 0.00204153279177282 0 0.011792565375192009 0.0032916113410637387 0 0.011978685456494071 0.0032341260945184984 0 0.015561846348503359 0.0016018792874895695 0 0.014313792109618959 0.00204153279177282 0 0.014500625673812129 0.00099816131377182212 0 0.015561846348503359 0.0016018792874895695 0 0.01581839790881303 0.0026309869533743548 0 0.014313792109618959 0.00204153279177282 0 0.014313792109618959 0.00204153279177282 0 0.013389871009292334 0.0015062684287489791 0 0.014500625673812129 0.00099816131377182212 0 0.014313792109618959 0.00204153279177282 0 0.013389871009292334 0.0015062684287489791 0 0.01285937696841756 0.0024815025731691367 0 0.013389871009292334 0.0015062684287489791 0 0.013611364591581347 0.00055987871273782588 0 0.014500625673812129 0.00099816131377182212 0 0.013611364591581347 0.00055987871273782588 0 0.014500625673812129 0.00099816131377182212 0 0.014600267640609642 -0.00020625347920469892 0 0.015561846348503359 0.0016018792874895695 0 0.014500625673812129 0.00099816131377182212 0 0.015509288772207287 0.00032033682170328197 0 0.015982184838002299 -0.00055855836270764768 0 0.015509288772207287 0.00032033682170328197 0 0.014600267640609642 -0.00020625347920469892 0 0.014500625673812129 0.00099816131377182212 0 0.015509288772207287 0.00032033682170328197 0 0.014600267640609642 -0.00020625347920469892 0 0.013611364591581347 0.00055987871273782588 0 0.014600267640609642 -0.00020625347920469892 0 0.012908620990482809 -0.00040814198979250246 0 0.01641497263867759 -0.0004810955848185597 0 0.012405474237804092 0.0011941598676570284 0 0.013611364591581347 0.00055987871273782588 0 0.012908620990482809 -0.00040814198979250246 0 0.012669007497032442 0.00082005644328738 0 0.01641497263867759 -0.0004810955848185597 0 0.01428685984740566 0.00028091046487349489 0 0.012795409302528864 0.00040595593526344416 0 0.012089410792004455 0.00097057421010068585 0 0.01263338935999108 0.0012115515235104699 0 0.017960216162047252 -0.0013645276717586148 0 0.016868106340892305 -0.00053371963309226599 0 0.016657240819253179 -0.0021495267760224058 0 0.012089410792004455 0.00097057421010068585 0 0.01263338935999108 0.0012115515235104699 0 0.012110022474290954 0.0015394201849780833 0 0.013389871009292334 0.0015062684287489791 0 0.013611364591581347 0.00055987871273782588 0 0.012669007497032442 0.00082005644328738 0 0.012405474237804092 0.0011941598676570284 0 0.012503433691591284 0.0017726610373040245 0 0.013389871009292334 0.0015062684287489791 0 0.012669007497032442 0.00082005644328738 0 0.012432773856355519 0.0019183089558078598 0 0.013389871009292334 0.0015062684287489791 0 0.012432773856355519 0.0019183089558078598 0 0.01285937696841756 0.0024815025731691367 0 0.012110022474290954 0.0015394201849780833 0 0.012432773856355519 0.0019183089558078598 0 0.011915699654420226 0.0020787677913473193 0 0.01263338935999108 0.0012115515235104699 0 0.012110022474290954 0.0015394201849780833 0 0.012432773856355519 0.0019183089558078598 0 0.012432773856355519 0.0019183089558078598 0 0.012302822101456619 0.0025282898213196316 0 0.011915699654420226 0.0020787677913473193 0 0.012178096920078109 0.0027958109464179285 0 0.012302822101456619 0.0025282898213196316 0 0.011915699654420226 0.0020787677913473193 0 0.012432773856355519 0.0019183089558078598 0 0.012302822101456619 0.0025282898213196316 0 0.01285937696841756 0.0024815025731691367 0 0.0095175059994810109 -0.00060448040686925922 0 0.0080346859013643614 -0.0017624458713411536 0 0.008194699279182243 -0.00049806716864321337 0 0.010277573238135364 0.0008048026343305079 0 0.010984413790051377 0.00012113615018360089 0 0.011530125430533876 0.0023933852679085409 0 0.011402295442352575 0.0019520292189361731 0 0.010936711882158463 0.0019357041614172326 0 0.012178096920078109 0.0027958109464179285 0 0.011530125430533876 0.0023933852679085409 0 0.011915699654420226 0.0020787677913473193 0 0.011530125430533876 0.0023933852679085409 0 0.011915699654420226 0.0020787677913473193 0 0.011402295442352575 0.0019520292189361731 0 0.011915699654420226 0.0020787677913473193 0 0.011402295442352575 0.0019520292189361731 0 0.011498765362001119 0.0014843149313436056 0 0.012110022474290954 0.0015394201849780833 0 0.011915699654420226 0.0020787677913473193 0 0.011498765362001119 0.0014843149313436056 0 0.013882521253504454 0.00094040327937543763 0 0.010984413790051377 0.00012113615018360089 0 0.011402295442352575 0.0019520292189361731 0 0.011498765362001119 0.0014843149313436056 0 0.010936711882158463 0.0019357041614172326 0 0.015778628386614677 0.00028671009362655787 0 0.014688808343414766 0.0011032859360364995 0 0.01480158315887155 -0.00029459959587910045 0 0.015778628386614677 0.00028671009362655787 0 0.015708599587580075 -0.001059542559932446 0 0.01480158315887155 -0.00029459959587910045 0 0.01428685984740566 0.00028091046487349489 0 0.013882521253504454 0.00094040327937543763 0 0.012089410792004455 0.00097057421010068585 0 0.012110022474290954 0.0015394201849780833 0 0.011498765362001119 0.0014843149313436056 0 0.016868106340892305 -0.00053371963309226599 0 0.015778628386614677 0.00028671009362655787 0 0.015708599587580075 -0.001059542559932446 0 0.016868106340892305 -0.00053371963309226599 0 0.015708599587580075 -0.001059542559932446 0 0.016657240819253179 -0.0021495267760224058 0 0.015708599587580075 -0.001059542559932446 0 0.014760939483763596 -0.0014654299184595444 0 0.01480158315887155 -0.00029459959587910045 0 0.015708599587580075 -0.001059542559932446 0 0.015390932169139318 -0.0022012992135555798 0 0.014760939483763596 -0.0014654299184595444 0 0.017324039409697234 -0.0020780431479496945 0 0.017540610890487574 -0.0020771305626666224 0 0.015390932169139318 -0.0022012992135555798 0 0.015636246928026169 -0.0036590733436436011 0 0.014571987598991179 -0.0028680881522236096 0 0.016657240819253179 -0.0021495267760224058 0 0.017098978619393614 -0.0033354329939300014 0 0.015636246928026169 -0.0036590733436436011 0 0.015390932169139318 -0.0022012992135555798 0 0.016657240819253179 -0.0021495267760224058 0 0.015636246928026169 -0.0036590733436436011 0 0.015708599587580075 -0.001059542559932446 0 0.015390932169139318 -0.0022012992135555798 0 0.016657240819253179 -0.0021495267760224058 0 0.017960216162047252 -0.0013645276717586148 0 0.016657240819253179 -0.0021495267760224058 0 0.01817697095654161 -0.0026831946572994964 0 0.023094078379473811 -0.0022277501207829966 0 0.021284242911405231 -0.0007883167559957719 0 0.021625106246207868 -0.0027248238258218509 0 0.01641497263867759 -0.0004810955848185597 0 0.020063425087454345 -0.00294324299214067 0 0.018806011196239182 -0.0018459877553088269 0 0.01641497263867759 -0.0004810955848185597 0 0.022712496247117731 -0.0033382491362930846 0 0.021625106246207868 -0.0027248238258218509 0 0.02191848861798374 -0.0045486149934577964 0 0.016657240819253179 -0.0021495267760224058 0 0.01817697095654161 -0.0026831946572994964 0 0.017098978619393614 -0.0033354329939300014 0 0.017098978619393614 -0.0033354329939300014 0 0.018392579096208055 -0.003991411577284971 0 0.016713021103901649 -0.0044560166418523457 0 0.020063425087454345 -0.00294324299214067 0 0.021569534188156301 -0.0037772085617616283 0 0.01817697095654161 -0.0026831946572994964 0 0.017098978619393614 -0.0033354329939300014 0 0.018392579096208055 -0.003991411577284971 0 0.022644974935226599 -0.002063290225710519 0 0.022729439699983846 -0.0026003633101580824 0 0.022266603358711154 -0.0027276826693187007 0 0.021569534188156301 -0.0037772085617616283 0 0.023818110300969617 -0.0031094732657983562 0 0.021569534188156301 -0.0037772085617616283 0 0.020339844439626234 -0.0016755078907011954 0 0.020339844439626234 -0.0016755078907011954 0 0.023807644286827315 -0.0015823094086788848 0 0.022644974935226599 -0.002063290225710519 0 0.021709880705092402 -0.0023090244445460074 0 0.022266603358711154 -0.0027276826693187007 0 0.024613233488731234 -0.00017661545473533852 0 0.024596594609997937 -0.00025717155365505132 0 0.024738180792963207 -0.00025172337673178816 0 0.024613233488731234 -0.00017661545473533852 0 0.024496702094886174 -0.00019830323280564815 0 0.024596594609997937 -0.00025717155365505132 0 0.020339844439626234 -0.0016755078907011954 0 0.022689750031214647 0.0003436223072915966 0 0.018900137660364878 -5.323347464010176e-06 0 0.020151142386570838 0.00038366278245507892 0 0.019719157183579826 -0.00064404939688345215 0 0.020151142386570838 0.00038366278245507892 0 0.019719157183579826 -0.00064404939688345215 0 0.020598487275852454 -0.00042499031820004664 0 0.017098978619393614 -0.0033354329939300014 0 0.016713021103901649 -0.0044560166418523457 0 0.015636246928026169 -0.0036590733436436011 0 0.020339844439626234 -0.0016755078907011954 0 0.017324039409697234 -0.0020780431479496945 0 0.024585350435476567 -0.00030959538817768544 0 0.024568333125128475 -0.00033386135849040546 0 0.024629345788151444 -0.00034832240983965503 0 0.024585350435476567 -0.00030959538817768544 0 0.024661939605725738 -0.00033502722816619292 0 0.024629345788151444 -0.00034832240983965503 0 0.024585350435476567 -0.00030959538817768544 0 0.024568333125128475 -0.00033386135849040546 0 0.024494175218220001 -0.00029234484597876625 0 0.024568333125128475 -0.00033386135849040546 0 0.024521829444064454 -0.00034412160194949949 0 0.024494175218220001 -0.00029234484597876625 0 0.024585350435476567 -0.00030959538817768544 0 0.024540720525097783 -0.00026237403233494495 0 0.024494175218220001 -0.00029234484597876625 0 0.024496702094886174 -0.00019830323280564815 0 0.024540720525097783 -0.00026237403233494495 0 0.024596594609997937 -0.00025717155365505132 0 0.024496702094886174 -0.00019830323280564815 0 0.024540720525097783 -0.00026237403233494495 0 0.024494175218220001 -0.00029234484597876625 0 0.024585350435476567 -0.00030959538817768544 0 0.024596594609997937 -0.00025717155365505132 0 0.024661939605725738 -0.00033502722816619292 0 0.024585350435476567 -0.00030959538817768544 0 0.024540720525097783 -0.00026237403233494495 0 0.024596594609997937 -0.00025717155365505132 0 0.024738180792963207 -0.00025172337673178816 0 0.024783388939572108 -0.00040006919435525446 0 0.024661939605725738 -0.00033502722816619292 0 0.024596594609997937 -0.00025717155365505132 0 0.024738180792963207 -0.00025172337673178816 0 0.024661939605725738 -0.00033502722816619292 0 0.023818110300969617 -0.0031094732657983562 0 0.024238483055174433 -0.0018984063199009723 0 0.023807644286827315 -0.0015823094086788848 0 0.024238483055174433 -0.0018984063199009723 0 0.024738180792963207 -0.00025172337673178816 0 0.024783388939572108 -0.00040006919435525446 0 0.024867876647155479 -0.00036589540387057563 0 0.022729439699983846 -0.0026003633101580824 0 0.022266603358711154 -0.0027276826693187007 0 0.022818656356564774 -0.0031303734940928006 0 0.024783388939572108 -0.00040006919435525446 0 0.024868757366549119 -0.00046515448772847324 0 0.024867876647155479 -0.00036589540387057563 0 0.024783388939572108 -0.00040006919435525446 0 0.024825325618676484 -0.00046364504873632422 0 0.024868757366549119 -0.00046515448772847324 0 0.02466799487626745 -0.00033559309640479568 0 0.024724513215137189 -0.00041025054319972519 0 0.024783388939572108 -0.00040006919435525446 0 0.024661939605725738 -0.00033502722816619292 0 0.024796191538193426 -0.00049987853576317681 0 0.024661939605725738 -0.00033502722816619292 0 0.024647751892827377 -0.00034228019365688028 0 0.024629345788151444 -0.00034832240983965503 0 0.024783388939572108 -0.00040006919435525446 0 0.024796191538193426 -0.00049987853576317681 0 0.024825325618676484 -0.00046364504873632422 0 0.024647751892827377 -0.00034228019365688028 0 0.024662788606229155 -0.00032441829148203277 0 0.024629345788151444 -0.00034832240983965503 0 0.024825325618676484 -0.00046364504873632422 0 0.024850681764260488 -0.00048902824744766356 0 0.024868757366549119 -0.00046515448772847324 0 0.024796191538193426 -0.00049987853576317681 0 0.024850681764260488 -0.00048902824744766356 0 0.024849279938744716 -0.00048361251134332041 0 0.024796191538193426 -0.00049987853576317681 0 0.024825325618676484 -0.00046364504873632422 0 0.024850681764260488 -0.00048902824744766356 0 0.024850681764260488 -0.00048902824744766356 0 0.024863613641193154 -0.00048375081825766537 0 0.024849279938744716 -0.00048361251134332041 0 0.024850681764260488 -0.00048902824744766356 0 0.024863613641193154 -0.00048375081825766537 0 0.024868356373745602 -0.00049334878830737457 0 0.024849279938744716 -0.00048361251134332041 0 0.024870450225270853 -0.00046675942262093073 0 0.024893219418392589 -0.00045217198570270117 0 0.024863613641193154 -0.00048375081825766537 0 0.024849279938744716 -0.00048361251134332041 0 0.024870450225270853 -0.00046675942262093073 0 0.024863613641193154 -0.00048375081825766537 0 0.024873289143575259 -0.00046344940551344634 0 0.024868356373745602 -0.00049334878830737457 0 0.024863613641193154 -0.00048375081825766537 0 0.024870450225270853 -0.00046675942262093073 0 0.024873289143575259 -0.00046344940551344634 0 0.024724513215137189 -0.00041025054319972519 0 0.024799443374892066 -0.0003641701223350661 0 0.024647751892827377 -0.00034228019365688028 0 0.024700389195184351 -0.00027389059512708476 0 0.024713222452860881 -0.0002607292060351725 0 0.024647751892827377 -0.00034228019365688028 0 0.024662788606229155 -0.00032441829148203277 0 0.024700389195184351 -0.00027389059512708476 0 0.024796191538193426 -0.00049987853576317681 0 0.024849279938744716 -0.00048361251134332041 0 0.024893219418392589 -0.00045217198570270117 0 0.024708559444865618 -0.00031798825426549717 0 0.024688544042220383 -0.00027387638435109825 0 0.024662788606229155 -0.00032441829148203277 0 0.024633239084493767 -0.00035225817777174002 0 0.024629345788151444 -0.00034832240983965503 0 0.024662788606229155 -0.00032441829148203277 0 0.024633239084493767 -0.00035225817777174002 0 0.024700389195184351 -0.00027389059512708476 0 0.024633239084493767 -0.00035225817777174002 0 0.024629345788151444 -0.00034832240983965503 0 0.024585303040834929 -0.00036240275206527248 0 0.024633239084493767 -0.00035225817777174002 0 0.024585303040834929 -0.00036240275206527248 0 0.024580828444125381 -0.00036604142344693366 0 0.024568333125128475 -0.00033386135849040546 0 0.024521829444064454 -0.00034412160194949949 0 0.024585303040834929 -0.00036240275206527248 0 0.024521829444064454 -0.00034412160194949949 0 0.024585303040834929 -0.00036240275206527248 0 0.024517826869790357 -0.0003763498136995183 0 0.024568333125128475 -0.00033386135849040546 0 0.024629345788151444 -0.00034832240983965503 0 0.024585303040834929 -0.00036240275206527248 0 0.024585303040834929 -0.00036240275206527248 0 0.024513301478683944 -0.00042782204539521874 0 0.024517826869790357 -0.0003763498136995183 0 0.024529094790714006 -0.00039637465376767824 0 0.024745836612626478 -0.000202847872424321 0 0.024784733942537607 -0.00026718923577606158 0 0.024850891782677791 -0.00023737936869860319 0 0.024878402319475013 -0.00029732609473357303 0 0.024784733942537607 -0.00026718923577606158 0 0.024850891782677791 -0.00023737936869860319 0 0.024788958545183631 -0.00019989763993882913 0 0.024708559444865618 -0.00031798825426549717 0 0.024745836612626478 -0.000202847872424321 0 0.024850891782677791 -0.00023737936869860319 0 0.024855460699381434 -0.00016912099392509686 0 0.024904785482720855 -0.00019081318049277303 0 0.024850891782677791 -0.00023737936869860319 0 0.024855460699381434 -0.00016912099392509686 0 0.024788958545183631 -0.00019989763993882913 0 0.024855460699381434 -0.00016912099392509686 0 0.024788958545183631 -0.00019989763993882913 0 0.024836260879739256 -0.00010420516153429336 0 0.024788958545183631 -0.00019989763993882913 0 0.02475678747857871 -0.0001154389843707514 0 0.024712949906393666 -0.00024776973723385128 0 0.024784733942537607 -0.00026718923577606158 0 0.024788958545183631 -0.00019989763993882913 0 0.024712949906393666 -0.00024776973723385128 0 0.02475678747857871 -0.0001154389843707514 0 0.024836260879739256 -0.00010420516153429336 0 0.024814806261745204 -2.36729980120911e-05 0 0.024685946842235944 -0.00025976404122827091 0 0.024722935470970687 -0.00022785357960496534 0 0.024788958545183631 -0.00019989763993882913 0 0.02475678747857871 -0.0001154389843707514 0 0.024836260879739256 -0.00010420516153429336 0 0.024855460699381434 -0.00016912099392509686 0 0.024836260879739256 -0.00010420516153429336 0 0.024909248057775075 -0.0001139620601828814 0 0.024836260879739256 -0.00010420516153429336 0 0.024909248057775075 -0.0001139620601828814 0 0.024894418522486653 -5.1264873853860186e-05 0 0.024836260879739256 -0.00010420516153429336 0 0.024814806261745204 -2.36729980120911e-05 0 0.024894418522486653 -5.1264873853860186e-05 0 0.024943319011982178 -0.00011643760320433218 0 0.024922257406067089 -4.043046788001137e-05 0 0.024962837177926012 -3.0283725468678303e-05 0 0.024959211452385159 -3.0252230664300327e-05 0 0.024974785627191576 -3.953814731513739e-05 0 0.024962837177926012 -3.0283725468678303e-05 0 0.024983880496698391 -2.1084090384026713e-05 0 0.024974785627191576 -3.953814731513739e-05 0 0.024952435320445287 -0.00010502683512064495 0 0.024943319011982178 -0.00011643760320433218 0 0.024943319011982178 -0.00011643760320433218 0 0.025096989612863607 -2.7023285041357737e-05 0 0.024669693645492104 -0.00033731425789279459 0 0.024608001709410968 -0.00042990449427701141 0 0.024768633092791918 -0.00041911186526412381 0 0.024685946842235944 -0.00025976404122827091 0 0.024943319011982178 -0.00011643760320433218 0 0.024943319011982178 -0.00011643760320433218 0 0.02494126655641573 -0.00028204997226208305 0 0.024999887196197088 -1.2721140416317895e-06 0 0.024999999560373146 -6.7820242203165073e-10 0 0.025000165999717841 -3.581590033625614e-07 0 0.024999887196197088 -1.2721140416317895e-06 0 0.024999999560373146 -6.7820242203165073e-10 0 0.025000000602970966 -4.9809190679906354e-10 0 0.024943319011982178 -0.00011643760320433218 0 0.025000072898371348 1.401342496812492e-07 0 0.024962837177926012 -3.0283725468678303e-05 0 0.024999915874740323 -2.0402575518890075e-08 0 0.024983880496698391 -2.1084090384026713e-05 0 0.024962837177926012 -3.0283725468678303e-05 0 0.024955051694688278 -3.0240859174279961e-05 0 0.024999915874740323 -2.0402575518890075e-08 0 0.025096989612863607 -2.7023285041357737e-05 0 0.024999962656654391 1.0372013762619462e-09 0 0.025134948608942241 -6.6436123470762855e-05 0 0.025000181628911485 -6.3140273632306951e-08 0 0.025031621623871042 -6.7822751690979361e-05 0 0.025000000646962135 -4.6440546114944345e-10 0 0.025000165999717841 -3.581590033625614e-07 0 0.024999999940549966 2.7635413259428358e-10 0 0.025134948608942241 -6.6436123470762855e-05 0 0.025087376792047113 -9.5061518702931617e-05 0 0.025031621623871042 -6.7822751690979361e-05 0 0.024999999560373146 -6.7820242203165073e-10 0 0.025000000646962135 -4.6440546114944345e-10 0 0.025000165999717841 -3.581590033625614e-07 0 0.025196545205212747 -0.00010135070240060019 0 0.025134948608942241 -6.6436123470762855e-05 0 0.025134384623234453 -0.00010790841857787418 0 0.025134948608942241 -6.6436123470762855e-05 0 0.025134384623234453 -0.00010790841857787418 0 0.025087376792047113 -9.5061518702931617e-05 0 0.024768633092791918 -0.00041911186526412381 0 0.024842245050600356 -0.00037502173875926309 0 0.024761810410667467 -0.00035822209728465088 0 0.024768633092791918 -0.00041911186526412381 0 0.024842245050600356 -0.00037502173875926309 0 0.024905561433492773 -0.00038442175451805239 0 0.02494126655641573 -0.00028204997226208305 0 0.024969456608339265 -0.00025256463385342362 0 0.025134384623234453 -0.00010790841857787418 0 0.025087376792047113 -9.5061518702931617e-05 0 0.025048042103132852 -0.00013178888972061875 0 0.025087376792047113 -9.5061518702931617e-05 0 0.025048042103132852 -0.00013178888972061875 0 0.025031621623871042 -6.7822751690979361e-05 0 0.024842245050600356 -0.00037502173875926309 0 0.024883506347109619 -0.00038319700803174665 0 0.024905561433492773 -0.00038442175451805239 0 0.024838661902274392 -0.0003806744606090109 0 0.024799443374892066 -0.0003641701223350661 0 0.024842245050600356 -0.00037502173875926309 0 0.024871847770527762 -0.00041046678502635247 0 0.024893219418392589 -0.00045217198570270117 0 0.024842245050600356 -0.00037502173875926309 0 0.024761074123603122 -0.00031488079427140502 0 0.024713222452860881 -0.0002607292060351725 0 0.024871847770527762 -0.00041046678502635247 0 0.02488423095681638 -0.00041826161143141793 0 0.024883506347109619 -0.00038319700803174665 0 0.024842245050600356 -0.00037502173875926309 0 0.024871847770527762 -0.00041046678502635247 0 0.024883506347109619 -0.00038319700803174665 0 0.024669693645492104 -0.00033731425789279459 0 0.024761810410667467 -0.00035822209728465088 0 0.024723973294210246 -0.00031262592070911222 0 0.024669693645492104 -0.00033731425789279459 0 0.024723973294210246 -0.00031262592070911222 0 0.024712949906393666 -0.00024776973723385128 0 0.024669693645492104 -0.00033731425789279459 0 0.024768633092791918 -0.00041911186526412381 0 0.024761810410667467 -0.00035822209728465088 0 0.024842245050600356 -0.00037502173875926309 0 0.024761810410667467 -0.00035822209728465088 0 0.024761074123603122 -0.00031488079427140502 0 0.024761810410667467 -0.00035822209728465088 0 0.024761074123603122 -0.00031488079427140502 0 0.024723973294210246 -0.00031262592070911222 0 0.024761074123603122 -0.00031488079427140502 0 0.024723973294210246 -0.00031262592070911222 0 0.024727302884074463 -0.0002734855361346908 0 0.024784733942537607 -0.00026718923577606158 0 0.024712949906393666 -0.00024776973723385128 0 0.024700389195184351 -0.00027389059512708476 0 0.024723973294210246 -0.00031262592070911222 0 0.024712949906393666 -0.00024776973723385128 0 0.024727302884074463 -0.0002734855361346908 0 0.024761074123603122 -0.00031488079427140502 0 0.024727302884074463 -0.0002734855361346908 0 0.024713222452860881 -0.0002607292060351725 0 0.024727302884074463 -0.0002734855361346908 0 0.024700389195184351 -0.00027389059512708476 0 0.024713222452860881 -0.0002607292060351725 0 0.024712949906393666 -0.00024776973723385128 0 0.024727302884074463 -0.0002734855361346908 0 0.024700389195184351 -0.00027389059512708476 0 0.024871847770527762 -0.00041046678502635247 0 0.024874725479676011 -0.00044115858904700684 0 0.02488423095681638 -0.00041826161143141793 0 0.024871847770527762 -0.00041046678502635247 0 0.024893219418392589 -0.00045217198570270117 0 0.024874725479676011 -0.00044115858904700684 0 0.024870450225270853 -0.00046675942262093073 0 0.024893219418392589 -0.00045217198570270117 0 0.024874725479676011 -0.00044115858904700684 0 0.024873289143575259 -0.00046344940551344634 0 0.024874725479676011 -0.00044115858904700684 0 0.02488423095681638 -0.00041826161143141793 0 0.024870450225270853 -0.00046675942262093073 0 0.024873289143575259 -0.00046344940551344634 0 0.024874725479676011 -0.00044115858904700684 0 0.024873289143575259 -0.00046344940551344634 0 0.02488423095681638 -0.00041826161143141793 0 0.024876080550988701 -0.00047208939992017198 0 0.02488423095681638 -0.00041826161143141793 0 0.024885815444259014 -0.00042636813205137292 0 0.024876080550988701 -0.00047208939992017198 0 0.02488423095681638 -0.00041826161143141793 0 0.024885815444259014 -0.00042636813205137292 0 0.024906020729920604 -0.00036548682485389948 0 0.024856145255136033 -0.00049519058474982382 0 0.024885815444259014 -0.00042636813205137292 0 0.024873398726530251 -0.00038423172637093748 0 0.024856145255136033 -0.00049519058474982382 0 0.024885815444259014 -0.00042636813205137292 0 0.024876080550988701 -0.00047208939992017198 0 0.024873398726530251 -0.00038423172637093748 0 0.024906020729920604 -0.00036548682485389948 0 0.024912893221973261 -0.00022500770796222486 0 0.024906020729920604 -0.00036548682485389948 0 0.024905561433492773 -0.00038442175451805239 0 0.024912893221973261 -0.00022500770796222486 0 0.024885815444259014 -0.00042636813205137292 0 0.024873398726530251 -0.00038423172637093748 0 0.024906020729920604 -0.00036548682485389948 0 0.02488423095681638 -0.00041826161143141793 0 0.024906020729920604 -0.00036548682485389948 0 0.024883506347109619 -0.00038319700803174665 0 0.024906020729920604 -0.00036548682485389948 0 0.024883506347109619 -0.00038319700803174665 0 0.024905561433492773 -0.00038442175451805239 0 0.025048042103132852 -0.00013178888972061875 0 0.024994505475452806 -7.2878451699459712e-05 0 0.025031621623871042 -6.7822751690979361e-05 0 0.024912893221973261 -0.00022500770796222486 0 0.024994505475452806 -7.2878451699459712e-05 0 0.024892896851389332 -7.2117174036940567e-05 0 0.025048042103132852 -0.00013178888972061875 0 0.024912893221973261 -0.00022500770796222486 0 0.024994505475452806 -7.2878451699459712e-05 0 0.024969456608339265 -0.00025256463385342362 0 0.024903627723508334 -0.00023414912512229342 0 0.024994505475452806 -7.2878451699459712e-05 0 0.025000181628911485 -6.3140273632306951e-08 0 0.024999914366541556 -5.2246181045784869e-08 0 0.024994505475452806 -7.2878451699459712e-05 0 0.025000181628911485 -6.3140273632306951e-08 0 0.025031621623871042 -6.7822751690979361e-05 0 0.024999571585116818 5.791055008634101e-08 0 0.024892896851389332 -7.2117174036940567e-05 0 0.024665406155898278 -5.259073020876115e-05 0 0.024999571585116818 5.791055008634101e-08 0 0.024999914366541556 -5.2246181045784869e-08 0 0.024892896851389332 -7.2117174036940567e-05 0 0.024994505475452806 -7.2878451699459712e-05 0 0.024999914366541556 -5.2246181045784869e-08 0 0.024892896851389332 -7.2117174036940567e-05 0 0.024912893221973261 -0.00022500770796222486 0 0.024892896851389332 -7.2117174036940567e-05 0 0.02469267816045282 -0.00021362000439399887 0 0.024892896851389332 -7.2117174036940567e-05 0 0.02469267816045282 -0.00021362000439399887 0 0.024665406155898278 -5.259073020876115e-05 0 0.02469267816045282 -0.00021362000439399887 0 0.02452793846449421 -0.00044493077049211581 0 0.024324264474467679 -0.00028010168304136359 0 0.02469267816045282 -0.00021362000439399887 0 0.024765707484892086 -0.00040932777923189859 0 0.02452793846449421 -0.00044493077049211581 0 0.024912893221973261 -0.00022500770796222486 0 0.02469267816045282 -0.00021362000439399887 0 0.024765707484892086 -0.00040932777923189859 0 0.024873398726530251 -0.00038423172637093748 0 0.024912893221973261 -0.00022500770796222486 0 0.024765707484892086 -0.00040932777923189859 0 0.024856145255136033 -0.00049519058474982382 0 0.024873398726530251 -0.00038423172637093748 0 0.024765707484892086 -0.00040932777923189859 0 0.024856145255136033 -0.00049519058474982382 0 0.024765707484892086 -0.00040932777923189859 0 0.024635756087714629 -0.00068032127506448075 0 0.024765707484892086 -0.00040932777923189859 0 0.02452793846449421 -0.00044493077049211581 0 0.024635756087714629 -0.00068032127506448075 0 0.024051329102520193 -0.0015298655258845131 0 0.02376520611694127 -0.0021031818923717416 0 0.024417803070631128 -0.0022270296736868517 0 0.024051329102520193 -0.0015298655258845131 0 0.02376520611694127 -0.0021031818923717416 0 0.023729204197819653 -0.0014533080561759694 0 0.02376520611694127 -0.0021031818923717416 0 0.024417803070631128 -0.0022270296736868517 0 0.02399703653038213 -0.0027357381075363667 0 0.024309647978403414 -0.00106864295699236 0 0.024571911038708903 -0.0013901210608889113 0 0.024856145255136033 -0.00049519058474982382 0 0.024635756087714629 -0.00068032127506448075 0 0.024797584009213728 -0.00059755732752173973 0 0.024856145255136033 -0.00049519058474982382 0 0.024861156713288958 -0.00052219301231808222 0 0.024876080550988701 -0.00047208939992017198 0 0.024856145255136033 -0.00049519058474982382 0 0.024797584009213728 -0.00059755732752173973 0 0.024861156713288958 -0.00052219301231808222 0 0.024873289143575259 -0.00046344940551344634 0 0.024876080550988701 -0.00047208939992017198 0 0.024868356373745602 -0.00049334878830737457 0 0.024861156713288958 -0.00052219301231808222 0 0.024876080550988701 -0.00047208939992017198 0 0.024868356373745602 -0.00049334878830737457 0 0.024850681764260488 -0.00048902824744766356 0 0.024866143364470017 -0.00049973630503517255 0 0.024868757366549119 -0.00046515448772847324 0 0.024861156713288958 -0.00052219301231808222 0 0.024866143364470017 -0.00049973630503517255 0 0.024864641111048403 -0.00051256888349141114 0 0.024850681764260488 -0.00048902824744766356 0 0.024868356373745602 -0.00049334878830737457 0 0.024866143364470017 -0.00049973630503517255 0 0.024861156713288958 -0.00052219301231808222 0 0.024868356373745602 -0.00049334878830737457 0 0.024866143364470017 -0.00049973630503517255 0 0.024571911038708903 -0.0013901210608889113 0 0.024855378779021033 -0.0016430052252223619 0 0.024797584009213728 -0.00059755732752173973 0 0.024861156713288958 -0.00052219301231808222 0 0.024864641111048403 -0.00051256888349141114 0 0.024417803070631128 -0.0022270296736868517 0 0.024672736867578031 -0.0027565577172362033 0 0.024364895167348976 -0.0030274724687593857 0 0.024672736867578031 -0.0027565577172362033 0 0.024615863465311645 -0.0031308546634259116 0 0.024364895167348976 -0.0030274724687593857 0 0.024672736867578031 -0.0027565577172362033 0 0.024898976499223652 -0.0030957873324802547 0 0.024615863465311645 -0.0031308546634259116 0 0.024866143364470017 -0.00049973630503517255 0 0.024864641111048403 -0.00051256888349141114 0 0.024868757366549119 -0.00046515448772847324 0 0.024855378779021033 -0.0016430052252223619 0 0.024238483055174433 -0.0018984063199009723 0 0.024864641111048403 -0.00051256888349141114 0 0.024868757366549119 -0.00046515448772847324 0 0.024867061876802935 -0.00046677897500018551 0 0.024574208144475959 -0.00028663093033329376 0 0.024238483055174433 -0.0018984063199009723 0 0.024898976499223652 -0.0030957873324802547 0 0.024676346747434675 -0.0033360464747881112 0 0.024615863465311645 -0.0031308546634259116 0 0.024900772945479589 -0.0034192369734391353 0 0.024898976499223652 -0.0030957873324802547 0 0.024676346747434675 -0.0033360464747881112 0 0.024615863465311645 -0.0031308546634259116 0 0.024445814250857519 -0.0034050454883763595 0 0.024364895167348976 -0.0030274724687593857 0 0.024676346747434675 -0.0033360464747881112 0 0.024615863465311645 -0.0031308546634259116 0 0.024445814250857519 -0.0034050454883763595 0 0.024192490689899367 -0.0035268117742542986 0 0.024007059910177583 -0.0032494606485163531 0 0.024364895167348976 -0.0030274724687593857 0 0.024192490689899367 -0.0035268117742542986 0 0.024445814250857519 -0.0034050454883763595 0 0.024364895167348976 -0.0030274724687593857 0 0.024192490689899367 -0.0035268117742542986 0 0.023831534804471349 -0.003567171491172738 0 0.024007059910177583 -0.0032494606485163531 0 0.023831534804471349 -0.003567171491172738 0 0.02358118733717569 -0.0032997117978569414 0 0.024007059910177583 -0.0032494606485163531 0 0.02376520611694127 -0.0021031818923717416 0 0.02399703653038213 -0.0027357381075363667 0 0.023442838613620363 -0.002755243544351246 0 0.02358118733717569 -0.0032997117978569414 0 0.024007059910177583 -0.0032494606485163531 0 0.02399703653038213 -0.0027357381075363667 0 0.02358118733717569 -0.0032997117978569414 0 0.02399703653038213 -0.0027357381075363667 0 0.023442838613620363 -0.002755243544351246 0 0.024007059910177583 -0.0032494606485163531 0 0.02399703653038213 -0.0027357381075363667 0 0.024364895167348976 -0.0030274724687593857 0 0.024417803070631128 -0.0022270296736868517 0 0.02399703653038213 -0.0027357381075363667 0 0.024364895167348976 -0.0030274724687593857 0 0.021714513702651827 -0.0034789125136787426 0 0.022744552229306464 -0.0028111115202747463 0 0.023049237149417631 -0.0032329829322158394 0 0.021714513702651827 -0.0034789125136787426 0 0.022029208814201832 -0.0029186352575784787 0 0.022744552229306464 -0.0028111115202747463 0 0.022029208814201832 -0.0029186352575784787 0 0.022744552229306464 -0.0028111115202747463 0 0.02267937205206973 -0.0023969484743718555 0 0.022744552229306464 -0.0028111115202747463 0 0.023442838613620363 -0.002755243544351246 0 0.023239811726447079 -0.0023289407692236009 0 0.02358118733717569 -0.0032997117978569414 0 0.023442838613620363 -0.002755243544351246 0 0.023049237149417631 -0.0032329829322158394 0 0.022744552229306464 -0.0028111115202747463 0 0.023442838613620363 -0.002755243544351246 0 0.023049237149417631 -0.0032329829322158394 0 0.023831534804471349 -0.003567171491172738 0 0.02358118733717569 -0.0032997117978569414 0 0.023316085813133689 -0.0037829602696997319 0 0.02358118733717569 -0.0032997117978569414 0 0.023049237149417631 -0.0032329829322158394 0 0.023316085813133689 -0.0037829602696997319 0 0.021552854381544632 -0.003463239943213571 0 0.021213242257210212 -0.0035930360056499622 0 0.021714513702651827 -0.0034789125136787426 0 0.019208479034270049 -0.0035735296783668043 0 0.020251240487978252 -0.003363339039640464 0 0.021714513702651827 -0.0034789125136787426 0 0.023049237149417631 -0.0032329829322158394 0 0.023316085813133689 -0.0037829602696997319 0 0.021714513702651827 -0.0034789125136787426 0 0.020251240487978252 -0.003363339039640464 0 0.021345144332343909 -0.0033893457193821166 0 0.021247238661495155 -0.0031180261556172629 0 0.020251240487978252 -0.003363339039640464 0 0.021345144332343909 -0.0033893457193821166 0 0.021247238661495155 -0.0031180261556172629 0 0.021345144332343909 -0.0033893457193821166 0 0.021413868461382875 -0.0032259047757154779 0 0.021413868461382875 -0.0032259047757154779 0 0.021400348547669663 -0.0034276928983650403 0 0.021557078135373067 -0.0033687514113587584 0 0.021345144332343909 -0.0033893457193821166 0 0.021413868461382875 -0.0032259047757154779 0 0.021557078135373067 -0.0033687514113587584 0 0.021714513702651827 -0.0034789125136787426 0 0.021345144332343909 -0.0033893457193821166 0 0.021557078135373067 -0.0033687514113587584 0 0.021867027660934617 -0.0027925113095242054 0 0.021964657702751612 -0.0026244141842167749 0 0.021966432060734876 -0.0023530644607484643 0 0.02180138001737969 -0.0027741466930741509 0 0.021964657702751612 -0.0026244141842167749 0 0.02222112711914527 -0.002500077865391177 0 0.02180138001737969 -0.0027741466930741509 0 0.021413868461382875 -0.0032259047757154779 0 0.021400348547669663 -0.0034276928983650403 0 0.021814784965909068 -0.0027815328854833205 0 0.021818507884219223 -0.0029076419984392643 0 0.021005377576446185 -0.0014684660261688712 0 0.021710311300841518 -0.0011263049161984757 0 0.021964657702751612 -0.0026244141842167749 0 0.021966432060734876 -0.0023530644607484643 0 0.02222112711914527 -0.002500077865391177 0 0.021966432060734876 -0.0023530644607484643 0 0.02222112711914527 -0.002500077865391177 0 0.022743673266487383 -0.001597505372092516 0 0.021378650335321967 6.9869202672748155e-06 0 0.021913838112570014 0.00016480766863605426 0 0.020764700587149566 0.00011694181224568181 0 0.021818507884219223 -0.0029076419984392643 0 0.02230789279094433 -0.0018856366633671017 0 0.021400348547669663 -0.0034276928983650403 0 0.021731128907105823 -0.0028933893707274107 0 0.021758034534090549 -0.0021440880665661998 0 0.022029208814201832 -0.0029186352575784787 0 0.021557078135373067 -0.0033687514113587584 0 0.021731128907105823 -0.0028933893707274107 0 0.021714513702651827 -0.0034789125136787426 0 0.022029208814201832 -0.0029186352575784787 0 0.021557078135373067 -0.0033687514113587584 0 0.021400348547669663 -0.0034276928983650403 0 0.021557078135373067 -0.0033687514113587584 0 0.021731128907105823 -0.0028933893707274107 0 0.022029208814201832 -0.0029186352575784787 0 0.021731128907105823 -0.0028933893707274107 0 0.022149103819501272 -0.0024956646771699255 0 0.021731128907105823 -0.0028933893707274107 0 0.021758034534090549 -0.0021440880665661998 0 0.022149103819501272 -0.0024956646771699255 0 0.021966432060734876 -0.0023530644607484643 0 0.022515510201064053 -0.0014247392617377436 0 0.022743673266487383 -0.001597505372092516 0 0.021758034534090549 -0.0021440880665661998 0 0.022613892759489825 -0.0019849026978960831 0 0.022149103819501272 -0.0024956646771699255 0 0.021913838112570014 0.00016480766863605426 0 0.022465753639788654 -4.7000137447629908e-05 0 0.022687811458629026 -0.00021276366710354391 0 0.021710311300841518 -0.0011263049161984757 0 0.022575262090848116 -0.00068805650673553628 0 0.021378650335321967 6.9869202672748155e-06 0 0.022602132322739669 1.6460457997885023e-06 0 0.021913838112570014 0.00016480766863605426 0 0.022602132322739669 1.6460457997885023e-06 0 0.021913838112570014 0.00016480766863605426 0 0.022465753639788654 -4.7000137447629908e-05 0 0.022465753639788654 -4.7000137447629908e-05 0 0.022751438977287528 -0.00016922129289315759 0 0.022687811458629026 -0.00021276366710354391 0 0.022602132322739669 1.6460457997885023e-06 0 0.022465753639788654 -4.7000137447629908e-05 0 0.022751438977287528 -0.00016922129289315759 0 0.022751438977287528 -0.00016922129289315759 0 0.02289014537180608 -0.00025755982836368334 0 0.023001049153490463 -0.00029839731123454063 0 0.022751438977287528 -0.00016922129289315759 0 0.022983774085248314 -0.0002857250640133342 0 0.023001049153490463 -0.00029839731123454063 0 0.022751438977287528 -0.00016922129289315759 0 0.02289014537180608 -0.00025755982836368334 0 0.022687811458629026 -0.00021276366710354391 0 0.02230789279094433 -0.0018856366633671017 0 0.023135351911460197 -0.00077089652483401823 0 0.022602132322739669 1.6460457997885023e-06 0 0.022983774085248314 -0.0002857250640133342 0 0.023257440849985034 -0.00052983248924004642 0 0.022575262090848116 -0.00068805650673553628 0 0.023173045677344298 -0.00049242031057320347 0 0.022515510201064053 -0.0014247392617377436 0 0.023278374742923824 -0.0006954758384409886 0 0.023257440849985034 -0.00052983248924004642 0 0.021758034534090549 -0.0021440880665661998 0 0.022766420854260703 -0.0014944907945591331 0 0.023278374742923824 -0.0006954758384409886 0 0.022515510201064053 -0.0014247392617377436 0 0.022743673266487383 -0.001597505372092516 0 0.023278374742923824 -0.0006954758384409886 0 0.022602132322739669 1.6460457997885023e-06 0 0.022751438977287528 -0.00016922129289315759 0 0.022983774085248314 -0.0002857250640133342 0 0.023261719569974262 -0.0011056368759093944 0 0.022766420854260703 -0.0014944907945591331 0 0.023278374742923824 -0.0006954758384409886 0 0.023261719569974262 -0.0011056368759093944 0 0.023089982961102918 -0.0015079693178875746 0 0.022766420854260703 -0.0014944907945591331 0 0.023493793027654569 -0.0011910107372907653 0 0.023261719569974262 -0.0011056368759093944 0 0.023089982961102918 -0.0015079693178875746 0 0.023089982961102918 -0.0015079693178875746 0 0.022613892759489825 -0.0019849026978960831 0 0.023276956147486705 -0.0017807569108794579 0 0.023493793027654569 -0.0011910107372907653 0 0.023089982961102918 -0.0015079693178875746 0 0.023276956147486705 -0.0017807569108794579 0 0.023089982961102918 -0.0015079693178875746 0 0.022766420854260703 -0.0014944907945591331 0 0.022613892759489825 -0.0019849026978960831 0 0.021758034534090549 -0.0021440880665661998 0 0.022766420854260703 -0.0014944907945591331 0 0.022613892759489825 -0.0019849026978960831 0 0.022613892759489825 -0.0019849026978960831 0 0.02267937205206973 -0.0023969484743718555 0 0.023276956147486705 -0.0017807569108794579 0 0.02267937205206973 -0.0023969484743718555 0 0.023239811726447079 -0.0023289407692236009 0 0.023276956147486705 -0.0017807569108794579 0 0.022744552229306464 -0.0028111115202747463 0 0.02267937205206973 -0.0023969484743718555 0 0.023239811726447079 -0.0023289407692236009 0 0.022613892759489825 -0.0019849026978960831 0 0.02267937205206973 -0.0023969484743718555 0 0.022149103819501272 -0.0024956646771699255 0 0.022029208814201832 -0.0029186352575784787 0 0.02267937205206973 -0.0023969484743718555 0 0.022149103819501272 -0.0024956646771699255 0 0.02376520611694127 -0.0021031818923717416 0 0.023239811726447079 -0.0023289407692236009 0 0.023276956147486705 -0.0017807569108794579 0 0.02376520611694127 -0.0021031818923717416 0 0.023442838613620363 -0.002755243544351246 0 0.023239811726447079 -0.0023289407692236009 0 0.023493793027654569 -0.0011910107372907653 0 0.023729204197819653 -0.0014533080561759694 0 0.023992782424953066 -0.00067046814499085463 0 0.02376520611694127 -0.0021031818923717416 0 0.023276956147486705 -0.0017807569108794579 0 0.023729204197819653 -0.0014533080561759694 0 0.024051329102520193 -0.0015298655258845131 0 0.023729204197819653 -0.0014533080561759694 0 0.023992782424953066 -0.00067046814499085463 0 0.023493793027654569 -0.0011910107372907653 0 0.023276956147486705 -0.0017807569108794579 0 0.023729204197819653 -0.0014533080561759694 0 0.024309647978403414 -0.00106864295699236 0 0.023956770457381982 -0.00068011262629289056 0 0.02452793846449421 -0.00044493077049211581 0 0.024635756087714629 -0.00068032127506448075 0 0.023992782424953066 -0.00067046814499085463 0 0.02452793846449421 -0.00044493077049211581 0 0.023992782424953066 -0.00067046814499085463 0 0.024324264474467679 -0.00028010168304136359 0 0.023261719569974262 -0.0011056368759093944 0 0.023278374742923824 -0.0006954758384409886 0 0.023564612179808705 -0.00077432062675187284 0 0.023493793027654569 -0.0011910107372907653 0 0.023261719569974262 -0.0011056368759093944 0 0.023564612179808705 -0.00077432062675187284 0 0.023493793027654569 -0.0011910107372907653 0 0.023992782424953066 -0.00067046814499085463 0 0.023564612179808705 -0.00077432062675187284 0 0.023992782424953066 -0.00067046814499085463 0 0.023564612179808705 -0.00077432062675187284 0 0.02372487645566642 -0.00044519855535127257 0 0.023278374742923824 -0.0006954758384409886 0 0.023564612179808705 -0.00077432062675187284 0 0.02372487645566642 -0.00044519855535127257 0 0.023278374742923824 -0.0006954758384409886 0 0.02372487645566642 -0.00044519855535127257 0 0.023257440849985034 -0.00052983248924004642 0 0.02372487645566642 -0.00044519855535127257 0 0.023257440849985034 -0.00052983248924004642 0 0.023522833176108943 -0.00042350115636589035 0 0.02372487645566642 -0.00044519855535127257 0 0.023730626846685747 -0.00030701999049111134 0 0.023522833176108943 -0.00042350115636589035 0 0.02372487645566642 -0.00044519855535127257 0 0.024190653529781978 -0.00018310859866742016 0 0.023730626846685747 -0.00030701999049111134 0 0.02372487645566642 -0.00044519855535127257 0 0.024190653529781978 -0.00018310859866742016 0 0.024324264474467679 -0.00028010168304136359 0 0.023992782424953066 -0.00067046814499085463 0 0.02372487645566642 -0.00044519855535127257 0 0.024324264474467679 -0.00028010168304136359 0 0.024190653529781978 -0.00018310859866742016 0 0.024324264474467679 -0.00028010168304136359 0 0.024665406155898278 -5.259073020876115e-05 0 0.02469267816045282 -0.00021362000439399887 0 0.024324264474467679 -0.00028010168304136359 0 0.024665406155898278 -5.259073020876115e-05 0 0.024190653529781978 -0.00018310859866742016 0 0.024392360175945062 -6.1719076245115429e-05 0 0.023730626846685747 -0.00030701999049111134 0 0.024190653529781978 -0.00018310859866742016 0 0.024665406155898278 -5.259073020876115e-05 0 0.024392360175945062 -6.1719076245115429e-05 0 0.024665406155898278 -5.259073020876115e-05 0 0.024999846681249566 -1.7860482015442624e-07 0 0.024392360175945062 -6.1719076245115429e-05 0 0.024999571585116818 5.791055008634101e-08 0 0.024665406155898278 -5.259073020876115e-05 0 0.024999846681249566 -1.7860482015442624e-07 0 0.024999660640885706 3.3816311804002423e-08 0 0.024383148792187115 3.1816275657210005e-05 0 0.02499721918586284 8.280376817133819e-07 0 0.023954836664500722 -9.5913701990634578e-07 0 0.024256988441833476 -7.6512139647441507e-05 0 0.02499721918586284 8.280376817133819e-07 0 0.023954836664500722 -9.5913701990634578e-07 0 0.02371392336675059 0.00013811039451368555 0 0.02499721918586284 8.280376817133819e-07 0 0.024392360175945062 -6.1719076245115429e-05 0 0.024256988441833476 -7.6512139647441507e-05 0 0.024999846681249566 -1.7860482015442624e-07 0 0.02499721918586284 8.280376817133819e-07 0 0.024392360175945062 -6.1719076245115429e-05 0 0.024392360175945062 -6.1719076245115429e-05 0 0.023925728647007316 -0.00018404732749331497 0 0.024256988441833476 -7.6512139647441507e-05 0 0.024392360175945062 -6.1719076245115429e-05 0 0.023925728647007316 -0.00018404732749331497 0 0.023730626846685747 -0.00030701999049111134 0 0.023925728647007316 -0.00018404732749331497 0 0.023821726533636518 -0.00013600179518926785 0 0.023655839031662632 -0.00021942181765725554 0 0.023925728647007316 -0.00018404732749331497 0 0.024256988441833476 -7.6512139647441507e-05 0 0.023821726533636518 -0.00013600179518926785 0 0.023954836664500722 -9.5913701990634578e-07 0 0.024256988441833476 -7.6512139647441507e-05 0 0.023821726533636518 -0.00013600179518926785 0 0.023954836664500722 -9.5913701990634578e-07 0 0.023821726533636518 -0.00013600179518926785 0 0.023586607244837882 -5.410984787860462e-05 0 0.023821726533636518 -0.00013600179518926785 0 0.023655839031662632 -0.00021942181765725554 0 0.023529389200033259 -0.00015608855116300968 0 0.023655839031662632 -0.00021942181765725554 0 0.023448452199850315 -0.00023646063558448486 0 0.023463447611638686 -0.00029040807238649266 0 0.023655839031662632 -0.00021942181765725554 0 0.023448452199850315 -0.00023646063558448486 0 0.023529389200033259 -0.00015608855116300968 0 0.023925728647007316 -0.00018404732749331497 0 0.023655839031662632 -0.00021942181765725554 0 0.023630421058198698 -0.00027769049962782797 0 0.023655839031662632 -0.00021942181765725554 0 0.023630421058198698 -0.00027769049962782797 0 0.023463447611638686 -0.00029040807238649266 0 0.023463447611638686 -0.00029040807238649266 0 0.02341108167604946 -0.00035301872476709207 0 0.023259937621618224 -0.00032146677253922906 0 0.023630421058198698 -0.00027769049962782797 0 0.023463447611638686 -0.00029040807238649266 0 0.02341108167604946 -0.00035301872476709207 0 0.023334681041679232 -0.00027872499489498367 0 0.023259937621618224 -0.00032146677253922906 0 0.023192562910244859 -0.00028550745793535229 0 0.023334681041679232 -0.00027872499489498367 0 0.023463447611638686 -0.00029040807238649266 0 0.023259937621618224 -0.00032146677253922906 0 0.023448452199850315 -0.00023646063558448486 0 0.023334681041679232 -0.00027872499489498367 0 0.023463447611638686 -0.00029040807238649266 0 0.023925728647007316 -0.00018404732749331497 0 0.023630421058198698 -0.00027769049962782797 0 0.023730626846685747 -0.00030701999049111134 0 0.023630421058198698 -0.00027769049962782797 0 0.02341108167604946 -0.00035301872476709207 0 0.023730626846685747 -0.00030701999049111134 0 0.02341108167604946 -0.00035301872476709207 0 0.023730626846685747 -0.00030701999049111134 0 0.023417272847579759 -0.00041529293209604433 0 0.023730626846685747 -0.00030701999049111134 0 0.023522833176108943 -0.00042350115636589035 0 0.023417272847579759 -0.00041529293209604433 0 0.023257440849985034 -0.00052983248924004642 0 0.023417272847579759 -0.00041529293209604433 0 0.023198160233978159 -0.0003943937739676224 0 0.023257440849985034 -0.00052983248924004642 0 0.023522833176108943 -0.00042350115636589035 0 0.023417272847579759 -0.00041529293209604433 0 0.02341108167604946 -0.00035301872476709207 0 0.023417272847579759 -0.00041529293209604433 0 0.023198160233978159 -0.0003943937739676224 0 0.02341108167604946 -0.00035301872476709207 0 0.023198160233978159 -0.0003943937739676224 0 0.023175154058863397 -0.00034589467984716177 0 0.022983774085248314 -0.0002857250640133342 0 0.023257440849985034 -0.00052983248924004642 0 0.023198160233978159 -0.0003943937739676224 0 0.022983774085248314 -0.0002857250640133342 0 0.023198160233978159 -0.0003943937739676224 0 0.023093186671424338 -0.0003334900432969887 0 0.023259937621618224 -0.00032146677253922906 0 0.023175154058863397 -0.00034589467984716177 0 0.023078581241117224 -0.00031017226598728807 0 0.023259937621618224 -0.00032146677253922906 0 0.023078581241117224 -0.00031017226598728807 0 0.023192562910244859 -0.00028550745793535229 0 0.02341108167604946 -0.00035301872476709207 0 0.023259937621618224 -0.00032146677253922906 0 0.023175154058863397 -0.00034589467984716177 0 0.023175154058863397 -0.00034589467984716177 0 0.023001049153490463 -0.00029839731123454063 0 0.023078581241117224 -0.00031017226598728807 0 0.023198160233978159 -0.0003943937739676224 0 0.023175154058863397 -0.00034589467984716177 0 0.023093186671424338 -0.0003334900432969887 0 0.023175154058863397 -0.00034589467984716177 0 0.023093186671424338 -0.0003334900432969887 0 0.023001049153490463 -0.00029839731123454063 0 0.022983774085248314 -0.0002857250640133342 0 0.023093186671424338 -0.0003334900432969887 0 0.023001049153490463 -0.00029839731123454063 0 0.02289014537180608 -0.00025755982836368334 0 0.023001049153490463 -0.00029839731123454063 0 0.023078581241117224 -0.00031017226598728807 0 0.02289014537180608 -0.00025755982836368334 0 0.023078581241117224 -0.00031017226598728807 0 0.022921262557068323 -0.00027642376388774579 0 0.025000648678513256 -2.8092505959913148e-07 0 0.024969098209450258 4.6649573362208287e-06 0 0.024997982121501054 6.1995941809333589e-07 0 0.023078581241117224 -0.00031017226598728807 0 0.023053604345933242 -0.00028107051993254213 0 0.022921262557068323 -0.00027642376388774579 0 0.023053604345933242 -0.00028107051993254213 0 0.02300591236923771 -0.00021837806624316601 0 0.022984829980439839 -0.00024635319827753831 0 0.023053604345933242 -0.00028107051993254213 0 0.02300591236923771 -0.00021837806624316601 0 0.023110618390549686 -0.00023857239366232221 0 0.023053604345933242 -0.00028107051993254213 0 0.023192562910244859 -0.00028550745793535229 0 0.023110618390549686 -0.00023857239366232221 0 0.023078581241117224 -0.00031017226598728807 0 0.023053604345933242 -0.00028107051993254213 0 0.023192562910244859 -0.00028550745793535229 0 0.02290843644684655 -0.00019553207715283487 0 0.02300591236923771 -0.00021837806624316601 0 0.022915914347261198 -0.00012974449961404081 0 0.02290843644684655 -0.00019553207715283487 0 0.022915914347261198 -0.00012974449961404081 0 0.022750872071199996 -6.1462608347667558e-05 0 0.02290843644684655 -0.00019553207715283487 0 0.02300591236923771 -0.00021837806624316601 0 0.022984829980439839 -0.00024635319827753831 0 0.02300591236923771 -0.00021837806624316601 0 0.023018514613230026 -0.00017329997939347089 0 0.023110618390549686 -0.00023857239366232221 0 0.02300591236923771 -0.00021837806624316601 0 0.022915914347261198 -0.00012974449961404081 0 0.023018514613230026 -0.00017329997939347089 0 0.022915914347261198 -0.00012974449961404081 0 0.022940795412148125 -0.00011014548026847108 0 0.023018514613230026 -0.00017329997939347089 0 0.022915914347261198 -0.00012974449961404081 0 0.022940795412148125 -0.00011014548026847108 0 0.022831291899143281 -4.5882500010747161e-05 0 0.022940795412148125 -0.00011014548026847108 0 0.023018514613230026 -0.00017329997939347089 0 0.023019971592599654 -0.00013773627843187048 0 0.023018514613230026 -0.00017329997939347089 0 0.023118710026696947 -0.00018120687124946859 0 0.023110618390549686 -0.00023857239366232221 0 0.023018514613230026 -0.00017329997939347089 0 0.023118710026696947 -0.00018120687124946859 0 0.023019971592599654 -0.00013773627843187048 0 0.023118710026696947 -0.00018120687124946859 0 0.023063728667921318 -0.00012179331991386157 0 0.023184985619826425 -0.00014058472592739748 0 0.023118710026696947 -0.00018120687124946859 0 0.023063728667921318 -0.00012179331991386157 0 0.023019971592599654 -0.00013773627843187048 0 0.023063728667921318 -0.00012179331991386157 0 0.023019971592599654 -0.00013773627843187048 0 0.022962638099734606 -9.5642691434857534e-05 0 0.022940795412148125 -0.00011014548026847108 0 0.023019971592599654 -0.00013773627843187048 0 0.022962638099734606 -9.5642691434857534e-05 0 0.023063728667921318 -0.00012179331991386157 0 0.022962638099734606 -9.5642691434857534e-05 0 0.022993714088531812 -7.4419702001189025e-05 0 0.022962638099734606 -9.5642691434857534e-05 0 0.022913488200280857 -6.1090178825067316e-05 0 0.022870512113722978 -5.769311351838348e-05 0 0.022940795412148125 -0.00011014548026847108 0 0.022962638099734606 -9.5642691434857534e-05 0 0.022870512113722978 -5.769311351838348e-05 0 0.023334681041679232 -0.00027872499489498367 0 0.023192562910244859 -0.00028550745793535229 0 0.023278548025973025 -0.00022418117740863647 0 0.023118710026696947 -0.00018120687124946859 0 0.023110618390549686 -0.00023857239366232221 0 0.023278548025973025 -0.00022418117740863647 0 0.023192562910244859 -0.00028550745793535229 0 0.023110618390549686 -0.00023857239366232221 0 0.023278548025973025 -0.00022418117740863647 0 0.023184985619826425 -0.00014058472592739748 0 0.023278548025973025 -0.00022418117740863647 0 0.023338164486776187 -0.00013952950705205881 0 0.023118710026696947 -0.00018120687124946859 0 0.023184985619826425 -0.00014058472592739748 0 0.023278548025973025 -0.00022418117740863647 0 0.023448452199850315 -0.00023646063558448486 0 0.023334681041679232 -0.00027872499489498367 0 0.023278548025973025 -0.00022418117740863647 0 0.023448452199850315 -0.00023646063558448486 0 0.023278548025973025 -0.00022418117740863647 0 0.023529389200033259 -0.00015608855116300968 0 0.023278548025973025 -0.00022418117740863647 0 0.023529389200033259 -0.00015608855116300968 0 0.023338164486776187 -0.00013952950705205881 0 0.023821726533636518 -0.00013600179518926785 0 0.023529389200033259 -0.00015608855116300968 0 0.023586607244837882 -5.410984787860462e-05 0 0.023422132803804847 6.2366467890546341e-05 0 0.022997913998617663 0.00011647476091826908 0 0.023715813955809295 0.0001521753046447655 0 0.024895123419815614 1.1729807147156525e-05 0 0.024969098209450258 4.6649573362208287e-06 0 0.024997982121501054 6.1995941809333589e-07 0 0.023529389200033259 -0.00015608855116300968 0 0.023586607244837882 -5.410984787860462e-05 0 0.023404191784041895 -7.1681390669782732e-05 0 0.023529389200033259 -0.00015608855116300968 0 0.023404191784041895 -7.1681390669782732e-05 0 0.023338164486776187 -0.00013952950705205881 0 0.023954836664500722 -9.5913701990634578e-07 0 0.023586607244837882 -5.410984787860462e-05 0 0.023613650600517826 3.4953400685746459e-05 0 0.023586607244837882 -5.410984787860462e-05 0 0.023468296420407032 -8.4328802810242481e-06 0 0.023404191784041895 -7.1681390669782732e-05 0 0.023586607244837882 -5.410984787860462e-05 0 0.023613650600517826 3.4953400685746459e-05 0 0.023468296420407032 -8.4328802810242481e-06 0 0.023422132803804847 6.2366467890546341e-05 0 0.023316446052289018 -6.4369815128156472e-06 0 0.023201953923712354 3.8092527430345621e-05 0 0.023613650600517826 3.4953400685746459e-05 0 0.023422132803804847 6.2366467890546341e-05 0 0.023468296420407032 -8.4328802810242481e-06 0 0.023422132803804847 6.2366467890546341e-05 0 0.023468296420407032 -8.4328802810242481e-06 0 0.023316446052289018 -6.4369815128156472e-06 0 0.023468296420407032 -8.4328802810242481e-06 0 0.023316446052289018 -6.4369815128156472e-06 0 0.023404191784041895 -7.1681390669782732e-05 0 0.023316446052289018 -6.4369815128156472e-06 0 0.023242213396589832 -7.5973475044021304e-05 0 0.023158368065554265 -6.1193550631627535e-06 0 0.023316446052289018 -6.4369815128156472e-06 0 0.023242213396589832 -7.5973475044021304e-05 0 0.023404191784041895 -7.1681390669782732e-05 0 0.023242213396589832 -7.5973475044021304e-05 0 0.023404191784041895 -7.1681390669782732e-05 0 0.023338164486776187 -0.00013952950705205881 0 0.023184985619826425 -0.00014058472592739748 0 0.023242213396589832 -7.5973475044021304e-05 0 0.023338164486776187 -0.00013952950705205881 0 0.024437972537947765 0.00017720585097735832 0 0.024498948782964998 0.0001061887762346016 0 0.024638515903531163 -3.7722445189735285e-05 0 0.023063728667921318 -0.00012179331991386157 0 0.023184985619826425 -0.00014058472592739748 0 0.023086386780786023 -6.4723375772618314e-05 0 0.023184985619826425 -0.00014058472592739748 0 0.023242213396589832 -7.5973475044021304e-05 0 0.023086386780786023 -6.4723375772618314e-05 0 0.023063728667921318 -0.00012179331991386157 0 0.023086386780786023 -6.4723375772618314e-05 0 0.022993714088531812 -7.4419702001189025e-05 0 0.023086386780786023 -6.4723375772618314e-05 0 0.022984482711450094 -1.8545422817968327e-05 0 0.023065130660726716 1.0010614871724353e-05 0 0.023086386780786023 -6.4723375772618314e-05 0 0.023158368065554265 -6.1193550631627535e-06 0 0.023065130660726716 1.0010614871724353e-05 0 0.023242213396589832 -7.5973475044021304e-05 0 0.023086386780786023 -6.4723375772618314e-05 0 0.023158368065554265 -6.1193550631627535e-06 0 0.022962638099734606 -9.5642691434857534e-05 0 0.022913488200280857 -6.1090178825067316e-05 0 0.022993714088531812 -7.4419702001189025e-05 0 0.023086386780786023 -6.4723375772618314e-05 0 0.022993714088531812 -7.4419702001189025e-05 0 0.022984482711450094 -1.8545422817968327e-05 0 0.022913488200280857 -6.1090178825067316e-05 0 0.022993714088531812 -7.4419702001189025e-05 0 0.022984482711450094 -1.8545422817968327e-05 0 0.022913488200280857 -6.1090178825067316e-05 0 0.022984482711450094 -1.8545422817968327e-05 0 0.022907702397149819 -2.5738875285316669e-05 0 0.022984482711450094 -1.8545422817968327e-05 0 0.022997913998617663 0.00011647476091826908 0 0.022907702397149819 -2.5738875285316669e-05 0 0.022984482711450094 -1.8545422817968327e-05 0 0.022997913998617663 0.00011647476091826908 0 0.023065130660726716 1.0010614871724353e-05 0 0.023422132803804847 6.2366467890546341e-05 0 0.022997913998617663 0.00011647476091826908 0 0.023201953923712354 3.8092527430345621e-05 0 0.023316446052289018 -6.4369815128156472e-06 0 0.023201953923712354 3.8092527430345621e-05 0 0.023158368065554265 -6.1193550631627535e-06 0 0.023201953923712354 3.8092527430345621e-05 0 0.023158368065554265 -6.1193550631627535e-06 0 0.023107647336605253 3.9571324152726733e-05 0 0.023158368065554265 -6.1193550631627535e-06 0 0.023065130660726716 1.0010614871724353e-05 0 0.023107647336605253 3.9571324152726733e-05 0 0.022997913998617663 0.00011647476091826908 0 0.023065130660726716 1.0010614871724353e-05 0 0.023107647336605253 3.9571324152726733e-05 0 0.022997913998617663 0.00011647476091826908 0 0.023201953923712354 3.8092527430345621e-05 0 0.023107647336605253 3.9571324152726733e-05 0 0.024437972537947765 0.00017720585097735832 0 0.024498948782964998 0.0001061887762346016 0 0.02371392336675059 0.00013811039451368555 0 0.024437972537947765 0.00017720585097735832 0 0.02371392336675059 0.00013811039451368555 0 0.023715813955809295 0.0001521753046447655 0 0.023708965773149304 0.00011074303791217967 0 0.023694161235482424 0.00014763411467825032 0 0.024684449650340893 7.3633882275723025e-05 0 0.024383148792187115 3.1816275657210005e-05 0 0.023954836664500722 -9.5913701990634578e-07 0 0.023613650600517826 3.4953400685746459e-05 0 0.023715813955809295 0.0001521753046447655 0 0.023954836664500722 -9.5913701990634578e-07 0 0.02371392336675059 0.00013811039451368555 0 0.023715813955809295 0.0001521753046447655 0 0.023613650600517826 3.4953400685746459e-05 0 0.023422132803804847 6.2366467890546341e-05 0 0.023715813955809295 0.0001521753046447655 0 0.024895123419815614 1.1729807147156525e-05 0 0.024997982121501054 6.1995941809333589e-07 0 0.024553953677157091 -5.0864177242395651e-06 0 0.022997913998617663 0.00011647476091826908 0 0.022907702397149819 -2.5738875285316669e-05 0 0.022805946733532857 -0.00014005901229183128 0 0.024498948782964998 0.0001061887762346016 0 0.024553953677157091 -5.0864177242395651e-06 0 0.024638515903531163 -3.7722445189735285e-05 0 0.023708965773149304 0.00011074303791217967 0 0.023722324557464692 -3.6994876895334894e-05 0 0.024684449650340893 7.3633882275723025e-05 0 0.024583650896867551 5.7641010386077971e-06 0 0.022907702397149819 -2.5738875285316669e-05 0 0.022857503378426184 -7.1448760852223684e-05 0 0.022805946733532857 -0.00014005901229183128 0 0.022907702397149819 -2.5738875285316669e-05 0 0.022881418720067666 -5.6189369729294598e-05 0 0.022857503378426184 -7.1448760852223684e-05 0 0.022913488200280857 -6.1090178825067316e-05 0 0.022907702397149819 -2.5738875285316669e-05 0 0.022881418720067666 -5.6189369729294598e-05 0 0.022881418720067666 -5.6189369729294598e-05 0 0.022857503378426184 -7.1448760852223684e-05 0 0.022859594484923515 -5.8552104785729584e-05 0 0.022857503378426184 -7.1448760852223684e-05 0 0.022859594484923515 -5.8552104785729584e-05 0 0.02283006060255182 -7.4065890646985203e-05 0 0.022859594484923515 -5.8552104785729584e-05 0 0.02283006060255182 -7.4065890646985203e-05 0 0.02283812781161389 -3.2967440275193823e-05 0 0.022913488200280857 -6.1090178825067316e-05 0 0.022881418720067666 -5.6189369729294598e-05 0 0.022859594484923515 -5.8552104785729584e-05 0 0.022913488200280857 -6.1090178825067316e-05 0 0.022859594484923515 -5.8552104785729584e-05 0 0.022870512113722978 -5.769311351838348e-05 0 0.022805946733532857 -0.00014005901229183128 0 0.02283006060255182 -7.4065890646985203e-05 0 0.022893887693930977 3.7576880936235111e-06 0 0.022857503378426184 -7.1448760852223684e-05 0 0.022805946733532857 -0.00014005901229183128 0 0.02283006060255182 -7.4065890646985203e-05 0 0.02283006060255182 -7.4065890646985203e-05 0 0.02283812781161389 -3.2967440275193823e-05 0 0.022893887693930977 3.7576880936235111e-06 0 0.022805946733532857 -0.00014005901229183128 0 0.02354225782578085 -6.0725388836401274e-07 0 0.022893887693930977 3.7576880936235111e-06 0 0.024997982121501054 6.1995941809333589e-07 0 0.024553953677157091 -5.0864177242395651e-06 0 0.023546927721832055 -9.0416051004299048e-07 0 0.024553953677157091 -5.0864177242395651e-06 0 0.024638515903531163 -3.7722445189735285e-05 0 0.023546927721832055 -9.0416051004299048e-07 0 0.023722324557464692 -3.6994876895334894e-05 0 0.023543837385519125 -3.8917666871635315e-08 0 0.02354225782578085 -6.0725388836401274e-07 0 0.022845311170014725 7.0891410386984265e-05 0 0.022508008473861755 7.7767629490798498e-07 0 0.02354225782578085 -6.0725388836401274e-07 0 0.022845311170014725 7.0891410386984265e-05 0 0.022893887693930977 3.7576880936235111e-06 0 0.022845311170014725 7.0891410386984265e-05 0 0.022816734665439597 8.1944614612184531e-06 0 0.022893887693930977 3.7576880936235111e-06 0 0.022845311170014725 7.0891410386984265e-05 0 0.022508008473861755 7.7767629490798498e-07 0 0.022678041675635741 3.2287220313084044e-05 0 0.022845311170014725 7.0891410386984265e-05 0 0.022816734665439597 8.1944614612184531e-06 0 0.022678041675635741 3.2287220313084044e-05 0 0.022870512113722978 -5.769311351838348e-05 0 0.022816734665439597 8.1944614612184531e-06 0 0.02283812781161389 -3.2967440275193823e-05 0 0.022859594484923515 -5.8552104785729584e-05 0 0.022870512113722978 -5.769311351838348e-05 0 0.02283812781161389 -3.2967440275193823e-05 0 0.022816734665439597 8.1944614612184531e-06 0 0.02283812781161389 -3.2967440275193823e-05 0 0.022893887693930977 3.7576880936235111e-06 0 0.022816734665439597 8.1944614612184531e-06 0 0.022831291899143281 -4.5882500010747161e-05 0 0.022678041675635741 3.2287220313084044e-05 0 0.022940795412148125 -0.00011014548026847108 0 0.022870512113722978 -5.769311351838348e-05 0 0.022831291899143281 -4.5882500010747161e-05 0 0.022870512113722978 -5.769311351838348e-05 0 0.022816734665439597 8.1944614612184531e-06 0 0.022831291899143281 -4.5882500010747161e-05 0 0.022915914347261198 -0.00012974449961404081 0 0.022831291899143281 -4.5882500010747161e-05 0 0.022750872071199996 -6.1462608347667558e-05 0 0.022831291899143281 -4.5882500010747161e-05 0 0.022750872071199996 -6.1462608347667558e-05 0 0.022678041675635741 3.2287220313084044e-05 0 0.022750872071199996 -6.1462608347667558e-05 0 0.022678041675635741 3.2287220313084044e-05 0 0.022338906350044103 2.696300838616388e-05 0 0.022508008473861755 7.7767629490798498e-07 0 0.022338906350044103 2.696300838616388e-05 0 0.021474289336208582 -1.2704310869694085e-06 0 0.022508008473861755 7.7767629490798498e-07 0 0.022678041675635741 3.2287220313084044e-05 0 0.022338906350044103 2.696300838616388e-05 0 0.022338906350044103 2.696300838616388e-05 0 0.021474289336208582 -1.2704310869694085e-06 0 0.022772980029297916 -0.00040967038168306455 0 0.021472321396015868 -6.0477111422608837e-08 0 0.021487706623435472 -6.8381117217727381e-05 0 0.020183371289903822 0.00016832693551448202 0 0.019918457333015623 0.00022046716369951612 0 0.019989696739518878 8.6555044234893028e-07 0 0.02146974485873486 -8.9828308586407683e-07 0 0.020183371289903822 0.00016832693551448202 0 0.019989696739518878 8.6555044234893028e-07 0 0.02290843644684655 -0.00019553207715283487 0 0.022750872071199996 -6.1462608347667558e-05 0 0.022772980029297916 -0.00040967038168306455 0 0.022750872071199996 -6.1462608347667558e-05 0 0.022338906350044103 2.696300838616388e-05 0 0.022772980029297916 -0.00040967038168306455 0 0.02290843644684655 -0.00019553207715283487 0 0.022772980029297916 -0.00040967038168306455 0 0.022984829980439839 -0.00024635319827753831 0 0.022772980029297916 -0.00040967038168306455 0 0.022984829980439839 -0.00024635319827753831 0 0.022976845886084927 -0.00013664330103271575 0 0.022984829980439839 -0.00024635319827753831 0 0.022921262557068323 -0.00027642376388774579 0 0.022687811458629026 -0.00021276366710354391 0 0.022984829980439839 -0.00024635319827753831 0 0.022687811458629026 -0.00021276366710354391 0 0.022976845886084927 -0.00013664330103271575 0 0.02289014537180608 -0.00025755982836368334 0 0.022921262557068323 -0.00027642376388774579 0 0.022687811458629026 -0.00021276366710354391 0 0.023053604345933242 -0.00028107051993254213 0 0.022984829980439839 -0.00024635319827753831 0 0.022921262557068323 -0.00027642376388774579 0 0.021895726597432073 0.00017074189228091492 0 0.02164452687755624 0.00016732507600415901 0 0.021913838112570014 0.00016480766863605426 0 0.02030076131714938 0.0005562181609071301 0 0.020764700587149566 0.00011694181224568181 0 0.021913838112570014 0.00016480766863605426 0 0.022687811458629026 -0.00021276366710354391 0 0.022976845886084927 -0.00013664330103271575 0 0.02030076131714938 0.0005562181609071301 0 0.019918457333015623 0.00022046716369951612 0 0.020764700587149566 0.00011694181224568181 0 0.021487706623435472 -6.8381117217727381e-05 0 0.02164452687755624 0.00016732507600415901 0 0.020183371289903822 0.00016832693551448202 0 0.02030076131714938 0.0005562181609071301 0 0.019918457333015623 0.00022046716369951612 0 0.019918457333015623 0.00022046716369951612 0 0.020163100898106981 4.3841169961970153e-05 0 0.019514325921482792 0.0001298950073806123 0 0.019918457333015623 0.00022046716369951612 0 0.020163100898106981 4.3841169961970153e-05 0 0.020764700587149566 0.00011694181224568181 0 0.020163100898106981 4.3841169961970153e-05 0 0.020764700587149566 0.00011694181224568181 0 0.020651459094328691 -2.0398305780471765e-05 0 0.021378650335321967 6.9869202672748155e-06 0 0.020764700587149566 0.00011694181224568181 0 0.020651459094328691 -2.0398305780471765e-05 0 0.020160084173686494 -0.00023200511043851947 0 0.021378650335321967 6.9869202672748155e-06 0 0.020651459094328691 -2.0398305780471765e-05 0 0.020160084173686494 -0.00023200511043851947 0 0.020651459094328691 -2.0398305780471765e-05 0 0.020198138997404823 -7.1089263747336603e-05 0 0.020163100898106981 4.3841169961970153e-05 0 0.020651459094328691 -2.0398305780471765e-05 0 0.020198138997404823 -7.1089263747336603e-05 0 0.020160084173686494 -0.00023200511043851947 0 0.020198138997404823 -7.1089263747336603e-05 0 0.019824955729081755 -5.6104607902880585e-05 0 0.019116605122622338 -2.7212896089029482e-05 0 0.019824955729081755 -5.6104607902880585e-05 0 0.019514325921482792 0.0001298950073806123 0 0.020163100898106981 4.3841169961970153e-05 0 0.019824955729081755 -5.6104607902880585e-05 0 0.019514325921482792 0.0001298950073806123 0 0.020163100898106981 4.3841169961970153e-05 0 0.020198138997404823 -7.1089263747336603e-05 0 0.019824955729081755 -5.6104607902880585e-05 0 0.019918457333015623 0.00022046716369951612 0 0.019514325921482792 0.0001298950073806123 0 0.019989696739518878 8.6555044234893028e-07 0 0.018506567496813529 3.0159205909879988e-07 0 0.019514325921482792 0.0001298950073806123 0 0.019989696739518878 8.6555044234893028e-07 0 0.020635749094663706 0.0012761720247561278 0 0.02006200030667199 0.0011588862416346052 0 0.02053429250722898 0.0013450066516953409 0 0.02065856584875421 0.0011341990052890975 0 0.019814219809640821 0.0011179462059726847 0 0.019533011347627503 0.00092757361933119365 0 0.019778559013381797 0.001259297146197606 0 0.02006200030667199 0.0011588862416346052 0 0.019533011347627503 0.00092757361933119365 0 0.019778559013381797 0.001259297146197606 0 0.019370904104678469 0.0012333750558383464 0 0.014715405796480733 0.0019888548826535808 0 0.015697860441118219 0.0020693988510577777 0 0.01088803293799733 0.0027623313480657483 0 0.010860290975004152 0.0027229409732234307 0 0.010929962607117502 0.0027150303780483615 0 0.019778559013381797 0.001259297146197606 0 0.019370904104678469 0.0012333750558383464 0 0.019757631067042515 0.001434653956567456 0 0.019778559013381797 0.001259297146197606 0 0.02006200030667199 0.0011588862416346052 0 0.019941643153026611 0.0013821206916492103 0 0.019778559013381797 0.001259297146197606 0 0.019757631067042515 0.001434653956567456 0 0.019941643153026611 0.0013821206916492103 0 0.020018670379712313 0.0012520891321880858 0 0.02006200030667199 0.0011588862416346052 0 0.019941643153026611 0.0013821206916492103 0 0.019999947938853731 0.0013246563483417339 0 0.020018670379712313 0.0012520891321880858 0 0.019941643153026611 0.0013821206916492103 0 0.019999947938853731 0.0013246563483417339 0 0.020018670379712313 0.0012520891321880858 0 0.020011422838766453 0.0012845604414739352 0 0.020018670379712313 0.0012520891321880858 0 0.020016276626475784 0.0012850455668820075 0 0.020036391692662085 0.001280481722443985 0 0.020018670379712313 0.0012520891321880858 0 0.020016276626475784 0.0012850455668820075 0 0.020011422838766453 0.0012845604414739352 0 0.020018670379712313 0.0012520891321880858 0 0.02006200030667199 0.0011588862416346052 0 0.020036391692662085 0.001280481722443985 0 0.02006200030667199 0.0011588862416346052 0 0.020036391692662085 0.001280481722443985 0 0.0202943837204646 0.0014783465340684702 0 0.020036391692662085 0.001280481722443985 0 0.020039433571480619 0.001389126417916828 0 0.0202943837204646 0.0014783465340684702 0 0.020036391692662085 0.001280481722443985 0 0.020039433571480619 0.001389126417916828 0 0.020012785027631552 0.0013209038341342968 0 0.020039433571480619 0.001389126417916828 0 0.020012785027631552 0.0013209038341342968 0 0.020015399300890493 0.0013212156103612912 0 0.020016276626475784 0.0012850455668820075 0 0.020036391692662085 0.001280481722443985 0 0.020012785027631552 0.0013209038341342968 0 0.024277936048179235 0.0014493771031382154 0 0.023912147155606623 0.00077154543916940343 0 0.024554740583216245 0.00072937131733828004 0 0.022039568906866376 0.0014717710770462621 0 0.023095480258239924 0.0009296997403553033 0 0.024277936048179235 0.0014493771031382154 0 0.025145996246586845 0.0014319733321540035 0 0.024554740583216245 0.00072937131733828004 0 0.024277936048179235 0.0014493771031382154 0 0.023912147155606623 0.00077154543916940343 0 0.022629360884644831 0.0016283822140524744 0 0.022039568906866376 0.0014717710770462621 0 0.021475604160070348 0.0015087598886222447 0 0.023912147155606623 0.00077154543916940343 0 0.022629360884644831 0.0016283822140524744 0 0.021663058143358997 0.00040988940750702414 0 0.02006200030667199 0.0011588862416346052 0 0.0202943837204646 0.0014783465340684702 0 0.02053429250722898 0.0013450066516953409 0 0.0202943837204646 0.0014783465340684702 0 0.02053429250722898 0.0013450066516953409 0 0.020793257252657814 0.001352233557982788 0 0.020635749094663706 0.0012761720247561278 0 0.02053429250722898 0.0013450066516953409 0 0.020604076644818472 0.0013255989030090593 0 0.02053429250722898 0.0013450066516953409 0 0.020793257252657814 0.001352233557982788 0 0.020604076644818472 0.0013255989030090593 0 0.021475604160070348 0.0015087598886222447 0 0.020834473304534491 0.0013996073069265638 0 0.022629360884644831 0.0016283822140524744 0 0.020793257252657814 0.001352233557982788 0 0.021663058143358997 0.00040988940750702414 0 0.020793257252657814 0.001352233557982788 0 0.020370021930032362 0.00096526293104034263 0 0.020419032248878248 0.0004710733764460471 0 0.020793257252657814 0.001352233557982788 0 0.020537805195285967 0.0012517792801472131 0 0.020370021930032362 0.00096526293104034263 0 0.020537805195285967 0.0012517792801472131 0 0.020370021930032362 0.00096526293104034263 0 0.02036573986200179 0.0013158522264741087 0 0.020370021930032362 0.00096526293104034263 0 0.019969715292572281 0.00085319827479022801 0 0.02036573986200179 0.0013158522264741087 0 0.020312382894959142 0.0012393699976033373 0 0.02036573986200179 0.0013158522264741087 0 0.020263178984030187 0.0012623741681323396 0 0.020043939012461945 0.00094020681886640997 0 0.020356986233639299 0.0013310733211869062 0 0.017022551028617803 0.0013216508993095194 0 0.013626715635903616 0.0018200373741416075 0 0.020353543802354671 0.001391856074236947 0 0.02036573986200179 0.0013158522264741087 0 0.020263178984030187 0.0012623741681323396 0 0.020635749094663706 0.0012761720247561278 0 0.020353543802354671 0.001391856074236947 0 0.020604076644818472 0.0013255989030090593 0 0.020353543802354671 0.001391856074236947 0 0.02036573986200179 0.0013158522264741087 0 0.020604076644818472 0.0013255989030090593 0 0.02065856584875421 0.0011341990052890975 0 0.017022551028617803 0.0013216508993095194 0 0.020793257252657814 0.001352233557982788 0 0.020537805195285967 0.0012517792801472131 0 0.020604076644818472 0.0013255989030090593 0 0.020537805195285967 0.0012517792801472131 0 0.02036573986200179 0.0013158522264741087 0 0.020604076644818472 0.0013255989030090593 0 0.020622867635126257 0.001620190729199194 0 0.020591242826450508 0.0016197033998281375 0 0.018904279490176187 0.0015207192143726965 0 0.020591242826450508 0.0016197033998281375 0 0.018574860041075426 0.0016516032112249236 0 0.01803305764470732 0.0016492399178199492 0 0.018433521061643934 0.0026669574877594224 0 0.01803305764470732 0.0016492399178199492 0 0.017474588328602172 0.0017283981097635402 0 0.018433521061643934 0.0026669574877594224 0 0.018927598858239345 0.0023535167011873165 0 0.018549540709598005 0.0017691249041154953 0 0.018997925946600248 0.0018749835294132324 0 0.018574860041075426 0.0016516032112249236 0 0.01803305764470732 0.0016492399178199492 0 0.018281821231563591 0.001203393087414789 0 0.020622867635126257 0.001620190729199194 0 0.016178475603610184 0.0021266512456476067 0 0.020622867635126257 0.001620190729199194 0 0.019789278289337721 0.0018049724469085379 0 0.01803305764470732 0.0016492399178199492 0 0.017474588328602172 0.0017283981097635402 0 0.017401795807748522 0.00099394252007991169 0 0.020312382894959142 0.0012393699976033373 0 0.020263178984030187 0.0012623741681323396 0 0.020281852518374398 0.001235190999246573 0 0.016533189995329656 0.00078510629087034369 0 0.017474588328602172 0.0017283981097635402 0 0.017401795807748522 0.00099394252007991169 0 0.017022551028617803 0.0013216508993095194 0 0.018904279490176187 0.0015207192143726965 0 0.011025646238107626 0.0029340725814362267 0 0.011189076046199254 0.0030040516351167589 0 0.011104088166952462 0.0028756402156125327 0 0.011221888014892222 0.0029084912362252035 0 0.011189076046199254 0.0030040516351167589 0 0.011104088166952462 0.0028756402156125327 0 0.011221888014892222 0.0029084912362252035 0 0.011189076046199254 0.0030040516351167589 0 0.011332853409981931 0.0029556673906125531 0 0.015816657521487542 0.0023210071016961154 0 0.016306308268875792 0.0024371119590675442 0 0.016484329043862361 0.0012438747395644928 0 0.011189076046199254 0.0030040516351167589 0 0.011332853409981931 0.0029556673906125531 0 0.0114671651689846 0.0030781675096088847 0 0.01803305764470732 0.0016492399178199492 0 0.017401795807748522 0.00099394252007991169 0 0.018281821231563591 0.001203393087414789 0 0.013626715635903616 0.0018200373741416075 0 0.016178475603610184 0.0021266512456476067 0 0.012065270308167205 0.0020392730587893248 0 0.016178475603610184 0.0021266512456476067 0 0.011365596557721647 0.0029411898211858982 0 0.011332853409981931 0.0029556673906125531 0 0.0114671651689846 0.0030781675096088847 0 0.011221888014892222 0.0029084912362252035 0 0.011354340485842251 0.002942371129016162 0 0.011332853409981931 0.0029556673906125531 0 0.012065270308167205 0.0020392730587893248 0 0.011948307798208336 0.0021109001264158298 0 0.015416581439022097 0.0016989737409659265 0 0.015816657521487542 0.0023210071016961154 0 0.016484329043862361 0.0012438747395644928 0 0.012065270308167205 0.0020392730587893248 0 0.016094512591372644 0.0016631823369213476 0 0.016178475603610184 0.0021266512456476067 0 0.019789278289337721 0.0018049724469085379 0 0.010532642237019656 0.0022649046616849073 0 0.010481014944366764 0.0024084997720618048 0 0.01042688555203591 0.0023092308583865604 0 0.010532642237019656 0.0022649046616849073 0 0.010481014944366764 0.0024084997720618048 0 0.010595990921485283 0.0024110557755407033 0 0.011139805786100217 0.0027817446498547339 0 0.011104088166952462 0.0028756402156125327 0 0.010980563950803404 0.0027858507659290501 0 0.011221888014892222 0.0029084912362252035 0 0.011354340485842251 0.002942371129016162 0 0.011139805786100217 0.0027817446498547339 0 0.012065270308167205 0.0020392730587893248 0 0.01080236007095477 0.0026196688855838388 0 0.011221888014892222 0.0029084912362252035 0 0.011139805786100217 0.0027817446498547339 0 0.011104088166952462 0.0028756402156125327 0 0.010595990921485283 0.0024110557755407033 0 0.010498033859747851 0.0025267420287816032 0 0.010671470355099981 0.0025550154138684468 0 0.01080236007095477 0.0026196688855838388 0 0.010826837666474631 0.0026491649358441954 0 0.010481014944366764 0.0024084997720618048 0 0.010498033859747851 0.0025267420287816032 0 0.01034707299694424 0.0025408609954584633 0 0.010481014944366764 0.0024084997720618048 0 0.010595990921485283 0.0024110557755407033 0 0.010498033859747851 0.0025267420287816032 0 0.019533011347627503 0.00092757361933119365 0 0.018826581478964766 0.00076377399643971105 0 0.019370904104678469 0.0012333750558383464 0 0.011025646238107626 0.0029340725814362267 0 0.010980563950803404 0.0027858507659290501 0 0.01088803293799733 0.0027623313480657483 0 0.017022551028617803 0.0013216508993095194 0 0.014715405796480733 0.0019888548826535808 0 0.011025646238107626 0.0029340725814362267 0 0.011104088166952462 0.0028756402156125327 0 0.010980563950803404 0.0027858507659290501 0 0.010980563950803404 0.0027858507659290501 0 0.010962512532474284 0.0027185179522982075 0 0.010860290975004152 0.0027229409732234307 0 0.011139805786100217 0.0027817446498547339 0 0.010980563950803404 0.0027858507659290501 0 0.010962512532474284 0.0027185179522982075 0 0.010980563950803404 0.0027858507659290501 0 0.01088803293799733 0.0027623313480657483 0 0.010860290975004152 0.0027229409732234307 0 0.010860290975004152 0.0027229409732234307 0 0.010789748060066037 0.0027275931646077302 0 0.010850867508219956 0.0027774320209013274 0 0.010962512532474284 0.0027185179522982075 0 0.010860290975004152 0.0027229409732234307 0 0.010789748060066037 0.0027275931646077302 0 0.010671470355099981 0.0025550154138684468 0 0.010789748060066037 0.0027275931646077302 0 0.010608212928453759 0.0027644073106002035 0 0.010826837666474631 0.0026491649358441954 0 0.010806648017788514 0.0027198848165661807 0 0.010789748060066037 0.0027275931646077302 0 0.010608212928453759 0.0027644073106002035 0 0.010632013444791559 0.0028949495141979832 0 0.010789748060066037 0.0027275931646077302 0 0.010777295520945274 0.0028726644549340588 0 0.010850867508219956 0.0027774320209013274 0 0.010498033859747851 0.0025267420287816032 0 0.010461329270116259 0.0027102394794546623 0 0.01034707299694424 0.0025408609954584633 0 0.010671470355099981 0.0025550154138684468 0 0.010608212928453759 0.0027644073106002035 0 0.010461329270116259 0.0027102394794546623 0 0.010498033859747851 0.0025267420287816032 0 0.010671470355099981 0.0025550154138684468 0 0.010461329270116259 0.0027102394794546623 0 0.010608212928453759 0.0027644073106002035 0 0.010461329270116259 0.0027102394794546623 0 0.01049099377937332 0.0028981888002306794 0 0.010461329270116259 0.0027102394794546623 0 0.010345459517917072 0.0028979312687666 0 0.010278518268934667 0.0027743450984316184 0 0.010461329270116259 0.0027102394794546623 0 0.010345459517917072 0.0028979312687666 0 0.01049099377937332 0.0028981888002306794 0 0.010608212928453759 0.0027644073106002035 0 0.01049099377937332 0.0028981888002306794 0 0.010632013444791559 0.0028949495141979832 0 0.01049099377937332 0.0028981888002306794 0 0.010509154132887864 0.0030269992497393141 0 0.010632013444791559 0.0028949495141979832 0 0.010349071676278432 0.003107304544860121 0 0.01049099377937332 0.0028981888002306794 0 0.010509154132887864 0.0030269992497393141 0 0.010349071676278432 0.003107304544860121 0 0.010345459517917072 0.0028979312687666 0 0.01049099377937332 0.0028981888002306794 0 0.010789748060066037 0.0027275931646077302 0 0.010777295520945274 0.0028726644549340588 0 0.010632013444791559 0.0028949495141979832 0 0.010626325305806194 0.0030605026026732018 0 0.010509154132887864 0.0030269992497393141 0 0.010632013444791559 0.0028949495141979832 0 0.010626325305806194 0.0030605026026732018 0 0.010777295520945274 0.0028726644549340588 0 0.010818730148603179 0.0029719311372569065 0 0.010626325305806194 0.0030605026026732018 0 0.010777295520945274 0.0028726644549340588 0 0.010632013444791559 0.0028949495141979832 0 0.010818730148603179 0.0029719311372569065 0 0.010909715090135575 0.0028638208070627439 0 0.010951988347452571 0.0029846589226118856 0 0.010787728674656856 0.0031069068909420029 0 0.010818730148603179 0.0029719311372569065 0 0.010951988347452571 0.0029846589226118856 0 0.010909715090135575 0.0028638208070627439 0 0.01099503397362251 0.0028890108372980079 0 0.010951988347452571 0.0029846589226118856 0 0.009965996602205842 0.0031374938021641562 0 0.013738795204624744 0.0026905666179549491 0 0.010777295520945274 0.0028726644549340588 0 0.010818730148603179 0.0029719311372569065 0 0.010909715090135575 0.0028638208070627439 0 0.010777295520945274 0.0028726644549340588 0 0.010909715090135575 0.0028638208070627439 0 0.010850867508219956 0.0027774320209013274 0 0.010909715090135575 0.0028638208070627439 0 0.010850867508219956 0.0027774320209013274 0 0.010929962607117502 0.0027150303780483615 0 0.010909715090135575 0.0028638208070627439 0 0.010929962607117502 0.0027150303780483615 0 0.011067838317909341 0.0028178209406458585 0 0.015697860441118219 0.0020693988510577777 0 0.013738795204624744 0.0026905666179549491 0 0.010860290975004152 0.0027229409732234307 0 0.010850867508219956 0.0027774320209013274 0 0.010929962607117502 0.0027150303780483615 0 0.019999947938853731 0.0013246563483417339 0 0.019941643153026611 0.0013821206916492103 0 0.019986686179135581 0.0013839131053441848 0 0.019941643153026611 0.0013821206916492103 0 0.019961647171826472 0.0014336599997892968 0 0.019986686179135581 0.0013839131053441848 0 0.019757631067042515 0.001434653956567456 0 0.019941643153026611 0.0013821206916492103 0 0.019869227473054109 0.0015087350840017365 0 0.019941643153026611 0.0013821206916492103 0 0.019869227473054109 0.0015087350840017365 0 0.019961647171826472 0.0014336599997892968 0 0.013738795204624744 0.0026905666179549491 0 0.016121879811492931 0.0018891505068106926 0 0.011259076230230267 0.0027503865810475656 0 0.011298431724735249 0.0027149614224827919 0 0.011255310338579868 0.0028028876595570227 0 0.011298431724735249 0.0027149614224827919 0 0.011255310338579868 0.0028028876595570227 0 0.011288855988273205 0.0027834520916069257 0 0.011014412322381987 0.002810497588524738 0 0.011080166956112712 0.002869406936560852 0 0.01099503397362251 0.0028890108372980079 0 0.010909715090135575 0.0028638208070627439 0 0.011014412322381987 0.002810497588524738 0 0.01099503397362251 0.0028890108372980079 0 0.013738795204624744 0.0026905666179549491 0 0.010837602822824673 0.0026640717801510254 0 0.01099503397362251 0.0028890108372980079 0 0.010951988347452571 0.0029846589226118856 0 0.011061478629017881 0.0029466894332001977 0 0.011072025242580887 0.0030806811366435286 0 0.011061478629017881 0.0029466894332001977 0 0.011194885868891905 0.0029030450324985615 0 0.011080166956112712 0.002869406936560852 0 0.011061478629017881 0.0029466894332001977 0 0.011194885868891905 0.0029030450324985615 0 0.011080166956112712 0.002869406936560852 0 0.01099503397362251 0.0028890108372980079 0 0.011061478629017881 0.0029466894332001977 0 0.010837602822824673 0.0026640717801510254 0 0.011310457853266228 0.0029913960211675854 0 0.011255310338579868 0.0028028876595570227 0 0.011194885868891905 0.0029030450324985615 0 0.011245871789347493 0.0028416286101403186 0 0.011255040686898027 0.0028695507602747371 0 0.011245871789347493 0.0028416286101403186 0 0.011254778520039243 0.0028095093999360586 0 0.011072025242580887 0.0030806811366435286 0 0.011194885868891905 0.0029030450324985615 0 0.011255040686898027 0.0028695507602747371 0 0.011194885868891905 0.0029030450324985615 0 0.011255040686898027 0.0028695507602747371 0 0.011245871789347493 0.0028416286101403186 0 0.011245871789347493 0.0028416286101403186 0 0.011288855988273205 0.0027834520916069257 0 0.011350409531369969 0.002760150946986022 0 0.011280885413953317 0.0027465541782739915 0 0.011163185930582516 0.0029978555028045027 0 0.011245871789347493 0.0028416286101403186 0 0.011254778520039243 0.0028095093999360586 0 0.011258942920780095 0.0028000583073164941 0 0.011255310338579868 0.0028028876595570227 0 0.011245871789347493 0.0028416286101403186 0 0.011288855988273205 0.0027834520916069257 0 0.011255040686898027 0.0028695507602747371 0 0.011254778520039243 0.0028095093999360586 0 0.01123108214296821 0.0027760569354602985 0 0.011254778520039243 0.0028095093999360586 0 0.01123108214296821 0.0027760569354602985 0 0.011268255133090722 0.0027980587935456007 0 0.0065436127962179274 0.0012754860763454926 0 0.0067002479960647518 0.0008528551707388751 0 0.0017243674355168421 -0.0002709438848331107 0 0.0024647113310425225 -0.00024603958385878167 0 0.0026091172851671908 -0.0011888299982159528 0 0.0027590725691166024 0.00022886572764853303 0 0.0024647113310425225 -0.00024603958385878167 0 0.0032310983514012475 -0.00072374278893225198 0 0.0024647113310425225 -0.00024603958385878167 0 0.0032310983514012475 -0.00072374278893225198 0 0.0026091172851671908 -0.0011888299982159528 0 0.0036068116777340838 -0.00016672631796252682 0 0.0027590725691166024 0.00022886572764853303 0 0.0032310983514012475 -0.00072374278893225198 0 0.0032310983514012475 -0.00072374278893225198 0 0.0026091172851671908 -0.0011888299982159528 0 0.003750634869417548 -0.0014009320181910315 0 0.01123108214296821 0.0027760569354602985 0 0.011235118770437341 0.002806695315832932 0 0.011268255133090722 0.0027980587935456007 0 0.0067002479960647518 0.0008528551707388751 0 0.0085826467585042466 0.00033000158847036072 0 0.01123108214296821 0.0027760569354602985 0 0.011153369276766644 0.0027729300909306517 0 0.011235118770437341 0.002806695315832932 0 0.0026091172851671908 -0.0011888299982159528 0 0.0037286315081174223 -0.00206813210654301 0 0.003750634869417548 -0.0014009320181910315 0 0.0085826467585042466 0.00033000158847036072 0 0.013642426580750619 0.0018207096288029064 0 0.014010443631376712 0.00030512705687034208 0 0.017003301050751218 0.00070190142528211497 0 0.014451237221819145 0.00012129465013497214 0 0.014450984284848404 0.00042202187950259463 0 0.015021118298797287 0.00036632979280768775 0 0.014450984284848404 0.00042202187950259463 0 0.015021118298797287 0.00036632979280768775 0 0.01487328929542669 0.00089735949324295042 0 0.013642426580750619 0.0018207096288029064 0 0.015131301771753151 0.0011023370222341461 0 0.015021118298797287 0.00036632979280768775 0 0.015567548572146242 0.0005739388788555006 0 0.01487328929542669 0.00089735949324295042 0 0.011235118770437341 0.002806695315832932 0 0.011289810927678676 0.0028102533193456181 0 0.011268255133090722 0.0027980587935456007 0 0.011289810927678676 0.0028102533193456181 0 0.011293215129735261 0.0028017619947109731 0 0.011268255133090722 0.0027980587935456007 0 0.018198574464176213 0.00095690473776391968 0 0.01832140819265712 0.0010015170398380248 0 0.018109395519543391 0.0011634004451073039 0 0.015131301771753151 0.0011023370222341461 0 0.014678308417366247 0.0019459532518776663 0 0.015942611045057606 0.0011791549102111425 0 0.016023969435866019 0.0012095023305571692 0 0.01602927615048079 0.0011425640460926152 0 0.015131301771753151 0.0011023370222341461 0 0.018064426266629564 0.0014147271257102551 0 0.019991767756101567 0.0013824186247028041 0 0.019986686179135581 0.0013839131053441848 0 0.019987648978087295 0.0013886450153255208 0 0.019999947938853731 0.0013246563483417339 0 0.019991767756101567 0.0013824186247028041 0 0.019986686179135581 0.0013839131053441848 0 0.019961647171826472 0.0014336599997892968 0 0.019986686179135581 0.0013839131053441848 0 0.019987648978087295 0.0013886450153255208 0 0.016121879811492931 0.0018891505068106926 0 0.014678308417366247 0.0019459532518776663 0 0.018064426266629564 0.0014147271257102551 0 0.014678308417366247 0.0019459532518776663 0 0.014678308417366247 0.0019459532518776663 0 0.011163185930582516 0.0029978555028045027 0 0.011298431724735249 0.0027149614224827919 0 0.011288855988273205 0.0027834520916069257 0 0.011350409531369969 0.002760150946986022 0 0.011298431724735249 0.0027149614224827919 0 0.011410580801127385 0.0026501740477388722 0 0.011350409531369969 0.002760150946986022 0 0.011254778520039243 0.0028095093999360586 0 0.011258942920780095 0.0028000583073164941 0 0.011268255133090722 0.0027980587935456007 0 0.011293215129735261 0.0028017619947109731 0 0.011258942920780095 0.0028000583073164941 0 0.011268255133090722 0.0027980587935456007 0 0.014688808343414766 0.0011032859360364995 0 0.013674208209082096 0.00029017215906182106 0 0.01480158315887155 -0.00029459959587910045 0 0.010984413790051377 0.00012113615018360089 0 0.010162497256366181 -0.0012943709085147857 0 0.0080189226360997436 -0.0017554513553961245 0 0.0068184697128719713 -0.0018325432433897251 0 0.0066500940215297559 -0.0027546027922805438 0 0.0077822067957064841 -0.0015742139509004596 0 0.0080189226360997436 -0.0017554513553961245 0 0.0068184697128719713 -0.0018325432433897251 0 0.010242210393227416 0.0001280274480300805 0 0.010984413790051377 0.00012113615018360089 0 0.0077822067957064841 -0.0015742139509004596 0 0.0080346859013643614 -0.0017624458713411536 0 0.008194699279182243 -0.00049806716864321337 0 0.0077822067957064841 -0.0015742139509004596 0 0.008194699279182243 -0.00049806716864321337 0 0.0070056265244193804 -0.00068524109955961832 0 0.0077822067957064841 -0.0015742139509004596 0 0.0070056265244193804 -0.00068524109955961832 0 0.0068184697128719713 -0.0018325432433897251 0 0.0070056265244193804 -0.00068524109955961832 0 0.0058393262903871056 -0.0012161115464816576 0 0.0068184697128719713 -0.0018325432433897251 0 0.0053734102236195633 0.00030840220608364894 0 0.0070056265244193804 -0.00068524109955961832 0 0.0058393262903871056 -0.0012161115464816576 0 0.0058393262903871056 -0.0012161115464816576 0 0.0068184697128719713 -0.0018325432433897251 0 0.0056234689002760199 -0.0024347374315022915 0 0.0068184697128719713 -0.0018325432433897251 0 0.0056234689002760199 -0.0024347374315022915 0 0.0066500940215297559 -0.0027546027922805438 0 0.0058393262903871056 -0.0012161115464816576 0 0.0056234689002760199 -0.0024347374315022915 0 0.0043826557817546992 -0.0019533818743987428 0 0.0058393262903871056 -0.0012161115464816576 0 0.0047132535162239539 -0.00061766790343394172 0 0.0043826557817546992 -0.0019533818743987428 0 0.0053734102236195633 0.00030840220608364894 0 0.0058393262903871056 -0.0012161115464816576 0 0.0047132535162239539 -0.00061766790343394172 0 0.0036068116777340838 -0.00016672631796252682 0 0.0032310983514012475 -0.00072374278893225198 0 0.0043175325662853266 -0.0010955507265225204 0 0.0038078504954984875 -0.00027634609824424262 0 0.0038085082513476319 -0.0015603445014785188 0 0.0036068116777340838 -0.00016672631796252682 0 0.0047132535162239539 -0.00061766790343394172 0 0.0043826557817546992 -0.0019533818743987428 0 0.0032310983514012475 -0.00072374278893225198 0 0.0043175325662853266 -0.0010955507265225204 0 0.003750634869417548 -0.0014009320181910315 0 0.0043175325662853266 -0.0010955507265225204 0 0.003750634869417548 -0.0014009320181910315 0 0.0042897164013304219 -0.0018689253499735664 0 0.0038650491357939808 -0.002031104993403963 0 0.0042897164013304219 -0.0018689253499735664 0 0.0045451266428816446 -0.00256792745628622 0 0.0037286315081174223 -0.00206813210654301 0 0.003750634869417548 -0.0014009320181910315 0 0.0042897164013304219 -0.0018689253499735664 0 0.0085826467585042466 0.00033000158847036072 0 0.0032531033659598339 -0.0020692883342474685 0 0.014450984284848404 0.00042202187950259463 0 0.013924947797123249 0.00048282149632531633 0 0.014588516285981791 0.0010176079228228073 0 0.013837398441056043 -0.0011678066470588286 0 0.019838164944906474 -0.00024699072705467156 0 0.0085826467585042466 0.00033000158847036072 0 0.013837398441056043 -0.0011678066470588286 0 0.014451237221819145 0.00012129465013497214 0 0.014450984284848404 0.00042202187950259463 0 0.013924947797123249 0.00048282149632531633 0 0.013174936770480088 -0.0016208176738774908 0 0.01436944119392935 -0.00067561873299938049 0 0.014583350633311825 -0.0026966462175584544 0 0.01436944119392935 -0.00067561873299938049 0 0.016000507076825911 -0.003766938304167898 0 0.014583350633311825 -0.0026966462175584544 0 0.013837398441056043 -0.0011678066470588286 0 0.0091520743815381774 -0.0019688228907227736 0 0.013837398441056043 -0.0011678066470588286 0 0.018827851810670451 -0.0030893637978299457 0 0.0043175325662853266 -0.0010955507265225204 0 0.0042897164013304219 -0.0018689253499735664 0 0.0050311075285676089 -0.0022044851139231556 0 0.0042897164013304219 -0.0018689253499735664 0 0.0045451266428816446 -0.00256792745628622 0 0.0050311075285676089 -0.0022044851139231556 0 0.0038085082513476319 -0.0015603445014785188 0 0.0091520743815381774 -0.0019688228907227736 0 0.0056234689002760199 -0.0024347374315022915 0 0.0043826557817546992 -0.0019533818743987428 0 0.0053392975524541707 -0.0037612313449104811 0 0.012650475497028095 -0.00052048567704660075 0 0.013674208209082096 0.00029017215906182106 0 0.013865334631342281 -0.00078009520807639928 0 0.0056234689002760199 -0.0024347374315022915 0 0.0053392975524541707 -0.0037612313449104811 0 0.0066500940215297559 -0.0027546027922805438 0 0.0091520743815381774 -0.0019688228907227736 0 0.010162497256366181 -0.0012943709085147857 0 0.012650475497028095 -0.00052048567704660075 0 0.013865334631342281 -0.00078009520807639928 0 0.013507979786774916 -0.00208005832615715 0 0.0091520743815381774 -0.0019688228907227736 0 0.017936073129628239 -0.002179617949406471 0 0.013865334631342281 -0.00078009520807639928 0 0.014760939483763596 -0.0014654299184595444 0 0.013507979786774916 -0.00208005832615715 0 0.013865334631342281 -0.00078009520807639928 0 0.014760939483763596 -0.0014654299184595444 0 0.01480158315887155 -0.00029459959587910045 0 0.013674208209082096 0.00029017215906182106 0 0.013865334631342281 -0.00078009520807639928 0 0.01480158315887155 -0.00029459959587910045 0 0.017540610890487574 -0.0020771305626666224 0 0.017936073129628239 -0.002179617949406471 0 0.020559308527649062 -0.0013188322744392886 0 0.021164793069338869 -0.0015062296439823577 0 0.021030286319449542 -0.00088587606688484831 0 0.015390932169139318 -0.0022012992135555798 0 0.014760939483763596 -0.0014654299184595444 0 0.014571987598991179 -0.0028680881522236096 0 0.014760939483763596 -0.0014654299184595444 0 0.014571987598991179 -0.0028680881522236096 0 0.013507979786774916 -0.00208005832615715 0 0.017936073129628239 -0.002179617949406471 0 0.020440010576775219 -0.0022689697500618794 0 0.017936073129628239 -0.002179617949406471 0 0.018827851810670451 -0.0030893637978299457 0 0.021413825112876102 -0.0020248997601844203 0 0.021629476872073495 -0.0015829191994289039 0 0.021946422899025087 -0.00190262599615425 0 0.020559308527649062 -0.0013188322744392886 0 0.021389663717384742 -0.001990687821155167 0 0.021164793069338869 -0.0015062296439823577 0 0.021629476872073495 -0.0015829191994289039 0 0.021164793069338869 -0.0015062296439823577 0 0.021565006186168734 -0.0010939122652479957 0 0.021629476872073495 -0.0015829191994289039 0 0.021565006186168734 -0.0010939122652479957 0 0.022100681966456245 -0.0013905833147598399 0 0.021413825112876102 -0.0020248997601844203 0 0.021629476872073495 -0.0015829191994289039 0 0.021164793069338869 -0.0015062296439823577 0 0.021164793069338869 -0.0015062296439823577 0 0.021565006186168734 -0.0010939122652479957 0 0.021030286319449542 -0.00088587606688484831 0 0.022386411223236723 -0.0010388866600856762 0 0.022100681966456245 -0.0013905833147598399 0 0.022009852130400256 -0.00078488552154621347 0 0.021565006186168734 -0.0010939122652479957 0 0.022100681966456245 -0.0013905833147598399 0 0.022009852130400256 -0.00078488552154621347 0 0.022386411223236723 -0.0010388866600856762 0 0.022100681966456245 -0.0013905833147598399 0 0.022811287379142512 -0.0013194244212466771 0 0.022100681966456245 -0.0013905833147598399 0 0.022604577800640659 -0.0020149769328552201 0 0.022811287379142512 -0.0013194244212466771 0 0.021629476872073495 -0.0015829191994289039 0 0.022100681966456245 -0.0013905833147598399 0 0.021946422899025087 -0.00190262599615425 0 0.022588940274205497 -0.0029732086867253235 0 0.022007533183992681 -0.0024984623544367533 0 0.022604577800640659 -0.0020149769328552201 0 0.021413825112876102 -0.0020248997601844203 0 0.021946422899025087 -0.00190262599615425 0 0.022007533183992681 -0.0024984623544367533 0 0.021946422899025087 -0.00190262599615425 0 0.022007533183992681 -0.0024984623544367533 0 0.022604577800640659 -0.0020149769328552201 0 0.022100681966456245 -0.0013905833147598399 0 0.021946422899025087 -0.00190262599615425 0 0.022604577800640659 -0.0020149769328552201 0 0.022588940274205497 -0.0029732086867253235 0 0.022604577800640659 -0.0020149769328552201 0 0.023513181085015815 -0.0023055322615900984 0 0.022604577800640659 -0.0020149769328552201 0 0.023513181085015815 -0.0023055322615900984 0 0.023404571268682343 -0.0016728586298601598 0 0.022811287379142512 -0.0013194244212466771 0 0.023210778329477974 -0.00068068526506194016 0 0.023662769793224826 -0.0011088109639684793 0 0.022811287379142512 -0.0013194244212466771 0 0.023404571268682343 -0.0016728586298601598 0 0.023662769793224826 -0.0011088109639684793 0 0.022604577800640659 -0.0020149769328552201 0 0.022811287379142512 -0.0013194244212466771 0 0.023404571268682343 -0.0016728586298601598 0 0.022386411223236723 -0.0010388866600856762 0 0.022811287379142512 -0.0013194244212466771 0 0.022623257906582227 -0.00066013793222540894 0 0.022811287379142512 -0.0013194244212466771 0 0.023210778329477974 -0.00068068526506194016 0 0.022623257906582227 -0.00066013793222540894 0 0.023210778329477974 -0.00068068526506194016 0 0.022623257906582227 -0.00066013793222540894 0 0.022835750367650873 -0.00020032302540138035 0 0.023210778329477974 -0.00068068526506194016 0 0.022835750367650873 -0.00020032302540138035 0 0.023366191389646226 -0.00016238103949038857 0 0.023136914332606826 0.00023977282600497391 0 0.02257297821670666 0.00056807678703070421 0 0.023608405460427712 0.00074302865865140931 0 0.023366191389646226 -0.00016238103949038857 0 0.023136914332606826 0.00023977282600497391 0 0.02381170288386017 7.4127099753262118e-05 0 0.022835750367650873 -0.00020032302540138035 0 0.023366191389646226 -0.00016238103949038857 0 0.023136914332606826 0.00023977282600497391 0 0.023136914332606826 0.00023977282600497391 0 0.022531250450219253 0.00019787775319398063 0 0.02257297821670666 0.00056807678703070421 0 0.022835750367650873 -0.00020032302540138035 0 0.023136914332606826 0.00023977282600497391 0 0.022531250450219253 0.00019787775319398063 0 0.02257297821670666 0.00056807678703070421 0 0.02190715927151423 0.00020227673059854793 0 0.021460938956935707 0.00080103045331682244 0 0.022835750367650873 -0.00020032302540138035 0 0.022531250450219253 0.00019787775319398063 0 0.022217386260369121 -0.00024983073982125329 0 0.022531250450219253 0.00019787775319398063 0 0.02257297821670666 0.00056807678703070421 0 0.02190715927151423 0.00020227673059854793 0 0.022531250450219253 0.00019787775319398063 0 0.02190715927151423 0.00020227673059854793 0 0.022217386260369121 -0.00024983073982125329 0 0.02190715927151423 0.00020227673059854793 0 0.022217386260369121 -0.00024983073982125329 0 0.021488964391588362 -0.0004187534207016157 0 0.022217386260369121 -0.00024983073982125329 0 0.022009852130400256 -0.00078488552154621347 0 0.021488964391588362 -0.0004187534207016157 0 0.022623257906582227 -0.00066013793222540894 0 0.022835750367650873 -0.00020032302540138035 0 0.022217386260369121 -0.00024983073982125329 0 0.022623257906582227 -0.00066013793222540894 0 0.022217386260369121 -0.00024983073982125329 0 0.022009852130400256 -0.00078488552154621347 0 0.022386411223236723 -0.0010388866600856762 0 0.022623257906582227 -0.00066013793222540894 0 0.022009852130400256 -0.00078488552154621347 0 0.021030286319449542 -0.00088587606688484831 0 0.021488964391588362 -0.0004187534207016157 0 0.020598487275852454 -0.00042499031820004664 0 0.021488964391588362 -0.0004187534207016157 0 0.021115505910538176 0.00010915498393196549 0 0.020598487275852454 -0.00042499031820004664 0 0.021565006186168734 -0.0010939122652479957 0 0.022009852130400256 -0.00078488552154621347 0 0.021488964391588362 -0.0004187534207016157 0 0.021565006186168734 -0.0010939122652479957 0 0.021030286319449542 -0.00088587606688484831 0 0.021488964391588362 -0.0004187534207016157 0 0.02190715927151423 0.00020227673059854793 0 0.021488964391588362 -0.0004187534207016157 0 0.021115505910538176 0.00010915498393196549 0 0.02190715927151423 0.00020227673059854793 0 0.021115505910538176 0.00010915498393196549 0 0.021460938956935707 0.00080103045331682244 0 0.020151142386570838 0.00038366278245507892 0 0.021115505910538176 0.00010915498393196549 0 0.021460938956935707 0.00080103045331682244 0 0.020151142386570838 0.00038366278245507892 0 0.021115505910538176 0.00010915498393196549 0 0.020598487275852454 -0.00042499031820004664 0 0.019719157183579826 -0.00064404939688345215 0 0.020559308527649062 -0.0013188322744392886 0 0.020598487275852454 -0.00042499031820004664 0 0.020559308527649062 -0.0013188322744392886 0 0.021030286319449542 -0.00088587606688484831 0 0.020598487275852454 -0.00042499031820004664 0 0.018300042440931408 0.0013137925915694918 0 0.018282854007230422 0.0016359221825367073 0 0.01817523321334831 0.0015584231459633377 0 0.019136451902327645 0.0013221125270419648 0 0.020592920542681636 0.0011675086033551818 0 0.018300042440931408 0.0013137925915694918 0 0.018140397537708051 0.0013459235916037219 0 0.01817523321334831 0.0015584231459633377 0 0.018140397537708051 0.0013459235916037219 0 0.017976345572637994 0.0013504913647892315 0 0.01817523321334831 0.0015584231459633377 0 0.01916378238313194 0.00084859522224002473 0 0.021428326675535066 0.0007475549091728441 0 0.020005655442298223 0.0012943265857374108 0 0.020008277703268303 0.0013000789753091458 0 0.019998908682794886 0.0013083570528974072 0 0.020016276626475784 0.0012850455668820075 0 0.020008277703268303 0.0013000789753091458 0 0.020011422838766453 0.0012845604414739352 0 0.020005655442298223 0.0012943265857374108 0 0.020008277703268303 0.0013000789753091458 0 0.020011422838766453 0.0012845604414739352 0 0.020649377352014098 0.001490259968509968 0 0.018064426266629564 0.0014147271257102551 0 0.020004203096687816 0.0013094752602189194 0 0.020005655442298223 0.0012943265857374108 0 0.020008277470777314 0.0013029843823373773 0 0.019999947938853731 0.0013246563483417339 0 0.020004203096687816 0.0013094752602189194 0 0.020008277470777314 0.0013029843823373773 0 0.020005655442298223 0.0012943265857374108 0 0.020011422838766453 0.0012845604414739352 0 0.020008277470777314 0.0013029843823373773 0 0.019999947938853731 0.0013246563483417339 0 0.020011422838766453 0.0012845604414739352 0 0.020008277470777314 0.0013029843823373773 0 0.018064426266629564 0.0014147271257102551 0 0.019136451902327645 0.0013221125270419648 0 0.01832140819265712 0.0010015170398380248 0 0.018300042440931408 0.0013137925915694918 0 0.018109395519543391 0.0011634004451073039 0 0.018140397537708051 0.0013459235916037219 0 0.018109395519543391 0.0011634004451073039 0 0.017976345572637994 0.0013504913647892315 0 0.018300042440931408 0.0013137925915694918 0 0.018140397537708051 0.0013459235916037219 0 0.018109395519543391 0.0011634004451073039 0 0.015131301771753151 0.0011023370222341461 0 0.017003301050751218 0.00070190142528211497 0 0.018109395519543391 0.0011634004451073039 0 0.017787218350310441 0.001142925132483054 0 0.017976345572637994 0.0013504913647892315 0 0.018198574464176213 0.00095690473776391968 0 0.018109395519543391 0.0011634004451073039 0 0.017787218350310441 0.001142925132483054 0 0.017003301050751218 0.00070190142528211497 0 0.01916378238313194 0.00084859522224002473 0 0.019470824100968176 -0.00063791561717829097 0 0.020325805309897641 0.00033087343116045898 0 0.019849333189018846 0.00026944412165311903 0 0.014450984284848404 0.00042202187950259463 0 0.014588516285981791 0.0010176079228228073 0 0.015113702578788553 0.0010785430091072034 0 0.023838800132433564 -0.0020664267605154827 0 0.023404571268682343 -0.0016728586298601598 0 0.024436914126758039 -0.0016036855044403225 0 0.019838164944906474 -0.00024699072705467156 0 0.019102473551157278 -0.00052511402229071075 0 0.014588516285981791 0.0010176079228228073 0 0.015113702578788553 0.0010785430091072034 0 0.014849321235805745 0.0012107983779019152 0 0.017003301050751218 0.00070190142528211497 0 0.019102473551157278 -0.00052511402229071075 0 0.019470824100968176 -0.00063791561717829097 0 0.018981438776572913 -0.00040305854209542142 0 0.019849333189018846 0.00026944412165311903 0 0.019102473551157278 -0.00052511402229071075 0 0.022430553386903279 -0.00040706065916949763 0 0.023513181085015815 -0.0023055322615900984 0 0.023838800132433564 -0.0020664267605154827 0 0.023404571268682343 -0.0016728586298601598 0 0.023404571268682343 -0.0016728586298601598 0 0.023662769793224826 -0.0011088109639684793 0 0.024436914126758039 -0.0016036855044403225 0 0.023662769793224826 -0.0011088109639684793 0 0.024436914126758039 -0.0016036855044403225 0 0.024263350808213732 -0.00088975419201049451 0 0.024436914126758039 -0.0016036855044403225 0 0.024762514175859781 -0.00080922850877418559 0 0.025257167819775283 -0.00090825702351237335 0 0.020325805309897641 0.00033087343116045898 0 0.019849333189018846 0.00026944412165311903 0 0.021176512880448743 0.0012933762311377371 0 0.022430553386903279 -0.00040706065916949763 0 0.021428326675535066 0.0007475549091728441 0 0.024436914126758039 -0.0016036855044403225 0 0.024762514175859781 -0.00080922850877418559 0 0.024263350808213732 -0.00088975419201049451 0 0.024762514175859781 -0.00080922850877418559 0 0.02443564967369307 -0.0005519601464778445 0 0.024874402979718772 -0.0004148333299670606 0 0.024329056982878555 -0.00016745851857693218 0 0.024874402979718772 -0.0004148333299670606 0 0.025442389373772582 -0.0001819971112421858 0 0.024762514175859781 -0.00080922850877418559 0 0.024874402979718772 -0.0004148333299670606 0 0.025186373166254099 -0.00058146844164642833 0 0.024762514175859781 -0.00080922850877418559 0 0.02443564967369307 -0.0005519601464778445 0 0.024263350808213732 -0.00088975419201049451 0 0.02443564967369307 -0.0005519601464778445 0 0.024329056982878555 -0.00016745851857693218 0 0.024874402979718772 -0.0004148333299670606 0 0.023210778329477974 -0.00068068526506194016 0 0.023662769793224826 -0.0011088109639684793 0 0.023885781867349378 -0.00049012346251400439 0 0.02443564967369307 -0.0005519601464778445 0 0.024263350808213732 -0.00088975419201049451 0 0.023885781867349378 -0.00049012346251400439 0 0.023662769793224826 -0.0011088109639684793 0 0.024263350808213732 -0.00088975419201049451 0 0.023885781867349378 -0.00049012346251400439 0 0.024329056982878555 -0.00016745851857693218 0 0.023885781867349378 -0.00049012346251400439 0 0.02381170288386017 7.4127099753262118e-05 0 0.02443564967369307 -0.0005519601464778445 0 0.024329056982878555 -0.00016745851857693218 0 0.023885781867349378 -0.00049012346251400439 0 0.023366191389646226 -0.00016238103949038857 0 0.023885781867349378 -0.00049012346251400439 0 0.02381170288386017 7.4127099753262118e-05 0 0.023210778329477974 -0.00068068526506194016 0 0.023366191389646226 -0.00016238103949038857 0 0.023885781867349378 -0.00049012346251400439 0 0.024329056982878555 -0.00016745851857693218 0 0.02381170288386017 7.4127099753262118e-05 0 0.0244332464142537 0.00016359674664220988 0 0.0244332464142537 0.00016359674664220988 0 0.024675784388544675 0.00023601305628586953 0 0.024564690864476837 0.00019892625714317208 0 0.02381170288386017 7.4127099753262118e-05 0 0.0244332464142537 0.00016359674664220988 0 0.023608405460427712 0.00074302865865140931 0 0.024441514351836776 0.00020472730466678728 0 0.024086487840234674 0.00050005899891239383 0 0.023136914332606826 0.00023977282600497391 0 0.02381170288386017 7.4127099753262118e-05 0 0.023608405460427712 0.00074302865865140931 0 0.024329056982878555 -0.00016745851857693218 0 0.0246378578559662 0.00010843460083223605 0 0.024885371897570167 -3.8297759831638651e-05 0 0.024695887715942388 -0.00020090343192635311 0 0.024364272874305579 9.6700667448607823e-05 0 0.024329056982878555 -0.00016745851857693218 0 0.0244332464142537 0.00016359674664220988 0 0.0246378578559662 0.00010843460083223605 0 0.0244332464142537 0.00016359674664220988 0 0.024600894097091212 0.0002020292460363647 0 0.024564690864476837 0.00019892625714317208 0 0.0244332464142537 0.00016359674664220988 0 0.0246378578559662 0.00010843460083223605 0 0.024600894097091212 0.0002020292460363647 0 0.0246378578559662 0.00010843460083223605 0 0.024751774843174222 0.00021429943915746684 0 0.024600894097091212 0.0002020292460363647 0 0.0246378578559662 0.00010843460083223605 0 0.024885371897570167 -3.8297759831638651e-05 0 0.024751774843174222 0.00021429943915746684 0 0.02462018580531351 0.00059098990533684107 0 0.024663856995111949 0.0006724210238455194 0 0.024693351355572071 0.00048656050684093622 0 0.024364272874305579 9.6700667448607823e-05 0 0.024729957546762073 0.00036748102230270251 0 0.02462018580531351 0.00059098990533684107 0 0.0245618127538999 0.00053539128339782395 0 0.024693351355572071 0.00048656050684093622 0 0.02462018580531351 0.00059098990533684107 0 0.024663856995111949 0.0006724210238455194 0 0.024566496029828414 0.00066760224069835968 0 0.024364272874305579 9.6700667448607823e-05 0 0.023095480258239924 0.0009296997403553033 0 0.024874402979718772 -0.0004148333299670606 0 0.025442389373772582 -0.0001819971112421858 0 0.025186373166254099 -0.00058146844164642833 0 0.025442389373772582 -0.0001819971112421858 0 0.025500637401033734 -0.00059518226689521988 0 0.025186373166254099 -0.00058146844164642833 0 0.022784815995178211 0.00079057166078667636 0 0.022812590935334942 0.00054967189194958554 0 0.023034034090869217 0.00080134215971847968 0 0.020052985770964763 0.0013290952202935304 0 0.020052856779254471 0.0013344418590134648 0 0.020014590706492343 0.001323150477867218 0 0.024364272874305579 9.6700667448607823e-05 0 0.021661255824187636 0.00066306566680737668 0 0.021661255824187636 0.00066306566680737668 0 0.020592920542681636 0.0011675086033551818 0 0.020592920542681636 0.0011675086033551818 0 0.021428326675535066 0.0007475549091728441 0 0.021661255824187636 0.00066306566680737668 0 0.021428326675535066 0.0007475549091728441 0 0.021557840401705677 0.00084159560741151713 0 0.021565932346019674 0.00077982510685503377 0 0.021371373124981094 0.00062804987968288978 0 0.024762514175859781 -0.00080922850877418559 0 0.025257167819775283 -0.00090825702351237335 0 0.025186373166254099 -0.00058146844164642833 0 0.025500637401033734 -0.00059518226689521988 0 0.025257167819775283 -0.00090825702351237335 0 0.025186373166254099 -0.00058146844164642833 0 0.020016276626475784 0.0012850455668820075 0 0.020008277703268303 0.0013000789753091458 0 0.020012785027631552 0.0013209038341342968 0 0.020008277703268303 0.0013000789753091458 0 0.020012785027631552 0.0013209038341342968 0 0.020011258225844313 0.0013154748677048963 0 0.020008277703268303 0.0013000789753091458 0 0.019998908682794886 0.0013083570528974072 0 0.020008806938593769 0.0013126609909252004 0 0.019998908682794886 0.0013083570528974072 0 0.020008806938593769 0.0013126609909252004 0 0.020014590706492343 0.001323150477867218 0 0.020008277703268303 0.0013000789753091458 0 0.020011258225844313 0.0013154748677048963 0 0.020008806938593769 0.0013126609909252004 0 0.020592920542681636 0.0011675086033551818 0 0.020049873329160313 0.0011762878375779055 0 0.021661255824187636 0.00066306566680737668 0 0.023095480258239924 0.0009296997403553033 0 0.020052985770964763 0.0013290952202935304 0 0.020014590706492343 0.001323150477867218 0 0.020015399300890493 0.0013212156103612912 0 0.020011258225844313 0.0013154748677048963 0 0.020008806938593769 0.0013126609909252004 0 0.020014590706492343 0.001323150477867218 0 0.020012785027631552 0.0013209038341342968 0 0.020014590706492343 0.001323150477867218 0 0.020015399300890493 0.0013212156103612912 0 0.020012785027631552 0.0013209038341342968 0 0.020011258225844313 0.0013154748677048963 0 0.020014590706492343 0.001323150477867218 0 0.023095480258239924 0.0009296997403553033 0 0.024730489255023937 0.00077005442790975445 0 0.024566496029828414 0.00066760224069835968 0 0.0245618127538999 0.00053539128339782395 0 0.024421511452307705 0.00052698116657329188 0 0.02462018580531351 0.00059098990533684107 0 0.024566496029828414 0.00066760224069835968 0 0.0245618127538999 0.00053539128339782395 0 0.0245618127538999 0.00053539128339782395 0 0.024545094449672053 0.00033041519665058847 0 0.024421511452307705 0.00052698116657329188 0 0.0245618127538999 0.00053539128339782395 0 0.024545094449672053 0.00033041519665058847 0 0.024693351355572071 0.00048656050684093622 0 0.024545094449672053 0.00033041519665058847 0 0.024558051710816067 0.00013785523592235721 0 0.024667625468997603 0.00016762432058931598 0 0.024545094449672053 0.00033041519665058847 0 0.024558051710816067 0.00013785523592235721 0 0.02436849114181857 0.00021743035581382254 0 0.024545094449672053 0.00033041519665058847 0 0.024705427903652686 0.00026033860285652364 0 0.024667625468997603 0.00016762432058931598 0 0.024713925856266288 0.00026284919804176057 0 0.024729957546762073 0.00036748102230270251 0 0.024545094449672053 0.00033041519665058847 0 0.024705427903652686 0.00026033860285652364 0 0.024693351355572071 0.00048656050684093622 0 0.024705427903652686 0.00026033860285652364 0 0.024751774843174222 0.00021429943915746684 0 0.024659664473275594 0.00023295035961764095 0 0.024751774843174222 0.00021429943915746684 0 0.024600894097091212 0.0002020292460363647 0 0.024659664473275594 0.00023295035961764095 0 0.024600894097091212 0.0002020292460363647 0 0.024617070881816007 0.00021059643717540426 0 0.024564690864476837 0.00019892625714317208 0 0.024600894097091212 0.0002020292460363647 0 0.024617070881816007 0.00021059643717540426 0 0.024659664473275594 0.00023295035961764095 0 0.024617070881816007 0.00021059643717540426 0 0.024659664473275594 0.00023295035961764095 0 0.024667958064883859 0.00020270277549359509 0 0.024675784388544675 0.00023601305628586953 0 0.024634667364495811 0.00020544666689230527 0 0.02469390292079663 0.00020371379016304996 0 0.024675784388544675 0.00023601305628586953 0 0.024634667364495811 0.00020544666689230527 0 0.024564690864476837 0.00019892625714317208 0 0.024617070881816007 0.00021059643717540426 0 0.024634667364495811 0.00020544666689230527 0 0.024564690864476837 0.00019892625714317208 0 0.024617070881816007 0.00021059643717540426 0 0.024658839500089073 0.0002014891165689696 0 0.024667958064883859 0.00020270277549359509 0 0.024658839500089073 0.0002014891165689696 0 0.024684383649484606 0.0001938689376280452 0 0.024667958064883859 0.00020270277549359509 0 0.024617070881816007 0.00021059643717540426 0 0.024634667364495811 0.00020544666689230527 0 0.024658839500089073 0.0002014891165689696 0 0.024634667364495811 0.00020544666689230527 0 0.024658839500089073 0.0002014891165689696 0 0.02469390292079663 0.00020371379016304996 0 0.024658839500089073 0.0002014891165689696 0 0.024687741892120262 0.00019605978349967367 0 0.02469390292079663 0.00020371379016304996 0 0.024658839500089073 0.0002014891165689696 0 0.024687741892120262 0.00019605978349967367 0 0.024684383649484606 0.0001938689376280452 0 0.024687741892120262 0.00019605978349967367 0 0.024698661963005304 0.00019884928222949129 0 0.024713148461191912 0.00019728349474735111 0 0.024687741892120262 0.00019605978349967367 0 0.024698661963005304 0.00019884928222949129 0 0.02469390292079663 0.00020371379016304996 0 0.024687741892120262 0.00019605978349967367 0 0.024708451239795842 0.0001891954819866694 0 0.024713148461191912 0.00019728349474735111 0 0.024698661963005304 0.00019884928222949129 0 0.02469390292079663 0.00020371379016304996 0 0.024713148461191912 0.00019728349474735111 0 0.024728391782267517 0.00017184369171351844 0 0.024732148630661276 0.00017806763615712591 0 0.02474848190438883 0.00016514162279704798 0 0.024728391782267517 0.00017184369171351844 0 0.024718190181663043 0.00018369416951812486 0 0.024706871780443639 0.00018524363229491185 0 0.024728391782267517 0.00017184369171351844 0 0.024718190181663043 0.00018369416951812486 0 0.024732148630661276 0.00017806763615712591 0 0.024718190181663043 0.00018369416951812486 0 0.024721923944141688 0.00018761754288758854 0 0.024732148630661276 0.00017806763615712591 0 0.024718190181663043 0.00018369416951812486 0 0.024708451239795842 0.0001891954819866694 0 0.024721923944141688 0.00018761754288758854 0 0.024708451239795842 0.0001891954819866694 0 0.024713148461191912 0.00019728349474735111 0 0.024721923944141688 0.00018761754288758854 0 0.024718190181663043 0.00018369416951812486 0 0.024708451239795842 0.0001891954819866694 0 0.024706871780443639 0.00018524363229491185 0 0.024706871780443639 0.00018524363229491185 0 0.024704189509919164 0.00018159250528283774 0 0.024684383649484606 0.0001938689376280452 0 0.024687741892120262 0.00019605978349967367 0 0.024708451239795842 0.0001891954819866694 0 0.024706871780443639 0.00018524363229491185 0 0.024687741892120262 0.00019605978349967367 0 0.024706871780443639 0.00018524363229491185 0 0.024684383649484606 0.0001938689376280452 0 0.024728391782267517 0.00017184369171351844 0 0.024706871780443639 0.00018524363229491185 0 0.024704189509919164 0.00018159250528283774 0 0.024704189509919164 0.00018159250528283774 0 0.024667958064883859 0.00020270277549359509 0 0.024705034031564252 0.0001928170230315839 0 0.024704189509919164 0.00018159250528283774 0 0.024684383649484606 0.0001938689376280452 0 0.024667958064883859 0.00020270277549359509 0 0.024745037784125894 0.00014818567249426782 0 0.024705034031564252 0.0001928170230315839 0 0.024746365168467063 0.00013543921289330016 0 0.024704189509919164 0.00018159250528283774 0 0.024745037784125894 0.00014818567249426782 0 0.024705034031564252 0.0001928170230315839 0 0.024728391782267517 0.00017184369171351844 0 0.024704189509919164 0.00018159250528283774 0 0.024745037784125894 0.00014818567249426782 0 0.024745037784125894 0.00014818567249426782 0 0.024752853651525457 0.00015345990371385778 0 0.024780409100318705 0.00013208702336177248 0 0.024728391782267517 0.00017184369171351844 0 0.024745037784125894 0.00014818567249426782 0 0.024752853651525457 0.00015345990371385778 0 0.024728391782267517 0.00017184369171351844 0 0.024752853651525457 0.00015345990371385778 0 0.02474848190438883 0.00016514162279704798 0 0.024705427903652686 0.00026033860285652364 0 0.024659664473275594 0.00023295035961764095 0 0.024705034031564252 0.0001928170230315839 0 0.024705427903652686 0.00026033860285652364 0 0.024705034031564252 0.0001928170230315839 0 0.02473718678268207 0.00013016847688596464 0 0.024659664473275594 0.00023295035961764095 0 0.024667958064883859 0.00020270277549359509 0 0.024705034031564252 0.0001928170230315839 0 0.024705034031564252 0.0001928170230315839 0 0.02473718678268207 0.00013016847688596464 0 0.024746365168467063 0.00013543921289330016 0 0.02473718678268207 0.00013016847688596464 0 0.024746365168467063 0.00013543921289330016 0 0.024779191847393616 8.3294111845697098e-05 0 0.024745037784125894 0.00014818567249426782 0 0.024775806761322103 0.00011083977643177278 0 0.024780409100318705 0.00013208702336177248 0 0.024745037784125894 0.00014818567249426782 0 0.024746365168467063 0.00013543921289330016 0 0.024775806761322103 0.00011083977643177278 0 0.024746365168467063 0.00013543921289330016 0 0.024775806761322103 0.00011083977643177278 0 0.024779191847393616 8.3294111845697098e-05 0 0.024775806761322103 0.00011083977643177278 0 0.024801025366045885 7.5105438464317188e-05 0 0.024779191847393616 8.3294111845697098e-05 0 0.024779191847393616 8.3294111845697098e-05 0 0.024812737583390008 3.6300033084128795e-05 0 0.024784580965422503 3.4422532452357958e-05 0 0.024801025366045885 7.5105438464317188e-05 0 0.024812737583390008 3.6300033084128795e-05 0 0.024828794890383941 5.6727096747823227e-05 0 0.024801025366045885 7.5105438464317188e-05 0 0.024779191847393616 8.3294111845697098e-05 0 0.024812737583390008 3.6300033084128795e-05 0 0.02473718678268207 0.00013016847688596464 0 0.024779191847393616 8.3294111845697098e-05 0 0.024784580965422503 3.4422532452357958e-05 0 0.024784580965422503 3.4422532452357958e-05 0 0.024713586479725904 2.9444942471992496e-05 0 0.024781724449098944 -1.0353357268250446e-05 0 0.02473718678268207 0.00013016847688596464 0 0.024784580965422503 3.4422532452357958e-05 0 0.024713586479725904 2.9444942471992496e-05 0 0.024713586479725904 2.9444942471992496e-05 0 0.024614719087703348 2.6593609592433926e-05 0 0.024691336979997945 -9.3725718713331756e-05 0 0.024713586479725904 2.9444942471992496e-05 0 0.024614719087703348 2.6593609592433926e-05 0 0.024558051710816067 0.00013785523592235721 0 0.024713586479725904 2.9444942471992496e-05 0 0.024558051710816067 0.00013785523592235721 0 0.024667625468997603 0.00016762432058931598 0 0.02473718678268207 0.00013016847688596464 0 0.024713586479725904 2.9444942471992496e-05 0 0.024667625468997603 0.00016762432058931598 0 0.024705427903652686 0.00026033860285652364 0 0.02473718678268207 0.00013016847688596464 0 0.024667625468997603 0.00016762432058931598 0 0.024479986879766116 -0.00035187642548523362 0 0.024429463009977063 -0.000334233800573598 0 0.024494175218220001 -0.00029234484597876625 0 0.024521829444064454 -0.00034412160194949949 0 0.024479986879766116 -0.00035187642548523362 0 0.024494175218220001 -0.00029234484597876625 0 0.024429463009977063 -0.000334233800573598 0 0.024494175218220001 -0.00029234484597876625 0 0.024423349789565493 -0.000265895994462069 0 0.024496702094886174 -0.00019830323280564815 0 0.024494175218220001 -0.00029234484597876625 0 0.024423349789565493 -0.000265895994462069 0 0.022689750031214647 0.0003436223072915966 0 0.022754461971580014 0.00028728255806018702 0 0.024496702094886174 -0.00019830323280564815 0 0.024423349789565493 -0.000265895994462069 0 0.024358132943414327 -0.00020559105647546558 0 0.024423349789565493 -0.000265895994462069 0 0.024358132943414327 -0.00020559105647546558 0 0.024334646154276923 -0.00033484868773564025 0 0.024367275322825011 -0.00029445521240674893 0 0.024294008400878232 -0.0002836282407949716 0 0.024404624508784434 -0.00035437520527232093 0 0.024429463009977063 -0.000334233800573598 0 0.024334646154276923 -0.00033484868773564025 0 0.024481725351940781 -0.00039525258361557147 0 0.024429463009977063 -0.000334233800573598 0 0.024423349789565493 -0.000265895994462069 0 0.024334646154276923 -0.00033484868773564025 0 0.024557275897249698 -6.2899325986662559e-05 0 0.024654760186230973 -0.00011805832863309967 0 0.024433390081039303 -0.00039034054556223821 0 0.023903108117257817 0.00017553989536571807 0 0.024849593579894809 0.00015807847167174073 0 0.024860917082287819 0.0001211550411563918 0 0.024906193995657942 0.00011141220122216213 0 0.024367275322825011 -0.00029445521240674893 0 0.024294008400878232 -0.0002836282407949716 0 0.024245975960680205 -0.00020283135073775635 0 0.024358132943414327 -0.00020559105647546558 0 0.024334646154276923 -0.00033484868773564025 0 0.024182109529518322 -0.00024234302643722988 0 0.022754461971580014 0.00028728255806018702 0 0.023903108117257817 0.00017553989536571807 0 0.02257297821670666 0.00056807678703070421 0 0.021460938956935707 0.00080103045331682244 0 0.022839890777475391 0.0012165650717195138 0 0.02257297821670666 0.00056807678703070421 0 0.023608405460427712 0.00074302865865140931 0 0.022839890777475391 0.0012165650717195138 0 0.024086487840234674 0.00050005899891239383 0 0.023903108117257817 0.00017553989536571807 0 0.02469390292079663 0.00020371379016304996 0 0.024738721296306082 0.00020385896306427157 0 0.024713148461191912 0.00019728349474735111 0 0.023903108117257817 0.00017553989536571807 0 0.024525953924721147 -2.2549472453598971e-06 0 0.024675784388544675 0.00023601305628586953 0 0.02469390292079663 0.00020371379016304996 0 0.024738721296306082 0.00020385896306427157 0 0.024713148461191912 0.00019728349474735111 0 0.024721923944141688 0.00018761754288758854 0 0.02473671354870275 0.0001797486489841883 0 0.024557275897249698 -6.2899325986662559e-05 0 0.024525953924721147 -2.2549472453598971e-06 0 0.024294008400878232 -0.0002836282407949716 0 0.024245975960680205 -0.00020283135073775635 0 0.024180503312619353 -0.00021931505782068854 0 0.024713148461191912 0.00019728349474735111 0 0.02473671354870275 0.0001797486489841883 0 0.02476775404354949 0.00017072426460723313 0 0.024849593579894809 0.00015807847167174073 0 0.024713148461191912 0.00019728349474735111 0 0.02476775404354949 0.00017072426460723313 0 0.024721923944141688 0.00018761754288758854 0 0.02473671354870275 0.0001797486489841883 0 0.024732148630661276 0.00017806763615712591 0 0.02473671354870275 0.0001797486489841883 0 0.02476775404354949 0.00017072426460723313 0 0.02474848190438883 0.00016514162279704798 0 0.02473671354870275 0.0001797486489841883 0 0.024732148630661276 0.00017806763615712591 0 0.02474848190438883 0.00016514162279704798 0 0.024849593579894809 0.00015807847167174073 0 0.02476775404354949 0.00017072426460723313 0 0.024798093983889977 0.00014301142465730722 0 0.024849593579894809 0.00015807847167174073 0 0.024798093983889977 0.00014301142465730722 0 0.02482690181108399 0.00011469539753678418 0 0.024798093983889977 0.00014301142465730722 0 0.024770914656785156 0.00015194970743439285 0 0.024780409100318705 0.00013208702336177248 0 0.024752853651525457 0.00015345990371385778 0 0.024770914656785156 0.00015194970743439285 0 0.024780409100318705 0.00013208702336177248 0 0.024752853651525457 0.00015345990371385778 0 0.02474848190438883 0.00016514162279704798 0 0.024770914656785156 0.00015194970743439285 0 0.02476775404354949 0.00017072426460723313 0 0.024798093983889977 0.00014301142465730722 0 0.024770914656785156 0.00015194970743439285 0 0.02476775404354949 0.00017072426460723313 0 0.02474848190438883 0.00016514162279704798 0 0.024770914656785156 0.00015194970743439285 0 0.024775806761322103 0.00011083977643177278 0 0.024780409100318705 0.00013208702336177248 0 0.024808291426699911 9.2134280572554701e-05 0 0.024780409100318705 0.00013208702336177248 0 0.02482690181108399 0.00011469539753678418 0 0.024808291426699911 9.2134280572554701e-05 0 0.024798093983889977 0.00014301142465730722 0 0.024780409100318705 0.00013208702336177248 0 0.02482690181108399 0.00011469539753678418 0 0.02482690181108399 0.00011469539753678418 0 0.024808291426699911 9.2134280572554701e-05 0 0.024837739285054113 7.9350844687598138e-05 0 0.024775806761322103 0.00011083977643177278 0 0.024801025366045885 7.5105438464317188e-05 0 0.024808291426699911 9.2134280572554701e-05 0 0.024828794890383941 5.6727096747823227e-05 0 0.024859835498411219 5.1014717952000365e-05 0 0.0248350755097515 2.0282471310751823e-05 0 0.024812737583390008 3.6300033084128795e-05 0 0.024828794890383941 5.6727096747823227e-05 0 0.0248350755097515 2.0282471310751823e-05 0 0.024801025366045885 7.5105438464317188e-05 0 0.024808291426699911 9.2134280572554701e-05 0 0.024828794890383941 5.6727096747823227e-05 0 0.024808291426699911 9.2134280572554701e-05 0 0.024828794890383941 5.6727096747823227e-05 0 0.024837739285054113 7.9350844687598138e-05 0 0.024837739285054113 7.9350844687598138e-05 0 0.024859835498411219 5.1014717952000365e-05 0 0.024862097739452478 8.9272969849401467e-05 0 0.024828794890383941 5.6727096747823227e-05 0 0.024837739285054113 7.9350844687598138e-05 0 0.024859835498411219 5.1014717952000365e-05 0 0.024859835498411219 5.1014717952000365e-05 0 0.024862097739452478 8.9272969849401467e-05 0 0.024893464178079212 7.8628771596743116e-05 0 0.024862097739452478 8.9272969849401467e-05 0 0.024860917082287819 0.0001211550411563918 0 0.024881104869980387 9.9845058707772669e-05 0 0.024862097739452478 8.9272969849401467e-05 0 0.024881104869980387 9.9845058707772669e-05 0 0.024893464178079212 7.8628771596743116e-05 0 0.02482690181108399 0.00011469539753678418 0 0.024837739285054113 7.9350844687598138e-05 0 0.024862097739452478 8.9272969849401467e-05 0 0.02482690181108399 0.00011469539753678418 0 0.024862097739452478 8.9272969849401467e-05 0 0.024860917082287819 0.0001211550411563918 0 0.024849593579894809 0.00015807847167174073 0 0.02482690181108399 0.00011469539753678418 0 0.024860917082287819 0.0001211550411563918 0 0.024433390081039303 -0.00039034054556223821 0 0.024435004644700144 -0.00036061450111944362 0 0.024367275322825011 -0.00029445521240674893 0 0.024404624508784434 -0.00035437520527232093 0 0.024481725351940781 -0.00039525258361557147 0 0.024860917082287819 0.0001211550411563918 0 0.024906193995657942 0.00011141220122216213 0 0.024881104869980387 9.9845058707772669e-05 0 0.024906193995657942 0.00011141220122216213 0 0.024917239993975375 8.0827359234414002e-05 0 0.024893464178079212 7.8628771596743116e-05 0 0.024906193995657942 0.00011141220122216213 0 0.024881104869980387 9.9845058707772669e-05 0 0.024893464178079212 7.8628771596743116e-05 0 0.024859835498411219 5.1014717952000365e-05 0 0.024893464178079212 7.8628771596743116e-05 0 0.024903992580253352 4.5380889512116887e-05 0 0.024917239993975375 8.0827359234414002e-05 0 0.024893464178079212 7.8628771596743116e-05 0 0.024903992580253352 4.5380889512116887e-05 0 0.024971825820160679 -5.3728545148647366e-05 0 0.024745836612626478 -0.000202847872424321 0 0.024974069957978878 -0.00019975811694947272 0 0.024878402319475013 -0.00029732609473357303 0 0.024904785482720855 -0.00019081318049277303 0 0.024917239993975375 8.0827359234414002e-05 0 0.024903992580253352 4.5380889512116887e-05 0 0.024953719626463533 8.2204775699409614e-05 0 0.024850891782677791 -0.00023737936869860319 0 0.024878402319475013 -0.00029732609473357303 0 0.024904785482720855 -0.00019081318049277303 0 0.024654760186230973 -0.00011805832863309967 0 0.024745836612626478 -0.000202847872424321 0 0.024906193995657942 0.00011141220122216213 0 0.024917239993975375 8.0827359234414002e-05 0 0.024953719626463533 8.2204775699409614e-05 0 0.024404624508784434 -0.00035437520527232093 0 0.024513301478683944 -0.00042782204539521874 0 0.024481725351940781 -0.00039525258361557147 0 0.024513301478683944 -0.00042782204539521874 0 0.024481725351940781 -0.00039525258361557147 0 0.024517826869790357 -0.0003763498136995183 0 0.024479986879766116 -0.00035187642548523362 0 0.024429463009977063 -0.000334233800573598 0 0.024481725351940781 -0.00039525258361557147 0 0.024479986879766116 -0.00035187642548523362 0 0.024481725351940781 -0.00039525258361557147 0 0.024517826869790357 -0.0003763498136995183 0 0.024521829444064454 -0.00034412160194949949 0 0.024479986879766116 -0.00035187642548523362 0 0.024517826869790357 -0.0003763498136995183 0 0.024909248057775075 -0.0001139620601828814 0 0.024973517762934647 -6.2503717570957075e-05 0 0.024894418522486653 -5.1264873853860186e-05 0 0.024977158389933772 -6.3537082487033681e-05 0 0.024922257406067089 -4.043046788001137e-05 0 0.024909248057775075 -0.0001139620601828814 0 0.024963398385002156 -0.00013020702503841152 0 0.024973517762934647 -6.2503717570957075e-05 0 0.024855460699381434 -0.00016912099392509686 0 0.024909248057775075 -0.0001139620601828814 0 0.024904785482720855 -0.00019081318049277303 0 0.024909248057775075 -0.0001139620601828814 0 0.024904785482720855 -0.00019081318049277303 0 0.024963398385002156 -0.00013020702503841152 0 0.024974069957978878 -0.00019975811694947272 0 0.024904785482720855 -0.00019081318049277303 0 0.024963398385002156 -0.00013020702503841152 0 0.024974069957978878 -0.00019975811694947272 0 0.024963398385002156 -0.00013020702503841152 0 0.025021413555012698 -8.7960140408405421e-05 0 0.024963398385002156 -0.00013020702503841152 0 0.024973517762934647 -6.2503717570957075e-05 0 0.025021413555012698 -8.7960140408405421e-05 0 0.024973517762934647 -6.2503717570957075e-05 0 0.025021413555012698 -8.7960140408405421e-05 0 0.025005844805730433 -2.307517178819111e-05 0 0.024859835498411219 5.1014717952000365e-05 0 0.024903992580253352 4.5380889512116887e-05 0 0.024856310063259855 1.2232295533575316e-05 0 0.024971825820160679 -5.3728545148647366e-05 0 0.024928430685073787 -4.5753459604328493e-05 0 0.024859835498411219 5.1014717952000365e-05 0 0.024856310063259855 1.2232295533575316e-05 0 0.0248350755097515 2.0282471310751823e-05 0 0.025021413555012698 -8.7960140408405421e-05 0 0.025005844805730433 -2.307517178819111e-05 0 0.025007801754750033 -2.0588403379273648e-05 0 0.024928430685073787 -4.5753459604328493e-05 0 0.024927863158965374 -1.6774874996421583e-05 0 0.024856310063259855 1.2232295533575316e-05 0 0.0248350755097515 2.0282471310751823e-05 0 0.024846767187709742 -6.3463200703326882e-06 0 0.025000009659404059 -3.5311123778976967e-08 0 0.025005844805730433 -2.307517178819111e-05 0 0.025007801754750033 -2.0588403379273648e-05 0 0.025000009659404059 -3.5311123778976967e-08 0 0.025000013021031279 -4.7358858348777142e-09 0 0.025005844805730433 -2.307517178819111e-05 0 0.024973517762934647 -6.2503717570957075e-05 0 0.025005844805730433 -2.307517178819111e-05 0 0.024988655521037972 -2.0350916227554946e-05 0 0.025000013021031279 -4.7358858348777142e-09 0 0.024988655521037972 -2.0350916227554946e-05 0 0.024999915874740323 -2.0402575518890075e-08 0 0.025000013021031279 -4.7358858348777142e-09 0 0.025005844805730433 -2.307517178819111e-05 0 0.024988655521037972 -2.0350916227554946e-05 0 0.024988655521037972 -2.0350916227554946e-05 0 0.024999915874740323 -2.0402575518890075e-08 0 0.024983880496698391 -2.1084090384026713e-05 0 0.024973517762934647 -6.2503717570957075e-05 0 0.024988655521037972 -2.0350916227554946e-05 0 0.024974785627191576 -3.953814731513739e-05 0 0.024988655521037972 -2.0350916227554946e-05 0 0.024983880496698391 -2.1084090384026713e-05 0 0.024974785627191576 -3.953814731513739e-05 0 0.024832012685680072 -2.6451973277084335e-05 0 0.024882186787338001 -1.3868893961761162e-05 0 0.024912102916721655 -1.28297993356061e-05 0 0.024832012685680072 -2.6451973277084335e-05 0 0.024828984580167506 -3.3332924393164233e-05 0 0.024912102916721655 -1.28297993356061e-05 0 0.024832012685680072 -2.6451973277084335e-05 0 0.024828984580167506 -3.3332924393164233e-05 0 0.024765645043566299 -4.843699375990385e-05 0 0.024828984580167506 -3.3332924393164233e-05 0 0.024765645043566299 -4.843699375990385e-05 0 0.024691336979997945 -9.3725718713331756e-05 0 0.024713586479725904 2.9444942471992496e-05 0 0.024765645043566299 -4.843699375990385e-05 0 0.024691336979997945 -9.3725718713331756e-05 0 0.024832012685680072 -2.6451973277084335e-05 0 0.024765645043566299 -4.843699375990385e-05 0 0.024781724449098944 -1.0353357268250446e-05 0 0.024832012685680072 -2.6451973277084335e-05 0 0.024781724449098944 -1.0353357268250446e-05 0 0.024830938222260023 -2.9849426314820555e-06 0 0.024713586479725904 2.9444942471992496e-05 0 0.024765645043566299 -4.843699375990385e-05 0 0.024781724449098944 -1.0353357268250446e-05 0 0.024812737583390008 3.6300033084128795e-05 0 0.024784580965422503 3.4422532452357958e-05 0 0.024830938222260023 -2.9849426314820555e-06 0 0.024784580965422503 3.4422532452357958e-05 0 0.024781724449098944 -1.0353357268250446e-05 0 0.024830938222260023 -2.9849426314820555e-06 0 0.024812737583390008 3.6300033084128795e-05 0 0.0248350755097515 2.0282471310751823e-05 0 0.024830938222260023 -2.9849426314820555e-06 0 0.0248350755097515 2.0282471310751823e-05 0 0.024830938222260023 -2.9849426314820555e-06 0 0.024846767187709742 -6.3463200703326882e-06 0 0.024830938222260023 -2.9849426314820555e-06 0 0.024846767187709742 -6.3463200703326882e-06 0 0.024882186787338001 -1.3868893961761162e-05 0 0.024832012685680072 -2.6451973277084335e-05 0 0.024830938222260023 -2.9849426314820555e-06 0 0.024882186787338001 -1.3868893961761162e-05 0 0.025000009659404059 -3.5311123778976967e-08 0 0.025007801754750033 -2.0588403379273648e-05 0 0.024942678546011343 -7.244997082293404e-06 0 0.024882186787338001 -1.3868893961761162e-05 0 0.024942678546011343 -7.244997082293404e-06 0 0.024912102916721655 -1.28297993356061e-05 0 0.024846767187709742 -6.3463200703326882e-06 0 0.024882186787338001 -1.3868893961761162e-05 0 0.024942678546011343 -7.244997082293404e-06 0 0.024927863158965374 -1.6774874996421583e-05 0 0.024935679992051527 -1.069629949099913e-05 0 0.024942678546011343 -7.244997082293404e-06 0 0.024999868208244055 -7.8417000350795406e-09 0 0.024912102916721655 -1.28297993356061e-05 0 0.025000009659404059 -3.5311123778976967e-08 0 0.024942678546011343 -7.244997082293404e-06 0 0.024999868208244055 -7.8417000350795406e-09 0 0.024999868208244055 -7.8417000350795406e-09 0 0.024912102916721655 -1.28297993356061e-05 0 0.024999877929392834 -5.3395720551675233e-09 0 0.024828984580167506 -3.3332924393164233e-05 0 0.024912102916721655 -1.28297993356061e-05 0 0.024931182307265615 -2.861893010271925e-06 0 0.024912102916721655 -1.28297993356061e-05 0 0.024999877929392834 -5.3395720551675233e-09 0 0.024931182307265615 -2.861893010271925e-06 0 0.024999877929392834 -5.3395720551675233e-09 0 0.024999944261548994 1.8709262913013862e-08 0 0.024931182307265615 -2.861893010271925e-06 0 0.024999944261548994 1.8709262913013862e-08 0 0.024923260502885947 -8.4411737079231077e-06 0 0.024983537618806218 -2.8173466659363842e-06 0 0.024999944261548994 1.8709262913013862e-08 0 0.024923260502885947 -8.4411737079231077e-06 0 0.024931182307265615 -2.861893010271925e-06 0 0.024828984580167506 -3.3332924393164233e-05 0 0.024923260502885947 -8.4411737079231077e-06 0 0.024931182307265615 -2.861893010271925e-06 0 0.024999939319940181 8.0495120981926788e-08 0 0.025097374896959606 -1.2104518766094077e-05 0 0.025000038427610709 2.4496735268291753e-09 0 0.025034581483483545 4.3054932819387162e-05 0 0.024999573922276967 1.6944068797804261e-05 0 0.024999944261548994 1.8709262913013862e-08 0 0.024999994719943804 -2.9401100631347196e-09 0 0.024983537618806218 -2.8173466659363842e-06 0 0.024923260502885947 -8.4411737079231077e-06 0 0.024983537618806218 -2.8173466659363842e-06 0 0.024967259039444439 -2.2191301657209586e-05 0 0.024999994719943804 -2.9401100631347196e-09 0 0.024983537618806218 -2.8173466659363842e-06 0 0.024990385990666362 -1.17834584960509e-05 0 0.024983537618806218 -2.8173466659363842e-06 0 0.024990385990666362 -1.17834584960509e-05 0 0.024967259039444439 -2.2191301657209586e-05 0 0.024990385990666362 -1.17834584960509e-05 0 0.024977733263476066 -3.0086909247205674e-05 0 0.024986051379123145 -4.1022289626026681e-05 0 0.024990385990666362 -1.17834584960509e-05 0 0.024977733263476066 -3.0086909247205674e-05 0 0.024967259039444439 -2.2191301657209586e-05 0 0.02388383664534682 0.00043017361372270759 0 0.023917867538162926 0.0004254284792362865 0 0.023893800551865449 0.00044505551542660317 0 0.024977733263476066 -3.0086909247205674e-05 0 0.024967259039444439 -2.2191301657209586e-05 0 0.024965844598863082 -4.5676051930676116e-05 0 0.024401132203373324 0.00019700591076856781 0 0.024532114707492302 1.9539006434685233e-05 0 0.024967259039444439 -2.2191301657209586e-05 0 0.024965844598863082 -4.5676051930676116e-05 0 0.02493423058146357 -5.0941166573398438e-05 0 0.024401132203373324 0.00019700591076856781 0 0.024438578621499937 0.00029117206525708128 0 0.024977733263476066 -3.0086909247205674e-05 0 0.024965844598863082 -4.5676051930676116e-05 0 0.024986051379123145 -4.1022289626026681e-05 0 0.024828984580167506 -3.3332924393164233e-05 0 0.024923260502885947 -8.4411737079231077e-06 0 0.024691336979997945 -9.3725718713331756e-05 0 0.025017281688678668 -6.3517472702082902e-05 0 0.024532114707492302 1.9539006434685233e-05 0 0.024923260502885947 -8.4411737079231077e-06 0 0.024967259039444439 -2.2191301657209586e-05 0 0.02493423058146357 -5.0941166573398438e-05 0 0.024532114707492302 1.9539006434685233e-05 0 0.024697141668603474 -0.00012588623510804991 0 0.024923260502885947 -8.4411737079231077e-06 0 0.024860228478537773 -0.00011950866951854524 0 0.024691336979997945 -9.3725718713331756e-05 0 0.024614719087703348 2.6593609592433926e-05 0 0.024691336979997945 -9.3725718713331756e-05 0 0.024436036151644965 4.0381031733087754e-05 0 0.024298307987394893 -0.00016300010785574563 0 0.024691336979997945 -9.3725718713331756e-05 0 0.024436036151644965 4.0381031733087754e-05 0 0.024614719087703348 2.6593609592433926e-05 0 0.024558051710816067 0.00013785523592235721 0 0.024436036151644965 4.0381031733087754e-05 0 0.024558051710816067 0.00013785523592235721 0 0.024436036151644965 4.0381031733087754e-05 0 0.02436849114181857 0.00021743035581382254 0 0.024436036151644965 4.0381031733087754e-05 0 0.02436849114181857 0.00021743035581382254 0 0.024150845576208103 0.00012624949943403912 0 0.023917867538162926 0.0004254284792362865 0 0.023900222896724284 0.00046396791444026881 0 0.023893800551865449 0.00044505551542660317 0 0.024532114707492302 1.9539006434685233e-05 0 0.02396263550320165 0.00033897811173337102 0 0.024298307987394893 -0.00016300010785574563 0 0.024436036151644965 4.0381031733087754e-05 0 0.024150845576208103 0.00012624949943403912 0 0.02388383664534682 0.00043017361372270759 0 0.023893800551865449 0.00044505551542660317 0 0.023873327783502978 0.00045970915454749724 0 0.023900222896724284 0.00046396791444026881 0 0.023893800551865449 0.00044505551542660317 0 0.023873327783502978 0.00045970915454749724 0 0.02388383664534682 0.00043017361372270759 0 0.023873327783502978 0.00045970915454749724 0 0.023858352818193325 0.00043569443292933201 0 0.023873327783502978 0.00045970915454749724 0 0.023853137846825228 0.00047385991834230777 0 0.023858352818193325 0.00043569443292933201 0 0.023873327783502978 0.00045970915454749724 0 0.023874270055486497 0.00047753136671262029 0 0.02385365471411529 0.00048108743883389993 0 0.023873327783502978 0.00045970915454749724 0 0.02385365471411529 0.00048108743883389993 0 0.023853137846825228 0.00047385991834230777 0 0.023900222896724284 0.00046396791444026881 0 0.023873327783502978 0.00045970915454749724 0 0.023874270055486497 0.00047753136671262029 0 0.023900222896724284 0.00046396791444026881 0 0.023874270055486497 0.00047753136671262029 0 0.023894899734765367 0.00049857598927925207 0 0.023874270055486497 0.00047753136671262029 0 0.023855051994550271 0.00049553747488362222 0 0.023894899734765367 0.00049857598927925207 0 0.02385365471411529 0.00048108743883389993 0 0.023838168101613273 0.00049630597816295813 0 0.023843487486092909 0.00048485286306066154 0 0.023874270055486497 0.00047753136671262029 0 0.023855051994550271 0.00049553747488362222 0 0.02385365471411529 0.00048108743883389993 0 0.023855051994550271 0.00049553747488362222 0 0.02385365471411529 0.00048108743883389993 0 0.023838168101613273 0.00049630597816295813 0 0.020793257252657814 0.001352233557982788 0 0.021663058143358997 0.00040988940750702414 0 0.020419032248878248 0.0004710733764460471 0 0.023838168101613273 0.00049630597816295813 0 0.023825856247368948 0.00053825025353238746 0 0.02383337249646722 0.00048362787007767222 0 0.022776836453985635 0.00050631430042508098 0 0.022180974951151795 0.00042771700208638178 0 0.023855051994550271 0.00049553747488362222 0 0.023838168101613273 0.00049630597816295813 0 0.023825856247368948 0.00053825025353238746 0 0.023912147155606623 0.00077154543916940343 0 0.023825856247368948 0.00053825025353238746 0 0.023894899734765367 0.00049857598927925207 0 0.023861522294614711 0.00074389230603728537 0 0.022776836453985635 0.00050631430042508098 0 0.023855051994550271 0.00049553747488362222 0 0.023825856247368948 0.00053825025353238746 0 0.023894899734765367 0.00049857598927925207 0 0.023912147155606623 0.00077154543916940343 0 0.023894899734765367 0.00049857598927925207 0 0.024166379205367586 0.00037505736172739986 0 0.024545094449672053 0.00033041519665058847 0 0.024421511452307705 0.00052698116657329188 0 0.024380723189946059 0.00036112218988055254 0 0.023912147155606623 0.00077154543916940343 0 0.024554740583216245 0.00072937131733828004 0 0.024166379205367586 0.00037505736172739986 0 0.024421511452307705 0.00052698116657329188 0 0.024380723189946059 0.00036112218988055254 0 0.024166379205367586 0.00037505736172739986 0 0.024730489255023937 0.00077005442790975445 0 0.024116117813841754 0.00031217530526282748 0 0.024545094449672053 0.00033041519665058847 0 0.02436849114181857 0.00021743035581382254 0 0.024380723189946059 0.00036112218988055254 0 0.02436849114181857 0.00021743035581382254 0 0.024380723189946059 0.00036112218988055254 0 0.024166379205367586 0.00037505736172739986 0 0.02396263550320165 0.00033897811173337102 0 0.023927121073471027 0.00048199030815258256 0 0.024150845576208103 0.00012624949943403912 0 0.023894899734765367 0.00049857598927925207 0 0.024166379205367586 0.00037505736172739986 0 0.02436849114181857 0.00021743035581382254 0 0.024150845576208103 0.00012624949943403912 0 0.024166379205367586 0.00037505736172739986 0 0.021571677467597271 0.00079654314530670496 0 0.023453173048906227 0.0011514284550041244 0 0.021868309701217916 0.0013165618107264594 0 0.021571677467597271 0.00079654314530670496 0 0.023575710894045906 0.0015425350740388432 0 0.023552147196056292 0.0014390409952948838 0 0.023619076792047729 0.0013918967686670145 0 0.022484886216281304 0.00090708717768399479 0 0.022067697218905336 0.00082431536139447961 0 0.022416072523397123 0.00139936886688798 0 0.021868309701217916 0.0013165618107264594 0 0.023453173048906227 0.0011514284550041244 0 0.023575710894045906 0.0015425350740388432 0 0.023552147196056292 0.0014390409952948838 0 0.023515005854296278 0.0014744958368840767 0 0.021487429436677797 0.0017575432327360033 0 0.021591218228129469 0.0010763207911889468 0 0.022458159096502797 0.0019479763750687839 0 0.020276047813374647 0.0012177787709558006 0 0.02026837133725486 0.0012265828785340538 0 0.020289487172488619 0.0012168999540468793 0 0.021868309701217916 0.0013165618107264594 0 0.020591242826450508 0.0016197033998281375 0 0.020263178984030187 0.0012623741681323396 0 0.02026837133725486 0.0012265828785340538 0 0.020281852518374398 0.001235190999246573 0 0.020043939012461945 0.00094020681886640997 0 0.021571677467597271 0.00079654314530670496 0 0.02026837133725486 0.0012265828785340538 0 0.020289487172488619 0.0012168999540468793 0 0.020281852518374398 0.001235190999246573 0 0.020312382894959142 0.0012393699976033373 0 0.020289487172488619 0.0012168999540468793 0 0.020281852518374398 0.001235190999246573 0 0.019969715292572281 0.00085319827479022801 0 0.019727469192857627 0.00040463754351224938 0 0.020419032248878248 0.0004710733764460471 0 0.020370021930032362 0.00096526293104034263 0 0.019969715292572281 0.00085319827479022801 0 0.020419032248878248 0.0004710733764460471 0 0.021571677467597271 0.00079654314530670496 0 0.022180974951151795 0.00042771700208638178 0 0.02383337249646722 0.00048362787007767222 0 0.023843487486092909 0.00048485286306066154 0 0.023856336129209885 0.0004816654419421073 0 0.023838168101613273 0.00049630597816295813 0 0.02383337249646722 0.00048362787007767222 0 0.023843487486092909 0.00048485286306066154 0 0.023856183323500493 0.00047886337002122216 0 0.023856336129209885 0.0004816654419421073 0 0.023883389169809772 0.00048720219341818419 0 0.023856183323500493 0.00047886337002122216 0 0.02383337249646722 0.00048362787007767222 0 0.023856336129209885 0.0004816654419421073 0 0.023856336129209885 0.0004816654419421073 0 0.023877462860289973 0.00048314706288045444 0 0.023883389169809772 0.00048720219341818419 0 0.023856336129209885 0.0004816654419421073 0 0.023853137846825228 0.00047385991834230777 0 0.023877462860289973 0.00048314706288045444 0 0.023843487486092909 0.00048485286306066154 0 0.023856336129209885 0.0004816654419421073 0 0.023853137846825228 0.00047385991834230777 0 0.02385365471411529 0.00048108743883389993 0 0.023843487486092909 0.00048485286306066154 0 0.023853137846825228 0.00047385991834230777 0 0.023853137846825228 0.00047385991834230777 0 0.023869179213702338 0.00049191632398471927 0 0.023858062795190496 0.00050538932953653594 0 0.023748548108623264 0.00056447704547945806 0 0.024438578621499937 0.00029117206525708128 0 0.023853137846825228 0.00047385991834230777 0 0.023869179213702338 0.00049191632398471927 0 0.023877462860289973 0.00048314706288045444 0 0.023877462860289973 0.00048314706288045444 0 0.023908517512034613 0.00048287036731416372 0 0.02388762648676165 0.0005051037756659629 0 0.023869179213702338 0.00049191632398471927 0 0.023877462860289973 0.00048314706288045444 0 0.02388762648676165 0.0005051037756659629 0 0.023877462860289973 0.00048314706288045444 0 0.023908517512034613 0.00048287036731416372 0 0.023883389169809772 0.00048720219341818419 0 0.023908517512034613 0.00048287036731416372 0 0.023882275677959176 0.0005020623987764582 0 0.023953447693918314 0.00047882887780454231 0 0.023908517512034613 0.00048287036731416372 0 0.023953447693918314 0.00047882887780454231 0 0.02388762648676165 0.0005051037756659629 0 0.023856183323500493 0.00047886337002122216 0 0.023883389169809772 0.00048720219341818419 0 0.023882275677959176 0.0005020623987764582 0 0.023908517512034613 0.00048287036731416372 0 0.023883389169809772 0.00048720219341818419 0 0.023882275677959176 0.0005020623987764582 0 0.023453173048906227 0.0011514284550041244 0 0.02362261230934477 0.0013838449722890166 0 0.023552147196056292 0.0014390409952948838 0 0.023619076792047729 0.0013918967686670145 0 0.023539259837856985 0.0013648489998441251 0 0.023619076792047729 0.0013918967686670145 0 0.023589571928450875 0.0013034114692136837 0 0.023539259837856985 0.0013648489998441251 0 0.023882275677959176 0.0005020623987764582 0 0.023877295922200933 0.00046428600559510902 0 0.023953447693918314 0.00047882887780454231 0 0.023589571928450875 0.0013034114692136837 0 0.023709819184239454 0.0011212370705601304 0 0.023516809310606523 0.0012782269975006677 0 0.023453173048906227 0.0011514284550041244 0 0.024176473695872811 0.0005284260380157194 0 0.023660007508293158 0.0014238349976139235 0 0.023589571928450875 0.0013034114692136837 0 0.023709819184239454 0.0011212370705601304 0 0.024176473695872811 0.0005284260380157194 0 0.024366545847772442 0.0010093880772611425 0 0.02536693407182964 0.00052549864631212557 0 0.025240635486922128 0.00031042529262965496 0 0.025163032148614685 0.00049801627824136527 0 0.02536693407182964 0.00052549864631212557 0 0.025163032148614685 0.00049801627824136527 0 0.025131282133417886 0.00071370650778972491 0 0.023877295922200933 0.00046428600559510902 0 0.023953447693918314 0.00047882887780454231 0 0.024072798478855541 0.00019272111986772726 0 0.023953447693918314 0.00047882887780454231 0 0.024072798478855541 0.00019272111986772726 0 0.02463529537044911 0.00037942881918151148 0 0.023673061469327239 0.00048226168283029165 0 0.024072798478855541 0.00019272111986772726 0 0.023810422146055249 -0.00039492583812279921 0 0.024176473695872811 0.0005284260380157194 0 0.024008600744542818 0.00032539316704434032 0 0.024072798478855541 0.00019272111986772726 0 0.023810422146055249 -0.00039492583812279921 0 0.024473184844120248 -0.00020356673230220582 0 0.024176473695872811 0.0005284260380157194 0 0.024814850700138665 4.6006545902194711e-05 0 0.024814850700138665 4.6006545902194711e-05 0 0.024686039129518032 -1.1139644785758172e-05 0 0.025410301271882124 0.00020784645846173014 0 0.025240635486922128 0.00031042529262965496 0 0.025146414829133719 0.00012862526910879612 0 0.02536693407182964 0.00052549864631212557 0 0.025410301271882124 0.00020784645846173014 0 0.025240635486922128 0.00031042529262965496 0 0.024438578621499937 0.00029117206525708128 0 0.02427412708382878 0.00048922415910652756 0 0.025050481246573022 0.00037161186614315269 0 0.024842536951047284 0.00032250406260780586 0 0.024695945029894827 0.00048571424284759305 0 0.023869179213702338 0.00049191632398471927 0 0.023858062795190496 0.00050538932953653594 0 0.02388762648676165 0.0005051037756659629 0 0.025050481246573022 0.00037161186614315269 0 0.024842536951047284 0.00032250406260780586 0 0.024906312682972231 0.0001567397338518532 0 0.024745092768706862 0.00022502903373420937 0 0.02463529537044911 0.00037942881918151148 0 0.024583960078123104 3.756592944451288e-05 0 0.024072798478855541 0.00019272111986772726 0 0.02463529537044911 0.00037942881918151148 0 0.024473184844120248 -0.00020356673230220582 0 0.024620442293863103 0.00029478545402391644 0 0.024686039129518032 -1.1139644785758172e-05 0 0.023953447693918314 0.00047882887780454231 0 0.024695945029894827 0.00048571424284759305 0 0.02463529537044911 0.00037942881918151148 0 0.02399021308536925 0.00048465659888935377 0 0.02427412708382878 0.00048922415910652756 0 0.024842536951047284 0.00032250406260780586 0 0.024745092768706862 0.00022502903373420937 0 0.02463529537044911 0.00037942881918151148 0 0.024842536951047284 0.00032250406260780586 0 0.024745092768706862 0.00022502903373420937 0 0.024906312682972231 0.0001567397338518532 0 0.024842536951047284 0.00032250406260780586 0 0.024695945029894827 0.00048571424284759305 0 0.02463529537044911 0.00037942881918151148 0 0.02490037674486717 0.0001090363982647263 0 0.024906312682972231 0.0001567397338518532 0 0.024955107412268435 4.8163141206904743e-05 0 0.024745092768706862 0.00022502903373420937 0 0.024583960078123104 3.756592944451288e-05 0 0.024906312682972231 0.0001567397338518532 0 0.024686039129518032 -1.1139644785758172e-05 0 0.024909432166235569 0.00013575704827456625 0 0.025034581483483545 4.3054932819387162e-05 0 0.024906312682972231 0.0001567397338518532 0 0.024955107412268435 4.8163141206904743e-05 0 0.025034581483483545 4.3054932819387162e-05 0 0.025050481246573022 0.00037161186614315269 0 0.024906312682972231 0.0001567397338518532 0 0.025097374896959606 -1.2104518766094077e-05 0 0.024438578621499937 0.00029117206525708128 0 0.025034581483483545 4.3054932819387162e-05 0 0.024955107412268435 4.8163141206904743e-05 0 0.024999573922276967 1.6944068797804261e-05 0 0.024686039129518032 -1.1139644785758172e-05 0 0.02498678949531934 3.91432629135635e-05 0 0.02490037674486717 0.0001090363982647263 0 0.024955107412268435 4.8163141206904743e-05 0 0.024946136985530748 3.1329732110146667e-05 0 0.024955107412268435 4.8163141206904743e-05 0 0.024999976254884169 -5.4105304486356322e-09 0 0.024946136985530748 3.1329732110146667e-05 0 0.024999976254884169 -5.4105304486356322e-09 0 0.024946136985530748 3.1329732110146667e-05 0 0.024999919415456054 2.2796836415674957e-08 0 0.025000038427610709 2.4496735268291753e-09 0 0.024999976254884169 -5.4105304486356322e-09 0 0.024999573922276967 1.6944068797804261e-05 0 0.024955107412268435 4.8163141206904743e-05 0 0.024999976254884169 -5.4105304486356322e-09 0 0.024999573922276967 1.6944068797804261e-05 0 0.025006787860703684 2.0386215218189998e-05 0 0.025008262975095077 2.1427549910343088e-05 0 0.025012365402915463 2.4712854852608178e-05 0 0.024814850700138665 4.6006545902194711e-05 0 0.025161166497039891 0.00010003701379446835 0 0.025008262975095077 2.1427549910343088e-05 0 0.025008130502953883 1.8512056293339498e-05 0 0.02500694527809369 2.0169130570553775e-05 0 0.025008262975095077 2.1427549910343088e-05 0 0.02500694527809369 2.0169130570553775e-05 0 0.025012365402915463 2.4712854852608178e-05 0 0.024993339814777769 -6.3385140574870152e-06 0 0.024991242587136846 -1.7392220500721261e-06 0 0.024994555957472145 -1.29474540620143e-06 0 0.024993339814777769 -6.3385140574870152e-06 0 0.024985825251811252 -8.6293788788222756e-06 0 0.024991242587136846 -1.7392220500721261e-06 0 0.024814850700138665 4.6006545902194711e-05 0 0.025002059826704927 -2.2686714924206797e-06 0 0.025006787860703684 2.0386215218189998e-05 0 0.025008262975095077 2.1427549910343088e-05 0 0.025008130502953883 1.8512056293339498e-05 0 0.024994555957472145 -1.29474540620143e-06 0 0.024999993729010996 2.0554581917682783e-09 0 0.025000001265944323 -1.3295206699910322e-09 0 0.02498678949531934 3.91432629135635e-05 0 0.024999977855346411 -1.1422191004499089e-08 0 0.025002059826704927 -2.2686714924206797e-06 0 0.024999999079044693 1.5872894904673885e-08 0 0.025008130502953883 1.8512056293339498e-05 0 0.02500002199497248 9.2201452918210805e-09 0 0.02500694527809369 2.0169130570553775e-05 0 0.024991242587136846 -1.7392220500721261e-06 0 0.024994555957472145 -1.29474540620143e-06 0 0.024999993729010996 2.0554581917682783e-09 0 0.02500002199497248 9.2201452918210805e-09 0 0.02500694527809369 2.0169130570553775e-05 0 0.025000030618667849 3.4663456394775353e-08 0 0.02500694527809369 2.0169130570553775e-05 0 0.025017941012143857 3.6924832509098918e-05 0 0.025000030618667849 3.4663456394775353e-08 0 0.02500694527809369 2.0169130570553775e-05 0 0.025017941012143857 3.6924832509098918e-05 0 0.025012365402915463 2.4712854852608178e-05 0 0.02509935340933217 0.00012463364771986464 0 0.025146414829133719 0.00012862526910879612 0 0.025030313856255905 7.7865798185443007e-05 0 0.025161166497039891 0.00010003701379446835 0 0.024998266332089895 6.4340997628686866e-05 0 0.025017941012143857 3.6924832509098918e-05 0 0.025012365402915463 2.4712854852608178e-05 0 0.025030313856255905 7.7865798185443007e-05 0 0.025017941012143857 3.6924832509098918e-05 0 0.025030313856255905 7.7865798185443007e-05 0 0.025000050970665152 5.7642185022550244e-08 0 0.025017941012143857 3.6924832509098918e-05 0 0.025000030618667849 3.4663456394775353e-08 0 0.025000050970665152 5.7642185022550244e-08 0 0.025030313856255905 7.7865798185443007e-05 0 0.025000050970665152 5.7642185022550244e-08 0 0.025003344442941888 0.00011776350854843287 0 0.025000050970665152 5.7642185022550244e-08 0 0.025003344442941888 0.00011776350854843287 0 0.02499998164681309 8.2005608499054231e-08 0 0.025003344442941888 0.00011776350854843287 0 0.024974391737968206 0.00015206115491777904 0 0.024952063416198947 0.0003004667172989907 0 0.025030313856255905 7.7865798185443007e-05 0 0.025003344442941888 0.00011776350854843287 0 0.025021123487282009 0.00015746741007922224 0 0.025021123487282009 0.00015746741007922224 0 0.025001246422689038 0.00025174198326442842 0 0.025074117932328853 0.00023275695603033972 0 0.025003344442941888 0.00011776350854843287 0 0.025021123487282009 0.00015746741007922224 0 0.025001246422689038 0.00025174198326442842 0 0.025003344442941888 0.00011776350854843287 0 0.025001246422689038 0.00025174198326442842 0 0.024952063416198947 0.0003004667172989907 0 0.024920161701024943 0.0003165046590054965 0 0.024902371774020812 0.00045656623909407461 0 0.025001246422689038 0.00025174198326442842 0 0.024952063416198947 0.0003004667172989907 0 0.024963780729375828 0.00031607096442430593 0 0.025001246422689038 0.00025174198326442842 0 0.025034981440040596 0.00031981805582056104 0 0.024963780729375828 0.00031607096442430593 0 0.025001246422689038 0.00025174198326442842 0 0.025074117932328853 0.00023275695603033972 0 0.025034981440040596 0.00031981805582056104 0 0.024972052684926489 0.00030914333926989913 0 0.024894721688903103 0.00041242738232867738 0 0.024977587217126083 0.00053478448948206139 0 0.024883845381260306 0.00035825315665309295 0 0.024691303480245137 0.00062619112192708703 0 0.024977587217126083 0.00053478448948206139 0 0.025163032148614685 0.00049801627824136527 0 0.025060256472486841 0.00060867029709822358 0 0.024977587217126083 0.00053478448948206139 0 0.025163032148614685 0.00049801627824136527 0 0.025096727553388432 0.00031480035073005758 0 0.024977587217126083 0.00053478448948206139 0 0.025096727553388432 0.00031480035073005758 0 0.024883845381260306 0.00035825315665309295 0 0.025240635486922128 0.00031042529262965496 0 0.025163032148614685 0.00049801627824136527 0 0.025096727553388432 0.00031480035073005758 0 0.02509935340933217 0.00012463364771986464 0 0.025096727553388432 0.00031480035073005758 0 0.024883845381260306 0.00035825315665309295 0 0.02509935340933217 0.00012463364771986464 0 0.025146414829133719 0.00012862526910879612 0 0.025096727553388432 0.00031480035073005758 0 0.025240635486922128 0.00031042529262965496 0 0.025146414829133719 0.00012862526910879612 0 0.025096727553388432 0.00031480035073005758 0 0.02509935340933217 0.00012463364771986464 0 0.025030313856255905 7.7865798185443007e-05 0 0.025074117932328853 0.00023275695603033972 0 0.025030313856255905 7.7865798185443007e-05 0 0.025021123487282009 0.00015746741007922224 0 0.025074117932328853 0.00023275695603033972 0 0.025088530382332292 0.00013698581410169974 0 0.024972052684926489 0.00030914333926989913 0 0.024961951554798661 0.00014693929353135971 0 0.024932850062285791 0.00037302542267447498 0 0.024870670125005732 0.0002630246833712894 0 0.024961951554798661 0.00014693929353135971 0 0.024999937564279512 1.3654467810976669e-07 0 0.024999985575099554 6.1178431405340108e-08 0 0.024961951554798661 0.00014693929353135971 0 0.024999985575099554 6.1178431405340108e-08 0 0.024870670125005732 0.0002630246833712894 0 0.024961951554798661 0.00014693929353135971 0 0.024999937564279512 1.3654467810976669e-07 0 0.024953089295117196 0.00021393126917414765 0 0.024961951554798661 0.00014693929353135971 0 0.024953089295117196 0.00021393126917414765 0 0.024932850062285791 0.00037302542267447498 0 0.024999937564279512 1.3654467810976669e-07 0 0.024953089295117196 0.00021393126917414765 0 0.024974391737968206 0.00015206115491777904 0 0.024999937564279512 1.3654467810976669e-07 0 0.02499998164681309 8.2005608499054231e-08 0 0.024974391737968206 0.00015206115491777904 0 0.025003344442941888 0.00011776350854843287 0 0.02499998164681309 8.2005608499054231e-08 0 0.024974391737968206 0.00015206115491777904 0 0.024974391737968206 0.00015206115491777904 0 0.024952063416198947 0.0003004667172989907 0 0.024889033989688145 0.00038996313770588392 0 0.024862975055306928 0.00047640229553523047 0 0.024831478667350772 0.00050945630028250755 0 0.02482078743739138 0.00067596874727573867 0 0.024952063416198947 0.0003004667172989907 0 0.024862975055306928 0.00047640229553523047 0 0.02482078743739138 0.00067596874727573867 0 0.024952063416198947 0.0003004667172989907 0 0.024862975055306928 0.00047640229553523047 0 0.024889033989688145 0.00038996313770588392 0 0.024862975055306928 0.00047640229553523047 0 0.024889033989688145 0.00038996313770588392 0 0.024831478667350772 0.00050945630028250755 0 0.024889033989688145 0.00038996313770588392 0 0.024905622784481784 0.00044016989038965601 0 0.024831478667350772 0.00050945630028250755 0 0.024953089295117196 0.00021393126917414765 0 0.024974391737968206 0.00015206115491777904 0 0.024889033989688145 0.00038996313770588392 0 0.024953089295117196 0.00021393126917414765 0 0.024889033989688145 0.00038996313770588392 0 0.024932850062285791 0.00037302542267447498 0 0.024889033989688145 0.00038996313770588392 0 0.024905622784481784 0.00044016989038965601 0 0.024932850062285791 0.00037302542267447498 0 0.024905622784481784 0.00044016989038965601 0 0.024932850062285791 0.00037302542267447498 0 0.024863614579696762 0.00059110924684507946 0 0.024698922163174698 0.00091986305333342983 0 0.02468960372857186 0.0009563236090082333 0 0.024932850062285791 0.00037302542267447498 0 0.024863614579696762 0.00059110924684507946 0 0.024870670125005732 0.0002630246833712894 0 0.024532645975742635 0.0014464983877197912 0 0.024454252779177638 0.0013556157735224131 0 0.024485713570311755 0.0013673714294625482 0 0.024494286375402088 0.0013943452989385544 0 0.024532645975742635 0.0014464983877197912 0 0.024593552362295146 0.0013562331676407714 0 0.024494286375402088 0.0013943452989385544 0 0.024532645975742635 0.0014464983877197912 0 0.024454252779177638 0.0013556157735224131 0 0.024454252779177638 0.0013556157735224131 0 0.024395897822506427 0.0012422504618341491 0 0.024407468555617675 0.0013218775376790939 0 0.024698922163174698 0.00091986305333342983 0 0.024644978104793533 0.00089167882204895519 0 0.024494286375402088 0.0013943452989385544 0 0.024454252779177638 0.0013556157735224131 0 0.024395897822506427 0.0012422504618341491 0 0.024644978104793533 0.00089167882204895519 0 0.024756804415779772 0.00095368675345827247 0 0.024395897822506427 0.0012422504618341491 0 0.024426643907917184 0.0012881170850438967 0 0.02471896539397531 0.00095343768513593682 0 0.024395897822506427 0.0012422504618341491 0 0.024426643907917184 0.0012881170850438967 0 0.024407468555617675 0.0013218775376790939 0 0.024454252779177638 0.0013556157735224131 0 0.024443491330896218 0.0012738175793301789 0 0.024407468555617675 0.0013218775376790939 0 0.024384838318064976 0.0013282619231487921 0 0.02438381880636591 0.0012713117888013045 0 0.024407468555617675 0.0013218775376790939 0 0.024426643907917184 0.0012881170850438967 0 0.024384838318064976 0.0013282619231487921 0 0.024397751636518791 0.0013593112964332195 0 0.024426643907917184 0.0012881170850438967 0 0.024384838318064976 0.0013282619231487921 0 0.024407468555617675 0.0013218775376790939 0 0.024384838318064976 0.0013282619231487921 0 0.024322263147251492 0.0012708605016016532 0 0.024308796419449479 0.0013293724472212564 0 0.024384838318064976 0.0013282619231487921 0 0.024322263147251492 0.0012708605016016532 0 0.02438381880636591 0.0012713117888013045 0 0.024322263147251492 0.0012708605016016532 0 0.02431722380561405 0.0011881661953238932 0 0.02438381880636591 0.0012713117888013045 0 0.02431722380561405 0.0011881661953238932 0 0.02438381880636591 0.0012713117888013045 0 0.024345333969354205 0.0010768552972787115 0 0.021892074032638792 0.0016419336817632682 0 0.02230863193692004 0.0013532601414310765 0 0.02438381880636591 0.0012713117888013045 0 0.024443491330896218 0.0012738175793301789 0 0.024345333969354205 0.0010768552972787115 0 0.02438381880636591 0.0012713117888013045 0 0.024443491330896218 0.0012738175793301789 0 0.024407468555617675 0.0013218775376790939 0 0.024454252779177638 0.0013556157735224131 0 0.024443491330896218 0.0012738175793301789 0 0.024485713570311755 0.0013673714294625482 0 0.021892074032638792 0.0016419336817632682 0 0.021838723734613003 0.0016033806073403399 0 0.019424128120506805 0.0019527531990769906 0 0.019146618607408718 0.0020225567051947021 0 0.019182741224618258 0.001843426898869107 0 0.019146618607408718 0.0020225567051947021 0 0.019182741224618258 0.001843426898869107 0 0.019057586752465733 0.0018867749262177623 0 0.023402013427033727 0.0014109499779277135 0 0.023406992365813738 0.0014907022739982542 0 0.023383154937878948 0.0014827432189374215 0 0.023402013427033727 0.0014109499779277135 0 0.023421731976344552 0.0014599400168579992 0 0.023383154937878948 0.0014827432189374215 0 0.024868881644317147 0.00091687416344628074 0 0.024725498353532806 0.00082835695343365585 0 0.02467164850542539 0.00094447501008537206 0 0.023402013427033727 0.0014109499779277135 0 0.023471624985065258 0.0014140118150431282 0 0.023421731976344552 0.0014599400168579992 0 0.023471624985065258 0.0014140118150431282 0 0.023421731976344552 0.0014599400168579992 0 0.023457860508580404 0.001458023517843773 0 0.023402013427033727 0.0014109499779277135 0 0.023471624985065258 0.0014140118150431282 0 0.023516809310606523 0.0012782269975006677 0 0.023481097094009647 0.0014498582209632072 0 0.023471624985065258 0.0014140118150431282 0 0.023457860508580404 0.001458023517843773 0 0.023481097094009647 0.0014498582209632072 0 0.023471624985065258 0.0014140118150431282 0 0.023510031712209379 0.001415693119864979 0 0.023552147196056292 0.0014390409952948838 0 0.023510031712209379 0.001415693119864979 0 0.023539259837856985 0.0013648489998441251 0 0.023481097094009647 0.0014498582209632072 0 0.023510031712209379 0.001415693119864979 0 0.023515005854296278 0.0014744958368840767 0 0.023552147196056292 0.0014390409952948838 0 0.023510031712209379 0.001415693119864979 0 0.023515005854296278 0.0014744958368840767 0 0.023471624985065258 0.0014140118150431282 0 0.023510031712209379 0.001415693119864979 0 0.023539259837856985 0.0013648489998441251 0 0.023471624985065258 0.0014140118150431282 0 0.023539259837856985 0.0013648489998441251 0 0.023516809310606523 0.0012782269975006677 0 0.024868881644317147 0.00091687416344628074 0 0.025131282133417886 0.00071370650778972491 0 0.024923459936621241 0.00071555643363179963 0 0.024125466346777917 0.0011554790025703587 0 0.024366545847772442 0.0010093880772611425 0 0.023589571928450875 0.0013034114692136837 0 0.023539259837856985 0.0013648489998441251 0 0.023516809310606523 0.0012782269975006677 0 0.025163032148614685 0.00049801627824136527 0 0.025131282133417886 0.00071370650778972491 0 0.025060256472486841 0.00060867029709822358 0 0.025131282133417886 0.00071370650778972491 0 0.025060256472486841 0.00060867029709822358 0 0.024923459936621241 0.00071555643363179963 0 0.024977587217126083 0.00053478448948206139 0 0.025060256472486841 0.00060867029709822358 0 0.024923459936621241 0.00071555643363179963 0 0.024923459936621241 0.00071555643363179963 0 0.024691303480245137 0.00062619112192708703 0 0.024725498353532806 0.00082835695343365585 0 0.024977587217126083 0.00053478448948206139 0 0.024923459936621241 0.00071555643363179963 0 0.024691303480245137 0.00062619112192708703 0 0.024868881644317147 0.00091687416344628074 0 0.024923459936621241 0.00071555643363179963 0 0.024725498353532806 0.00082835695343365585 0 0.024894721688903103 0.00041242738232867738 0 0.024629666153781215 0.00098369837656168686 0 0.024691303480245137 0.00062619112192708703 0 0.024725498353532806 0.00082835695343365585 0 0.024500089032553608 0.00091202929675896166 0 0.025034981440040596 0.00031981805582056104 0 0.024963780729375828 0.00031607096442430593 0 0.02499112833805955 0.00039561540312897713 0 0.024831478667350772 0.00050945630028250755 0 0.02482078743739138 0.00067596874727573867 0 0.02471896539397531 0.00095343768513593682 0 0.02482078743739138 0.00067596874727573867 0 0.02471896539397531 0.00095343768513593682 0 0.024770572037341218 0.0011807332305419592 0 0.024902371774020812 0.00045656623909407461 0 0.024629666153781215 0.00098369837656168686 0 0.024426643907917184 0.0012881170850438967 0 0.02471896539397531 0.00095343768513593682 0 0.024528176045034596 0.0012653341399263233 0 0.02471896539397531 0.00095343768513593682 0 0.024528176045034596 0.0012653341399263233 0 0.024770572037341218 0.0011807332305419592 0 0.02420248760933889 0.0016930081276337263 0 0.024405939008466496 0.001397833992978042 0 0.024224424820402844 0.0014566438507229947 0 0.024528176045034596 0.0012653341399263233 0 0.024770572037341218 0.0011807332305419592 0 0.024405939008466496 0.001397833992978042 0 0.024629666153781215 0.00098369837656168686 0 0.024366846405795114 0.0015035058405608102 0 0.024426643907917184 0.0012881170850438967 0 0.024528176045034596 0.0012653341399263233 0 0.024397751636518791 0.0013593112964332195 0 0.024528176045034596 0.0012653341399263233 0 0.024397751636518791 0.0013593112964332195 0 0.024405939008466496 0.001397833992978042 0 0.024125466346777917 0.0011554790025703587 0 0.024100438315961724 0.0014161980595516002 0 0.024868881644317147 0.00091687416344628074 0 0.02467164850542539 0.00094447501008537206 0 0.024590516230395713 0.0011204217209825631 0 0.024725498353532806 0.00082835695343365585 0 0.02467164850542539 0.00094447501008537206 0 0.024500089032553608 0.00091202929675896166 0 0.024629666153781215 0.00098369837656168686 0 0.024100438315961724 0.0014161980595516002 0 0.02420248760933889 0.0016930081276337263 0 0.024105729861150837 0.0014201405940616012 0 0.024224424820402844 0.0014566438507229947 0 0.02467164850542539 0.00094447501008537206 0 0.024500089032553608 0.00091202929675896166 0 0.024590516230395713 0.0011204217209825631 0 0.024042866493665358 0.0014854602977310233 0 0.023819054826118825 0.0012566312685133498 0 0.024059355681712295 0.0013037247659137584 0 0.023406992365813738 0.0014907022739982542 0 0.023412112283686906 0.0013585938503950861 0 0.023383154937878948 0.0014827432189374215 0 0.024100438315961724 0.0014161980595516002 0 0.02358222330153412 0.0012868814395398695 0 0.024100438315961724 0.0014161980595516002 0 0.024146754354073766 0.0013965191511779277 0 0.024105729861150837 0.0014201405940616012 0 0.024224424820402844 0.0014566438507229947 0 0.024193195691099272 0.0013794290186544989 0 0.024042866493665358 0.0014854602977310233 0 0.024193195691099272 0.0013794290186544989 0 0.024059355681712295 0.0013037247659137584 0 0.024397751636518791 0.0013593112964332195 0 0.024405939008466496 0.001397833992978042 0 0.024308796419449479 0.0013293724472212564 0 0.024405939008466496 0.001397833992978042 0 0.024193195691099272 0.0013794290186544989 0 0.024308796419449479 0.0013293724472212564 0 0.024405939008466496 0.001397833992978042 0 0.024224424820402844 0.0014566438507229947 0 0.024193195691099272 0.0013794290186544989 0 0.024193195691099272 0.0013794290186544989 0 0.024186937670111583 0.0013027832387675386 0 0.024308796419449479 0.0013293724472212564 0 0.024193195691099272 0.0013794290186544989 0 0.024186937670111583 0.0013027832387675386 0 0.024059355681712295 0.0013037247659137584 0 0.024186937670111583 0.0013027832387675386 0 0.024308796419449479 0.0013293724472212564 0 0.024240217374065752 0.0012680748266532345 0 0.024384838318064976 0.0013282619231487921 0 0.024397751636518791 0.0013593112964332195 0 0.024308796419449479 0.0013293724472212564 0 0.024322263147251492 0.0012708605016016532 0 0.024240217374065752 0.0012680748266532345 0 0.024211536416904513 0.0011771777620113789 0 0.024322263147251492 0.0012708605016016532 0 0.024308796419449479 0.0013293724472212564 0 0.024240217374065752 0.0012680748266532345 0 0.024240217374065752 0.0012680748266532345 0 0.024121031689553697 0.0012346266222047382 0 0.024211536416904513 0.0011771777620113789 0 0.024186937670111583 0.0013027832387675386 0 0.024240217374065752 0.0012680748266532345 0 0.024121031689553697 0.0012346266222047382 0 0.024186937670111583 0.0013027832387675386 0 0.024121031689553697 0.0012346266222047382 0 0.024059355681712295 0.0013037247659137584 0 0.024121031689553697 0.0012346266222047382 0 0.024211536416904513 0.0011771777620113789 0 0.024033093564275153 0.0011022595711201958 0 0.024322263147251492 0.0012708605016016532 0 0.02431722380561405 0.0011881661953238932 0 0.024211536416904513 0.0011771777620113789 0 0.02431722380561405 0.0011881661953238932 0 0.024211536416904513 0.0011771777620113789 0 0.024260508108623138 0.0011197650905577065 0 0.023819054826118825 0.0012566312685133498 0 0.023967265163335336 0.0011890690727017201 0 0.023795255492079934 0.001033483641472617 0 0.024121031689553697 0.0012346266222047382 0 0.024059355681712295 0.0013037247659137584 0 0.023967265163335336 0.0011890690727017201 0 0.023819054826118825 0.0012566312685133498 0 0.024059355681712295 0.0013037247659137584 0 0.023967265163335336 0.0011890690727017201 0 0.024121031689553697 0.0012346266222047382 0 0.023967265163335336 0.0011890690727017201 0 0.024033093564275153 0.0011022595711201958 0 0.02358222330153412 0.0012868814395398695 0 0.023441574078263513 0.0010467839445640198 0 0.023412112283686906 0.0013585938503950861 0 0.023274010562659219 0.0012731195955870433 0 0.02333972804667939 0.0010880578187348431 0 0.023274010562659219 0.0012731195955870433 0 0.023284119812594536 0.0013983733494745451 0 0.023163138912187901 0.0013732232414809082 0 0.023412112283686906 0.0013585938503950861 0 0.023274010562659219 0.0012731195955870433 0 0.023284119812594536 0.0013983733494745451 0 0.023412112283686906 0.0013585938503950861 0 0.023284119812594536 0.0013983733494745451 0 0.023383154937878948 0.0014827432189374215 0 0.023409421202747489 0.0014702524328972513 0 0.023154482502603893 0.0017002132576327672 0 0.023421731976344552 0.0014599400168579992 0 0.023383154937878948 0.0014827432189374215 0 0.023466921044822463 0.0014943438385324795 0 0.023284119812594536 0.0013983733494745451 0 0.023383154937878948 0.0014827432189374215 0 0.023084254522549207 0.001506599236724807 0 0.023383154937878948 0.0014827432189374215 0 0.023466921044822463 0.0014943438385324795 0 0.023485414702157908 0.0015164014138620856 0 0.023515005854296278 0.0014744958368840767 0 0.023466921044822463 0.0014943438385324795 0 0.023492549817866953 0.0015232786476315964 0 0.023481097094009647 0.0014498582209632072 0 0.023457860508580404 0.001458023517843773 0 0.023466921044822463 0.0014943438385324795 0 0.023421731976344552 0.0014599400168579992 0 0.023457860508580404 0.001458023517843773 0 0.023466921044822463 0.0014943438385324795 0 0.023481097094009647 0.0014498582209632072 0 0.023515005854296278 0.0014744958368840767 0 0.023466921044822463 0.0014943438385324795 0 0.023284119812594536 0.0013983733494745451 0 0.023084254522549207 0.001506599236724807 0 0.023163138912187901 0.0013732232414809082 0 0.023262160066581838 0.0016742404723629231 0 0.023154482502603893 0.0017002132576327672 0 0.023575710894045906 0.0015425350740388432 0 0.023515005854296278 0.0014744958368840767 0 0.023492549817866953 0.0015232786476315964 0 0.021868309701217916 0.0013165618107264594 0 0.023154482502603893 0.0017002132576327672 0 0.020591242826450508 0.0016197033998281375 0 0.023154482502603893 0.0017002132576327672 0 0.023274010562659219 0.0012731195955870433 0 0.023163138912187901 0.0013732232414809082 0 0.023132305065250689 0.0011394655324268191 0 0.022879885538245711 0.00098162942433835778 0 0.022846975867416731 0.0013179125630538963 0 0.023163138912187901 0.0013732232414809082 0 0.022846975867416731 0.0013179125630538963 0 0.023084254522549207 0.001506599236724807 0 0.023163138912187901 0.0013732232414809082 0 0.020622867635126257 0.001620190729199194 0 0.023757058455962439 0.0013292200201100192 0 0.022935028686467334 0.0010699415626397413 0 0.023163138912187901 0.0013732232414809082 0 0.023132305065250689 0.0011394655324268191 0 0.023132305065250689 0.0011394655324268191 0 0.023052000519854395 0.0010535952989019185 0 0.023267045096521742 0.00077193865883720789 0 0.022935028686467334 0.0010699415626397413 0 0.023132305065250689 0.0011394655324268191 0 0.023052000519854395 0.0010535952989019185 0 0.022935028686467334 0.0010699415626397413 0 0.022940988943523935 0.00095370738084139296 0 0.023005926577664072 0.00096653192691046068 0 0.022935028686467334 0.0010699415626397413 0 0.023052000519854395 0.0010535952989019185 0 0.023005926577664072 0.00096653192691046068 0 0.02355391633514763 0.0010367318560516071 0 0.023620409434355241 0.00078882505210558368 0 0.023795255492079934 0.001033483641472617 0 0.023132305065250689 0.0011394655324268191 0 0.02333972804667939 0.0010880578187348431 0 0.023267045096521742 0.00077193865883720789 0 0.023819054826118825 0.0012566312685133498 0 0.02355391633514763 0.0010367318560516071 0 0.023795255492079934 0.001033483641472617 0 0.023274010562659219 0.0012731195955870433 0 0.023132305065250689 0.0011394655324268191 0 0.02333972804667939 0.0010880578187348431 0 0.023441574078263513 0.0010467839445640198 0 0.023284382576978097 0.00078189712238759359 0 0.02355391633514763 0.0010367318560516071 0 0.023620409434355241 0.00078882505210558368 0 0.023267045096521742 0.00077193865883720789 0 0.019789278289337721 0.0018049724469085379 0 0.016094512591372644 0.0016631823369213476 0 0.022926522362259484 0.0009540735684581826 0 0.023054616243086513 0.00082115126990662906 0 0.022965015251375703 0.00064962119320049572 0 0.023052000519854395 0.0010535952989019185 0 0.023005926577664072 0.00096653192691046068 0 0.023267045096521742 0.00077193865883720789 0 0.022926522362259484 0.0009540735684581826 0 0.023005926577664072 0.00096653192691046068 0 0.023054616243086513 0.00082115126990662906 0 0.019789278289337721 0.0018049724469085379 0 0.021057059470539201 0.0018899239008828461 0 0.023005926577664072 0.00096653192691046068 0 0.023267045096521742 0.00077193865883720789 0 0.023054616243086513 0.00082115126990662906 0 0.023267045096521742 0.00077193865883720789 0 0.023054616243086513 0.00082115126990662906 0 0.022965015251375703 0.00064962119320049572 0 0.016094512591372644 0.0016631823369213476 0 0.019254388865426957 0.0013664979970687741 0 0.010481014944366764 0.0024084997720618048 0 0.01042688555203591 0.0023092308583865604 0 0.01034707299694424 0.0025408609954584633 0 0.016094512591372644 0.0016631823369213476 0 0.011700219868316529 0.003091852144236702 0 0.014170160448543094 0.0026197440011638249 0 0.013676701003929061 0.0028513308384099426 0 0.014031002951754266 0.0031746788984642203 0 0.023267045096521742 0.00077193865883720789 0 0.022965015251375703 0.00064962119320049572 0 0.023487123147299546 0.00049216373577312081 0 0.023620409434355241 0.00078882505210558368 0 0.023267045096521742 0.00077193865883720789 0 0.023487123147299546 0.00049216373577312081 0 0.013676701003929061 0.0028513308384099426 0 0.014031002951754266 0.0031746788984642203 0 0.013633832869198457 0.0032745354024626022 0 0.017819662990152751 0.0032216976794862324 0 0.01701802321643665 0.0045386977534521587 0 0.019254388865426957 0.0013664979970687741 0 0.017819662990152751 0.0032216976794862324 0 0.013676701003929061 0.0028513308384099426 0 0.013227574632898243 0.003073853612733996 0 0.013633832869198457 0.0032745354024626022 0 0.023487123147299546 0.00049216373577312081 0 0.023814886440843463 0.00041872243809349779 0 0.023744429445703978 0.00062127047892999283 0 0.023620409434355241 0.00078882505210558368 0 0.023487123147299546 0.00049216373577312081 0 0.023744429445703978 0.00062127047892999283 0 0.020013572717895264 0.0028469124638518658 0 0.019920459366670421 0.0024947163317913289 0 0.019712505799092898 0.0026994364706669481 0 0.017819662990152751 0.0032216976794862324 0 0.022150071209228073 0.0014623649996526363 0 0.023814886440843463 0.00041872243809349779 0 0.023744429445703978 0.00062127047892999283 0 0.023932438300414628 0.00069421590683085138 0 0.022150071209228073 0.0014623649996526363 0 0.022963822883826552 0.0012235270146032536 0 0.024237693914925491 0.00083152636619103471 0 0.022963822883826552 0.0012235270146032536 0 0.023932438300414628 0.00069421590683085138 0 0.023831216823845817 0.00078466049543196408 0 0.023975074862696018 0.0008851921992474364 0 0.023744429445703978 0.00062127047892999283 0 0.023932438300414628 0.00069421590683085138 0 0.023831216823845817 0.00078466049543196408 0 0.023620409434355241 0.00078882505210558368 0 0.023831216823845817 0.00078466049543196408 0 0.023795255492079934 0.001033483641472617 0 0.023620409434355241 0.00078882505210558368 0 0.023744429445703978 0.00062127047892999283 0 0.023831216823845817 0.00078466049543196408 0 0.023831216823845817 0.00078466049543196408 0 0.023953624066643375 0.00099098484214984539 0 0.023795255492079934 0.001033483641472617 0 0.023967265163335336 0.0011890690727017201 0 0.023795255492079934 0.001033483641472617 0 0.024033093564275153 0.0011022595711201958 0 0.023953624066643375 0.00099098484214984539 0 0.023795255492079934 0.001033483641472617 0 0.024033093564275153 0.0011022595711201958 0 0.023831216823845817 0.00078466049543196408 0 0.024154243951889132 0.0010358588135063668 0 0.024288083897759296 0.0010115799481945494 0 0.023831216823845817 0.00078466049543196408 0 0.023953624066643375 0.00099098484214984539 0 0.024154243951889132 0.0010358588135063668 0 0.024211536416904513 0.0011771777620113789 0 0.024154243951889132 0.0010358588135063668 0 0.024033093564275153 0.0011022595711201958 0 0.023953624066643375 0.00099098484214984539 0 0.024154243951889132 0.0010358588135063668 0 0.024033093564275153 0.0011022595711201958 0 0.024154243951889132 0.0010358588135063668 0 0.024260508108623138 0.0011197650905577065 0 0.024345333969354205 0.0010768552972787115 0 0.024211536416904513 0.0011771777620113789 0 0.024154243951889132 0.0010358588135063668 0 0.024260508108623138 0.0011197650905577065 0 0.02431722380561405 0.0011881661953238932 0 0.024260508108623138 0.0011197650905577065 0 0.024345333969354205 0.0010768552972787115 0 0.024154243951889132 0.0010358588135063668 0 0.024345333969354205 0.0010768552972787115 0 0.024288083897759296 0.0010115799481945494 0 0.019826430078193735 0.0021639205608303745 0 0.019723976810584944 0.0022157421024748651 0 0.019761929679008909 0.0023265650148052933 0 0.02230863193692004 0.0013532601414310765 0 0.022963822883826552 0.0012235270146032536 0 0.019766040302207577 0.0021308158639938152 0 0.019826430078193735 0.0021639205608303745 0 0.019723976810584944 0.0022157421024748651 0 0.019766040302207577 0.0021308158639938152 0 0.019723976810584944 0.0022157421024748651 0 0.019599532170387866 0.0021543312608798024 0 0.019723976810584944 0.0022157421024748651 0 0.019599532170387866 0.0021543312608798024 0 0.019642427503848967 0.002287098614861819 0 0.019424128120506805 0.0019527531990769906 0 0.019766040302207577 0.0021308158639938152 0 0.019599532170387866 0.0021543312608798024 0 0.019424128120506805 0.0019527531990769906 0 0.019440551892080556 0.0022005782849319356 0 0.019599532170387866 0.0021543312608798024 0 0.019440551892080556 0.0022005782849319356 0 0.019599532170387866 0.0021543312608798024 0 0.019642427503848967 0.002287098614861819 0 0.019440551892080556 0.0022005782849319356 0 0.019519664803534235 0.0023807205085284375 0 0.019642427503848967 0.002287098614861819 0 0.019519664803534235 0.0023807205085284375 0 0.019705252250328677 0.0024638166944090174 0 0.019446502629583112 0.0025925519017135643 0 0.019440551892080556 0.0022005782849319356 0 0.019519664803534235 0.0023807205085284375 0 0.019328009684796015 0.0023959709001440655 0 0.019519664803534235 0.0023807205085284375 0 0.019328009684796015 0.0023959709001440655 0 0.019446502629583112 0.0025925519017135643 0 0.019920459366670421 0.0024947163317913289 0 0.019826430078193735 0.0021639205608303745 0 0.019761929679008909 0.0023265650148052933 0 0.019519664803534235 0.0023807205085284375 0 0.019705252250328677 0.0024638166944090174 0 0.019642427503848967 0.002287098614861819 0 0.019920459366670421 0.0024947163317913289 0 0.019705252250328677 0.0024638166944090174 0 0.019761929679008909 0.0023265650148052933 0 0.019723976810584944 0.0022157421024748651 0 0.019761929679008909 0.0023265650148052933 0 0.019642427503848967 0.002287098614861819 0 0.019705252250328677 0.0024638166944090174 0 0.019761929679008909 0.0023265650148052933 0 0.019642427503848967 0.002287098614861819 0 0.019146618607408718 0.0020225567051947021 0 0.019225026337715695 0.0022263954639475322 0 0.019041627890830654 0.0022537025544342461 0 0.019424128120506805 0.0019527531990769906 0 0.019440551892080556 0.0022005782849319356 0 0.019225026337715695 0.0022263954639475322 0 0.019424128120506805 0.0019527531990769906 0 0.019146618607408718 0.0020225567051947021 0 0.019225026337715695 0.0022263954639475322 0 0.019440551892080556 0.0022005782849319356 0 0.019225026337715695 0.0022263954639475322 0 0.019328009684796015 0.0023959709001440655 0 0.019225026337715695 0.0022263954639475322 0 0.019328009684796015 0.0023959709001440655 0 0.019122341385173228 0.0024314034920700943 0 0.019041627890830654 0.0022537025544342461 0 0.019122341385173228 0.0024314034920700943 0 0.018923687219958383 0.0025125959524809204 0 0.019225026337715695 0.0022263954639475322 0 0.019041627890830654 0.0022537025544342461 0 0.019122341385173228 0.0024314034920700943 0 0.019122341385173228 0.0024314034920700943 0 0.019033991151324561 0.0026820242900399438 0 0.018923687219958383 0.0025125959524809204 0 0.019033991151324561 0.0026820242900399438 0 0.018788768001336418 0.0028047409833601745 0 0.018923687219958383 0.0025125959524809204 0 0.019122341385173228 0.0024314034920700943 0 0.019033991151324561 0.0026820242900399438 0 0.01923584483352981 0.0025743706055764014 0 0.019033991151324561 0.0026820242900399438 0 0.01923584483352981 0.0025743706055764014 0 0.019235047737050485 0.0028243852064265035 0 0.019328009684796015 0.0023959709001440655 0 0.019122341385173228 0.0024314034920700943 0 0.01923584483352981 0.0025743706055764014 0 0.019328009684796015 0.0023959709001440655 0 0.01923584483352981 0.0025743706055764014 0 0.019446502629583112 0.0025925519017135643 0 0.01923584483352981 0.0025743706055764014 0 0.019235047737050485 0.0028243852064265035 0 0.019446502629583112 0.0025925519017135643 0 0.019033991151324561 0.0026820242900399438 0 0.019235047737050485 0.0028243852064265035 0 0.018950041956149719 0.0029843814335635249 0 0.018950041956149719 0.0029843814335635249 0 0.01876115087156164 0.0031127180641100983 0 0.018788768001336418 0.0028047409833601745 0 0.019033991151324561 0.0026820242900399438 0 0.018950041956149719 0.0029843814335635249 0 0.018788768001336418 0.0028047409833601745 0 0.019705252250328677 0.0024638166944090174 0 0.019712505799092898 0.0026994364706669481 0 0.019446502629583112 0.0025925519017135643 0 0.019920459366670421 0.0024947163317913289 0 0.019705252250328677 0.0024638166944090174 0 0.019712505799092898 0.0026994364706669481 0 0.019712505799092898 0.0026994364706669481 0 0.019446502629583112 0.0025925519017135643 0 0.019488491535509772 0.0028067338926423069 0 0.019235047737050485 0.0028243852064265035 0 0.019488491535509772 0.0028067338926423069 0 0.019351281282206714 0.0031789249727968995 0 0.019488491535509772 0.0028067338926423069 0 0.019688746299913695 0.0029989951687419995 0 0.019324801933976014 0.0031701736715115626 0 0.019703151291898497 0.0025055735615123241 0 0.018308796198886812 0.0038585925070829604 0 0.019235047737050485 0.0028243852064265035 0 0.019446502629583112 0.0025925519017135643 0 0.019488491535509772 0.0028067338926423069 0 0.019712505799092898 0.0026994364706669481 0 0.019488491535509772 0.0028067338926423069 0 0.019688746299913695 0.0029989951687419995 0 0.020013572717895264 0.0028469124638518658 0 0.019712505799092898 0.0026994364706669481 0 0.019688746299913695 0.0029989951687419995 0 0.014971873230570552 0.0056642988041855418 0 0.014324946461096562 0.0048528952187353192 0 0.01549014406844546 0.0047070827966510902 0 0.014971873230570552 0.0056642988041855418 0 0.016393909132147333 0.0051598216812882083 0 0.01549014406844546 0.0047070827966510902 0 0.01701802321643665 0.0045386977534521587 0 0.018308796198886812 0.0038585925070829604 0 0.016393909132147333 0.0051598216812882083 0 0.01612607782084086 0.0041782525526889236 0 0.01549014406844546 0.0047070827966510902 0 0.016393909132147333 0.0051598216812882083 0 0.01612607782084086 0.0041782525526889236 0 0.017050838661578659 0.0038279386589403172 0 0.01612607782084086 0.0041782525526889236 0 0.01549014406844546 0.0047070827966510902 0 0.015412560857416506 0.0037386730403467967 0 0.01429306570946812 0.0048538566423447426 0 0.014540761074350126 0.0039608167626312626 0 0.014324946461096562 0.0048528952187353192 0 0.013717162710329642 0.0040238019024251412 0 0.013666062425964447 0.0041525375928738763 0 0.014324946461096562 0.0048528952187353192 0 0.01549014406844546 0.0047070827966510902 0 0.015412560857416506 0.0037386730403467967 0 0.01874092124608099 0.0033863277197958546 0 0.018690819096061861 0.0033420643924959564 0 0.01876115087156164 0.0031127180641100983 0 0.018950041956149719 0.0029843814335635249 0 0.01874092124608099 0.0033863277197958546 0 0.01876115087156164 0.0031127180641100983 0 0.018950041956149719 0.0029843814335635249 0 0.019351281282206714 0.0031789249727968995 0 0.01874092124608099 0.0033863277197958546 0 0.019235047737050485 0.0028243852064265035 0 0.018950041956149719 0.0029843814335635249 0 0.019351281282206714 0.0031789249727968995 0 0.018308796198886812 0.0038585925070829604 0 0.0190238036441688 0.0032276431186287306 0 0.018308796198886812 0.0038585925070829604 0 0.017585698681806167 0.0036780669452595896 0 0.018486437951262678 0.0035066363088061959 0 0.01874092124608099 0.0033863277197958546 0 0.018425011205731194 0.0033406442598587949 0 0.01874092124608099 0.0033863277197958546 0 0.018558556996789755 0.0034204888261394409 0 0.018690819096061861 0.0033420643924959564 0 0.01874092124608099 0.0033863277197958546 0 0.018558556996789755 0.0034204888261394409 0 0.018425011205731194 0.0033406442598587949 0 0.018558556996789755 0.0034204888261394409 0 0.018425011205731194 0.0033406442598587949 0 0.017872410076370759 0.0027464356566598157 0 0.017585698681806167 0.0036780669452595896 0 0.017958926171020972 0.0026779641440150478 0 0.017050838661578659 0.0038279386589403172 0 0.016290497445993438 0.0035721114855875487 0 0.017872410076370759 0.0027464356566598157 0 0.016290497445993438 0.0035721114855875487 0 0.016160445777230529 0.002808497064276523 0 0.017872410076370759 0.0027464356566598157 0 0.018558556996789755 0.0034204888261394409 0 0.018782980631105037 0.0035294532592992879 0 0.017872410076370759 0.0027464356566598157 0 0.015412560857416506 0.0037386730403467967 0 0.016290497445993438 0.0035721114855875487 0 0.016160445777230529 0.002808497064276523 0 0.01612607782084086 0.0041782525526889236 0 0.015412560857416506 0.0037386730403467967 0 0.016290497445993438 0.0035721114855875487 0 0.01612607782084086 0.0041782525526889236 0 0.017050838661578659 0.0038279386589403172 0 0.016290497445993438 0.0035721114855875487 0 0.013717162710329642 0.0040238019024251412 0 0.013162668592983455 0.0039230554621245157 0 0.013426390210355741 0.0039463137239868686 0 0.014540761074350126 0.0039608167626312626 0 0.014637097359777352 0.003404261792020742 0 0.013426390210355741 0.0039463137239868686 0 0.013420682088627527 0.0039625435451996656 0 0.013666062425964447 0.0041525375928738763 0 0.013717162710329642 0.0040238019024251412 0 0.013426390210355741 0.0039463137239868686 0 0.013666062425964447 0.0041525375928738763 0 0.013426390210355741 0.0039463137239868686 0 0.013420682088627527 0.0039625435451996656 0 0.013470815594172902 0.0040589821971550285 0 0.013420682088627527 0.0039625435451996656 0 0.013646944408170754 0.0040222915736325164 0 0.013470815594172902 0.0040589821971550285 0 0.010349071676278432 0.003107304544860121 0 0.010345459517917072 0.0028979312687666 0 0.010222830845556044 0.0029890657911200822 0 0.011927731914191483 0.0035102993729471091 0 0.01212829448932422 0.0031658238140677827 0 0.010345459517917072 0.0028979312687666 0 0.010222830845556044 0.0029890657911200822 0 0.010278518268934667 0.0027743450984316184 0 0.013420682088627527 0.0039625435451996656 0 0.013646944408170754 0.0040222915736325164 0 0.013849787942599277 0.0036900146264837248 0 0.013420682088627527 0.0039625435451996656 0 0.01356841453317143 0.0036103197581626679 0 0.013849787942599277 0.0036900146264837248 0 0.011700219868316529 0.003091852144236702 0 0.01212829448932422 0.0031658238140677827 0 0.014031002951754266 0.0031746788984642203 0 0.013849787942599277 0.0036900146264837248 0 0.013633832869198457 0.0032745354024626022 0 0.010461329270116259 0.0027102394794546623 0 0.01034707299694424 0.0025408609954584633 0 0.010278518268934667 0.0027743450984316184 0 0.01356841453317143 0.0036103197581626679 0 0.013849787942599277 0.0036900146264837248 0 0.013633832869198457 0.0032745354024626022 0 0.013227574632898243 0.003073853612733996 0 0.013633832869198457 0.0032745354024626022 0 0.013319349843110014 0.0035240142917126009 0 0.017819662990152751 0.0032216976794862324 0 0.01289808142982438 0.0042622752722085667 0 0.01356841453317143 0.0036103197581626679 0 0.013633832869198457 0.0032745354024626022 0 0.013319349843110014 0.0035240142917126009 0 0.013698622665590804 0.0060572071528514747 0 0.014971873230570552 0.0056642988041855418 0 0.014324946461096562 0.0048528952187353192 0 0.013698622665590804 0.0060572071528514747 0 0.014324946461096562 0.0048528952187353192 0 0.013337807342260538 0.0047015727925094645 0 0.014324946461096562 0.0048528952187353192 0 0.013337807342260538 0.0047015727925094645 0 0.013666062425964447 0.0041525375928738763 0 0.013420682088627527 0.0039625435451996656 0 0.01356841453317143 0.0036103197581626679 0 0.013319349843110014 0.0035240142917126009 0 0.013420682088627527 0.0039625435451996656 0 0.013337807342260538 0.0047015727925094645 0 0.013666062425964447 0.0041525375928738763 0 0.013491398771425429 0.0039680194817538648 0 0.01289808142982438 0.0042622752722085667 0 0.017063783745564078 0.0034081656271073651 0 0.016921612612490072 0.0030216435093053206 0 0.016308498569784013 0.0033444359091787763 0 0.017063783745564078 0.0034081656271073651 0 0.016308498569784013 0.0033444359091787763 0 0.016266573075324191 0.0037726493604697325 0 0.017063783745564078 0.0034081656271073651 0 0.01763526020637237 0.0036052740416097919 0 0.017797710530405464 0.003013022441735215 0 0.017063783745564078 0.0034081656271073651 0 0.017427329531339859 0.0028287030689638647 0 0.017797710530405464 0.003013022441735215 0 0.017427329531339859 0.0028287030689638647 0 0.017797710530405464 0.003013022441735215 0 0.017869601762042896 0.002674653433527862 0 0.017063783745564078 0.0034081656271073651 0 0.017427329531339859 0.0028287030689638647 0 0.016921612612490072 0.0030216435093053206 0 0.017427329531339859 0.0028287030689638647 0 0.016921612612490072 0.0030216435093053206 0 0.017121791355264499 0.0027187552984855932 0 0.016921612612490072 0.0030216435093053206 0 0.016598986812207735 0.0029689182760574014 0 0.017121791355264499 0.0027187552984855932 0 0.016598986812207735 0.0029689182760574014 0 0.015848882502679299 0.0032280991255144754 0 0.016759973135318091 0.0026280344031500151 0 0.016598986812207735 0.0029689182760574014 0 0.017121791355264499 0.0027187552984855932 0 0.016759973135318091 0.0026280344031500151 0 0.016921612612490072 0.0030216435093053206 0 0.016598986812207735 0.0029689182760574014 0 0.016308498569784013 0.0033444359091787763 0 0.017314949957104184 0.00211720078281668 0 0.017483575268260887 0.0025582164786066594 0 0.018621369879726055 0.0019920686379015068 0 0.018879071943925907 0.0018415890400809425 0 0.018679154835299448 0.0023449929504383801 0 0.018621369879726055 0.0019920686379015068 0 0.018536314161758036 0.0014204908845146388 0 0.018270098786622991 0.0022693976811489235 0 0.018621369879726055 0.0019920686379015068 0 0.018879071943925907 0.0018415890400809425 0 0.018536314161758036 0.0014204908845146388 0 0.018879071943925907 0.0018415890400809425 0 0.018679154835299448 0.0023449929504383801 0 0.019143804155866931 0.0018279037857828423 0 0.018879071943925907 0.0018415890400809425 0 0.019107255209897766 0.0014588181845889496 0 0.019143804155866931 0.0018279037857828423 0 0.018536314161758036 0.0014204908845146388 0 0.019010516576633295 0.0010284811267024048 0 0.01872666324910276 0.00014711434734670373 0 0.018879071943925907 0.0018415890400809425 0 0.019107255209897766 0.0014588181845889496 0 0.018536314161758036 0.0014204908845146388 0 0.019107255209897766 0.0014588181845889496 0 0.018536314161758036 0.0014204908845146388 0 0.019010516576633295 0.0010284811267024048 0 0.019107255209897766 0.0014588181845889496 0 0.019010516576633295 0.0010284811267024048 0 0.019441836173567584 0.0012387605586820531 0 0.015848882502679299 0.0032280991255144754 0 0.016308498569784013 0.0033444359091787763 0 0.015669849213677704 0.003837224687457539 0 0.016598986812207735 0.0029689182760574014 0 0.015848882502679299 0.0032280991255144754 0 0.016308498569784013 0.0033444359091787763 0 0.015669849213677704 0.003837224687457539 0 0.015041648693337174 0.0040623249355941872 0 0.014882915186308934 0.0044828225642704594 0 0.016308498569784013 0.0033444359091787763 0 0.015669849213677704 0.003837224687457539 0 0.016266573075324191 0.0037726493604697325 0 0.015669849213677704 0.003837224687457539 0 0.015751767328776756 0.004276853875580011 0 0.016266573075324191 0.0037726493604697325 0 0.017314949957104184 0.00211720078281668 0 0.015908560256994587 0.0031661676998290668 0 0.019010516576633295 0.0010284811267024048 0 0.01872666324910276 0.00014711434734670373 0 0.019306584749076407 0.00071791345116575258 0 0.015848882502679299 0.0032280991255144754 0 0.015669849213677704 0.003837224687457539 0 0.015041648693337174 0.0040623249355941872 0 0.015908560256994587 0.0031661676998290668 0 0.016516679555474496 0.0026925485591311237 0 0.013898784436551662 0.004762676075878167 0 0.013872733019727159 0.004864872057958854 0 0.013729641285593007 0.0048450879437910909 0 0.015908560256994587 0.0031661676998290668 0 0.014118159297622451 0.0051272344103402666 0 0.015908560256994587 0.0031661676998290668 0 0.014993690963091231 0.0041515593603322796 0 0.014074811313581787 0.003618462774315039 0 0.013872733019727159 0.004864872057958854 0 0.014882915186308934 0.0044828225642704594 0 0.013872733019727159 0.004864872057958854 0 0.014882915186308934 0.0044828225642704594 0 0.014146641123878494 0.0052286806921156385 0 0.015669849213677704 0.003837224687457539 0 0.015751767328776756 0.004276853875580011 0 0.014882915186308934 0.0044828225642704594 0 0.015751767328776756 0.004276853875580011 0 0.014882915186308934 0.0044828225642704594 0 0.015084448056548433 0.0049370360368669311 0 0.015751767328776756 0.004276853875580011 0 0.016126700029654887 0.004742854759127146 0 0.015084448056548433 0.0049370360368669311 0 0.016126700029654887 0.004742854759127146 0 0.016542206263781119 0.0040939593913449195 0 0.01683226671945999 0.0045379789685354418 0 0.015751767328776756 0.004276853875580011 0 0.016126700029654887 0.004742854759127146 0 0.016542206263781119 0.0040939593913449195 0 0.015751767328776756 0.004276853875580011 0 0.016542206263781119 0.0040939593913449195 0 0.016266573075324191 0.0037726493604697325 0 0.017063783745564078 0.0034081656271073651 0 0.016542206263781119 0.0040939593913449195 0 0.016266573075324191 0.0037726493604697325 0 0.017063783745564078 0.0034081656271073651 0 0.016542206263781119 0.0040939593913449195 0 0.017164463182886058 0.0040492659335163847 0 0.017063783745564078 0.0034081656271073651 0 0.017164463182886058 0.0040492659335163847 0 0.01763526020637237 0.0036052740416097919 0 0.01683226671945999 0.0045379789685354418 0 0.017717099036484427 0.004354986533629663 0 0.016922232152838113 0.0052399723316940419 0 0.017164463182886058 0.0040492659335163847 0 0.01683226671945999 0.0045379789685354418 0 0.017717099036484427 0.004354986533629663 0 0.016542206263781119 0.0040939593913449195 0 0.017164463182886058 0.0040492659335163847 0 0.01683226671945999 0.0045379789685354418 0 0.017717099036484427 0.004354986533629663 0 0.018131167632072752 0.0036518734348939636 0 0.018395510752241141 0.0040193675295742502 0 0.017717099036484427 0.004354986533629663 0 0.018395510752241141 0.0040193675295742502 0 0.018689050913761513 0.0048084564064600696 0 0.018131167632072752 0.0036518734348939636 0 0.018395510752241141 0.0040193675295742502 0 0.018494635855761311 0.0033878973787297428 0 0.017164463182886058 0.0040492659335163847 0 0.017717099036484427 0.004354986533629663 0 0.01763526020637237 0.0036052740416097919 0 0.017717099036484427 0.004354986533629663 0 0.018131167632072752 0.0036518734348939636 0 0.01763526020637237 0.0036052740416097919 0 0.018782980631105037 0.0035294532592992879 0 0.017872410076370759 0.0027464356566598157 0 0.019180673504663834 0.0025075139333313097 0 0.018395510752241141 0.0040193675295742502 0 0.018782980631105037 0.0035294532592992879 0 0.018689050913761513 0.0048084564064600696 0 0.018508528662842336 0.0037343572747384059 0 0.019801748198840334 0.0034119563019012079 0 0.018395510752241141 0.0040193675295742502 0 0.018782980631105037 0.0035294532592992879 0 0.018494635855761311 0.0033878973787297428 0 0.018558556996789755 0.0034204888261394409 0 0.018782980631105037 0.0035294532592992879 0 0.018690819096061861 0.0033420643924959564 0 0.018782980631105037 0.0035294532592992879 0 0.018690819096061861 0.0033420643924959564 0 0.018494635855761311 0.0033878973787297428 0 0.018690819096061861 0.0033420643924959564 0 0.018494635855761311 0.0033878973787297428 0 0.01856534647892805 0.0029914954064634617 0 0.018494635855761311 0.0033878973787297428 0 0.01856534647892805 0.0029914954064634617 0 0.01820188358383746 0.0031498815615632167 0 0.018690819096061861 0.0033420643924959564 0 0.01856534647892805 0.0029914954064634617 0 0.01876115087156164 0.0031127180641100983 0 0.01856534647892805 0.0029914954064634617 0 0.01876115087156164 0.0031127180641100983 0 0.018788768001336418 0.0028047409833601745 0 0.01763526020637237 0.0036052740416097919 0 0.01820188358383746 0.0031498815615632167 0 0.017797710530405464 0.003013022441735215 0 0.018131167632072752 0.0036518734348939636 0 0.018494635855761311 0.0033878973787297428 0 0.01820188358383746 0.0031498815615632167 0 0.018131167632072752 0.0036518734348939636 0 0.01763526020637237 0.0036052740416097919 0 0.01820188358383746 0.0031498815615632167 0 0.01856534647892805 0.0029914954064634617 0 0.01820188358383746 0.0031498815615632167 0 0.018280549089188247 0.0027361001896680551 0 0.01820188358383746 0.0031498815615632167 0 0.017797710530405464 0.003013022441735215 0 0.018280549089188247 0.0027361001896680551 0 0.017797710530405464 0.003013022441735215 0 0.018280549089188247 0.0027361001896680551 0 0.017869601762042896 0.002674653433527862 0 0.018280549089188247 0.0027361001896680551 0 0.01817723918068638 0.0024771161923812166 0 0.017869601762042896 0.002674653433527862 0 0.018449097499490967 0.0024810345258356081 0 0.01863809161186759 0.0025540330917839566 0 0.018614924025266922 0.0022568238152551531 0 0.018280549089188247 0.0027361001896680551 0 0.018449097499490967 0.0024810345258356081 0 0.01817723918068638 0.0024771161923812166 0 0.018280549089188247 0.0027361001896680551 0 0.018449097499490967 0.0024810345258356081 0 0.01863809161186759 0.0025540330917839566 0 0.01817723918068638 0.0024771161923812166 0 0.018360550097071923 0.0022799960462457965 0 0.017953755223004197 0.0024185147047985273 0 0.018449097499490967 0.0024810345258356081 0 0.01817723918068638 0.0024771161923812166 0 0.018360550097071923 0.0022799960462457965 0 0.01856534647892805 0.0029914954064634617 0 0.018788768001336418 0.0028047409833601745 0 0.01863809161186759 0.0025540330917839566 0 0.01856534647892805 0.0029914954064634617 0 0.018280549089188247 0.0027361001896680551 0 0.01863809161186759 0.0025540330917839566 0 0.018788768001336418 0.0028047409833601745 0 0.01863809161186759 0.0025540330917839566 0 0.018923687219958383 0.0025125959524809204 0 0.01863809161186759 0.0025540330917839566 0 0.018923687219958383 0.0025125959524809204 0 0.018855571723495026 0.002317959582214446 0 0.019041627890830654 0.0022537025544342461 0 0.018923687219958383 0.0025125959524809204 0 0.018855571723495026 0.002317959582214446 0 0.01863809161186759 0.0025540330917839566 0 0.018855571723495026 0.002317959582214446 0 0.018614924025266922 0.0022568238152551531 0 0.018855571723495026 0.002317959582214446 0 0.018827798723949098 0.0021535625317321695 0 0.018614924025266922 0.0022568238152551531 0 0.018827798723949098 0.0021535625317321695 0 0.018983659334171177 0.0020837804861649095 0 0.018894537661931395 0.0019852595512570995 0 0.018855571723495026 0.002317959582214446 0 0.018827798723949098 0.0021535625317321695 0 0.018983659334171177 0.0020837804861649095 0 0.019146618607408718 0.0020225567051947021 0 0.019041627890830654 0.0022537025544342461 0 0.018983659334171177 0.0020837804861649095 0 0.019041627890830654 0.0022537025544342461 0 0.018855571723495026 0.002317959582214446 0 0.018983659334171177 0.0020837804861649095 0 0.018360550097071923 0.0022799960462457965 0 0.018614924025266922 0.0022568238152551531 0 0.018660211644570383 0.0020946413503951707 0 0.018449097499490967 0.0024810345258356081 0 0.018360550097071923 0.0022799960462457965 0 0.018614924025266922 0.0022568238152551531 0 0.018614924025266922 0.0022568238152551531 0 0.018660211644570383 0.0020946413503951707 0 0.018894537661931395 0.0019852595512570995 0 0.018827798723949098 0.0021535625317321695 0 0.018614924025266922 0.0022568238152551531 0 0.018894537661931395 0.0019852595512570995 0 0.018360550097071923 0.0022799960462457965 0 0.018660211644570383 0.0020946413503951707 0 0.018486495222724601 0.0021098868607554088 0 0.018486495222724601 0.0021098868607554088 0 0.018185143644320587 0.002232667370183304 0 0.018407303193547768 0.0020781883221247265 0 0.018486495222724601 0.0021098868607554088 0 0.018185143644320587 0.002232667370183304 0 0.01818823586476484 0.0022772384662827412 0 0.018179140145417792 0.0021411447736143915 0 0.018117378609742867 0.0022282063390783465 0 0.018407303193547768 0.0020781883221247265 0 0.018185143644320587 0.002232667370183304 0 0.018117378609742867 0.0022282063390783465 0 0.018407303193547768 0.0020781883221247265 0 0.018185143644320587 0.002232667370183304 0 0.018117378609742867 0.0022282063390783465 0 0.017988288537317147 0.0023121473245496307 0 0.018117378609742867 0.0022282063390783465 0 0.017988288537317147 0.0023121473245496307 0 0.01798769292718214 0.0022799751383997926 0 0.018179140145417792 0.0021411447736143915 0 0.018117378609742867 0.0022282063390783465 0 0.01798769292718214 0.0022799751383997926 0 0.018185143644320587 0.002232667370183304 0 0.017967866932973489 0.0023431549245908519 0 0.01818823586476484 0.0022772384662827412 0 0.018185143644320587 0.002232667370183304 0 0.017988288537317147 0.0023121473245496307 0 0.017967866932973489 0.0023431549245908519 0 0.017988288537317147 0.0023121473245496307 0 0.017967866932973489 0.0023431549245908519 0 0.017837933072295361 0.0023766304159296373 0 0.017988288537317147 0.0023121473245496307 0 0.017837933072295361 0.0023766304159296373 0 0.017844841528372617 0.0023863514438456292 0 0.017967866932973489 0.0023431549245908519 0 0.017837933072295361 0.0023766304159296373 0 0.017723686226265526 0.0024273297554851781 0 0.018360550097071923 0.0022799960462457965 0 0.018486495222724601 0.0021098868607554088 0 0.01818823586476484 0.0022772384662827412 0 0.017967866932973489 0.0023431549245908519 0 0.01818823586476484 0.0022772384662827412 0 0.017953755223004197 0.0024185147047985273 0 0.018360550097071923 0.0022799960462457965 0 0.01818823586476484 0.0022772384662827412 0 0.017953755223004197 0.0024185147047985273 0 0.01817723918068638 0.0024771161923812166 0 0.017953755223004197 0.0024185147047985273 0 0.017869601762042896 0.002674653433527862 0 0.017953755223004197 0.0024185147047985273 0 0.017567417527138838 0.002571420148497153 0 0.017869601762042896 0.002674653433527862 0 0.017967866932973489 0.0023431549245908519 0 0.017953755223004197 0.0024185147047985273 0 0.017723686226265526 0.0024273297554851781 0 0.017723686226265526 0.0024273297554851781 0 0.017567417527138838 0.002571420148497153 0 0.017359494167611619 0.0025020487945842541 0 0.017837933072295361 0.0023766304159296373 0 0.017723686226265526 0.0024273297554851781 0 0.017699788318872322 0.0024158413229607135 0 0.017723686226265526 0.0024273297554851781 0 0.017359494167611619 0.0025020487945842541 0 0.017699788318872322 0.0024158413229607135 0 0.017953755223004197 0.0024185147047985273 0 0.017723686226265526 0.0024273297554851781 0 0.017567417527138838 0.002571420148497153 0 0.017567417527138838 0.002571420148497153 0 0.017121791355264499 0.0027187552984855932 0 0.017359494167611619 0.0025020487945842541 0 0.017427329531339859 0.0028287030689638647 0 0.017567417527138838 0.002571420148497153 0 0.017121791355264499 0.0027187552984855932 0 0.017427329531339859 0.0028287030689638647 0 0.017567417527138838 0.002571420148497153 0 0.017869601762042896 0.002674653433527862 0 0.018270098786622991 0.0022693976811489235 0 0.018222285247527618 0.002381857694540121 0 0.018054081069840664 0.0023896289325029195 0 0.018621369879726055 0.0019920686379015068 0 0.018679154835299448 0.0023449929504383801 0 0.018270098786622991 0.0022693976811489235 0 0.018679154835299448 0.0023449929504383801 0 0.018270098786622991 0.0022693976811489235 0 0.018222285247527618 0.002381857694540121 0 0.017121791355264499 0.0027187552984855932 0 0.016759973135318091 0.0026280344031500151 0 0.017359494167611619 0.0025020487945842541 0 0.016759973135318091 0.0026280344031500151 0 0.017359494167611619 0.0025020487945842541 0 0.017775162440111958 0.0024210108413420754 0 0.018270098786622991 0.0022693976811489235 0 0.017775162440111958 0.0024210108413420754 0 0.018054081069840664 0.0023896289325029195 0 0.017483575268260887 0.0025582164786066594 0 0.017721424056474772 0.0024691673449499583 0 0.017359494167611619 0.0025020487945842541 0 0.017699788318872322 0.0024158413229607135 0 0.017775162440111958 0.0024210108413420754 0 0.017775162440111958 0.0024210108413420754 0 0.018054081069840664 0.0023896289325029195 0 0.017923478792733781 0.0024766209647207184 0 0.020819171775108815 0.001814858626090355 0 0.022289725566567435 0.0010657890807229688 0 0.020780247367093049 0.0015478886615580051 0 0.018679154835299448 0.0023449929504383801 0 0.018222285247527618 0.002381857694540121 0 0.017923478792733781 0.0024766209647207184 0 0.023375065571025488 0.00062844842089731102 0 0.022535715604908333 0.00098515918466825897 0 0.019792847751561451 0.001979899062096177 0 0.020174639814390005 0.0017067604502023249 0 0.022289725566567435 0.0010657890807229688 0 0.02229438565749902 0.00075917302191955886 0 0.020780247367093049 0.0015478886615580051 0 0.018222285247527618 0.002381857694540121 0 0.018054081069840664 0.0023896289325029195 0 0.017923478792733781 0.0024766209647207184 0 0.022289725566567435 0.0010657890807229688 0 0.02229438565749902 0.00075917302191955886 0 0.024062149053621456 0.00035363854343516317 0 0.024458291335895426 0.00034506860719953021 0 0.024423672805356452 0.00030582589293080229 0 0.024427352035715399 0.00037099032270083445 0 0.020174639814390005 0.0017067604502023249 0 0.020985929033660231 0.0012356901570466196 0 0.017923478792733781 0.0024766209647207184 0 0.017910395508312724 0.0023423127078045594 0 0.017930731140979581 0.0021821057348776368 0 0.017837933072295361 0.0023766304159296373 0 0.017699788318872322 0.0024158413229607135 0 0.017844841528372617 0.0023863514438456292 0 0.017699788318872322 0.0024158413229607135 0 0.017775162440111958 0.0024210108413420754 0 0.017844841528372617 0.0023863514438456292 0 0.017775162440111958 0.0024210108413420754 0 0.017923478792733781 0.0024766209647207184 0 0.017854426000018308 0.002410478911068699 0 0.017844841528372617 0.0023863514438456292 0 0.017854426000018308 0.002410478911068699 0 0.017910395508312724 0.0023423127078045594 0 0.017923478792733781 0.0024766209647207184 0 0.017854426000018308 0.002410478911068699 0 0.017910395508312724 0.0023423127078045594 0 0.017775162440111958 0.0024210108413420754 0 0.017844841528372617 0.0023863514438456292 0 0.017854426000018308 0.002410478911068699 0 0.017988288537317147 0.0023121473245496307 0 0.017844841528372617 0.0023863514438456292 0 0.01798769292718214 0.0022799751383997926 0 0.017844841528372617 0.0023863514438456292 0 0.017910395508312724 0.0023423127078045594 0 0.01798769292718214 0.0022799751383997926 0 0.02229438565749902 0.00075917302191955886 0 0.024062149053621456 0.00035363854343516317 0 0.024233251194348153 0.00025134862963671547 0 0.017910395508312724 0.0023423127078045594 0 0.01798769292718214 0.0022799751383997926 0 0.017930731140979581 0.0021821057348776368 0 0.018179140145417792 0.0021411447736143915 0 0.01798769292718214 0.0022799751383997926 0 0.017930731140979581 0.0021821057348776368 0 0.023375065571025488 0.00062844842089731102 0 0.0240800270096799 0.00030015915719084268 0 0.024458291335895426 0.00034506860719953021 0 0.024423672805356452 0.00030582589293080229 0 0.024233251194348153 0.00025134862963671547 0 0.024423672805356452 0.00030582589293080229 0 0.024436247040119829 0.0002981989070926723 0 0.024426707287867791 0.00035202686206578109 0 0.024423672805356452 0.00030582589293080229 0 0.024384999147764239 0.00027911491332790881 0 0.024233251194348153 0.00025134862963671547 0 0.024423672805356452 0.00030582589293080229 0 0.024384999147764239 0.00027911491332790881 0 0.024436247040119829 0.0002981989070926723 0 0.024384999147764239 0.00027911491332790881 0 0.024436247040119829 0.0002981989070926723 0 0.024442069983295525 0.00027065551986802576 0 0.024436247040119829 0.0002981989070926723 0 0.024442069983295525 0.00027065551986802576 0 0.024488581388889537 0.00024934222805278006 0 0.024442069983295525 0.00027065551986802576 0 0.024469772243112996 0.00023916391279865459 0 0.024233251194348153 0.00025134862963671547 0 0.024384999147764239 0.00027911491332790881 0 0.024442069983295525 0.00027065551986802576 0 0.024233251194348153 0.00025134862963671547 0 0.024442069983295525 0.00027065551986802576 0 0.024535469868735022 0.00020170831647916055 0 0.024488581388889537 0.00024934222805278006 0 0.024442069983295525 0.00027065551986802576 0 0.024535469868735022 0.00020170831647916055 0 0.024469772243112996 0.00023916391279865459 0 0.024535469868735022 0.00020170831647916055 0 0.024585212219796235 0.00018016295766664511 0 0.024469772243112996 0.00023916391279865459 0 0.024585212219796235 0.00018016295766664511 0 0.024469772243112996 0.00023916391279865459 0 0.024585268096488148 0.00021164656398057311 0 0.020985929033660231 0.0012356901570466196 0 0.021546149156888295 0.0010359375399341595 0 0.024062149053621456 0.00035363854343516317 0 0.024233251194348153 0.00025134862963671547 0 0.024585268096488148 0.00021164656398057311 0 0.024469772243112996 0.00023916391279865459 0 0.024233251194348153 0.00025134862963671547 0 0.024585268096488148 0.00021164656398057311 0 0.018179140145417792 0.0021411447736143915 0 0.017930731140979581 0.0021821057348776368 0 0.018524172068028571 0.0018286006109355755 0 0.018407303193547768 0.0020781883221247265 0 0.018843590272055333 0.0018716830463196788 0 0.018524172068028571 0.0018286006109355755 0 0.018179140145417792 0.0021411447736143915 0 0.018407303193547768 0.0020781883221247265 0 0.018524172068028571 0.0018286006109355755 0 0.018486495222724601 0.0021098868607554088 0 0.018843590272055333 0.0018716830463196788 0 0.018944272490964153 0.0018794302616933426 0 0.018486495222724601 0.0021098868607554088 0 0.018407303193547768 0.0020781883221247265 0 0.018843590272055333 0.0018716830463196788 0 0.018843590272055333 0.0018716830463196788 0 0.019318992253237424 0.001756956238624425 0 0.018944272490964153 0.0018794302616933426 0 0.018843590272055333 0.0018716830463196788 0 0.018524172068028571 0.0018286006109355755 0 0.019301429818893556 0.0016593319361823393 0 0.024585212219796235 0.00018016295766664511 0 0.024585268096488148 0.00021164656398057311 0 0.024740832372182834 0.00014371017248661819 0 0.021546149156888295 0.0010359375399341595 0 0.022017450233220524 0.00094289635297783341 0 0.018843590272055333 0.0018716830463196788 0 0.019301429818893556 0.0016593319361823393 0 0.019318992253237424 0.001756956238624425 0 0.019301429818893556 0.0016593319361823393 0 0.019318992253237424 0.001756956238624425 0 0.020045510302566159 0.0017006649743366718 0 0.022017450233220524 0.00094289635297783341 0 0.022623352291882112 0.00089314914383352418 0 0.019301429818893556 0.0016593319361823393 0 0.020045510302566159 0.0017006649743366718 0 0.020378985801203311 0.001670824994900349 0 0.024740832372182834 0.00014371017248661819 0 0.024764559493730926 7.5226267179742429e-05 0 0.024799782578723579 8.1962365610050561e-05 0 0.024740832372182834 0.00014371017248661819 0 0.024799782578723579 8.1962365610050561e-05 0 0.024868001917872098 6.5303237742261067e-05 0 0.024740832372182834 0.00014371017248661819 0 0.024653228764125477 0.00011947504081773056 0 0.024764559493730926 7.5226267179742429e-05 0 0.024653228764125477 0.00011947504081773056 0 0.024750061536403509 5.460960556365739e-05 0 0.024764559493730926 7.5226267179742429e-05 0 0.024653228764125477 0.00011947504081773056 0 0.024750061536403509 5.460960556365739e-05 0 0.024664873974400169 7.8808206508117554e-05 0 0.024535469868735022 0.00020170831647916055 0 0.024585212219796235 0.00018016295766664511 0 0.024653228764125477 0.00011947504081773056 0 0.024535469868735022 0.00020170831647916055 0 0.024653228764125477 0.00011947504081773056 0 0.024582476153411834 0.00013359784696069207 0 0.024585212219796235 0.00018016295766664511 0 0.024740832372182834 0.00014371017248661819 0 0.024653228764125477 0.00011947504081773056 0 0.019182741224618258 0.001843426898869107 0 0.019057586752465733 0.0018867749262177623 0 0.019111220450413222 0.0018101916827445821 0 0.019146618607408718 0.0020225567051947021 0 0.018983659334171177 0.0020837804861649095 0 0.019057586752465733 0.0018867749262177623 0 0.018983659334171177 0.0020837804861649095 0 0.019057586752465733 0.0018867749262177623 0 0.018894537661931395 0.0019852595512570995 0 0.019057586752465733 0.0018867749262177623 0 0.019092463837297836 0.0018189042510367134 0 0.018894537661931395 0.0019852595512570995 0 0.019057586752465733 0.0018867749262177623 0 0.019092463837297836 0.0018189042510367134 0 0.019111220450413222 0.0018101916827445821 0 0.019092463837297836 0.0018189042510367134 0 0.018944272490964153 0.0018794302616933426 0 0.019324250578837354 0.0017307271252897231 0 0.019092463837297836 0.0018189042510367134 0 0.018894537661931395 0.0019852595512570995 0 0.018944272490964153 0.0018794302616933426 0 0.018660211644570383 0.0020946413503951707 0 0.018894537661931395 0.0019852595512570995 0 0.018944272490964153 0.0018794302616933426 0 0.018660211644570383 0.0020946413503951707 0 0.018486495222724601 0.0021098868607554088 0 0.018944272490964153 0.0018794302616933426 0 0.019318992253237424 0.001756956238624425 0 0.018944272490964153 0.0018794302616933426 0 0.019324250578837354 0.0017307271252897231 0 0.019318992253237424 0.001756956238624425 0 0.020045510302566159 0.0017006649743366718 0 0.019324250578837354 0.0017307271252897231 0 0.020045510302566159 0.0017006649743366718 0 0.01942239026571153 0.0018851987075078072 0 0.019324250578837354 0.0017307271252897231 0 0.020045510302566159 0.0017006649743366718 0 0.01942239026571153 0.0018851987075078072 0 0.021121454565774165 0.0014793461160737252 0 0.019092463837297836 0.0018189042510367134 0 0.019324250578837354 0.0017307271252897231 0 0.019111220450413222 0.0018101916827445821 0 0.01942239026571153 0.0018851987075078072 0 0.019324250578837354 0.0017307271252897231 0 0.019111220450413222 0.0018101916827445821 0 0.023757470334229636 0.0019749220610502881 0 0.024464932784501486 0.001614255458457793 0 0.024459543695937253 0.0014867035902084874 0 0.021536782078447385 0.0018509182340307893 0 0.021766463751015045 0.0017205047317365542 0 0.024532645975742635 0.0014464983877197912 0 0.024464932784501486 0.001614255458457793 0 0.024459543695937253 0.0014867035902084874 0 0.024532645975742635 0.0014464983877197912 0 0.024459543695937253 0.0014867035902084874 0 0.024593552362295146 0.0013562331676407714 0 0.021838723734613003 0.0016033806073403399 0 0.021766463751015045 0.0017205047317365542 0 0.024532645975742635 0.0014464983877197912 0 0.024485713570311755 0.0013673714294625482 0 0.024464932784501486 0.001614255458457793 0 0.024863614579696762 0.00059110924684507946 0 0.024405359823532664 0.00087101228373947701 0 0.024870670125005732 0.0002630246833712894 0 0.02468960372857186 0.0009563236090082333 0 0.024384965400380983 0.00086859661256663209 0 0.024459543695937253 0.0014867035902084874 0 0.024593552362295146 0.0013562331676407714 0 0.024405359823532664 0.00087101228373947701 0 0.023757470334229636 0.0019749220610502881 0 0.024459543695937253 0.0014867035902084874 0 0.024405359823532664 0.00087101228373947701 0 0.024405359823532664 0.00087101228373947701 0 0.02442016387301409 0.00021469082216596814 0 0.024870670125005732 0.0002630246833712894 0 0.024405359823532664 0.00087101228373947701 0 0.023499352557725433 0.00064595008137334541 0 0.02442016387301409 0.00021469082216596814 0 0.023757470334229636 0.0019749220610502881 0 0.024405359823532664 0.00087101228373947701 0 0.023499352557725433 0.00064595008137334541 0 0.023757470334229636 0.0019749220610502881 0 0.023499352557725433 0.00064595008137334541 0 0.021121454565774165 0.0014793461160737252 0 0.021536782078447385 0.0018509182340307893 0 0.021042462130326761 0.0014609347741114452 0 0.023499352557725433 0.00064595008137334541 0 0.022564312498243276 0.00012159105875615376 0 0.023999306030656493 5.1005103471494858e-05 0 0.023499352557725433 0.00064595008137334541 0 0.022564312498243276 0.00012159105875615376 0 0.021121454565774165 0.0014793461160737252 0 0.022564312498243276 0.00012159105875615376 0 0.024773811880724996 -9.7346076516769089e-05 0 0.023999306030656493 5.1005103471494858e-05 0 0.024935995413872085 -4.3959217657880987e-05 0 0.024773811880724996 -9.7346076516769089e-05 0 0.02493913874425031 -5.5804958132174989e-05 0 0.023741412449435183 0.00014555166040377404 0 0.024578977492084816 -4.6291135662114234e-05 0 0.024773811880724996 -9.7346076516769089e-05 0 0.024999500441054551 -7.1394047955321182e-08 0 0.024998971719221212 -1.7240374105524622e-07 0 0.024773811880724996 -9.7346076516769089e-05 0 0.024999500441054551 -7.1394047955321182e-08 0 0.02493913874425031 -5.5804958132174989e-05 0 0.024773811880724996 -9.7346076516769089e-05 0 0.024587101202735138 -2.3307552513309327e-05 0 0.023999306030656493 5.1005103471494858e-05 0 0.024773811880724996 -9.7346076516769089e-05 0 0.024998971719221212 -1.7240374105524622e-07 0 0.024587101202735138 -2.3307552513309327e-05 0 0.024587101202735138 -2.3307552513309327e-05 0 0.023999306030656493 5.1005103471494858e-05 0 0.02442016387301409 0.00021469082216596814 0 0.023499352557725433 0.00064595008137334541 0 0.023999306030656493 5.1005103471494858e-05 0 0.02442016387301409 0.00021469082216596814 0 0.024587101202735138 -2.3307552513309327e-05 0 0.02442016387301409 0.00021469082216596814 0 0.024810539739649494 3.585259421419139e-05 0 0.02442016387301409 0.00021469082216596814 0 0.024810539739649494 3.585259421419139e-05 0 0.024870670125005732 0.0002630246833712894 0 0.024998971719221212 -1.7240374105524622e-07 0 0.024587101202735138 -2.3307552513309327e-05 0 0.024810539739649494 3.585259421419139e-05 0 0.024998971719221212 -1.7240374105524622e-07 0 0.024810539739649494 3.585259421419139e-05 0 0.024999985575099554 6.1178431405340108e-08 0 0.024810539739649494 3.585259421419139e-05 0 0.024999985575099554 6.1178431405340108e-08 0 0.024870670125005732 0.0002630246833712894 0 0.024818254886457562 2.9479337147858639e-05 0 0.024838707759225826 2.2510819886203596e-05 0 0.024876574583745554 -2.9441275333085751e-06 0 0.024818254886457562 2.9479337147858639e-05 0 0.024838707759225826 2.2510819886203596e-05 0 0.024750061536403509 5.460960556365739e-05 0 0.024838707759225826 2.2510819886203596e-05 0 0.024750061536403509 5.460960556365739e-05 0 0.024795787498841121 3.1898290583817579e-05 0 0.024838707759225826 2.2510819886203596e-05 0 0.02491455377281844 1.0177815975552584e-05 0 0.024795787498841121 3.1898290583817579e-05 0 0.024818254886457562 2.9479337147858639e-05 0 0.024750061536403509 5.460960556365739e-05 0 0.024764559493730926 7.5226267179742429e-05 0 0.024818254886457562 2.9479337147858639e-05 0 0.024764559493730926 7.5226267179742429e-05 0 0.024827946866755012 4.2296367319206067e-05 0 0.024764559493730926 7.5226267179742429e-05 0 0.024799782578723579 8.1962365610050561e-05 0 0.024827946866755012 4.2296367319206067e-05 0 0.024799782578723579 8.1962365610050561e-05 0 0.024827946866755012 4.2296367319206067e-05 0 0.024868001917872098 6.5303237742261067e-05 0 0.020045510302566159 0.0017006649743366718 0 0.021121454565774165 0.0014793461160737252 0 0.020378985801203311 0.001670824994900349 0 0.024827946866755012 4.2296367319206067e-05 0 0.024868001917872098 6.5303237742261067e-05 0 0.024881229943577308 6.2407455969678411e-06 0 0.023741412449435183 0.00014555166040377404 0 0.022623352291882112 0.00089314914383352418 0 0.024935995413872085 -4.3959217657880987e-05 0 0.024868001917872098 6.5303237742261067e-05 0 0.024881229943577308 6.2407455969678411e-06 0 0.022564312498243276 0.00012159105875615376 0 0.021121454565774165 0.0014793461160737252 0 0.020378985801203311 0.001670824994900349 0 0.024935995413872085 -4.3959217657880987e-05 0 0.024881229943577308 6.2407455969678411e-06 0 0.024911244136107357 -2.692345970738551e-05 0 0.024864020305183854 7.1531146498327539e-06 0 0.024876574583745554 -2.9441275333085751e-06 0 0.024911244136107357 -2.692345970738551e-05 0 0.024818254886457562 2.9479337147858639e-05 0 0.024827946866755012 4.2296367319206067e-05 0 0.024864020305183854 7.1531146498327539e-06 0 0.024827946866755012 4.2296367319206067e-05 0 0.024881229943577308 6.2407455969678411e-06 0 0.024864020305183854 7.1531146498327539e-06 0 0.024881229943577308 6.2407455969678411e-06 0 0.024864020305183854 7.1531146498327539e-06 0 0.024911244136107357 -2.692345970738551e-05 0 0.024818254886457562 2.9479337147858639e-05 0 0.024864020305183854 7.1531146498327539e-06 0 0.024876574583745554 -2.9441275333085751e-06 0 0.024876574583745554 -2.9441275333085751e-06 0 0.02495046392014302 -2.9104497292730535e-05 0 0.024892174079144055 -1.8870012010602969e-05 0 0.024876574583745554 -2.9441275333085751e-06 0 0.024911244136107357 -2.692345970738551e-05 0 0.02495046392014302 -2.9104497292730535e-05 0 0.024935995413872085 -4.3959217657880987e-05 0 0.024911244136107357 -2.692345970738551e-05 0 0.02493913874425031 -5.5804958132174989e-05 0 0.024911244136107357 -2.692345970738551e-05 0 0.02493913874425031 -5.5804958132174989e-05 0 0.02495046392014302 -2.9104497292730535e-05 0 0.024999500441054551 -7.1394047955321182e-08 0 0.02493913874425031 -5.5804958132174989e-05 0 0.02495046392014302 -2.9104497292730535e-05 0 0.024999500441054551 -7.1394047955321182e-08 0 0.025000036320809164 -5.0917775243882879e-08 0 0.02495046392014302 -2.9104497292730535e-05 0 0.025000036320809164 -5.0917775243882879e-08 0 0.02495046392014302 -2.9104497292730535e-05 0 0.024892174079144055 -1.8870012010602969e-05 0 0.02499996155965812 1.0570224630876323e-09 0 0.024922943352500504 -3.5481820287234921e-06 0 0.025000019378077463 1.646806437269402e-08 0 0.024957081829098789 4.9052284232892435e-06 0 0.02499983395269972 -2.557111538507673e-08 0 0.024858137850327665 1.9254678189393393e-05 0 0.024922943352500504 -3.5481820287234921e-06 0 0.024838707759225826 2.2510819886203596e-05 0 0.024876574583745554 -2.9441275333085751e-06 0 0.024892174079144055 -1.8870012010602969e-05 0 0.024838707759225826 2.2510819886203596e-05 0 0.024957081829098789 4.9052284232892435e-06 0 0.02491455377281844 1.0177815975552584e-05 0 0.024957081829098789 4.9052284232892435e-06 0 0.02491455377281844 1.0177815975552584e-05 0 0.02499983395269972 -2.557111538507673e-08 0 0.02491455377281844 1.0177815975552584e-05 0 0.02499983395269972 -2.557111538507673e-08 0 0.024902428494055891 9.410899352902219e-06 0 0.02499983395269972 -2.557111538507673e-08 0 0.024902428494055891 9.410899352902219e-06 0 0.024999790313377006 6.2595006983535782e-08 0 0.024902428494055891 9.410899352902219e-06 0 0.024817422382174936 1.3665748435910002e-05 0 0.024999790313377006 6.2595006983535782e-08 0 0.02491455377281844 1.0177815975552584e-05 0 0.024902428494055891 9.410899352902219e-06 0 0.024795787498841121 3.1898290583817579e-05 0 0.024902428494055891 9.410899352902219e-06 0 0.024795787498841121 3.1898290583817579e-05 0 0.024817422382174936 1.3665748435910002e-05 0 0.024795787498841121 3.1898290583817579e-05 0 0.024685681417020666 6.6978913797475156e-05 0 0.024817422382174936 1.3665748435910002e-05 0 0.024795787498841121 3.1898290583817579e-05 0 0.024685681417020666 6.6978913797475156e-05 0 0.024664873974400169 7.8808206508117554e-05 0 0.024750061536403509 5.460960556365739e-05 0 0.024795787498841121 3.1898290583817579e-05 0 0.024664873974400169 7.8808206508117554e-05 0 0.024709501198949387 5.8172636739931273e-05 0 0.024685681417020666 6.6978913797475156e-05 0 0.024817422382174936 1.3665748435910002e-05 0 0.024709501198949387 5.8172636739931273e-05 0 0.024817422382174936 1.3665748435910002e-05 0 0.024694544118938816 5.2781020338041709e-06 0 0.024821431893733099 1.1297631954419196e-05 0 0.024834419135838788 8.4969061135945023e-06 0 0.024817422382174936 1.3665748435910002e-05 0 0.024960032661182258 1.8974690690952648e-05 0 0.024977186127457914 3.7231615597260747e-06 0 0.024999790313377006 6.2595006983535782e-08 0 0.024960032661182258 1.8974690690952648e-05 0 0.024999931428706431 -4.7785383227728362e-08 0 0.024817422382174936 1.3665748435910002e-05 0 0.024999790313377006 6.2595006983535782e-08 0 0.024960032661182258 1.8974690690952648e-05 0 0.024960032661182258 1.8974690690952648e-05 0 0.024999931428706431 -4.7785383227728362e-08 0 0.024977186127457914 3.7231615597260747e-06 0 0.024999931428706431 -4.7785383227728362e-08 0 0.024955152446014851 3.2685159644234745e-05 0 0.024977186127457914 3.7231615597260747e-06 0 0.024999931428706431 -4.7785383227728362e-08 0 0.0249995370279423 1.2965204130616497e-07 0 0.024843014145878875 9.1874887678185533e-06 0 0.024808643141207624 2.3934777708658603e-05 0 0.024834419135838788 8.4969061135945023e-06 0 0.024999931428706431 -4.7785383227728362e-08 0 0.024955152446014851 3.2685159644234745e-05 0 0.024843014145878875 9.1874887678185533e-06 0 0.024658585557917827 2.5406727292026856e-05 0 0.024672785547520556 6.5944128656151453e-06 0 0.024843014145878875 9.1874887678185533e-06 0 0.024808643141207624 2.3934777708658603e-05 0 0.024838348330557286 1.3785388134596672e-05 0 0.024672785547520556 6.5944128656151453e-06 0 0.024843014145878875 9.1874887678185533e-06 0 0.024664469670367072 8.8561101550077922e-06 0 0.024658585557917827 2.5406727292026856e-05 0 0.024672785547520556 6.5944128656151453e-06 0 0.024669459299165246 2.8867248723681008e-05 0 0.024576823981128263 6.9054997468001242e-05 0 0.024669459299165246 2.8867248723681008e-05 0 0.024670302980867132 7.8169097453747725e-05 0 0.024672785547520556 6.5944128656151453e-06 0 0.024576823981128263 6.9054997468001242e-05 0 0.024669459299165246 2.8867248723681008e-05 0 0.024672785547520556 6.5944128656151453e-06 0 0.024576823981128263 6.9054997468001242e-05 0 0.024664469670367072 8.8561101550077922e-06 0 0.024709501198949387 5.8172636739931273e-05 0 0.024694544118938816 5.2781020338041709e-06 0 0.024669459299165246 2.8867248723681008e-05 0 0.024658585557917827 2.5406727292026856e-05 0 0.024694544118938816 5.2781020338041709e-06 0 0.024669459299165246 2.8867248723681008e-05 0 0.024709501198949387 5.8172636739931273e-05 0 0.024669459299165246 2.8867248723681008e-05 0 0.024670302980867132 7.8169097453747725e-05 0 0.024490164991679653 0.00010147645852752258 0 0.024458738408982213 6.5506011559914531e-05 0 0.024709501198949387 5.8172636739931273e-05 0 0.024670302980867132 7.8169097453747725e-05 0 0.024685872962538331 6.7273887961420028e-05 0 0.024308509832750607 0.00014537458957577631 0 0.024220697258592168 9.5413144411074085e-05 0 0.024359242063527554 9.3599219574935324e-05 0 0.024308509832750607 0.00014537458957577631 0 0.024220697258592168 9.5413144411074085e-05 0 0.024217684646271699 5.2831762472929801e-05 0 0.024220697258592168 9.5413144411074085e-05 0 0.024199710692678397 0.00011015968253059671 0 0.024217684646271699 5.2831762472929801e-05 0 0.024576823981128263 6.9054997468001242e-05 0 0.024454168960022362 8.2293600543586587e-05 0 0.024551179124707102 4.6742426934670031e-05 0 0.024576823981128263 6.9054997468001242e-05 0 0.024308509832750607 0.00014537458957577631 0 0.024359242063527554 9.3599219574935324e-05 0 0.024561812253440826 7.8019620029647741e-05 0 0.024490164991679653 0.00010147645852752258 0 0.024359242063527554 9.3599219574935324e-05 0 0.024454168960022362 8.2293600543586587e-05 0 0.024342913292368911 8.5552618533367615e-05 0 0.024576823981128263 6.9054997468001242e-05 0 0.024359242063527554 9.3599219574935324e-05 0 0.024454168960022362 8.2293600543586587e-05 0 0.024454168960022362 8.2293600543586587e-05 0 0.024402793415585319 0.0001131681379882374 0 0.024392064599239364 9.7496963932607904e-05 0 0.024454168960022362 8.2293600543586587e-05 0 0.024402793415585319 0.0001131681379882374 0 0.024425787479126711 0.00010051506165836886 0 0.024454168960022362 8.2293600543586587e-05 0 0.024392064599239364 9.7496963932607904e-05 0 0.024342913292368911 8.5552618533367615e-05 0 0.024392064599239364 9.7496963932607904e-05 0 0.024342913292368911 8.5552618533367615e-05 0 0.024372820751703106 9.4015824604301048e-05 0 0.024342913292368911 8.5552618533367615e-05 0 0.024372820751703106 9.4015824604301048e-05 0 0.024319026769280581 7.1368532022799647e-05 0 0.024364018542751675 9.0684028754141769e-05 0 0.024372820751703106 9.4015824604301048e-05 0 0.024319026769280581 7.1368532022799647e-05 0 0.024364018542751675 9.0684028754141769e-05 0 0.024319026769280581 7.1368532022799647e-05 0 0.024340831215975488 5.053091157902449e-05 0 0.024364018542751675 9.0684028754141769e-05 0 0.024372820751703106 9.4015824604301048e-05 0 0.024377597757571777 0.00012414512072400665 0 0.024402793415585319 0.0001131681379882374 0 0.02438573460652128 0.00011709265158617053 0 0.024365040586612329 0.000155315621037127 0 0.024392064599239364 9.7496963932607904e-05 0 0.024372820751703106 9.4015824604301048e-05 0 0.02438573460652128 0.00011709265158617053 0 0.024402793415585319 0.0001131681379882374 0 0.024392064599239364 9.7496963932607904e-05 0 0.02438573460652128 0.00011709265158617053 0 0.02438573460652128 0.00011709265158617053 0 0.024377597757571777 0.00012414512072400665 0 0.024365040586612329 0.000155315621037127 0 0.024372820751703106 9.4015824604301048e-05 0 0.02438573460652128 0.00011709265158617053 0 0.024377597757571777 0.00012414512072400665 0 0.024220697258592168 9.5413144411074085e-05 0 0.024071020867548962 4.4980345595468109e-05 0 0.024199710692678397 0.00011015968253059671 0 0.024220697258592168 9.5413144411074085e-05 0 0.024342913292368911 8.5552618533367615e-05 0 0.024245427157381358 7.9964015353847217e-05 0 0.024220697258592168 9.5413144411074085e-05 0 0.024245427157381358 7.9964015353847217e-05 0 0.024071020867548962 4.4980345595468109e-05 0 0.024220697258592168 9.5413144411074085e-05 0 0.024359242063527554 9.3599219574935324e-05 0 0.024342913292368911 8.5552618533367615e-05 0 0.024342913292368911 8.5552618533367615e-05 0 0.024245427157381358 7.9964015353847217e-05 0 0.024319026769280581 7.1368532022799647e-05 0 0.024319026769280581 7.1368532022799647e-05 0 0.024071020867548962 4.4980345595468109e-05 0 0.024340831215975488 5.053091157902449e-05 0 0.024071020867548962 4.4980345595468109e-05 0 0.023450663669389492 0.00039456005432444112 0 0.022775632331666972 0.00045342667707765891 0 0.023991359716779466 5.8122211596534345e-05 0 0.023533742189326044 0.00030315157672613477 0 0.024245427157381358 7.9964015353847217e-05 0 0.024319026769280581 7.1368532022799647e-05 0 0.024071020867548962 4.4980345595468109e-05 0 0.024071020867548962 4.4980345595468109e-05 0 0.02393177124140012 0.00030195719311391065 0 0.023450663669389492 0.00039456005432444112 0 0.024071020867548962 4.4980345595468109e-05 0 0.02393177124140012 0.00030195719311391065 0 0.024141601443345959 0.00018183526614317335 0 0.024141601443345959 0.00018183526614317335 0 0.024335926639519268 0.00022142125098487361 0 0.024079208721443906 0.0004368764074845364 0 0.02393177124140012 0.00030195719311391065 0 0.024141601443345959 0.00018183526614317335 0 0.024079208721443906 0.0004368764074845364 0 0.024141601443345959 0.00018183526614317335 0 0.024199710692678397 0.00011015968253059671 0 0.024335926639519268 0.00022142125098487361 0 0.024071020867548962 4.4980345595468109e-05 0 0.024141601443345959 0.00018183526614317335 0 0.024199710692678397 0.00011015968253059671 0 0.024199710692678397 0.00011015968253059671 0 0.024335926639519268 0.00022142125098487361 0 0.024528752590831104 6.8763258381334346e-05 0 0.024335926639519268 0.00022142125098487361 0 0.024410686283825488 0.00032253685312723851 0 0.024507014599178676 0.00019161720987405877 0 0.024410686283825488 0.00032253685312723851 0 0.024458236322982323 0.00029509847633420297 0 0.024507014599178676 0.00019161720987405877 0 0.024488581388889537 0.00024934222805278006 0 0.024458236322982323 0.00029509847633420297 0 0.024507014599178676 0.00019161720987405877 0 0.024436247040119829 0.0002981989070926723 0 0.024488581388889537 0.00024934222805278006 0 0.024458236322982323 0.00029509847633420297 0 0.024535469868735022 0.00020170831647916055 0 0.024488581388889537 0.00024934222805278006 0 0.024507014599178676 0.00019161720987405877 0 0.024535469868735022 0.00020170831647916055 0 0.024507014599178676 0.00019161720987405877 0 0.024582476153411834 0.00013359784696069207 0 0.024335926639519268 0.00022142125098487361 0 0.024507014599178676 0.00019161720987405877 0 0.024528752590831104 6.8763258381334346e-05 0 0.024507014599178676 0.00019161720987405877 0 0.024582476153411834 0.00013359784696069207 0 0.024528752590831104 6.8763258381334346e-05 0 0.024582476153411834 0.00013359784696069207 0 0.024664873974400169 7.8808206508117554e-05 0 0.024528752590831104 6.8763258381334346e-05 0 0.024653228764125477 0.00011947504081773056 0 0.024582476153411834 0.00013359784696069207 0 0.024664873974400169 7.8808206508117554e-05 0 0.024685681417020666 6.6978913797475156e-05 0 0.024664873974400169 7.8808206508117554e-05 0 0.024528752590831104 6.8763258381334346e-05 0 0.024685681417020666 6.6978913797475156e-05 0 0.024685872962538331 6.7273887961420028e-05 0 0.024528752590831104 6.8763258381334346e-05 0 0.024709501198949387 5.8172636739931273e-05 0 0.024685681417020666 6.6978913797475156e-05 0 0.024685872962538331 6.7273887961420028e-05 0 0.024199710692678397 0.00011015968253059671 0 0.024217684646271699 5.2831762472929801e-05 0 0.024528752590831104 6.8763258381334346e-05 0 0.024458738408982213 6.5506011559914531e-05 0 0.024528327939622584 6.9483033108685795e-05 0 0.024997377685667531 -1.0088707893933022e-06 0 0.024315105240361328 -0.00011009197861565839 0 0.024889203575626399 -3.5629070949035642e-05 0 0.024997377685667531 -1.0088707893933022e-06 0 0.024889203575626399 -3.5629070949035642e-05 0 0.0249995370279423 1.2965204130616497e-07 0 0.024997377685667531 -1.0088707893933022e-06 0 0.024315105240361328 -0.00011009197861565839 0 0.021865965099901862 1.769705472967438e-06 0 0.023592754569353908 0.00042322595992994738 0 0.024315105240361328 -0.00011009197861565839 0 0.021865965099901862 1.769705472967438e-06 0 0.022523528006415119 0.00024061136931673976 0 0.021861430495041675 8.9922848867612031e-08 0 0.023592754569353908 0.00042322595992994738 0 0.024315105240361328 -0.00011009197861565839 0 0.024455383185843248 0.00031359200145493726 0 0.024315105240361328 -0.00011009197861565839 0 0.02467640142785274 1.0939938660106649e-05 0 0.024889203575626399 -3.5629070949035642e-05 0 0.024844026373982142 -1.4855562383583896e-05 0 0.024818700087659053 -2.7323849065451196e-05 0 0.024701549826982642 -1.7623179698465469e-05 0 0.024753789735193512 -2.0349897544124744e-05 0 0.024889203575626399 -3.5629070949035642e-05 0 0.024701549826982642 -1.7623179698465469e-05 0 0.024685914965928715 -2.1722256755447564e-05 0 0.024753789735193512 -2.0349897544124744e-05 0 0.024844026373982142 -1.4855562383583896e-05 0 0.023308526348053495 -0.00010403809879831565 0 0.024685914965928715 -2.1722256755447564e-05 0 0.024692123599321013 -5.5316039024134391e-05 0 0.024661669331201088 -5.3921813402652478e-05 0 0.024701549826982642 -1.7623179698465469e-05 0 0.024685914965928715 -2.1722256755447564e-05 0 0.024692123599321013 -5.5316039024134391e-05 0 0.024315105240361328 -0.00011009197861565839 0 0.02467640142785274 1.0939938660106649e-05 0 0.024455383185843248 0.00031359200145493726 0 0.022409352557380913 -0.00062422948585117886 0 0.023289415393337655 -2.7101069554247355e-05 0 0.021940794579147598 0.00032004281617744468 0 0.021576652737783968 8.0876448633016346e-05 0 0.021452488875609323 9.8429924254831417e-05 0 0.021479092139488121 1.3837219404128613e-05 0 0.022523528006415119 0.00024061136931673976 0 0.023308526348053495 -0.00010403809879831565 0 0.023308526348053495 -0.00010403809879831565 0 0.020848309856669432 2.6388661091811606e-05 0 0.022409352557380913 -0.00062422948585117886 0 0.023289415393337655 -2.7101069554247355e-05 0 0.023585532013398525 -0.0009089566415385065 0 0.023308526348053495 -0.00010403809879831565 0 0.024128441262140029 -0.0004889429706406691 0 0.0230475436739313 -0.00045308998573058038 0 0.024128441262140029 -0.0004889429706406691 0 0.024630062881750753 -0.00016241306630171545 0 0.024584322582388293 -3.3564917798969846e-05 0 0.024542589379059496 -7.1029573232933276e-05 0 0.024548179431809394 -6.1537724746106083e-05 0 0.024606759249351899 -4.8092505163765676e-05 0 0.024542589379059496 -7.1029573232933276e-05 0 0.024548179431809394 -6.1537724746106083e-05 0 0.024542589379059496 -7.1029573232933276e-05 0 0.024440016866515122 -0.00011403586828754548 0 0.024128441262140029 -0.0004889429706406691 0 0.024358998473460187 -0.00043212553494200232 0 0.024584322582388293 -3.3564917798969846e-05 0 0.024606759249351899 -4.8092505163765676e-05 0 0.024542589379059496 -7.1029573232933276e-05 0 0.024630062881750753 -0.00016241306630171545 0 0.024542589379059496 -7.1029573232933276e-05 0 0.024440016866515122 -0.00011403586828754548 0 0.0230475436739313 -0.00045308998573058038 0 0.024671702933841674 -0.00031801334733304977 0 0.024548179431809394 -6.1537724746106083e-05 0 0.024440016866515122 -0.00011403586828754548 0 0.024491267286977876 -6.5870381243034746e-05 0 0.024440016866515122 -0.00011403586828754548 0 0.024491267286977876 -6.5870381243034746e-05 0 0.02430615191557392 -3.0669846199754914e-05 0 0.024491267286977876 -6.5870381243034746e-05 0 0.024574227863455454 -3.1028800896466349e-05 0 0.024476189868080575 -1.8866741446913417e-05 0 0.024548179431809394 -6.1537724746106083e-05 0 0.024491267286977876 -6.5870381243034746e-05 0 0.024625344344831841 -3.6646046834939343e-05 0 0.024491267286977876 -6.5870381243034746e-05 0 0.024574227863455454 -3.1028800896466349e-05 0 0.024625344344831841 -3.6646046834939343e-05 0 0.024625344344831841 -3.6646046834939343e-05 0 0.024662337634117442 -2.8819196765435176e-05 0 0.024772448183313214 -1.959199758179549e-05 0 0.024574227863455454 -3.1028800896466349e-05 0 0.024625344344831841 -3.6646046834939343e-05 0 0.024704877885034442 -1.6650225188548301e-05 0 0.024625344344831841 -3.6646046834939343e-05 0 0.024772448183313214 -1.959199758179549e-05 0 0.024704877885034442 -1.6650225188548301e-05 0 0.024548179431809394 -6.1537724746106083e-05 0 0.024625344344831841 -3.6646046834939343e-05 0 0.024662337634117442 -2.8819196765435176e-05 0 0.024548179431809394 -6.1537724746106083e-05 0 0.024606759249351899 -4.8092505163765676e-05 0 0.024662337634117442 -2.8819196765435176e-05 0 0.024685914965928715 -2.1722256755447564e-05 0 0.024606759249351899 -4.8092505163765676e-05 0 0.024662337634117442 -2.8819196765435176e-05 0 0.024685914965928715 -2.1722256755447564e-05 0 0.024661669331201088 -5.3921813402652478e-05 0 0.024606759249351899 -4.8092505163765676e-05 0 0.024685914965928715 -2.1722256755447564e-05 0 0.024662337634117442 -2.8819196765435176e-05 0 0.024753789735193512 -2.0349897544124744e-05 0 0.0249995370279423 1.2965204130616497e-07 0 0.024772448183313214 -1.959199758179549e-05 0 0.024704877885034442 -1.6650225188548301e-05 0 0.024753789735193512 -2.0349897544124744e-05 0 0.024889203575626399 -3.5629070949035642e-05 0 0.024772448183313214 -1.959199758179549e-05 0 0.024662337634117442 -2.8819196765435176e-05 0 0.024753789735193512 -2.0349897544124744e-05 0 0.024772448183313214 -1.959199758179549e-05 0 0.024889203575626399 -3.5629070949035642e-05 0 0.0249995370279423 1.2965204130616497e-07 0 0.024772448183313214 -1.959199758179549e-05 0 0.0249995370279423 1.2965204130616497e-07 0 0.024843014145878875 9.1874887678185533e-06 0 0.024704877885034442 -1.6650225188548301e-05 0 0.024843014145878875 9.1874887678185533e-06 0 0.024704877885034442 -1.6650225188548301e-05 0 0.024664469670367072 8.8561101550077922e-06 0 0.024704877885034442 -1.6650225188548301e-05 0 0.024571663906167541 1.911000646270868e-06 0 0.024664469670367072 8.8561101550077922e-06 0 0.024574227863455454 -3.1028800896466349e-05 0 0.024704877885034442 -1.6650225188548301e-05 0 0.024571663906167541 1.911000646270868e-06 0 0.024574227863455454 -3.1028800896466349e-05 0 0.024571663906167541 1.911000646270868e-06 0 0.024476189868080575 -1.8866741446913417e-05 0 0.024571663906167541 1.911000646270868e-06 0 0.024664469670367072 8.8561101550077922e-06 0 0.024551179124707102 4.6742426934670031e-05 0 0.024576823981128263 6.9054997468001242e-05 0 0.024664469670367072 8.8561101550077922e-06 0 0.024551179124707102 4.6742426934670031e-05 0 0.024551179124707102 4.6742426934670031e-05 0 0.02445884461596089 4.0522593028830926e-05 0 0.024475661587756003 7.2016031293982186e-05 0 0.024571663906167541 1.911000646270868e-06 0 0.024551179124707102 4.6742426934670031e-05 0 0.02445884461596089 4.0522593028830926e-05 0 0.024571663906167541 1.911000646270868e-06 0 0.02445884461596089 4.0522593028830926e-05 0 0.024476189868080575 -1.8866741446913417e-05 0 0.02445884461596089 4.0522593028830926e-05 0 0.024397684672731804 0.00010432686339541947 0 0.024309941716108209 0.00010731566806840971 0 0.02445884461596089 4.0522593028830926e-05 0 0.024475661587756003 7.2016031293982186e-05 0 0.024397684672731804 0.00010432686339541947 0 0.024475661587756003 7.2016031293982186e-05 0 0.024425787479126711 0.00010051506165836886 0 0.024397684672731804 0.00010432686339541947 0 0.024454168960022362 8.2293600543586587e-05 0 0.024475661587756003 7.2016031293982186e-05 0 0.024425787479126711 0.00010051506165836886 0 0.024454168960022362 8.2293600543586587e-05 0 0.024551179124707102 4.6742426934670031e-05 0 0.024475661587756003 7.2016031293982186e-05 0 0.024425787479126711 0.00010051506165836886 0 0.024363978601326518 0.00014802439844122708 0 0.024397684672731804 0.00010432686339541947 0 0.024402793415585319 0.0001131681379882374 0 0.024425787479126711 0.00010051506165836886 0 0.024363978601326518 0.00014802439844122708 0 0.024402793415585319 0.0001131681379882374 0 0.024365040586612329 0.000155315621037127 0 0.024363978601326518 0.00014802439844122708 0 0.024365040586612329 0.000155315621037127 0 0.024363978601326518 0.00014802439844122708 0 0.024319345582149581 0.0001968064071490472 0 0.024363978601326518 0.00014802439844122708 0 0.024298574727383469 0.0001966367447489897 0 0.024319345582149581 0.0001968064071490472 0 0.024363978601326518 0.00014802439844122708 0 0.024298574727383469 0.0001966367447489897 0 0.024305127528825302 0.00017270964472802482 0 0.024241166085104876 0.00022759719124896475 0 0.024298574727383469 0.0001966367447489897 0 0.024305127528825302 0.00017270964472802482 0 0.024305127528825302 0.00017270964472802482 0 0.024397684672731804 0.00010432686339541947 0 0.024309941716108209 0.00010731566806840971 0 0.024363978601326518 0.00014802439844122708 0 0.024305127528825302 0.00017270964472802482 0 0.024397684672731804 0.00010432686339541947 0 0.024309941716108209 0.00010731566806840971 0 0.024184331629473695 0.00022877574892169364 0 0.024168839835700191 0.00014862759968683627 0 0.024305127528825302 0.00017270964472802482 0 0.024309941716108209 0.00010731566806840971 0 0.024184331629473695 0.00022877574892169364 0 0.024241166085104876 0.00022759719124896475 0 0.024305127528825302 0.00017270964472802482 0 0.024184331629473695 0.00022877574892169364 0 0.024184331629473695 0.00022877574892169364 0 0.023924333922167421 0.0004080179437614358 0 0.023916767307073438 0.00061488460199471016 0 0.024241166085104876 0.00022759719124896475 0 0.024184331629473695 0.00022877574892169364 0 0.024178483865534145 0.00026456595543901949 0 0.024164383598254336 0.00020469537868582569 0 0.024026503294873925 0.0004790915376080507 0 0.023924333922167421 0.0004080179437614358 0 0.023958855773356932 0.00020361017466444375 0 0.023808704657866657 0.00034304469512506924 0 0.024184331629473695 0.00022877574892169364 0 0.023924333922167421 0.0004080179437614358 0 0.023958855773356932 0.00020361017466444375 0 0.023958855773356932 0.00020361017466444375 0 0.024168839835700191 0.00014862759968683627 0 0.024201732699570953 7.0110466377807865e-05 0 0.024184331629473695 0.00022877574892169364 0 0.023958855773356932 0.00020361017466444375 0 0.024168839835700191 0.00014862759968683627 0 0.024201732699570953 7.0110466377807865e-05 0 0.02430615191557392 -3.0669846199754914e-05 0 0.023910402737305436 4.2397522278592574e-05 0 0.024201732699570953 7.0110466377807865e-05 0 0.02435881459122316 3.1456750528193364e-05 0 0.02430615191557392 -3.0669846199754914e-05 0 0.02445884461596089 4.0522593028830926e-05 0 0.024309941716108209 0.00010731566806840971 0 0.02435881459122316 3.1456750528193364e-05 0 0.024309941716108209 0.00010731566806840971 0 0.024168839835700191 0.00014862759968683627 0 0.024201732699570953 7.0110466377807865e-05 0 0.024309941716108209 0.00010731566806840971 0 0.024201732699570953 7.0110466377807865e-05 0 0.02435881459122316 3.1456750528193364e-05 0 0.02445884461596089 4.0522593028830926e-05 0 0.02435881459122316 3.1456750528193364e-05 0 0.024476189868080575 -1.8866741446913417e-05 0 0.02435881459122316 3.1456750528193364e-05 0 0.024476189868080575 -1.8866741446913417e-05 0 0.02430615191557392 -3.0669846199754914e-05 0 0.024491267286977876 -6.5870381243034746e-05 0 0.024476189868080575 -1.8866741446913417e-05 0 0.02430615191557392 -3.0669846199754914e-05 0 0.024160281036426857 -0.00013486859973634629 0 0.024440016866515122 -0.00011403586828754548 0 0.02430615191557392 -3.0669846199754914e-05 0 0.0230475436739313 -0.00045308998573058038 0 0.022218410753362328 -0.00020125556755245402 0 0.024160281036426857 -0.00013486859973634629 0 0.02430615191557392 -3.0669846199754914e-05 0 0.023910402737305436 4.2397522278592574e-05 0 0.020860653378975039 -0.0010034959950177462 0 0.020356289559480028 -0.00087796305886865609 0 0.020647111065057587 -0.00045537252248788131 0 0.020848309856669432 2.6388661091811606e-05 0 0.019942030700133565 -0.00021317133879932072 0 0.0230475436739313 -0.00045308998573058038 0 0.020848309856669432 2.6388661091811606e-05 0 0.020647111065057587 -0.00045537252248788131 0 0.02017811403712547 -0.00011083352392307245 0 0.020117138521273448 -0.00041929250752655316 0 0.020356289559480028 -0.00087796305886865609 0 0.020647111065057587 -0.00045537252248788131 0 0.020117138521273448 -0.00041929250752655316 0 0.023958855773356932 0.00020361017466444375 0 0.024201732699570953 7.0110466377807865e-05 0 0.023910402737305436 4.2397522278592574e-05 0 0.023958855773356932 0.00020361017466444375 0 0.023910402737305436 4.2397522278592574e-05 0 0.023631285410855327 0.00023388722298255598 0 0.023958855773356932 0.00020361017466444375 0 0.023808704657866657 0.00034304469512506924 0 0.023631285410855327 0.00023388722298255598 0 0.023808704657866657 0.00034304469512506924 0 0.023631285410855327 0.00023388722298255598 0 0.023684618964871056 0.00051309635636650162 0 0.023924333922167421 0.0004080179437614358 0 0.023808704657866657 0.00034304469512506924 0 0.023684618964871056 0.00051309635636650162 0 0.022029455587475457 0.00013796015890325474 0 0.021873690073205245 0.00055489766403451081 0 0.020427033148903456 5.2644571166819956e-05 0 0.020153098616052974 0.0001943358869027373 0 0.020243667641340973 0.00045704643752407384 0 0.023631285410855327 0.00023388722298255598 0 0.023363357501219487 0.00050661187027844449 0 0.023684618964871056 0.00051309635636650162 0 0.022218410753362328 -0.00020125556755245402 0 0.022029455587475457 0.00013796015890325474 0 0.020647111065057587 -0.00045537252248788131 0 0.020427033148903456 5.2644571166819956e-05 0 0.02017811403712547 -0.00011083352392307245 0 0.020427033148903456 5.2644571166819956e-05 0 0.02017811403712547 -0.00011083352392307245 0 0.020153098616052974 0.0001943358869027373 0 0.019887019017341009 3.102984822914143e-05 0 0.02000963732047871 -6.712440970192148e-05 0 0.019929009176487621 -5.8470734817993082e-05 0 0.019915021538857984 -4.2910995938007519e-06 0 0.019942030700133565 -0.00021317133879932072 0 0.02017811403712547 -0.00011083352392307245 0 0.019887019017341009 3.102984822914143e-05 0 0.020117138521273448 -0.00041929250752655316 0 0.019887019017341009 3.102984822914143e-05 0 0.019821575107092079 -2.7752755452934843e-05 0 0.02000963732047871 -6.712440970192148e-05 0 0.02017811403712547 -0.00011083352392307245 0 0.019887019017341009 3.102984822914143e-05 0 0.020153098616052974 0.0001943358869027373 0 0.019754796741367472 -4.0675892588717849e-05 0 0.018990971967654105 6.4094207245118609e-05 0 0.019887019017341009 3.102984822914143e-05 0 0.020153098616052974 0.0001943358869027373 0 0.020011524537676822 0.0003975140553068772 0 0.019887019017341009 3.102984822914143e-05 0 0.019821575107092079 -2.7752755452934843e-05 0 0.020011524537676822 0.0003975140553068772 0 0.020153098616052974 0.0001943358869027373 0 0.020011524537676822 0.0003975140553068772 0 0.020243667641340973 0.00045704643752407384 0 0.01907505884061236 -1.5309779384731251e-05 0 0.018543968315579831 9.2946950737175152e-08 0 0.018420335391499055 -4.5600490494519042e-05 0 0.019403966988895498 -1.7111684900203682e-05 0 0.01907505884061236 -1.5309779384731251e-05 0 0.018420335391499055 -4.5600490494519042e-05 0 0.01907505884061236 -1.5309779384731251e-05 0 0.019871594513914809 -4.3914920076135919e-07 0 0.018543968315579831 9.2946950737175152e-08 0 0.019403966988895498 -1.7111684900203682e-05 0 0.019821575107092079 -2.7752755452934843e-05 0 0.018420335391499055 -4.5600490494519042e-05 0 0.019403966988895498 -1.7111684900203682e-05 0 0.01907505884061236 -1.5309779384731251e-05 0 0.019871594513914809 -4.3914920076135919e-07 0 0.019403966988895498 -1.7111684900203682e-05 0 0.019871594513914809 -4.3914920076135919e-07 0 0.019822050607082552 -2.5670029788368112e-05 0 0.019403966988895498 -1.7111684900203682e-05 0 0.019821575107092079 -2.7752755452934843e-05 0 0.019822050607082552 -2.5670029788368112e-05 0 0.019822050607082552 -2.5670029788368112e-05 0 0.019975597651242197 -5.8737148240840627e-05 0 0.020249647803869168 -5.759972300670762e-05 0 0.019821575107092079 -2.7752755452934843e-05 0 0.019975597651242197 -5.8737148240840627e-05 0 0.02000963732047871 -6.712440970192148e-05 0 0.019821575107092079 -2.7752755452934843e-05 0 0.019822050607082552 -2.5670029788368112e-05 0 0.019975597651242197 -5.8737148240840627e-05 0 0.019871594513914809 -4.3914920076135919e-07 0 0.019822050607082552 -2.5670029788368112e-05 0 0.020249647803869168 -5.759972300670762e-05 0 0.019871594513914809 -4.3914920076135919e-07 0 0.020249647803869168 -5.759972300670762e-05 0 0.02119713219226731 8.3485387084693427e-07 0 0.020249647803869168 -5.759972300670762e-05 0 0.020271492079577885 1.212484682849638e-05 0 0.02119713219226731 8.3485387084693427e-07 0 0.020249647803869168 -5.759972300670762e-05 0 0.020271492079577885 1.212484682849638e-05 0 0.02000963732047871 -6.712440970192148e-05 0 0.019975597651242197 -5.8737148240840627e-05 0 0.020249647803869168 -5.759972300670762e-05 0 0.02000963732047871 -6.712440970192148e-05 0 0.020271492079577885 1.212484682849638e-05 0 0.02000963732047871 -6.712440970192148e-05 0 0.019929009176487621 -5.8470734817993082e-05 0 0.020271492079577885 1.212484682849638e-05 0 0.019929009176487621 -5.8470734817993082e-05 0 0.020116614805517685 0.00039875362621821038 0 0.021576652737783968 8.0876448633016346e-05 0 0.021479092139488121 1.3837219404128613e-05 0 0.02159690042972667 -4.370632853535317e-05 0 0.020848309856669432 2.6388661091811606e-05 0 0.020798876357854375 0.0001851769448323129 0 0.019642168688384816 0.00050722422352819511 0 0.019929009176487621 -5.8470734817993082e-05 0 0.020116614805517685 0.00039875362621821038 0 0.020271492079577885 1.212484682849638e-05 0 0.020116614805517685 0.00039875362621821038 0 0.02119713219226731 8.3485387084693427e-07 0 0.02159690042972667 -4.370632853535317e-05 0 0.021858179464076248 -1.7979561043468129e-07 0 0.021201827351753296 1.8025683095717515e-07 0 0.021576652737783968 8.0876448633016346e-05 0 0.02159690042972667 -4.370632853535317e-05 0 0.021858179464076248 -1.7979561043468129e-07 0 0.020798876357854375 0.0001851769448323129 0 0.021198968883333252 5.8925257781911955e-08 0 0.015891238621903482 1.3005887685533939e-06 0 0.01713592267698328 -5.0584704883935328e-05 0 0.016685924158872968 0.00065102732034832576 0 0.015888309436502237 -2.0425082228867072e-07 0 0.016150735363705621 0.0013710038192221408 0 0.022551149348579106 0.0011894273272377359 0 0.022312568888348171 0.00073649501993043901 0 0.022043988249297704 0.0015627212859949562 0 0.019925815115577509 0.00010219863411652924 0 0.016150735363705621 0.0013710038192221408 0 0.022551149348579106 0.0011894273272377359 0 0.022763626409325201 0.00072728497228041766 0 0.022979606097112984 0.0015587774794985178 0 0.022551149348579106 0.0011894273272377359 0 0.022763626409325201 0.00072728497228041766 0 0.022312568888348171 0.00073649501993043901 0 0.02300262855690461 0.0010404018704290887 0 0.020856515083612141 0.00039945596779856731 0 0.019925815115577509 0.00010219863411652924 0 0.020856515083612141 0.00039945596779856731 0 0.022763626409325201 0.00072728497228041766 0 0.022312568888348171 0.00073649501993043901 0 0.022561348903910507 -7.1299763007695311e-05 0 0.015891238621903482 1.3005887685533939e-06 0 0.01713592267698328 -5.0584704883935328e-05 0 0.017216191729611276 -7.2552169561223034e-07 0 0.01713592267698328 -5.0584704883935328e-05 0 0.017216191729611276 -7.2552169561223034e-07 0 0.017691144457175075 -6.6506671852362864e-05 0 0.017899062369347105 -7.2804441323246939e-05 0 0.017216191729611276 -7.2552169561223034e-07 0 0.018543968315579831 9.2946950737175152e-08 0 0.017899062369347105 -7.2804441323246939e-05 0 0.017216191729611276 -7.2552169561223034e-07 0 0.017691144457175075 -6.6506671852362864e-05 0 0.017899062369347105 -7.2804441323246939e-05 0 0.018543968315579831 9.2946950737175152e-08 0 0.018420335391499055 -4.5600490494519042e-05 0 0.020011524537676822 0.0003975140553068772 0 0.020126032847076872 0.0008304547197426187 0 0.020243667641340973 0.00045704643752407384 0 0.018990971967654105 6.4094207245118609e-05 0 0.020856515083612141 0.00039945596779856731 0 0.017899062369347105 -7.2804441323246939e-05 0 0.018420335391499055 -4.5600490494519042e-05 0 0.017691144457175075 -6.6506671852362864e-05 0 0.020856515083612141 0.00039945596779856731 0 0.021873690073205245 0.00055489766403451081 0 0.023113271242530247 0.00085047844812738979 0 0.023463478166792652 0.00069578418666445946 0 0.023426270686554281 0.00097003014451400014 0 0.023113271242530247 0.00085047844812738979 0 0.023463478166792652 0.00069578418666445946 0 0.023363357501219487 0.00050661187027844449 0 0.023463478166792652 0.00069578418666445946 0 0.023363357501219487 0.00050661187027844449 0 0.023684618964871056 0.00051309635636650162 0 0.023463478166792652 0.00069578418666445946 0 0.023684618964871056 0.00051309635636650162 0 0.023835843218692452 0.00072830218222363094 0 0.023463478166792652 0.00069578418666445946 0 0.023426270686554281 0.00097003014451400014 0 0.023835843218692452 0.00072830218222363094 0 0.02369914647876099 0.0011169183613202345 0 0.023426270686554281 0.00097003014451400014 0 0.023333981662506061 0.0013262516469297835 0 0.02369914647876099 0.0011169183613202345 0 0.023426270686554281 0.00097003014451400014 0 0.023835843218692452 0.00072830218222363094 0 0.023086582338283933 0.0011728871055718562 0 0.023426270686554281 0.00097003014451400014 0 0.023333981662506061 0.0013262516469297835 0 0.023086582338283933 0.0011728871055718562 0 0.023113271242530247 0.00085047844812738979 0 0.023426270686554281 0.00097003014451400014 0 0.02300262855690461 0.0010404018704290887 0 0.02298171326909948 0.0014822603332078181 0 0.023086582338283933 0.0011728871055718562 0 0.023333981662506061 0.0013262516469297835 0 0.022979606097112984 0.0015587774794985178 0 0.023443605595729097 0.0011268497783323893 0 0.023961056052000312 0.0014269093373362703 0 0.02369914647876099 0.0011169183613202345 0 0.023333981662506061 0.0013262516469297835 0 0.023557612499731935 0.001632803699994003 0 0.023307139865873575 0.0010630193419395302 0 0.023371034669435301 0.0012408329380214692 0 0.023149628487315672 0.0013446405681886251 0 0.023307139865873575 0.0010630193419395302 0 0.023371034669435301 0.0012408329380214692 0 0.023699073724147458 0.0010288577626143098 0 0.024076733946271089 0.00051245338868162243 0 0.022427733301294966 0.0020200360183221452 0 0.023699073724147458 0.0010288577626143098 0 0.023498870706869915 0.0013830501737053405 0 0.023445603141412297 0.0013182662540177079 0 0.023371034669435301 0.0012408329380214692 0 0.023699073724147458 0.0010288577626143098 0 0.023445603141412297 0.0013182662540177079 0 0.023443605595729097 0.0011268497783323893 0 0.023709398834782125 0.00072747670880588314 0 0.023307139865873575 0.0010630193419395302 0 0.023699073724147458 0.0010288577626143098 0 0.023557762132775582 0.00072783332764929007 0 0.023882035682602755 0.00044315748782601977 0 0.023709398834782125 0.00072747670880588314 0 0.023924333922167421 0.0004080179437614358 0 0.023557762132775582 0.00072783332764929007 0 0.023916767307073438 0.00061488460199471016 0 0.023924333922167421 0.0004080179437614358 0 0.023684618964871056 0.00051309635636650162 0 0.023835843218692452 0.00072830218222363094 0 0.023699073724147458 0.0010288577626143098 0 0.023557762132775582 0.00072783332764929007 0 0.023916767307073438 0.00061488460199471016 0 0.024076733946271089 0.00051245338868162243 0 0.024026503294873925 0.0004790915376080507 0 0.024102484949878846 0.00043669977538740617 0 0.024178483865534145 0.00026456595543901949 0 0.024209289770189685 0.00034317143097891952 0 0.024178483865534145 0.00026456595543901949 0 0.024209289770189685 0.00034317143097891952 0 0.024256312587012985 0.00024643914397258753 0 0.024209289770189685 0.00034317143097891952 0 0.024256312587012985 0.00024643914397258753 0 0.024286266950684508 0.0003225657417752799 0 0.024241166085104876 0.00022759719124896475 0 0.024298574727383469 0.0001966367447489897 0 0.024256312587012985 0.00024643914397258753 0 0.024298574727383469 0.0001966367447489897 0 0.024256312587012985 0.00024643914397258753 0 0.024319345582149581 0.0001968064071490472 0 0.024241166085104876 0.00022759719124896475 0 0.024178483865534145 0.00026456595543901949 0 0.024256312587012985 0.00024643914397258753 0 0.024256312587012985 0.00024643914397258753 0 0.024319345582149581 0.0001968064071490472 0 0.024325157111766929 0.00022678879913463204 0 0.024365040586612329 0.000155315621037127 0 0.024319345582149581 0.0001968064071490472 0 0.024325157111766929 0.00022678879913463204 0 0.024256312587012985 0.00024643914397258753 0 0.024325157111766929 0.00022678879913463204 0 0.024286266950684508 0.0003225657417752799 0 0.024325157111766929 0.00022678879913463204 0 0.024286266950684508 0.0003225657417752799 0 0.024353081009355869 0.00027562106884713446 0 0.024286266950684508 0.0003225657417752799 0 0.024353081009355869 0.00027562106884713446 0 0.024340624437306082 0.00038225724399448965 0 0.021748251083820124 0.0018938434147010722 0 0.022244808228500425 0.0014646097204198754 0 0.024286266950684508 0.0003225657417752799 0 0.024237588982803534 0.00053312936540737506 0 0.024340624437306082 0.00038225724399448965 0 0.024102484949878846 0.00043669977538740617 0 0.024209289770189685 0.00034317143097891952 0 0.024237588982803534 0.00053312936540737506 0 0.024209289770189685 0.00034317143097891952 0 0.024286266950684508 0.0003225657417752799 0 0.024237588982803534 0.00053312936540737506 0 0.024102484949878846 0.00043669977538740617 0 0.024237588982803534 0.00053312936540737506 0 0.024074439365286863 0.00070375336771832866 0 0.021748251083820124 0.0018938434147010722 0 0.022427733301294966 0.0020200360183221452 0 0.019544999038793205 0.0031188942904729197 0 0.020102188453130203 0.0025757620998213045 0 0.020167624504249981 0.0033992835921750116 0 0.019544999038793205 0.0031188942904729197 0 0.019810671289159632 0.0036527412857438103 0 0.020167624504249981 0.0033992835921750116 0 0.019544999038793205 0.0031188942904729197 0 0.019810671289159632 0.0036527412857438103 0 0.019462233038722986 0.0035354282768368379 0 0.019810671289159632 0.0036527412857438103 0 0.019462233038722986 0.0035354282768368379 0 0.019354447032717322 0.0039153478929814262 0 0.019544999038793205 0.0031188942904729197 0 0.019462233038722986 0.0035354282768368379 0 0.019074121513519039 0.0035934676499470566 0 0.019462233038722986 0.0035354282768368379 0 0.019354447032717322 0.0039153478929814262 0 0.019074121513519039 0.0035934676499470566 0 0.019354447032717322 0.0039153478929814262 0 0.019099467588841686 0.004268131300798542 0 0.019074121513519039 0.0035934676499470566 0 0.019354447032717322 0.0039153478929814262 0 0.019352763826418193 0.0043206069411027316 0 0.019099467588841686 0.004268131300798542 0 0.019354447032717322 0.0039153478929814262 0 0.019723607969026453 0.0040502895226039396 0 0.019352763826418193 0.0043206069411027316 0 0.019810671289159632 0.0036527412857438103 0 0.019354447032717322 0.0039153478929814262 0 0.019723607969026453 0.0040502895226039396 0 0.019723607969026453 0.0040502895226039396 0 0.019903954337469085 0.0042628358196940925 0 0.019613009256311053 0.0043694272901846458 0 0.019810671289159632 0.0036527412857438103 0 0.019723607969026453 0.0040502895226039396 0 0.020107207188499052 0.0039329405683137851 0 0.019723607969026453 0.0040502895226039396 0 0.019903954337469085 0.0042628358196940925 0 0.020107207188499052 0.0039329405683137851 0 0.019775099116986602 0.0045224862347557132 0 0.019727277729679114 0.0047335437297221115 0 0.020282377170128728 0.0044396971510952832 0 0.019903954337469085 0.0042628358196940925 0 0.019613009256311053 0.0043694272901846458 0 0.019775099116986602 0.0045224862347557132 0 0.019723607969026453 0.0040502895226039396 0 0.019613009256311053 0.0043694272901846458 0 0.019352763826418193 0.0043206069411027316 0 0.019532031124005474 0.0045327018833793446 0 0.0196351020300462 0.0046088989799590906 0 0.019775099116986602 0.0045224862347557132 0 0.019613009256311053 0.0043694272901846458 0 0.019532031124005474 0.0045327018833793446 0 0.019775099116986602 0.0045224862347557132 0 0.0196351020300462 0.0046088989799590906 0 0.019775099116986602 0.0045224862347557132 0 0.019727277729679114 0.0047335437297221115 0 0.019532031124005474 0.0045327018833793446 0 0.0196351020300462 0.0046088989799590906 0 0.019479432544870032 0.004681495854343784 0 0.014253801258457573 0.0051823729178920282 0 0.0092009810009912076 0.0038256195857006973 0 0.010632426829930396 0.0061257575311618826 0 0.013294797412218715 0.0048024987081400627 0 0.010065106843589737 0.0026780865447872167 0 0.0196351020300462 0.0046088989799590906 0 0.019727277729679114 0.0047335437297221115 0 0.019479432544870032 0.004681495854343784 0 0.019727277729679114 0.0047335437297221115 0 0.0191652175742399 0.0049864673840766547 0 0.019479432544870032 0.004681495854343784 0 0.014253801258457573 0.0051823729178920282 0 0.013811134422308864 0.0039464079137732679 0 0.019090454385518534 0.004931738205646314 0 0.0191652175742399 0.0049864673840766547 0 0.019226571524039032 0.0046862721523524822 0 0.013811134422308864 0.0039464079137732679 0 0.012320725751486478 0.0044355219112822359 0 0.015833792955245833 0.0035359032007505004 0 0.013811134422308864 0.0039464079137732679 0 0.015833792955245833 0.0035359032007505004 0 0.012320725751486478 0.0044355219112822359 0 0.014448139190368475 0.0035244045252519466 0 0.013908871557825636 0.0031651895116335802 0 0.014397795073783269 0.0029240471559714935 0 0.0191652175742399 0.0049864673840766547 0 0.019479432544870032 0.004681495854343784 0 0.019226571524039032 0.0046862721523524822 0 0.019090454385518534 0.004931738205646314 0 0.019226571524039032 0.0046862721523524822 0 0.019099467588841686 0.004268131300798542 0 0.019226571524039032 0.0046862721523524822 0 0.019351231872360739 0.0045223639701428772 0 0.019099467588841686 0.004268131300798542 0 0.019479432544870032 0.004681495854343784 0 0.019226571524039032 0.0046862721523524822 0 0.019351231872360739 0.0045223639701428772 0 0.019532031124005474 0.0045327018833793446 0 0.019479432544870032 0.004681495854343784 0 0.019351231872360739 0.0045223639701428772 0 0.019532031124005474 0.0045327018833793446 0 0.019351231872360739 0.0045223639701428772 0 0.019454230187483986 0.0044422633230825877 0 0.019613009256311053 0.0043694272901846458 0 0.019532031124005474 0.0045327018833793446 0 0.019454230187483986 0.0044422633230825877 0 0.019613009256311053 0.0043694272901846458 0 0.019454230187483986 0.0044422633230825877 0 0.019352763826418193 0.0043206069411027316 0 0.019351231872360739 0.0045223639701428772 0 0.019454230187483986 0.0044422633230825877 0 0.019352763826418193 0.0043206069411027316 0 0.019351231872360739 0.0045223639701428772 0 0.019352763826418193 0.0043206069411027316 0 0.019099467588841686 0.004268131300798542 0 0.0231595863575568 0.0016329708018999916 0 0.023284757306573929 0.0015508591254617128 0 0.02321423093805185 0.0015739184920042317 0 0.015833792955245833 0.0035359032007505004 0 0.021633742664546925 0.0029803309307663488 0 0.023284757306573929 0.0015508591254617128 0 0.02321423093805185 0.0015739184920042317 0 0.023274340649851177 0.001529580929570279 0 0.02321423093805185 0.0015739184920042317 0 0.023227119314321816 0.0015351254303795096 0 0.023274340649851177 0.001529580929570279 0 0.019412547004712653 0.0012211012971236797 0 0.015635601476734207 0.0020215017352119917 0 0.0096541675587063138 0.0043943653745336817 0 0.0097665160449103682 0.0024659827471364853 0 0.0088741069875614819 0.003385645101153923 0 0.015635601476734207 0.0020215017352119917 0 0.0093431322158965668 0.0013661181059523742 0 0.0231595863575568 0.0016329708018999916 0 0.02321423093805185 0.0015739184920042317 0 0.023174236338750112 0.0015977244940594243 0 0.015833792955245833 0.0035359032007505004 0 0.015635601476734207 0.0020215017352119917 0 0.0086530872257756936 0.0037516674228967447 0 0.0096541675587063138 0.0043943653745336817 0 0.0088741069875614819 0.003385645101153923 0 0.0086530872257756936 0.0037516674228967447 0 0.0086325381433663712 0.003516938417578335 0 0.0088741069875614819 0.003385645101153923 0 0.012320725751486478 0.0044355219112822359 0 0.011060196350504606 0.0046571302370655571 0 0.010219186866989655 0.00037316341474103159 0 0.01048005642507863 0.00055815022447303856 0 0.010493230078267697 0.00027056377326096083 0 0.010219186866989655 0.00037316341474103159 0 0.010493230078267697 0.00027056377326096083 0 0.010384407622279332 6.009493809974657e-05 0 0.02321423093805185 0.0015739184920042317 0 0.023181711145847109 0.0015963725478144795 0 0.023157752500543298 0.0015738797852207467 0 0.02321423093805185 0.0015739184920042317 0 0.023157752500543298 0.0015738797852207467 0 0.023227119314321816 0.0015351254303795096 0 0.015635601476734207 0.0020215017352119917 0 0.016846734936710385 0.0010496872119626075 0 0.023157752500543298 0.0015738797852207467 0 0.023181074102872526 0.0014885556971202631 0 0.023227119314321816 0.0015351254303795096 0 0.023181074102872526 0.0014885556971202631 0 0.023267531856231774 0.0014723013124858368 0 0.023302556252620218 0.0013924156264944578 0 0.023267531856231774 0.0014723013124858368 0 0.023296346345733025 0.001490457117810657 0 0.023324105545842414 0.001439654863970469 0 0.023267531856231774 0.0014723013124858368 0 0.023227119314321816 0.0015351254303795096 0 0.023296346345733025 0.001490457117810657 0 0.023181074102872526 0.0014885556971202631 0 0.023267531856231774 0.0014723013124858368 0 0.023227119314321816 0.0015351254303795096 0 0.023274340649851177 0.001529580929570279 0 0.023347790463916142 0.0014781752679939248 0 0.023296346345733025 0.001490457117810657 0 0.023227119314321816 0.0015351254303795096 0 0.023274340649851177 0.001529580929570279 0 0.023296346345733025 0.001490457117810657 0 0.021633742664546925 0.0029803309307663488 0 0.022427733301294966 0.0020200360183221452 0 0.023284757306573929 0.0015508591254617128 0 0.023347790463916142 0.0014781752679939248 0 0.023443103475345634 0.0014032081277209044 0 0.023284757306573929 0.0015508591254617128 0 0.023274340649851177 0.001529580929570279 0 0.023347790463916142 0.0014781752679939248 0 0.023347790463916142 0.0014781752679939248 0 0.023296346345733025 0.001490457117810657 0 0.023359871041679633 0.0014473772580985433 0 0.023296346345733025 0.001490457117810657 0 0.023359871041679633 0.0014473772580985433 0 0.023324105545842414 0.001439654863970469 0 0.023347790463916142 0.0014781752679939248 0 0.023359871041679633 0.0014473772580985433 0 0.023419671021294899 0.0014183817916885153 0 0.023359871041679633 0.0014473772580985433 0 0.023388127436358947 0.0014006690950721067 0 0.023324105545842414 0.001439654863970469 0 0.023359871041679633 0.0014473772580985433 0 0.023388127436358947 0.0014006690950721067 0 0.023419671021294899 0.0014183817916885153 0 0.023388127436358947 0.0014006690950721067 0 0.023419671021294899 0.0014183817916885153 0 0.023435746156300136 0.0013818673576119801 0 0.023347790463916142 0.0014781752679939248 0 0.023419671021294899 0.0014183817916885153 0 0.023443103475345634 0.0014032081277209044 0 0.023419671021294899 0.0014183817916885153 0 0.023498870706869915 0.0013830501737053405 0 0.023435746156300136 0.0013818673576119801 0 0.022903227937431388 0.0016284898633753084 0 0.022427733301294966 0.0020200360183221452 0 0.023498870706869915 0.0013830501737053405 0 0.023435746156300136 0.0013818673576119801 0 0.023445603141412297 0.0013182662540177079 0 0.023388127436358947 0.0014006690950721067 0 0.023445603141412297 0.0013182662540177079 0 0.023302556252620218 0.0013924156264944578 0 0.023388127436358947 0.0014006690950721067 0 0.023435746156300136 0.0013818673576119801 0 0.023445603141412297 0.0013182662540177079 0 0.023371034669435301 0.0012408329380214692 0 0.023445603141412297 0.0013182662540177079 0 0.023302556252620218 0.0013924156264944578 0 0.023181074102872526 0.0014885556971202631 0 0.023302556252620218 0.0013924156264944578 0 0.023149628487315672 0.0013446405681886251 0 0.023371034669435301 0.0012408329380214692 0 0.023302556252620218 0.0013924156264944578 0 0.023149628487315672 0.0013446405681886251 0 0.023267531856231774 0.0014723013124858368 0 0.023302556252620218 0.0013924156264944578 0 0.023324105545842414 0.001439654863970469 0 0.023388127436358947 0.0014006690950721067 0 0.023302556252620218 0.0013924156264944578 0 0.023324105545842414 0.001439654863970469 0 0.023333981662506061 0.0013262516469297835 0 0.023557612499731935 0.001632803699994003 0 0.023242868820231414 0.0018283432321239213 0 0.023557612499731935 0.001632803699994003 0 0.023242868820231414 0.0018283432321239213 0 0.023358066828439154 0.0022774536478973786 0 0.023333981662506061 0.0013262516469297835 0 0.022979606097112984 0.0015587774794985178 0 0.023242868820231414 0.0018283432321239213 0 0.022979606097112984 0.0015587774794985178 0 0.023242868820231414 0.0018283432321239213 0 0.022848811447689611 0.0019882894980376366 0 0.023242868820231414 0.0018283432321239213 0 0.022848811447689611 0.0019882894980376366 0 0.023358066828439154 0.0022774536478973786 0 0.01735210143381884 0.0021399471193907444 0 0.017000799457504007 0.0013981526898968885 0 0.011415769900610667 0.0019440384811869646 0 0.010587907577812724 0.001306474390539778 0 0.011458388594026661 0.00091329311267247934 0 0.023157752500543298 0.0015738797852207467 0 0.023181074102872526 0.0014885556971202631 0 0.023048765018235638 0.0015254628145959404 0 0.023181074102872526 0.0014885556971202631 0 0.023149628487315672 0.0013446405681886251 0 0.023048765018235638 0.0015254628145959404 0 0.023961056052000312 0.0014269093373362703 0 0.017000799457504007 0.0013981526898968885 0 0.016846734936710385 0.0010496872119626075 0 0.017000799457504007 0.0013981526898968885 0 0.017000799457504007 0.0013981526898968885 0 0.010322051734126658 0.00051591538560469676 0 0.01048005642507863 0.00055815022447303856 0 0.01077641671557799 0.00074872933653765599 0 0.010796969637524995 0.00036088460869913044 0 0.010493230078267697 0.00027056377326096083 0 0.010796969637524995 0.00036088460869913044 0 0.010559431488827089 2.7936418957521092e-05 0 0.01048005642507863 0.00055815022447303856 0 0.010493230078267697 0.00027056377326096083 0 0.010796969637524995 0.00036088460869913044 0 0.010796969637524995 0.00036088460869913044 0 0.010827854643371644 -6.7589046809062654e-05 0 0.010559431488827089 2.7936418957521092e-05 0 0.010806046386398781 0.00041006809814420211 0 0.011458388594026661 0.00091329311267247934 0 0.011660222139042829 0.00011454404287768784 0 0.010806046386398781 0.00041006809814420211 0 0.011660222139042829 0.00011454404287768784 0 0.010827854643371644 -6.7589046809062654e-05 0 0.010322051734126658 0.00051591538560469676 0 0.01091891200316146 -0.00010890129521566475 0 0.010587907577812724 0.001306474390539778 0 0.010806046386398781 0.00041006809814420211 0 0.011458388594026661 0.00091329311267247934 0 0.011458388594026661 0.00091329311267247934 0 0.011660222139042829 0.00011454404287768784 0 0.012224707766009467 0.00062351608768372872 0 0.011458388594026661 0.00091329311267247934 0 0.012224707766009467 0.00062351608768372872 0 0.012701505297529897 0.0015335740109237424 0 0.011660222139042829 0.00011454404287768784 0 0.01330830078387849 2.20895034401879e-06 0 0.012009160222779964 -8.2087091111938727e-07 0 0.011660222139042829 0.00011454404287768784 0 0.01330830078387849 2.20895034401879e-06 0 0.012224707766009467 0.00062351608768372872 0 0.013311488281964752 -1.2721357728379356e-07 0 0.013416589310308921 0.00075980147875774205 0 0.01330830078387849 2.20895034401879e-06 0 0.012224707766009467 0.00062351608768372872 0 0.012701505297529897 0.0015335740109237424 0 0.01331142344351364 2.8065517967635529e-07 0 0.014538116687185248 1.4232896300831701e-05 0 0.014600660918271198 -2.6862683142011271e-07 0 0.014538116687185248 1.4232896300831701e-05 0 0.014600660918271198 -2.6862683142011271e-07 0 0.015195117033951966 -9.7925621882947019e-06 0 0.011415769900610667 0.0019440384811869646 0 0.011458388594026661 0.00091329311267247934 0 0.012701505297529897 0.0015335740109237424 0 0.022979606097112984 0.0015587774794985178 0 0.022848811447689611 0.0019882894980376366 0 0.022043988249297704 0.0015627212859949562 0 0.011415769900610667 0.0019440384811869646 0 0.012701505297529897 0.0015335740109237424 0 0.012373267218943813 0.0025798666001424957 0 0.01735210143381884 0.0021399471193907444 0 0.016150735363705621 0.0013710038192221408 0 0.022551149348579106 0.0011894273272377359 0 0.022979606097112984 0.0015587774794985178 0 0.022043988249297704 0.0015627212859949562 0 0.015887362905781813 2.9202293972716149e-07 0 0.014600660918271198 -2.6862683142011271e-07 0 0.015195117033951966 -9.7925621882947019e-06 0 0.013416589310308921 0.00075980147875774205 0 0.016150735363705621 0.0013710038192221408 0 0.024450872559976546 0.0010469363600580628 0 0.024130102605375278 0.0011812235452536006 0 0.024395736503924247 0.0012743784542879959 0 0.024450872559976546 0.0010469363600580628 0 0.024130102605375278 0.0011812235452536006 0 0.024118267136636382 0.00084811887876586045 0 0.02467950830562822 0.0013644234179567979 0 0.023537535873661225 0.00081059092178170839 0 0.024130102605375278 0.0011812235452536006 0 0.024118267136636382 0.00084811887876586045 0 0.023747262222730974 0.00089038364400708162 0 0.023949731793600087 0.0013747382268215549 0 0.023913078402422881 0.0016872444551498946 0 0.023661819405413724 0.0016948609210846355 0 0.023949731793600087 0.0013747382268215549 0 0.023535857707016068 0.0013693840727121188 0 0.023661819405413724 0.0016948609210846355 0 0.02467950830562822 0.0013644234179567979 0 0.020139549021732768 0.0023926663090194887 0 0.023949731793600087 0.0013747382268215549 0 0.023913078402422881 0.0016872444551498946 0 0.024175798417509713 0.0017481564277639959 0 0.024130102605375278 0.0011812235452536006 0 0.024395736503924247 0.0012743784542879959 0 0.024395838786864327 0.0014865381364594426 0 0.024592353195626433 0.00076686755785092871 0 0.022543601173507621 0.0012780539968338975 0 0.020900996515678224 0.0012195772328386129 0 0.021845329737799513 0.00077272556503447942 0 0.0211930596128302 0.0019660448579511356 0 0.024340285826898823 0.00052727399889439697 0 0.024364116997007672 0.00050264604171188106 0 0.024397600608022405 0.00050868460844835422 0 0.024349129602935213 0.00045721015502629686 0 0.024340285826898823 0.00052727399889439697 0 0.024364116997007672 0.00050264604171188106 0 0.022543601173507621 0.0012780539968338975 0 0.020139549021732768 0.0023926663090194887 0 0.024395736503924247 0.0012743784542879959 0 0.024537154517392242 0.0014147624775608988 0 0.024395838786864327 0.0014865381364594426 0 0.024450872559976546 0.0010469363600580628 0 0.024395736503924247 0.0012743784542879959 0 0.024537154517392242 0.0014147624775608988 0 0.022436096932144892 0.00086813828653255275 0 0.019244069458587164 0.0020317915701914429 0 0.022543601173507621 0.0012780539968338975 0 0.022436096932144892 0.00086813828653255275 0 0.020819171775108815 0.001814858626090355 0 0.020659645401627798 0.0016645545743420799 0 0.02011541361405059 0.0017284350528493986 0 0.024364116997007672 0.00050264604171188106 0 0.024397600608022405 0.00050868460844835422 0 0.02438892478185167 0.00049212637502446597 0 0.024397600608022405 0.00050868460844835422 0 0.024410476747267783 0.00049900251640015443 0 0.02438892478185167 0.00049212637502446597 0 0.020819171775108815 0.001814858626090355 0 0.020659645401627798 0.0016645545743420799 0 0.020780247367093049 0.0015478886615580051 0 0.022436096932144892 0.00086813828653255275 0 0.022535715604908333 0.00098515918466825897 0 0.024458291335895426 0.00034506860719953021 0 0.024410476747267783 0.00049900251640015443 0 0.024409681315410117 0.00043632637622201341 0 0.024410476747267783 0.00049900251640015443 0 0.024395399820569461 0.00047063230570610644 0 0.024409681315410117 0.00043632637622201341 0 0.024395399820569461 0.00047063230570610644 0 0.024382311230031335 0.0004769083318301132 0 0.024388914102658248 0.00045013451425886372 0 0.024395399820569461 0.00047063230570610644 0 0.02438892478185167 0.00049212637502446597 0 0.024382311230031335 0.0004769083318301132 0 0.024410476747267783 0.00049900251640015443 0 0.024395399820569461 0.00047063230570610644 0 0.02438892478185167 0.00049212637502446597 0 0.024364116997007672 0.00050264604171188106 0 0.02438892478185167 0.00049212637502446597 0 0.024382311230031335 0.0004769083318301132 0 0.024388914102658248 0.00045013451425886372 0 0.024369765566420249 0.00045613956073487318 0 0.024394732763099218 0.00041777199542825609 0 0.024388914102658248 0.00045013451425886372 0 0.024409681315410117 0.00043632637622201341 0 0.024394732763099218 0.00041777199542825609 0 0.024382311230031335 0.0004769083318301132 0 0.024388914102658248 0.00045013451425886372 0 0.024369765566420249 0.00045613956073487318 0 0.024395399820569461 0.00047063230570610644 0 0.024388914102658248 0.00045013451425886372 0 0.024409681315410117 0.00043632637622201341 0 0.024364116997007672 0.00050264604171188106 0 0.024382311230031335 0.0004769083318301132 0 0.024369765566420249 0.00045613956073487318 0 0.024349129602935213 0.00045721015502629686 0 0.024364116997007672 0.00050264604171188106 0 0.024369765566420249 0.00045613956073487318 0 0.024349129602935213 0.00045721015502629686 0 0.024369765566420249 0.00045613956073487318 0 0.024361327973477613 0.00045125428310019997 0 0.024361327973477613 0.00045125428310019997 0 0.024408025954898892 0.00038637677841572333 0 0.024318619156377546 0.00051782668417619799 0 0.024369765566420249 0.00045613956073487318 0 0.024361327973477613 0.00045125428310019997 0 0.024394732763099218 0.00041777199542825609 0 0.024361327973477613 0.00045125428310019997 0 0.024394732763099218 0.00041777199542825609 0 0.024408025954898892 0.00038637677841572333 0 0.024409681315410117 0.00043632637622201341 0 0.024394732763099218 0.00041777199542825609 0 0.024427352035715399 0.00037099032270083445 0 0.024458291335895426 0.00034506860719953021 0 0.024409681315410117 0.00043632637622201341 0 0.024427352035715399 0.00037099032270083445 0 0.024394732763099218 0.00041777199542825609 0 0.024426707287867791 0.00035202686206578109 0 0.024408025954898892 0.00038637677841572333 0 0.024423672805356452 0.00030582589293080229 0 0.024426707287867791 0.00035202686206578109 0 0.024427352035715399 0.00037099032270083445 0 0.024394732763099218 0.00041777199542825609 0 0.024426707287867791 0.00035202686206578109 0 0.024427352035715399 0.00037099032270083445 0 0.024436247040119829 0.0002981989070926723 0 0.024426707287867791 0.00035202686206578109 0 0.0244363270160259 0.00033208907830101897 0 0.024426707287867791 0.00035202686206578109 0 0.0244363270160259 0.00033208907830101897 0 0.024408025954898892 0.00038637677841572333 0 0.024458236322982323 0.00029509847633420297 0 0.0244363270160259 0.00033208907830101897 0 0.024408025954898892 0.00038637677841572333 0 0.024436247040119829 0.0002981989070926723 0 0.024458236322982323 0.00029509847633420297 0 0.0244363270160259 0.00033208907830101897 0 0.024410686283825488 0.00032253685312723851 0 0.024408025954898892 0.00038637677841572333 0 0.024318619156377546 0.00051782668417619799 0 0.024410686283825488 0.00032253685312723851 0 0.024458236322982323 0.00029509847633420297 0 0.024408025954898892 0.00038637677841572333 0 0.024335926639519268 0.00022142125098487361 0 0.024318619156377546 0.00051782668417619799 0 0.024079208721443906 0.0004368764074845364 0 0.024335926639519268 0.00022142125098487361 0 0.024410686283825488 0.00032253685312723851 0 0.024318619156377546 0.00051782668417619799 0 0.024349129602935213 0.00045721015502629686 0 0.024361327973477613 0.00045125428310019997 0 0.024318619156377546 0.00051782668417619799 0 0.024450872559976546 0.0010469363600580628 0 0.024318619156377546 0.00051782668417619799 0 0.024118267136636382 0.00084811887876586045 0 0.024592353195626433 0.00076686755785092871 0 0.024275808932233502 0.00050407031073724368 0 0.024118267136636382 0.00084811887876586045 0 0.024079208721443906 0.0004368764074845364 0 0.023747262222730974 0.00089038364400708162 0 0.024318619156377546 0.00051782668417619799 0 0.024118267136636382 0.00084811887876586045 0 0.024079208721443906 0.0004368764074845364 0 0.02393177124140012 0.00030195719311391065 0 0.024079208721443906 0.0004368764074845364 0 0.023722502549956274 0.00060338754561920296 0 0.024079208721443906 0.0004368764074845364 0 0.023722502549956274 0.00060338754561920296 0 0.023747262222730974 0.00089038364400708162 0 0.02393177124140012 0.00030195719311391065 0 0.023722502549956274 0.00060338754561920296 0 0.023450663669389492 0.00039456005432444112 0 0.023722502549956274 0.00060338754561920296 0 0.023450663669389492 0.00039456005432444112 0 0.023283024299229859 0.00085877999017198005 0 0.023450663669389492 0.00039456005432444112 0 0.022775632331666972 0.00045342667707765891 0 0.022898352022981822 0.0020671067226912857 0 0.022775632331666972 0.00045342667707765891 0 0.022898352022981822 0.0020671067226912857 0 0.021989128389978994 0.0013444992953680476 0 0.023401526674960583 0.00048473988958868357 0 0.023184218526542018 0.0014296438235840518 0 0.022898352022981822 0.0020671067226912857 0 0.021966369067549396 0.0024365379870137059 0 0.02227830273021229 0.0042429011309418002 0 0.022898352022981822 0.0020671067226912857 0 0.021989128389978994 0.0013444992953680476 0 0.021966369067549396 0.0024365379870137059 0 0.023722502549956274 0.00060338754561920296 0 0.023283024299229859 0.00085877999017198005 0 0.023747262222730974 0.00089038364400708162 0 0.023283024299229859 0.00085877999017198005 0 0.023747262222730974 0.00089038364400708162 0 0.023410620273606148 0.0011213650698389454 0 0.024365040586612329 0.000155315621037127 0 0.024359898260945534 0.00020174113383291767 0 0.024372213612607985 0.00015806740299207457 0 0.024365040586612329 0.000155315621037127 0 0.024325157111766929 0.00022678879913463204 0 0.024359898260945534 0.00020174113383291767 0 0.024377597757571777 0.00012414512072400665 0 0.024372213612607985 0.00015806740299207457 0 0.024374595801094141 0.00013212779472835298 0 0.024377597757571777 0.00012414512072400665 0 0.024365040586612329 0.000155315621037127 0 0.024372213612607985 0.00015806740299207457 0 0.024372213612607985 0.00015806740299207457 0 0.024377596403642954 0.00018340238372732641 0 0.024374595801094141 0.00013212779472835298 0 0.024359898260945534 0.00020174113383291767 0 0.024377596403642954 0.00018340238372732641 0 0.02437141471335277 0.00021922727322745838 0 0.024359898260945534 0.00020174113383291767 0 0.024372213612607985 0.00015806740299207457 0 0.024377596403642954 0.00018340238372732641 0 0.023533742189326044 0.00030315157672613477 0 0.022639248089059455 0.0010698242468830147 0 0.024340831215975488 5.053091157902449e-05 0 0.024375903405300707 0.00014735121359569546 0 0.024398052863990591 0.00022078293860047907 0 0.022775632331666972 0.00045342667707765891 0 0.021989128389978994 0.0013444992953680476 0 0.020868894315074073 0.001920309993121332 0 0.024377596403642954 0.00018340238372732641 0 0.024375903405300707 0.00014735121359569546 0 0.024398052863990591 0.00022078293860047907 0 0.024377596403642954 0.00018340238372732641 0 0.024375903405300707 0.00014735121359569546 0 0.024374595801094141 0.00013212779472835298 0 0.024364018542751675 9.0684028754141769e-05 0 0.024377597757571777 0.00012414512072400665 0 0.024374595801094141 0.00013212779472835298 0 0.024364018542751675 9.0684028754141769e-05 0 0.024340831215975488 5.053091157902449e-05 0 0.024374595801094141 0.00013212779472835298 0 0.024340831215975488 5.053091157902449e-05 0 0.024375903405300707 0.00014735121359569546 0 0.024374595801094141 0.00013212779472835298 0 0.021966369067549396 0.0024365379870137059 0 0.020968248229791604 0.0020447710133359234 0 0.02227830273021229 0.0042429011309418002 0 0.021550172474155808 0.0020659129932443015 0 0.021966369067549396 0.0024365379870137059 0 0.020968248229791604 0.0020447710133359234 0 0.021989128389978994 0.0013444992953680476 0 0.021550172474155808 0.0020659129932443015 0 0.021342130268300577 0.0018605269991282261 0 0.021989128389978994 0.0013444992953680476 0 0.021550172474155808 0.0020659129932443015 0 0.021966369067549396 0.0024365379870137059 0 0.020968248229791604 0.0020447710133359234 0 0.020868894315074073 0.001920309993121332 0 0.020742312915298818 0.0025112796034834637 0 0.021989128389978994 0.0013444992953680476 0 0.020868894315074073 0.001920309993121332 0 0.021342130268300577 0.0018605269991282261 0 0.021550172474155808 0.0020659129932443015 0 0.020968248229791604 0.0020447710133359234 0 0.021342130268300577 0.0018605269991282261 0 0.020968248229791604 0.0020447710133359234 0 0.020868894315074073 0.001920309993121332 0 0.021342130268300577 0.0018605269991282261 0 0.020868894315074073 0.001920309993121332 0 0.020102188453130203 0.0025757620998213045 0 0.020742312915298818 0.0025112796034834637 0 0.024398052863990591 0.00022078293860047907 0 0.024353081009355869 0.00027562106884713446 0 0.024340624437306082 0.00038225724399448965 0 0.022639248089059455 0.0010698242468830147 0 0.022244808228500425 0.0014646097204198754 0 0.024398052863990591 0.00022078293860047907 0 0.02437141471335277 0.00021922727322745838 0 0.024353081009355869 0.00027562106884713446 0 0.024377596403642954 0.00018340238372732641 0 0.024398052863990591 0.00022078293860047907 0 0.02437141471335277 0.00021922727322745838 0 0.024325157111766929 0.00022678879913463204 0 0.024359898260945534 0.00020174113383291767 0 0.024353081009355869 0.00027562106884713446 0 0.024359898260945534 0.00020174113383291767 0 0.02437141471335277 0.00021922727322745838 0 0.024353081009355869 0.00027562106884713446 0 0.020102188453130203 0.0025757620998213045 0 0.020742312915298818 0.0025112796034834637 0 0.020603971923240143 0.0029808977367922398 0 0.02107077724000753 0.0024011152455812052 0 0.021681439331214466 0.0027579890178564145 0 0.020968248229791604 0.0020447710133359234 0 0.020742312915298818 0.0025112796034834637 0 0.02115599824142312 0.0028071412630648182 0 0.020742312915298818 0.0025112796034834637 0 0.020603971923240143 0.0029808977367922398 0 0.02115599824142312 0.0028071412630648182 0 0.020731085188316158 0.0036015073474765153 0 0.021681439331214466 0.0027579890178564145 0 0.020893663350825344 0.0033341410107672908 0 0.020603971923240143 0.0029808977367922398 0 0.02115599824142312 0.0028071412630648182 0 0.020893663350825344 0.0033341410107672908 0 0.020167624504249981 0.0033992835921750116 0 0.020603971923240143 0.0029808977367922398 0 0.020102188453130203 0.0025757620998213045 0 0.020167624504249981 0.0033992835921750116 0 0.020603971923240143 0.0029808977367922398 0 0.023747262222730974 0.00089038364400708162 0 0.023535857707016068 0.0013693840727121188 0 0.023410620273606148 0.0011213650698389454 0 0.023949731793600087 0.0013747382268215549 0 0.023747262222730974 0.00089038364400708162 0 0.023535857707016068 0.0013693840727121188 0 0.023535857707016068 0.0013693840727121188 0 0.023100762021247546 0.0013492596130675919 0 0.023410620273606148 0.0011213650698389454 0 0.023184218526542018 0.0014296438235840518 0 0.021681439331214466 0.0027579890178564145 0 0.023283024299229859 0.00085877999017198005 0 0.023100762021247546 0.0013492596130675919 0 0.023410620273606148 0.0011213650698389454 0 0.020629139199301712 0.0036829212652090514 0 0.020699737845528476 0.0034679913677757774 0 0.020822287428605816 0.0037209545102100923 0 0.023535857707016068 0.0013693840727121188 0 0.023100762021247546 0.0013492596130675919 0 0.023302365580900052 0.0017495263381176311 0 0.021681439331214466 0.0027579890178564145 0 0.022693649927705957 0.0027803697019055918 0 0.023535857707016068 0.0013693840727121188 0 0.023302365580900052 0.0017495263381176311 0 0.023661819405413724 0.0016948609210846355 0 0.023302365580900052 0.0017495263381176311 0 0.023661819405413724 0.0016948609210846355 0 0.023453948933804356 0.0021331147355871335 0 0.022693649927705957 0.0027803697019055918 0 0.015466724825369659 0.0046342451021768212 0 0.020629139199301712 0.0036829212652090514 0 0.020822287428605816 0.0037209545102100923 0 0.020747128203594638 0.0039018208612195183 0 0.020822287428605816 0.0037209545102100923 0 0.020747128203594638 0.0039018208612195183 0 0.020920812966702968 0.0039682875009302582 0 0.020747128203594638 0.0039018208612195183 0 0.020693628421126122 0.0041548102572748413 0 0.020920812966702968 0.0039682875009302582 0 0.01347399449012154 0.006495564988735365 0 0.015466724825369659 0.0046342451021768212 0 0.007371034328893843 0.0081635656453739637 0 0.0054614922607300886 0.009104533156360629 0 0.0058792413418947437 0.007167379822291862 0 0.015466724825369659 0.0046342451021768212 0 0.0078066207871295666 0.0060104796752814575 0 0.020167624504249981 0.0033992835921750116 0 0.020581397211363765 0.0038514767168248364 0 0.020107207188499052 0.0039329405683137851 0 0.019810671289159632 0.0036527412857438103 0 0.020167624504249981 0.0033992835921750116 0 0.020107207188499052 0.0039329405683137851 0 0.020893663350825344 0.0033341410107672908 0 0.020167624504249981 0.0033992835921750116 0 0.020581397211363765 0.0038514767168248364 0 0.020629139199301712 0.0036829212652090514 0 0.020747128203594638 0.0039018208612195183 0 0.020581397211363765 0.0038514767168248364 0 0.020731085188316158 0.0036015073474765153 0 0.020631020683207154 0.0037724710139862925 0 0.020693628421126122 0.0041548102572748413 0 0.020581397211363765 0.0038514767168248364 0 0.020282377170128728 0.0044396971510952832 0 0.020747128203594638 0.0039018208612195183 0 0.020693628421126122 0.0041548102572748413 0 0.020581397211363765 0.0038514767168248364 0 0.019903954337469085 0.0042628358196940925 0 0.020107207188499052 0.0039329405683137851 0 0.020282377170128728 0.0044396971510952832 0 0.020581397211363765 0.0038514767168248364 0 0.020107207188499052 0.0039329405683137851 0 0.020282377170128728 0.0044396971510952832 0 0.019903954337469085 0.0042628358196940925 0 0.019775099116986602 0.0045224862347557132 0 0.020282377170128728 0.0044396971510952832 0 0.014253801258457573 0.0051823729178920282 0 0.015127928063817945 0.0057346256679333685 0 0.01347399449012154 0.006495564988735365 0 0.015127928063817945 0.0057346256679333685 0 0.007371034328893843 0.0081635656453739637 0 0.0093328386179116624 0.0072083672333292945 0 0.0071131241468875379 0.0058816464695432358 0 0.0093328386179116624 0.0072083672333292945 0 0.0085609952205543804 0.0050275932533060848 0 0.0071131241468875379 0.0058816464695432358 0 0.011320670304447953 0.0062348886762604167 0 0.0093328386179116624 0.0072083672333292945 0 0.0098179933556004316 0.0057512055345622041 0 0.011320670304447953 0.0062348886762604167 0 0.0098179933556004316 0.0057512055345622041 0 0.009906145759714418 0.0042073537417771064 0 0.0093328386179116624 0.0072083672333292945 0 0.0085609952205543804 0.0050275932533060848 0 0.0098179933556004316 0.0057512055345622041 0 0.0058792413418947437 0.007167379822291862 0 0.0053686399874674912 0.0056720526022505848 0 0.0040853742634861063 0.0069790008901691432 0 0.0054614922607300886 0.009104533156360629 0 0.0058792413418947437 0.007167379822291862 0 0.0040853742634861063 0.0069790008901691432 0 0.007371034328893843 0.0081635656453739637 0 0.0058792413418947437 0.007167379822291862 0 0.0071131241468875379 0.0058816464695432358 0 0.0058792413418947437 0.007167379822291862 0 0.0071131241468875379 0.0058816464695432358 0 0.0053686399874674912 0.0056720526022505848 0 0.0071131241468875379 0.0058816464695432358 0 0.0053686399874674912 0.0056720526022505848 0 0.0056973555952013494 0.0037576916944938063 0 0.0053686399874674912 0.0056720526022505848 0 0.0040853742634861063 0.0069790008901691432 0 0.004178690075453741 0.0045081388324564875 0 0.0040853742634861063 0.0069790008901691432 0 0.0026805096326490722 0.0047823885661925671 0 0.004178690075453741 0.0045081388324564875 0 0.0078066207871295666 0.0060104796752814575 0 0.0081091923271951038 0.0049200918698136522 0 0.013450304220139693 0.0047788858753343346 0 0.013501435427828841 0.0050692532723147846 0 0.013296099726261831 0.0050641589470113808 0 0.013450304220139693 0.0047788858753343346 0 0.013152160562417838 0.0047590053049756725 0 0.013296099726261831 0.0050641589470113808 0 0.013450304220139693 0.0047788858753343346 0 0.013152160562417838 0.0047590053049756725 0 0.013391803360257441 0.0045856130094722985 0 0.013450304220139693 0.0047788858753343346 0 0.013391803360257441 0.0045856130094722985 0 0.013525502950089792 0.0046156428596827309 0 0.013152160562417838 0.0047590053049756725 0 0.013234846646928018 0.0045233117330320928 0 0.013391803360257441 0.0045856130094722985 0 0.013036289950652723 0.0044615460670977955 0 0.013152160562417838 0.0047590053049756725 0 0.013234846646928018 0.0045233117330320928 0 0.013036289950652723 0.0044615460670977955 0 0.013234846646928018 0.0045233117330320928 0 0.013291240996662788 0.0043288780160535044 0 0.013234846646928018 0.0045233117330320928 0 0.013442303056445327 0.0044076728033078079 0 0.013291240996662788 0.0043288780160535044 0 0.013391803360257441 0.0045856130094722985 0 0.01350364059765204 0.0045139759380162176 0 0.013525502950089792 0.0046156428596827309 0 0.013391803360257441 0.0045856130094722985 0 0.01350364059765204 0.0045139759380162176 0 0.013442303056445327 0.0044076728033078079 0 0.01350364059765204 0.0045139759380162176 0 0.013442303056445327 0.0044076728033078079 0 0.013552293598754274 0.0044440436460797513 0 0.013234846646928018 0.0045233117330320928 0 0.013391803360257441 0.0045856130094722985 0 0.013442303056445327 0.0044076728033078079 0 0.023913078402422881 0.0016872444551498946 0 0.024175798417509713 0.0017481564277639959 0 0.023849236379996384 0.0019291254599297313 0 0.020139549021732768 0.0023926663090194887 0 0.018860328316449345 0.0029848005655024965 0 0.013442303056445327 0.0044076728033078079 0 0.013563285410986413 0.0041978627927250949 0 0.013291240996662788 0.0043288780160535044 0 0.013442303056445327 0.0044076728033078079 0 0.013563285410986413 0.0041978627927250949 0 0.013567757605209183 0.0043583360858493172 0 0.013442303056445327 0.0044076728033078079 0 0.013567757605209183 0.0043583360858493172 0 0.013552293598754274 0.0044440436460797513 0 0.015466724825369659 0.0046342451021768212 0 0.018860328316449345 0.0029848005655024965 0 0.023661819405413724 0.0016948609210846355 0 0.023453948933804356 0.0021331147355871335 0 0.023849236379996384 0.0019291254599297313 0 0.023913078402422881 0.0016872444551498946 0 0.023661819405413724 0.0016948609210846355 0 0.023849236379996384 0.0019291254599297313 0 0.019792847751561451 0.001979899062096177 0 0.019871445036199299 0.0015501085216452261 0 0.018679154835299448 0.0023449929504383801 0 0.019143804155866931 0.0018279037857828423 0 0.019836762958540297 0.0015858769378774926 0 0.020819171775108815 0.001814858626090355 0 0.02011541361405059 0.0017284350528493986 0 0.019836762958540297 0.0015858769378774926 0 0.019244069458587164 0.0020317915701914429 0 0.016547079948688717 0.0031144823578038482 0 0.019107255209897766 0.0014588181845889496 0 0.019143804155866931 0.0018279037857828423 0 0.019836762958540297 0.0015858769378774926 0 0.022543601173507621 0.0012780539968338975 0 0.019244069458587164 0.0020317915701914429 0 0.019656261113675921 0.0025309366968481019 0 0.019921250296494077 0.0024003924002414007 0 0.019489202497893574 0.0021592257036578207 0 0.019921250296494077 0.0024003924002414007 0 0.019489202497893574 0.0021592257036578207 0 0.019558672157234159 0.0020222818053633215 0 0.020139549021732768 0.0023926663090194887 0 0.016644217899202444 0.0032951611423042565 0 0.013563285410986413 0.0041978627927250949 0 0.013567757605209183 0.0043583360858493172 0 0.013682677481108343 0.0043826158302610885 0 0.013567757605209183 0.0043583360858493172 0 0.013682677481108343 0.0043826158302610885 0 0.013637560455121933 0.0044438712467933907 0 0.013567757605209183 0.0043583360858493172 0 0.013637560455121933 0.0044438712467933907 0 0.013552293598754274 0.0044440436460797513 0 0.017694937415875158 0.0030314821787045931 0 0.017771260151942483 0.0028838809500180305 0 0.017509239977230067 0.0026087273071962879 0 0.019244069458587164 0.0020317915701914429 0 0.016644217899202444 0.0032951611423042565 0 0.016644217899202444 0.0032951611423042565 0 0.015642775486858468 0.0042929601607792755 0 0.013664711031706779 0.0043984156386903785 0 0.013656148030571537 0.0045020096827895111 0 0.013729783844472763 0.0045057887124110383 0 0.016644217899202444 0.0032951611423042565 0 0.016547079948688717 0.0031144823578038482 0 0.013664711031706779 0.0043984156386903785 0 0.013637560455121933 0.0044438712467933907 0 0.013656148030571537 0.0045020096827895111 0 0.013637560455121933 0.0044438712467933907 0 0.013656148030571537 0.0045020096827895111 0 0.013591378533817066 0.0045162175421647813 0 0.013637560455121933 0.0044438712467933907 0 0.013552293598754274 0.0044440436460797513 0 0.013591378533817066 0.0045162175421647813 0 0.01350364059765204 0.0045139759380162176 0 0.013552293598754274 0.0044440436460797513 0 0.013591378533817066 0.0045162175421647813 0 0.013591378533817066 0.0045162175421647813 0 0.013525502950089792 0.0046156428596827309 0 0.013620349878579815 0.004592951016170182 0 0.01350364059765204 0.0045139759380162176 0 0.013591378533817066 0.0045162175421647813 0 0.013525502950089792 0.0046156428596827309 0 0.013656148030571537 0.0045020096827895111 0 0.013680327636139758 0.0045706127833735101 0 0.013620349878579815 0.004592951016170182 0 0.013656148030571537 0.0045020096827895111 0 0.013680327636139758 0.0045706127833735101 0 0.013729783844472763 0.0045057887124110383 0 0.013656148030571537 0.0045020096827895111 0 0.013591378533817066 0.0045162175421647813 0 0.013620349878579815 0.004592951016170182 0 0.013680327636139758 0.0045706127833735101 0 0.013620349878579815 0.004592951016170182 0 0.013675625844971123 0.0046381076305401564 0 0.013680327636139758 0.0045706127833735101 0 0.013739861267061153 0.0045666356032611714 0 0.013675625844971123 0.0046381076305401564 0 0.013739861267061153 0.0045666356032611714 0 0.013732917060690467 0.0045117471259200539 0 0.013804547709120677 0.0046479552559084763 0 0.013680327636139758 0.0045706127833735101 0 0.013739861267061153 0.0045666356032611714 0 0.013729783844472763 0.0045057887124110383 0 0.01594893293188911 0.0035425611909519739 0 0.016547079948688717 0.0031144823578038482 0 0.02011541361405059 0.0017284350528493986 0 0.019836762958540297 0.0015858769378774926 0 0.019964243868436309 0.0014180239058373665 0 0.019836762958540297 0.0015858769378774926 0 0.019964243868436309 0.0014180239058373665 0 0.019441836173567584 0.0012387605586820531 0 0.019107255209897766 0.0014588181845889496 0 0.019836762958540297 0.0015858769378774926 0 0.019441836173567584 0.0012387605586820531 0 0.019010516576633295 0.0010284811267024048 0 0.019441836173567584 0.0012387605586820531 0 0.019306584749076407 0.00071791345116575258 0 0.019964243868436309 0.0014180239058373665 0 0.019441836173567584 0.0012387605586820531 0 0.019306584749076407 0.00071791345116575258 0 0.016547079948688717 0.0031144823578038482 0 0.016516679555474496 0.0026925485591311237 0 0.013739861267061153 0.0045666356032611714 0 0.013804547709120677 0.0046479552559084763 0 0.013729589505573599 0.0046632901941068535 0 0.013804547709120677 0.0046479552559084763 0 0.013729589505573599 0.0046632901941068535 0 0.013751306732786406 0.0047318183420181886 0 0.013729589505573599 0.0046632901941068535 0 0.013670125039732866 0.0047309188028125723 0 0.013751306732786406 0.0047318183420181886 0 0.013739861267061153 0.0045666356032611714 0 0.013729589505573599 0.0046632901941068535 0 0.013675625844971123 0.0046381076305401564 0 0.013729589505573599 0.0046632901941068535 0 0.013670125039732866 0.0047309188028125723 0 0.013675625844971123 0.0046381076305401564 0 0.013670125039732866 0.0047309188028125723 0 0.01358271158581258 0.0048627615413049481 0 0.013729641285593007 0.0048450879437910909 0 0.013670125039732866 0.0047309188028125723 0 0.013751306732786406 0.0047318183420181886 0 0.013729641285593007 0.0048450879437910909 0 0.013898784436551662 0.004762676075878167 0 0.013751306732786406 0.0047318183420181886 0 0.013729641285593007 0.0048450879437910909 0 0.013898784436551662 0.004762676075878167 0 0.013804547709120677 0.0046479552559084763 0 0.013751306732786406 0.0047318183420181886 0 0.013450304220139693 0.0047788858753343346 0 0.013525502950089792 0.0046156428596827309 0 0.013587753442342648 0.0047040067771867995 0 0.013525502950089792 0.0046156428596827309 0 0.013620349878579815 0.004592951016170182 0 0.013587753442342648 0.0047040067771867995 0 0.013670125039732866 0.0047309188028125723 0 0.013587753442342648 0.0047040067771867995 0 0.013675625844971123 0.0046381076305401564 0 0.013620349878579815 0.004592951016170182 0 0.013587753442342648 0.0047040067771867995 0 0.013675625844971123 0.0046381076305401564 0 0.013670125039732866 0.0047309188028125723 0 0.013587753442342648 0.0047040067771867995 0 0.01358271158581258 0.0048627615413049481 0 0.013450304220139693 0.0047788858753343346 0 0.013587753442342648 0.0047040067771867995 0 0.01358271158581258 0.0048627615413049481 0 0.013450304220139693 0.0047788858753343346 0 0.01358271158581258 0.0048627615413049481 0 0.013501435427828841 0.0050692532723147846 0 0.01358271158581258 0.0048627615413049481 0 0.013596340862479133 0.0050479691070142033 0 0.013501435427828841 0.0050692532723147846 0 0.013596340862479133 0.0050479691070142033 0 0.013729641285593007 0.0048450879437910909 0 0.013642238685009873 0.0051692904919803219 0 0.013872733019727159 0.004864872057958854 0 0.013729641285593007 0.0048450879437910909 0 0.013642238685009873 0.0051692904919803219 0 0.01358271158581258 0.0048627615413049481 0 0.013596340862479133 0.0050479691070142033 0 0.013729641285593007 0.0048450879437910909 0 0.013596340862479133 0.0050479691070142033 0 0.013642238685009873 0.0051692904919803219 0 0.013578590287119005 0.0052288133352812573 0 0.013642238685009873 0.0051692904919803219 0 0.013578590287119005 0.0052288133352812573 0 0.013604262301967816 0.0053572185134270027 0 0.013642238685009873 0.0051692904919803219 0 0.013604262301967816 0.0053572185134270027 0 0.013703315133779129 0.0055096919509626122 0 0.013501435427828841 0.0050692532723147846 0 0.013578590287119005 0.0052288133352812573 0 0.013567814416618043 0.0052764165182826684 0 0.013596340862479133 0.0050479691070142033 0 0.013501435427828841 0.0050692532723147846 0 0.013578590287119005 0.0052288133352812573 0 0.013578590287119005 0.0052288133352812573 0 0.013567814416618043 0.0052764165182826684 0 0.013609307965086562 0.0052600718937742107 0 0.013609307965086562 0.0052600718937742107 0 0.013604262301967816 0.0053572185134270027 0 0.013476060402155651 0.0053895835505354695 0 0.013578590287119005 0.0052288133352812573 0 0.013609307965086562 0.0052600718937742107 0 0.013604262301967816 0.0053572185134270027 0 0.013609307965086562 0.0052600718937742107 0 0.013448901559929109 0.0049086549074675188 0 0.013476060402155651 0.0053895835505354695 0 0.013609307965086562 0.0052600718937742107 0 0.013448901559929109 0.0049086549074675188 0 0.013770579353080658 0.0048538501841099485 0 0.0014641058638614425 0.0025124973912447435 0 0.0010136893994755571 0.0012664854887250285 0 0.0015979006624687391 0.0012572451167487185 0 0.007517767994936096 0.0038833131802938656 0 0.0073759653969600074 0.0030613419161871357 0 0.013567814416618043 0.0052764165182826684 0 0.013609307965086562 0.0052600718937742107 0 0.013770579353080658 0.0048538501841099485 0 0.0010136893994755571 0.0012664854887250285 0 0.00078069851471217384 0.0006877948771920739 0 0.0012497314768647684 0.00082932112699512486 0 0.0010136893994755571 0.0012664854887250285 0 0.0015979006624687391 0.0012572451167487185 0 0.0012497314768647684 0.00082932112699512486 0 0.013448901559929109 0.0049086549074675188 0 0.013770579353080658 0.0048538501841099485 0 0.01337450962380185 0.0038166259429547136 0 0.0073759653969600074 0.0030613419161871357 0 0.0070610109063709292 0.0022562475323447788 0 0.0018870072333580709 0.0011479921006124468 0 0.0022359292974299021 0.0016993574592549434 0 0.0019573978759833896 0.00079280289166326124 0 0.0039076876537214597 0.0010007366804253282 0 0.0046125962331827934 0.00060318530538015205 0 0.0034809439271018755 -0.0011463686931125652 0 0.0022359292974299021 0.0016993574592549434 0 0.0039076876537214597 0.0010007366804253282 0 0.0034809439271018755 -0.0011463686931125652 0 0.0023561026753059545 0.0013817554680797004 0 0.0023433531436242634 0.00039795748647824858 0 0.0018042246116287371 0.00087639608822049199 0 0.0018870072333580709 0.0011479921006124468 0 0.0019573978759833896 0.00079280289166326124 0 0.0018042246116287371 0.00087639608822049199 0 0.0016095464701864771 0.00085431597843157417 0 0.0018870072333580709 0.0011479921006124468 0 0.0016095464701864771 0.00085431597843157417 0 0.0015979006624687391 0.0012572451167487185 0 0.0012497314768647684 0.00082932112699512486 0 0.0016095464701864771 0.00085431597843157417 0 0.0015979006624687391 0.0012572451167487185 0 0.0018870072333580709 0.0011479921006124468 0 0.0015979006624687391 0.0012572451167487185 0 0.0018870072333580709 0.0011479921006124468 0 0.0022359292974299021 0.0016993574592549434 0 0.0014641058638614425 0.0025124973912447435 0 0.0015979006624687391 0.0012572451167487185 0 0.0022359292974299021 0.0016993574592549434 0 0.0022359292974299021 0.0016993574592549434 0 0.0039076876537214597 0.0010007366804253282 0 0.0036794275367212758 0.0021075382217576885 0 0.0039076876537214597 0.0010007366804253282 0 0.0036794275367212758 0.0021075382217576885 0 0.0050126154010428567 0.0019042621860695652 0 0.0036794275367212758 0.0021075382217576885 0 0.003014629945216972 0.0029616531518063508 0 0.0042224686983796788 0.0028943443236052447 0 0.0036794275367212758 0.0021075382217576885 0 0.0042224686983796788 0.0028943443236052447 0 0.0050126154010428567 0.0019042621860695652 0 0.003014629945216972 0.0029616531518063508 0 0.0042224686983796788 0.0028943443236052447 0 0.004178690075453741 0.0045081388324564875 0 0.0022359292974299021 0.0016993574592549434 0 0.0036794275367212758 0.0021075382217576885 0 0.003014629945216972 0.0029616531518063508 0 0.0014641058638614425 0.0025124973912447435 0 0.003014629945216972 0.0029616531518063508 0 0.0026805096326490722 0.0047823885661925671 0 0.0014641058638614425 0.0025124973912447435 0 0.0022359292974299021 0.0016993574592549434 0 0.003014629945216972 0.0029616531518063508 0 0.013501435427828841 0.0050692532723147846 0 0.013567814416618043 0.0052764165182826684 0 0.013296099726261831 0.0050641589470113808 0 0.007517767994936096 0.0038833131802938656 0 0.0081091923271951038 0.0049200918698136522 0 0.003014629945216972 0.0029616531518063508 0 0.0026805096326490722 0.0047823885661925671 0 0.004178690075453741 0.0045081388324564875 0 0.0053686399874674912 0.0056720526022505848 0 0.004178690075453741 0.0045081388324564875 0 0.0056973555952013494 0.0037576916944938063 0 0.0042224686983796788 0.0028943443236052447 0 0.004178690075453741 0.0045081388324564875 0 0.0056973555952013494 0.0037576916944938063 0 0.0071131241468875379 0.0058816464695432358 0 0.0056973555952013494 0.0037576916944938063 0 0.0076830966097452269 0.0038818926860422292 0 0.0056973555952013494 0.0037576916944938063 0 0.0066203312503667639 0.0024455116001032688 0 0.0076830966097452269 0.0038818926860422292 0 0.0056973555952013494 0.0037576916944938063 0 0.0066203312503667639 0.0024455116001032688 0 0.0050126154010428567 0.0019042621860695652 0 0.0042224686983796788 0.0028943443236052447 0 0.0056973555952013494 0.0037576916944938063 0 0.0050126154010428567 0.0019042621860695652 0 0.0085609952205543804 0.0050275932533060848 0 0.0098179933556004316 0.0057512055345622041 0 0.009906145759714418 0.0042073537417771064 0 0.0085609952205543804 0.0050275932533060848 0 0.009906145759714418 0.0042073537417771064 0 0.0076830966097452269 0.0038818926860422292 0 0.0085609952205543804 0.0050275932533060848 0 0.0071131241468875379 0.0058816464695432358 0 0.0076830966097452269 0.0038818926860422292 0 0.0066203312503667639 0.0024455116001032688 0 0.0076830966097452269 0.0038818926860422292 0 0.0084885353156721483 0.0021803195998091282 0 0.009906145759714418 0.0042073537417771064 0 0.0076830966097452269 0.0038818926860422292 0 0.0084885353156721483 0.0021803195998091282 0 0.0087304027361174777 0.0033414595721243663 0 0.0068239044759505546 0.00056305249029531192 0 0.010065106843589737 0.0026780865447872167 0 0.0025919191758246225 0.0019401683119676168 0 0.0042787104578945329 0.0016683226441319167 0 0.0053606359281372067 0.0039615525866246127 0 0.0092009810009912076 0.0038256195857006973 0 0.0053973729320472789 0.0018246417398154607 0 0.0053973729320472789 0.0018246417398154607 0 0.0070270964509718528 0.0033080335277607857 0 0.0025885245908821223 0.0016135547244721631 0 0.002550534517220739 0.0010853747201206641 0 0.0028634553009918794 0.0011771289134089324 0 0.002667977916402252 0.0015110468886984723 0 0.003869632777593399 0.00065801950801133474 0 0.0042787104578945329 0.0016683226441319167 0 0.0025885245908821223 0.0016135547244721631 0 0.004959558835872362 2.1449835779002793e-05 0 0.0053973729320472789 0.0018246417398154607 0 0.0019159640491231964 0.0011752924183865382 0 0.0025919191758246225 0.0019401683119676168 0 0.0025885245908821223 0.0016135547244721631 0 0.0020940141729904461 0.0010458845385428316 0 0.0025919191758246225 0.0019401683119676168 0 0.0042787104578945329 0.0016683226441319167 0 0.0025885245908821223 0.0016135547244721631 0 0.0025885245908821223 0.0016135547244721631 0 0.002550534517220739 0.0010853747201206641 0 0.0020940141729904461 0.0010458845385428316 0 0.0023614292348737276 0.0009078933757852676 0 0.002550534517220739 0.0010853747201206641 0 0.0020940141729904461 0.0010458845385428316 0 0.0023614292348737276 0.0009078933757852676 0 0.002550534517220739 0.0010853747201206641 0 0.0025447159659210306 0.00080516468550445748 0 0.002550534517220739 0.0010853747201206641 0 0.0027460289419221459 0.000931221131328873 0 0.0028634553009918794 0.0011771289134089324 0 0.002550534517220739 0.0010853747201206641 0 0.0027460289419221459 0.000931221131328873 0 0.0025447159659210306 0.00080516468550445748 0 0.0066203312503667639 0.0024455116001032688 0 0.0050126154010428567 0.0019042621860695652 0 0.0060389472583453618 0.00058847782144156083 0 0.0046125962331827934 0.00060318530538015205 0 0.0050126154010428567 0.0019042621860695652 0 0.0060389472583453618 0.00058847782144156083 0 0.0039076876537214597 0.0010007366804253282 0 0.0046125962331827934 0.00060318530538015205 0 0.0050126154010428567 0.0019042621860695652 0 0.0066203312503667639 0.0024455116001032688 0 0.0084885353156721483 0.0021803195998091282 0 0.0060389472583453618 0.00058847782144156083 0 0.0053973729320472789 0.0018246417398154607 0 0.0042135877963826009 0.0011316311465281318 0 0.003223151460119826 0.0023300321020403103 0 0.0021647854294575145 0.0016447653980717341 0 0.0025320311493707746 0.0013900263627264335 0 0.0021647854294575145 0.0016447653980717341 0 0.0025320311493707746 0.0013900263627264335 0 0.0020764598735054556 0.0011531284279632831 0 0.0021647854294575145 0.0016447653980717341 0 0.0020764598735054556 0.0011531284279632831 0 0.001874718262835068 0.0011743265565566938 0 0.0046125962331827934 0.00060318530538015205 0 0.0060389472583453618 0.00058847782144156083 0 0.0034809439271018755 -0.0011463686931125652 0 0.0021647854294575145 0.0016447653980717341 0 0.001874718262835068 0.0011743265565566938 0 0.0013828478937594633 0.001056247949261102 0 0.0042135877963826009 0.0011316311465281318 0 0.0023433531436242634 0.00039795748647824858 0 0.0020764598735054556 0.0011531284279632831 0 0.001874718262835068 0.0011743265565566938 0 0.0018898585293084245 0.00096648186194083386 0 0.001874718262835068 0.0011743265565566938 0 0.0017192159742827043 0.00086506412077626044 0 0.0018898585293084245 0.00096648186194083386 0 0.001874718262835068 0.0011743265565566938 0 0.0017192159742827043 0.00086506412077626044 0 0.0013828478937594633 0.001056247949261102 0 0.0017192159742827043 0.00086506412077626044 0 0.001891131958389188 0.00068141954985950369 0 0.0016807387351392541 0.00052297495929264374 0 0.0017192159742827043 0.00086506412077626044 0 0.001891131958389188 0.00068141954985950369 0 0.0018898585293084245 0.00096648186194083386 0 0.0020764598735054556 0.0011531284279632831 0 0.001891131958389188 0.00068141954985950369 0 0.0018898585293084245 0.00096648186194083386 0 0.0019159640491231964 0.0011752924183865382 0 0.0020488630645968519 0.00075964440270869069 0 0.0025320311493707746 0.0013900263627264335 0 0.0020764598735054556 0.0011531284279632831 0 0.001891131958389188 0.00068141954985950369 0 0.0020940141729904461 0.0010458845385428316 0 0.001891131958389188 0.00068141954985950369 0 0.0020513524913585972 0.00062402751430903588 0 0.0020940141729904461 0.0010458845385428316 0 0.0020513524913585972 0.00062402751430903588 0 0.0022501289676711508 0.00071964442139319245 0 0.0020513524913585972 0.00062402751430903588 0 0.0020959227076394059 0.00040935419229090207 0 0.0022501289676711508 0.00071964442139319245 0 0.0020513524913585972 0.00062402751430903588 0 0.0020959227076394059 0.00040935419229090207 0 0.001907961007567244 0.00048388633269819077 0 0.001907961007567244 0.00048388633269819077 0 0.0016807387351392541 0.00052297495929264374 0 0.0018092101520340207 0.00019574763035468915 0 0.001891131958389188 0.00068141954985950369 0 0.001907961007567244 0.00048388633269819077 0 0.0016807387351392541 0.00052297495929264374 0 0.001891131958389188 0.00068141954985950369 0 0.0020513524913585972 0.00062402751430903588 0 0.001907961007567244 0.00048388633269819077 0 0.0027460289419221459 0.000931221131328873 0 0.0025447159659210306 0.00080516468550445748 0 0.0028252683839507854 0.00070483404741504877 0 0.0025447159659210306 0.00080516468550445748 0 0.002524511953567378 0.00052251845357830418 0 0.0028252683839507854 0.00070483404741504877 0 0.0025447159659210306 0.00080516468550445748 0 0.0022501289676711508 0.00071964442139319245 0 0.002524511953567378 0.00052251845357830418 0 0.0023614292348737276 0.0009078933757852676 0 0.0020940141729904461 0.0010458845385428316 0 0.0022501289676711508 0.00071964442139319245 0 0.0023614292348737276 0.0009078933757852676 0 0.0025447159659210306 0.00080516468550445748 0 0.0022501289676711508 0.00071964442139319245 0 0.0020959227076394059 0.00040935419229090207 0 0.0022501289676711508 0.00071964442139319245 0 0.002524511953567378 0.00052251845357830418 0 0.002524511953567378 0.00052251845357830418 0 0.0028252683839507854 0.00070483404741504877 0 0.0028595256230969672 0.0004566247885764996 0 0.002524511953567378 0.00052251845357830418 0 0.0026192367063785495 0.00023438309292835122 0 0.0028595256230969672 0.0004566247885764996 0 0.0026192367063785495 0.00023438309292835122 0 0.0023038145020130144 0.00016527414758193276 0 0.0025294697137906667 6.8238370743152591e-06 0 0.002524511953567378 0.00052251845357830418 0 0.0026192367063785495 0.00023438309292835122 0 0.0023038145020130144 0.00016527414758193276 0 0.0020959227076394059 0.00040935419229090207 0 0.002524511953567378 0.00052251845357830418 0 0.0023038145020130144 0.00016527414758193276 0 0.0023038145020130144 0.00016527414758193276 0 0.0020162737622395079 7.4655885501978257e-05 0 0.0023386411460024886 -0.00031499813884484982 0 0.0023038145020130144 0.00016527414758193276 0 0.0025294697137906667 6.8238370743152591e-06 0 0.0023386411460024886 -0.00031499813884484982 0 0.0025294697137906667 6.8238370743152591e-06 0 0.0028420195225246558 -6.4623748800155109e-05 0 0.0023386411460024886 -0.00031499813884484982 0 0.0026192367063785495 0.00023438309292835122 0 0.0025294697137906667 6.8238370743152591e-06 0 0.0028420195225246558 -6.4623748800155109e-05 0 0.0017464390549637714 0.00044603471220723231 0 0.0017632582546031009 0.00012097370520703793 0 0.0015837580886651679 0.00028538723950316276 0 0.0016034432241190263 0.00062975529868463103 0 0.001802901636379602 0.0001198980119048659 0 0.0020959227076394059 0.00040935419229090207 0 0.0023038145020130144 0.00016527414758193276 0 0.0020162737622395079 7.4655885501978257e-05 0 0.0020959227076394059 0.00040935419229090207 0 0.001907961007567244 0.00048388633269819077 0 0.0018092101520340207 0.00019574763035468915 0 0.0020959227076394059 0.00040935419229090207 0 0.0018092101520340207 0.00019574763035468915 0 0.0020162737622395079 7.4655885501978257e-05 0 0.0018092101520340207 0.00019574763035468915 0 0.0020162737622395079 7.4655885501978257e-05 0 0.0018495954773188848 -0.00019482736060322153 0 0.0020162737622395079 7.4655885501978257e-05 0 0.0018495954773188848 -0.00019482736060322153 0 0.0023386411460024886 -0.00031499813884484982 0 0.001802901636379602 0.0001198980119048659 0 0.0018528229241470298 -0.00015567786677690709 0 0.0017632582546031009 0.00012097370520703793 0 0.0014794994951940566 -0.00018436441599655156 0 0.0018495954773188848 -0.00019482736060322153 0 0.0017632582546031009 0.00012097370520703793 0 0.0014794994951940566 -0.00018436441599655156 0 0.0014974724293141315 5.5695134376284528e-05 0 0.0014794994951940566 -0.00018436441599655156 0 0.0014974724293141315 5.5695134376284528e-05 0 0.0012702965942133486 -6.2425407417557847e-05 0 0.0017632582546031009 0.00012097370520703793 0 0.0014974724293141315 5.5695134376284528e-05 0 0.0015837580886651679 0.00028538723950316276 0 0.0014974724293141315 5.5695134376284528e-05 0 0.0014048137415706991 0.00017913771436777766 0 0.0012702965942133486 -6.2425407417557847e-05 0 0.0014974724293141315 5.5695134376284528e-05 0 0.0015837580886651679 0.00028538723950316276 0 0.0014048137415706991 0.00017913771436777766 0 0.0014048137415706991 0.00017913771436777766 0 0.0012702965942133486 -6.2425407417557847e-05 0 0.0011676786995825203 0.00019913880979202395 0 0.0014048137415706991 0.00017913771436777766 0 0.0011676786995825203 0.00019913880979202395 0 0.0014897191063726906 0.0004152496951829787 0 0.0012702965942133486 -6.2425407417557847e-05 0 0.00093300592145261082 -0.00017161045140184436 0 0.0011676786995825203 0.00019913880979202395 0 0.00093300592145261082 -0.00017161045140184436 0 0.0008533801276471944 0.00022160507872600287 0 0.00061463868495482109 -9.3683249284458152e-05 0 0.00093300592145261082 -0.00017161045140184436 0 0.00061777376550239439 -0.00038766307249704288 0 0.00061463868495482109 -9.3683249284458152e-05 0 0.0008533801276471944 0.00022160507872600287 0 0.00052713487148929486 0.00026942184318435182 0 0.00061463868495482109 -9.3683249284458152e-05 0 0.00093300592145261082 -0.00017161045140184436 0 0.0008533801276471944 0.00022160507872600287 0 0.0011676786995825203 0.00019913880979202395 0 0.0008533801276471944 0.00022160507872600287 0 0.0011676786995825203 0.00019913880979202395 0 0.0011776899480635508 0.00048158131734227742 0 0.0008533801276471944 0.00022160507872600287 0 0.00078069851471217384 0.0006877948771920739 0 0.00052713487148929486 0.00026942184318435182 0 0.0008533801276471944 0.00022160507872600287 0 0.0011776899480635508 0.00048158131734227742 0 0.00078069851471217384 0.0006877948771920739 0 0.0011776899480635508 0.00048158131734227742 0 0.0012497314768647684 0.00082932112699512486 0 0.001488562802959852 0.00062008142642820414 0 0.0011776899480635508 0.00048158131734227742 0 0.00078069851471217384 0.0006877948771920739 0 0.0012497314768647684 0.00082932112699512486 0 0.0016095464701864771 0.00085431597843157417 0 0.0012497314768647684 0.00082932112699512486 0 0.001488562802959852 0.00062008142642820414 0 0.001488562802959852 0.00062008142642820414 0 0.0016188574472552478 0.00058589431672232762 0 0.0014897191063726906 0.0004152496951829787 0 0.001488562802959852 0.00062008142642820414 0 0.0016188574472552478 0.00058589431672232762 0 0.0017615612162882751 0.00071895815470253476 0 0.0018042246116287371 0.00087639608822049199 0 0.0016095464701864771 0.00085431597843157417 0 0.0017615612162882751 0.00071895815470253476 0 0.0016095464701864771 0.00085431597843157417 0 0.001488562802959852 0.00062008142642820414 0 0.0017615612162882751 0.00071895815470253476 0 0.0018042246116287371 0.00087639608822049199 0 0.0019573978759833896 0.00079280289166326124 0 0.0017615612162882751 0.00071895815470253476 0 0.0016034432241190263 0.00062975529868463103 0 0.0023433531436242634 0.00039795748647824858 0 0.0017856760246096109 0.00074785601493621121 0 0.0017615612162882751 0.00071895815470253476 0 0.0016847463091052095 0.0005460552885049692 0 0.0017192159742827043 0.00086506412077626044 0 0.0016807387351392541 0.00052297495929264374 0 0.0013828478937594633 0.001056247949261102 0 0.0017464390549637714 0.00044603471220723231 0 0.0017856760246096109 0.00074785601493621121 0 0.0016847463091052095 0.0005460552885049692 0 0.0023433531436242634 0.00039795748647824858 0 0.0020495377346207949 0.00045399568116780907 0 0.0016188574472552478 0.00058589431672232762 0 0.0017615612162882751 0.00071895815470253476 0 0.0016847463091052095 0.0005460552885049692 0 0.0017464390549637714 0.00044603471220723231 0 0.0015837580886651679 0.00028538723950316276 0 0.0016847463091052095 0.0005460552885049692 0 0.0015837580886651679 0.00028538723950316276 0 0.0016847463091052095 0.0005460552885049692 0 0.0014897191063726906 0.0004152496951829787 0 0.0016188574472552478 0.00058589431672232762 0 0.0016847463091052095 0.0005460552885049692 0 0.0014897191063726906 0.0004152496951829787 0 0.0015837580886651679 0.00028538723950316276 0 0.0014048137415706991 0.00017913771436777766 0 0.0014897191063726906 0.0004152496951829787 0 0.0011776899480635508 0.00048158131734227742 0 0.001488562802959852 0.00062008142642820414 0 0.0014897191063726906 0.0004152496951829787 0 0.0011676786995825203 0.00019913880979202395 0 0.0011776899480635508 0.00048158131734227742 0 0.0014897191063726906 0.0004152496951829787 0 0.0094049250870962466 -2.1846381812006516e-07 0 0.010089174645469483 -0.00019805342828530285 0 0.009487526572935048 -0.00013895259824346474 0 0.0094049250870962466 -2.1846381812006516e-07 0 0.010089174645469483 -0.00019805342828530285 0 0.010706444985076863 -3.2035438441190598e-07 0 0.010089174645469483 -0.00019805342828530285 0 0.0098849644920962626 -0.0002137334432550109 0 0.009487526572935048 -0.00013895259824346474 0 0.010089174645469483 -0.00019805342828530285 0 0.01028027483860223 -0.0002859175167232664 0 0.0098849644920962626 -0.0002137334432550109 0 0.010089174645469483 -0.00019805342828530285 0 0.010647015466703521 -0.00022076456672987169 0 0.01028027483860223 -0.0002859175167232664 0 0.010089174645469483 -0.00019805342828530285 0 0.010706444985076863 -3.2035438441190598e-07 0 0.010647015466703521 -0.00022076456672987169 0 0.010706444985076863 -3.2035438441190598e-07 0 0.012009160222779964 -8.2087091111938727e-07 0 0.011233149265423967 -0.00012197170729489107 0 0.010706444985076863 -3.2035438441190598e-07 0 0.011233149265423967 -0.00012197170729489107 0 0.010647015466703521 -0.00022076456672987169 0 0.011660222139042829 0.00011454404287768784 0 0.012009160222779964 -8.2087091111938727e-07 0 0.011233149265423967 -0.00012197170729489107 0 0.011660222139042829 0.00011454404287768784 0 0.011233149265423967 -0.00012197170729489107 0 0.010827854643371644 -6.7589046809062654e-05 0 0.011233149265423967 -0.00012197170729489107 0 0.010647015466703521 -0.00022076456672987169 0 0.010827854643371644 -6.7589046809062654e-05 0 0.010647015466703521 -0.00022076456672987169 0 0.010827854643371644 -6.7589046809062654e-05 0 0.010445104016149575 -0.00023688955356750653 0 0.010827854643371644 -6.7589046809062654e-05 0 0.010559431488827089 2.7936418957521092e-05 0 0.010440033468428117 -0.00012994530942628488 0 0.010493230078267697 0.00027056377326096083 0 0.010559431488827089 2.7936418957521092e-05 0 0.010384407622279332 6.009493809974657e-05 0 0.010559431488827089 2.7936418957521092e-05 0 0.010440033468428117 -0.00012994530942628488 0 0.010384407622279332 6.009493809974657e-05 0 0.010827854643371644 -6.7589046809062654e-05 0 0.010440033468428117 -0.00012994530942628488 0 0.010445104016149575 -0.00023688955356750653 0 0.010440033468428117 -0.00012994530942628488 0 0.010445104016149575 -0.00023688955356750653 0 0.010364447840382904 -0.00021354468134412346 0 0.010445104016149575 -0.00023688955356750653 0 0.01028814698587441 -0.00028517700816326521 0 0.01028027483860223 -0.0002859175167232664 0 0.010445104016149575 -0.00023688955356750653 0 0.010364447840382904 -0.00021354468134412346 0 0.01028814698587441 -0.00028517700816326521 0 0.010647015466703521 -0.00022076456672987169 0 0.010445104016149575 -0.00023688955356750653 0 0.01028027483860223 -0.0002859175167232664 0 0.01028027483860223 -0.0002859175167232664 0 0.010109857669849865 -0.00021478222298458935 0 0.0098849644920962626 -0.0002137334432550109 0 0.01028814698587441 -0.00028517700816326521 0 0.01028027483860223 -0.0002859175167232664 0 0.010109857669849865 -0.00021478222298458935 0 0.01028814698587441 -0.00028517700816326521 0 0.010286762496597485 -0.00025397658504939928 0 0.010109857669849865 -0.00021478222298458935 0 0.0094476701899634825 -0.00027318073321816932 0 0.0098043041944738448 -0.00011010728444064085 0 0.00851793669444092 -9.9722455705717443e-05 0 0.0085796773752855379 -0.00013406185679375789 0 0.0085704661049967913 -0.00031629994729226175 0 0.01028814698587441 -0.00028517700816326521 0 0.010286762496597485 -0.00025397658504939928 0 0.01027565099190975 -0.00027912847592475367 0 0.0090837619314097784 -0.00058125729415256424 0 0.0098043041944738448 -0.00011010728444064085 0 0.009654134618082625 -0.00090203600053106211 0 0.0088982655827256826 -0.00011500214624885304 0 0.0099112913848773999 0.00044147529928521351 0 0.00851793669444092 -9.9722455705717443e-05 0 0.0085796773752855379 -0.00013406185679375789 0 0.0086022692655791239 6.2785215609192937e-05 0 0.0086443014776270248 -0.0012236337471590699 0 0.0086832497625050614 -0.00073602539966439518 0 0.0079358945731833677 -0.00084519110649200068 0 0.009654134618082625 -0.00090203600053106211 0 0.0086443014776270248 -0.0012236337471590699 0 0.0086832497625050614 -0.00073602539966439518 0 0.0086832497625050614 -0.00073602539966439518 0 0.0088982655827256826 -0.00011500214624885304 0 0.0079358945731833677 -0.00084519110649200068 0 0.009654134618082625 -0.00090203600053106211 0 0.0086832497625050614 -0.00073602539966439518 0 0.0088982655827256826 -0.00011500214624885304 0 0.0088982655827256826 -0.00011500214624885304 0 0.0099112913848773999 0.00044147529928521351 0 0.0083080280863061136 0.0014060817852217756 0 0.010364447840382904 -0.00021354468134412346 0 0.01028814698587441 -0.00028517700816326521 0 0.01027565099190975 -0.00027912847592475367 0 0.010247264801395668 -0.00033835957788851123 0 0.010333203035621238 -4.8736496154676726e-05 0 0.01023084689937814 -6.1132181388211075e-05 0 0.0098043041944738448 -0.00011010728444064085 0 0.0093431322158965668 0.0013661181059523742 0 0.010364447840382904 -0.00021354468134412346 0 0.01027565099190975 -0.00027912847592475367 0 0.010333203035621238 -4.8736496154676726e-05 0 0.0098043041944738448 -0.00011010728444064085 0 0.010445910722951325 -0.00012912936267265966 0 0.010440033468428117 -0.00012994530942628488 0 0.010364447840382904 -0.00021354468134412346 0 0.010333203035621238 -4.8736496154676726e-05 0 0.010440033468428117 -0.00012994530942628488 0 0.010333203035621238 -4.8736496154676726e-05 0 0.010384407622279332 6.009493809974657e-05 0 0.010219186866989655 0.00037316341474103159 0 0.01023084689937814 -6.1132181388211075e-05 0 0.010384407622279332 6.009493809974657e-05 0 0.010333203035621238 -4.8736496154676726e-05 0 0.01023084689937814 -6.1132181388211075e-05 0 0.010384407622279332 6.009493809974657e-05 0 0.0097665160449103682 0.0024659827471364853 0 0.0088741069875614819 0.003385645101153923 0 0.0083080280863061136 0.0014060817852217756 0 0.0099112913848773999 0.00044147529928521351 0 0.0097665160449103682 0.0024659827471364853 0 0.0083080280863061136 0.0014060817852217756 0 0.0082171953453230584 0.0023913592923465142 0 0.0053606359281372067 0.0039615525866246127 0 0.0068519026307380954 0.00086598587632496365 0 0.0082171953453230584 0.0023913592923465142 0 0.0075844380269377782 0.004466483669044531 0 0.0053606359281372067 0.0039615525866246127 0 0.012320725751486478 0.0044355219112822359 0 0.0077365635403359367 0.0018724735655074522 0 0.0086131424417236774 0.0035196664872974336 0 0.0088741069875614819 0.003385645101153923 0 0.0083080280863061136 0.0014060817852217756 0 0.0085350747516361371 0.0056787953681501913 0 0.0082171953453230584 0.0023913592923465142 0 0.0075844380269377782 0.004466483669044531 0 0.0082239064947169753 0.005835137229912842 0 0.0075844380269377782 0.004466483669044531 0 0.0053606359281372067 0.0039615525866246127 0 0.013811134422308864 0.0039464079137732679 0 0.0070270964509718528 0.0033080335277607857 0 0.0082239064947169753 0.005835137229912842 0 0.0085350747516361371 0.0056787953681501913 0 0.0075844380269377782 0.004466483669044531 0 0.010632426829930396 0.0061257575311618826 0 0.0087304027361174777 0.0033414595721243663 0 0.010065106843589737 0.0026780865447872167 0 0.0042787104578945329 0.0016683226441319167 0 0.0053606359281372067 0.0039615525866246127 0 0.0068519026307380954 0.00086598587632496365 0 0.0042787104578945329 0.0016683226441319167 0 0.0068519026307380954 0.00086598587632496365 0 0.004959558835872362 2.1449835779002793e-05 0 0.0088982655827256826 -0.00011500214624885304 0 0.0083080280863061136 0.0014060817852217756 0 0.0079358945731833677 -0.00084519110649200068 0 0.0082171953453230584 0.0023913592923465142 0 0.0068519026307380954 0.00086598587632496365 0 0.0079358945731833677 -0.00084519110649200068 0 0.0077365635403359367 0.0018724735655074522 0 0.0081031225190941157 -0.0007178761041637913 0 0.0068519026307380954 0.00086598587632496365 0 0.0079358945731833677 -0.00084519110649200068 0 0.0074754687555198783 -0.00133620212907737 0 0.0086443014776270248 -0.0012236337471590699 0 0.0079358945731833677 -0.00084519110649200068 0 0.0074754687555198783 -0.00133620212907737 0 0.0068519026307380954 0.00086598587632496365 0 0.0074754687555198783 -0.00133620212907737 0 0.004959558835872362 2.1449835779002793e-05 0 0.0054173844239039986 -0.00032181678724967885 0 0.003869632777593399 0.00065801950801133474 0 0.0031330923066267054 0.00091379479608624196 0 0.0028634553009918794 0.0011771289134089324 0 0.0029326659571235572 0.00088942780346196149 0 0.0027460289419221459 0.000931221131328873 0 0.0028634553009918794 0.0011771289134089324 0 0.0029326659571235572 0.00088942780346196149 0 0.0028252683839507854 0.00070483404741504877 0 0.0030453287367162396 0.00073993116564864908 0 0.0029557867695348648 0.00061117732954921026 0 0.0027460289419221459 0.000931221131328873 0 0.0028252683839507854 0.00070483404741504877 0 0.0029326659571235572 0.00088942780346196149 0 0.0031330923066267054 0.00091379479608624196 0 0.0029326659571235572 0.00088942780346196149 0 0.0030453287367162396 0.00073993116564864908 0 0.0028252683839507854 0.00070483404741504877 0 0.0029326659571235572 0.00088942780346196149 0 0.0030453287367162396 0.00073993116564864908 0 0.0031330923066267054 0.00091379479608624196 0 0.003198624073013954 0.00069436533365640932 0 0.0030453287367162396 0.00073993116564864908 0 0.0031330923066267054 0.00091379479608624196 0 0.003198624073013954 0.00069436533365640932 0 0.0034304033425975968 0.00070913299713890184 0 0.003198624073013954 0.00069436533365640932 0 0.0030453287367162396 0.00073993116564864908 0 0.003089156669591774 0.00054408847144213237 0 0.003089156669591774 0.00054408847144213237 0 0.0028595256230969672 0.0004566247885764996 0 0.0030336864081171463 0.00028514346400889171 0 0.0030453287367162396 0.00073993116564864908 0 0.003089156669591774 0.00054408847144213237 0 0.0029557867695348648 0.00061117732954921026 0 0.003089156669591774 0.00054408847144213237 0 0.0031667004989193166 0.00042006599036181562 0 0.0030336864081171463 0.00028514346400889171 0 0.003198624073013954 0.00069436533365640932 0 0.003089156669591774 0.00054408847144213237 0 0.00325505403121742 0.00054279177205896975 0 0.003089156669591774 0.00054408847144213237 0 0.0031667004989193166 0.00042006599036181562 0 0.00325505403121742 0.00054279177205896975 0 0.003089156669591774 0.00054408847144213237 0 0.0029557867695348648 0.00061117732954921026 0 0.0028595256230969672 0.0004566247885764996 0 0.0028252683839507854 0.00070483404741504877 0 0.0029557867695348648 0.00061117732954921026 0 0.0028595256230969672 0.0004566247885764996 0 0.0026192367063785495 0.00023438309292835122 0 0.0028595256230969672 0.0004566247885764996 0 0.0028411749254776417 0.00022813333336323108 0 0.0028411749254776417 0.00022813333336323108 0 0.0028420195225246558 -6.4623748800155109e-05 0 0.0030336864081171463 0.00028514346400889171 0 0.0028595256230969672 0.0004566247885764996 0 0.0028411749254776417 0.00022813333336323108 0 0.0030336864081171463 0.00028514346400889171 0 0.0026192367063785495 0.00023438309292835122 0 0.0028411749254776417 0.00022813333336323108 0 0.0028420195225246558 -6.4623748800155109e-05 0 0.0025217649514943734 1.9418893912869287e-05 0 0.0031558396752541695 0.00013813949092935062 0 0.0030456101958287055 -0.00014248094497264742 0 0.0028420195225246558 -6.4623748800155109e-05 0 0.0030336864081171463 0.00028514346400889171 0 0.0031558396752541695 0.00013813949092935062 0 0.0026826404007114337 -2.7920321222386259e-05 0 0.0031237720450717024 0.00013039168306975247 0 0.0030336864081171463 0.00028514346400889171 0 0.0032803057376227917 0.00031106914007209506 0 0.0031558396752541695 0.00013813949092935062 0 0.0031667004989193166 0.00042006599036181562 0 0.0030336864081171463 0.00028514346400889171 0 0.0032803057376227917 0.00031106914007209506 0 0.0031775202925777958 0.00013269478278865802 0 0.0032846618355106445 0.00014541015192781612 0 0.0033436075667981459 0.00019832908446902302 0 0.0031775202925777958 0.00013269478278865802 0 0.0032581352653397759 5.5579462487919202e-05 0 0.0032846618355106445 0.00014541015192781612 0 0.0032803057376227917 0.00031106914007209506 0 0.0031558396752541695 0.00013813949092935062 0 0.0030456101958287055 -0.00014248094497264742 0 0.0031775202925777958 0.00013269478278865802 0 0.0031859873249869327 -5.6914625643063043e-05 0 0.0030456101958287055 -0.00014248094497264742 0 0.0028658739312118248 0.00031397770882124536 0 0.0031631007061759852 -0.00015286315391207245 0 0.0031775202925777958 0.00013269478278865802 0 0.0032581352653397759 5.5579462487919202e-05 0 0.0031859873249869327 -5.6914625643063043e-05 0 0.0032581352653397759 5.5579462487919202e-05 0 0.0031859873249869327 -5.6914625643063043e-05 0 0.0032841596034395176 -0.00015479820629229731 0 0.0032581352653397759 5.5579462487919202e-05 0 0.0033509591353596069 -4.3840433803005481e-05 0 0.0033176482084538062 -0.00010553189516368989 0 0.0032555958809806994 4.6895937921136127e-05 0 0.0033023338641389984 -0.00014260993815119947 0 0.0031335551802977478 0.00035390571723256978 0 0.0052618498701486171 0.00025841624350614599 0 0.0033723301786111907 0.00049268787843082657 0 0.0033053197639783221 0.0012726375874295463 0 0.0036006536280054143 0.00085726311032542483 0 0.0032581352653397759 5.5579462487919202e-05 0 0.0033509591353596069 -4.3840433803005481e-05 0 0.0033579153602929126 0.0001949034087985705 0 0.0032581352653397759 5.5579462487919202e-05 0 0.0032846618355106445 0.00014541015192781612 0 0.0033579153602929126 0.0001949034087985705 0 0.0032846618355106445 0.00014541015192781612 0 0.0033579153602929126 0.0001949034087985705 0 0.0033436075667981459 0.00019832908446902302 0 0.0033721600119341068 0.00032195950672036898 0 0.0033436075667981459 0.00019832908446902302 0 0.0032876480237643956 0.00037434361106943633 0 0.0094506070522764399 0.00033822130259317099 0 0.0094221634092051445 0.00050649590319070423 0 0.0096000584842343816 0.00040583949979831598 0 0.0080791522919743484 0.00035132330119489271 0 0.010048301842375734 9.9055662080679296e-05 0 0.0052618498701486171 0.00025841624350614599 0 0.0080791522919743484 0.00035132330119489271 0 0.0033605956989776879 0.00019375603305895662 0 0.0033721600119341068 0.00032195950672036898 0 0.0033436075667981459 0.00019832908446902302 0 0.0052618498701486171 0.00025841624350614599 0 0.0050351829064405927 0.00030399090763963925 0 0.0031775202925777958 0.00013269478278865802 0 0.0033436075667981459 0.00019832908446902302 0 0.0032876480237643956 0.00037434361106943633 0 0.0028658739312118248 0.00031397770882124536 0 0.0059345745157353543 -6.7221928121604269e-05 0 0.0032803057376227917 0.00031106914007209506 0 0.00325505403121742 0.00054279177205896975 0 0.0034304033425975968 0.00070913299713890184 0 0.0031667004989193166 0.00042006599036181562 0 0.0032803057376227917 0.00031106914007209506 0 0.00325505403121742 0.00054279177205896975 0 0.0090837619314097784 -0.00058125729415256424 0 0.0059345745157353543 -6.7221928121604269e-05 0 0.0086443014776270248 -0.0012236337471590699 0 0.0074754687555198783 -0.00133620212907737 0 0.0093915756694157686 -0.0023206728742844484 0 0.0054173844239039986 -0.00032181678724967885 0 0.0059345745157353543 -6.7221928121604269e-05 0 0.009654134618082625 -0.00090203600053106211 0 0.0086443014776270248 -0.0012236337471590699 0 0.0093915756694157686 -0.0023206728742844484 0 0.003198624073013954 0.00069436533365640932 0 0.00325505403121742 0.00054279177205896975 0 0.0034304033425975968 0.00070913299713890184 0 0.00851793669444092 -9.9722455705717443e-05 0 0.0084789456330685055 0.0001355020439163292 0 0.0086022692655791239 6.2785215609192937e-05 0 0.010286762496597485 -0.00025397658504939928 0 0.01027717052677767 -5.4915953828369422e-05 0 0.010109857669849865 -0.00021478222298458935 0 0.0094476701899634825 -0.00027318073321816932 0 0.0080791522919743484 0.00035132330119489271 0 0.0080791522919743484 0.00035132330119489271 0 0.0059345745157353543 -6.7221928121604269e-05 0 0.01027717052677767 -5.4915953828369422e-05 0 0.010019660735938586 -5.8581234428804033e-05 0 0.010109857669849865 -0.00021478222298458935 0 0.010019660735938586 -5.8581234428804033e-05 0 0.010109857669849865 -0.00021478222298458935 0 0.0098283308428280761 -0.00010182160797465804 0 0.010109857669849865 -0.00021478222298458935 0 0.0098849644920962626 -0.0002137334432550109 0 0.0098283308428280761 -0.00010182160797465804 0 0.0098849644920962626 -0.0002137334432550109 0 0.0098283308428280761 -0.00010182160797465804 0 0.0095635194509585304 -9.7255785054341985e-05 0 0.0098283308428280761 -0.00010182160797465804 0 0.0098187670133170566 4.620214561072289e-05 0 0.0094760806773909641 6.8305106763040592e-05 0 0.0098283308428280761 -0.00010182160797465804 0 0.0094760806773909641 6.8305106763040592e-05 0 0.0095635194509585304 -9.7255785054341985e-05 0 0.0098187670133170566 4.620214561072289e-05 0 0.0094760806773909641 6.8305106763040592e-05 0 0.0096497152594372474 0.00027907112894374938 0 0.01027717052677767 -5.4915953828369422e-05 0 0.010019660735938586 -5.8581234428804033e-05 0 0.010088638188039799 9.1059282665126735e-05 0 0.0098187670133170566 4.620214561072289e-05 0 0.010088638188039799 9.1059282665126735e-05 0 0.0096497152594372474 0.00027907112894374938 0 0.010048301842375734 9.9055662080679296e-05 0 0.0096091561450618902 0.00033050869279130997 0 0.0094506070522764399 0.00033822130259317099 0 0.0096000584842343816 0.00040583949979831598 0 0.0097043880306600713 0.00036386858794350973 0 0.010019660735938586 -5.8581234428804033e-05 0 0.0098187670133170566 4.620214561072289e-05 0 0.010088638188039799 9.1059282665126735e-05 0 0.010019660735938586 -5.8581234428804033e-05 0 0.0098283308428280761 -0.00010182160797465804 0 0.0098187670133170566 4.620214561072289e-05 0 0.0036006536280054143 0.00085726311032542483 0 0.0037602747659043947 0.00055490976608410232 0 0.0039794258787940471 0.0011161519481245595 0 0.0033053197639783221 0.0012726375874295463 0 0.0036006536280054143 0.00085726311032542483 0 0.0039794258787940471 0.0011161519481245595 0 0.0052618498701486171 0.00025841624350614599 0 0.0070394494014309229 0.00076324801347479583 0 0.0096000584842343816 0.00040583949979831598 0 0.0097043880306600713 0.00036386858794350973 0 0.0096497152594372474 0.00027907112894374938 0 0.0033723301786111907 0.00049268787843082657 0 0.0036006536280054143 0.00085726311032542483 0 0.0037602747659043947 0.00055490976608410232 0 0.0033723301786111907 0.00049268787843082657 0 0.0037602747659043947 0.00055490976608410232 0 0.0036131872510843312 0.00025433041310595335 0 0.0041963836322676737 0.00063639328338125289 0 0.0044176462175235286 0.00023996646063592766 0 0.003887448476504103 0.00014751019919032729 0 0.0041963836322676737 0.00063639328338125289 0 0.0048975240474456909 0.00093743019067927115 0 0.0044176462175235286 0.00023996646063592766 0 0.0037602747659043947 0.00055490976608410232 0 0.0041963836322676737 0.00063639328338125289 0 0.0039794258787940471 0.0011161519481245595 0 0.0037602747659043947 0.00055490976608410232 0 0.0041963836322676737 0.00063639328338125289 0 0.003887448476504103 0.00014751019919032729 0 0.0094760806773909641 6.8305106763040592e-05 0 0.0096497152594372474 0.00027907112894374938 0 0.0087675875163947745 0.000441329379781473 0 0.0041963836322676737 0.00063639328338125289 0 0.0039794258787940471 0.0011161519481245595 0 0.0048975240474456909 0.00093743019067927115 0 0.0097043880306600713 0.00036386858794350973 0 0.0096497152594372474 0.00027907112894374938 0 0.0087675875163947745 0.000441329379781473 0 0.0070394494014309229 0.00076324801347479583 0 0.0068121220654666671 0.00062278941239660114 0 0.0048975240474456909 0.00093743019067927115 0 0.0050478805575237141 -2.1509221848798819e-05 0 0.0044176462175235286 0.00023996646063592766 0 0.0068121220654666671 0.00062278941239660114 0 0.0068003101330997026 2.5965267875742099e-07 0 0.0048975240474456909 0.00093743019067927115 0 0.0067973401033311022 2.4282288608573383e-06 0 0.0050478805575237141 -2.1509221848798819e-05 0 0.0087675875163947745 0.000441329379781473 0 0.0068029741578771443 2.1207095134591058e-06 0 0.0081020547308019598 -7.291176150764121e-07 0 0.0087675875163947745 0.000441329379781473 0 0.0081020547308019598 -7.291176150764121e-07 0 0.0091122304115337817 9.47935324494621e-06 0 0.0081020547308019598 -7.291176150764121e-07 0 0.0091122304115337817 9.47935324494621e-06 0 0.009487526572935048 -0.00013895259824346474 0 0.0094760806773909641 6.8305106763040592e-05 0 0.0087675875163947745 0.000441329379781473 0 0.0091122304115337817 9.47935324494621e-06 0 0.0094760806773909641 6.8305106763040592e-05 0 0.0091122304115337817 9.47935324494621e-06 0 0.0095635194509585304 -9.7255785054341985e-05 0 0.0091122304115337817 9.47935324494621e-06 0 0.009487526572935048 -0.00013895259824346474 0 0.0095635194509585304 -9.7255785054341985e-05 0 0.0098849644920962626 -0.0002137334432550109 0 0.009487526572935048 -0.00013895259824346474 0 0.0095635194509585304 -9.7255785054341985e-05 0 0.0094049250870962466 -2.1846381812006516e-07 0 0.0081020547308019598 -7.291176150764121e-07 0 0.009487526572935048 -0.00013895259824346474 0 0.0033621890306302321 -0.00024845576249660423 0 0.0041448045212549925 -2.9367591441751378e-07 0 0.0028181013567863118 -3.267935726294383e-07 0 0.0033621890306302321 -0.00024845576249660423 0 0.0042822710096705454 -0.00017356047025656111 0 0.0037111223067591986 -0.00029803585317943453 0 0.0033621890306302321 -0.00024845576249660423 0 0.0041448045212549925 -2.9367591441751378e-07 0 0.0042822710096705454 -0.00017356047025656111 0 0.0041448045212549925 -2.9367591441751378e-07 0 0.0054727017120675672 -8.802885776510592e-07 0 0.0042822710096705454 -0.00017356047025656111 0 0.0054727017120675672 -8.802885776510592e-07 0 0.0050478805575237141 -2.1509221848798819e-05 0 0.0042822710096705454 -0.00017356047025656111 0 0.0067973401033311022 2.4282288608573383e-06 0 0.0054727017120675672 -8.802885776510592e-07 0 0.0050478805575237141 -2.1509221848798819e-05 0 0.0050478805575237141 -2.1509221848798819e-05 0 0.0041668297540642376 -0.00013425339897905913 0 0.0044176462175235286 0.00023996646063592766 0 0.0042822710096705454 -0.00017356047025656111 0 0.0041668297540642376 -0.00013425339897905913 0 0.0037111223067591986 -0.00029803585317943453 0 0.0050478805575237141 -2.1509221848798819e-05 0 0.0042822710096705454 -0.00017356047025656111 0 0.0041668297540642376 -0.00013425339897905913 0 0.0041668297540642376 -0.00013425339897905913 0 0.003887448476504103 0.00014751019919032729 0 0.0037176171723390964 -0.00019535069188923496 0 0.0041668297540642376 -0.00013425339897905913 0 0.0037176171723390964 -0.00019535069188923496 0 0.0037111223067591986 -0.00029803585317943453 0 0.0041668297540642376 -0.00013425339897905913 0 0.0044176462175235286 0.00023996646063592766 0 0.003887448476504103 0.00014751019919032729 0 0.0036131872510843312 0.00025433041310595335 0 0.003887448476504103 0.00014751019919032729 0 0.0034510753388420148 -0.00013906292425085862 0 0.0037602747659043947 0.00055490976608410232 0 0.0036131872510843312 0.00025433041310595335 0 0.003887448476504103 0.00014751019919032729 0 0.003887448476504103 0.00014751019919032729 0 0.0037176171723390964 -0.00019535069188923496 0 0.0034510753388420148 -0.00013906292425085862 0 0.0033331728071735846 -0.00024943753308895067 0 0.0033377130590799301 -0.00023692600668599127 0 0.0037176171723390964 -0.00019535069188923496 0 0.0035012022888581103 -0.00032211286472191484 0 0.0034510753388420148 -0.00013906292425085862 0 0.0032112998298943107 -0.00020524845290939374 0 0.0031811321323805433 -0.00025284328483852233 0 0.003174071220725082 -7.9314030867072346e-05 0 0.0035012022888581103 -0.00032211286472191484 0 0.0034739008396243581 -0.00032752174376488681 0 0.003589834020820637 -0.00028537022166099621 0 0.0037176171723390964 -0.00019535069188923496 0 0.0035012022888581103 -0.00032211286472191484 0 0.003589834020820637 -0.00028537022166099621 0 0.0037176171723390964 -0.00019535069188923496 0 0.003589834020820637 -0.00028537022166099621 0 0.0037111223067591986 -0.00029803585317943453 0 0.0034739008396243581 -0.00032752174376488681 0 0.003589834020820637 -0.00028537022166099621 0 0.0037111223067591986 -0.00029803585317943453 0 0.0034739008396243581 -0.00032752174376488681 0 0.0033270031511363598 -0.00033188028845329505 0 0.0032613853085744476 -0.00035347389403715939 0 0.0033621890306302321 -0.00024845576249660423 0 0.0037111223067591986 -0.00029803585317943453 0 0.0033270031511363598 -0.00033188028845329505 0 0.0034739008396243581 -0.00032752174376488681 0 0.0037111223067591986 -0.00029803585317943453 0 0.0033270031511363598 -0.00033188028845329505 0 0.0033270031511363598 -0.00033188028845329505 0 0.0032613853085744476 -0.00035347389403715939 0 0.0031203501856683614 -0.000387148508188466 0 0.0032112998298943107 -0.00020524845290939374 0 0.0032613853085744476 -0.00035347389403715939 0 0.0031811321323805433 -0.00025284328483852233 0 0.0033331728071735846 -0.00024943753308895067 0 0.0033041252666284877 -0.00036364930039763321 0 0.0035012022888581103 -0.00032211286472191484 0 0.0034739008396243581 -0.00032752174376488681 0 0.0032613853085744476 -0.00035347389403715939 0 0.003172886284540296 -0.00042603392360151897 0 0.0031206865527300108 -0.00045929076803158289 0 0.0032613853085744476 -0.00035347389403715939 0 0.0031811321323805433 -0.00025284328483852233 0 0.0030995950538779027 -0.00045606554387664274 0 0.0031637341620767458 -0.00057133484166886498 0 0.0031656782443371186 -0.00056890083951126346 0 0.0030995950538779027 -0.00045606554387664274 0 0.0031637341620767458 -0.00057133484166886498 0 0.0031909642559149664 -0.00061709830314169681 0 0.0030995950538779027 -0.00045606554387664274 0 0.0031637341620767458 -0.00057133484166886498 0 0.0031656782443371186 -0.00056890083951126346 0 0.0031746091336398224 -0.00061701451025843906 0 0.0031637341620767458 -0.00057133484166886498 0 0.0031746091336398224 -0.00061701451025843906 0 0.0031909642559149664 -0.00061709830314169681 0 0.0031656782443371186 -0.00056890083951126346 0 0.0030961653217864596 -0.00073893321902420111 0 0.0032125392777860953 -0.00050774900247967374 0 0.0031656782443371186 -0.00056890083951126346 0 0.0031746091336398224 -0.00061701451025843906 0 0.0030961653217864596 -0.00073893321902420111 0 0.0031546189503004812 -0.00053768451894386311 0 0.0029841584174123033 -0.00047265392697834946 0 0.0030961653217864596 -0.00073893321902420111 0 0.0031546189503004812 -0.00053768451894386311 0 0.0031746091336398224 -0.00061701451025843906 0 0.0030961653217864596 -0.00073893321902420111 0 0.0031546189503004812 -0.00053768451894386311 0 0.0032047231019442734 -0.00055494484876809371 0 0.0031746091336398224 -0.00061701451025843906 0 0.0032047231019442734 -0.00055494484876809371 0 0.0031909642559149664 -0.00061709830314169681 0 0.0033114484219856546 -0.00041304914430466308 0 0.003172886284540296 -0.00042603392360151897 0 0.0033377130590799301 -0.00023692600668599127 0 0.0032047231019442734 -0.00055494484876809371 0 0.0031746091336398224 -0.00061701451025843906 0 0.0031909642559149664 -0.00061709830314169681 0 0.0031546189503004812 -0.00053768451894386311 0 0.0033114484219856546 -0.00041304914430466308 0 0.0031570872585460152 -0.00032975850052165991 0 0.0031546189503004812 -0.00053768451894386311 0 0.0032047231019442734 -0.00055494484876809371 0 0.0033114484219856546 -0.00041304914430466308 0 0.0033377130590799301 -0.00023692600668599127 0 0.0033023338641389984 -0.00014260993815119947 0 0.0033723301786111907 0.00049268787843082657 0 0.0036131872510843312 0.00025433041310595335 0 0.0034510753388420148 -0.00013906292425085862 0 0.0033509591353596069 -4.3840433803005481e-05 0 0.0033656407258084615 -0.0002563026320466241 0 0.0033176482084538062 -0.00010553189516368989 0 0.0033114484219856546 -0.00041304914430466308 0 0.0032841596034395176 -0.00015479820629229731 0 0.0031570872585460152 -0.00032975850052165991 0 0.0031335551802977478 0.00035390571723256978 0 0.0033377130590799301 -0.00023692600668599127 0 0.0031859873249869327 -5.6914625643063043e-05 0 0.0032841596034395176 -0.00015479820629229731 0 0.0031688464989628445 -0.00016805887112289518 0 0.0032841596034395176 -0.00015479820629229731 0 0.0031688464989628445 -0.00016805887112289518 0 0.0031570872585460152 -0.00032975850052165991 0 0.0031859873249869327 -5.6914625643063043e-05 0 0.0030456101958287055 -0.00014248094497264742 0 0.0031688464989628445 -0.00016805887112289518 0 0.0030456101958287055 -0.00014248094497264742 0 0.0031688464989628445 -0.00016805887112289518 0 0.0031570872585460152 -0.00032975850052165991 0 0.0030456101958287055 -0.00014248094497264742 0 0.0031570872585460152 -0.00032975850052165991 0 0.0029841584174123033 -0.00047265392697834946 0 0.0031546189503004812 -0.00053768451894386311 0 0.0031570872585460152 -0.00032975850052165991 0 0.0029841584174123033 -0.00047265392697834946 0 0.0029841584174123033 -0.00047265392697834946 0 0.0026706723904645897 -0.00047437181208202919 0 0.0027528247355911276 -0.00064262278619344306 0 0.0029841584174123033 -0.00047265392697834946 0 0.0027224780804371933 -0.00025184167612270192 0 0.0026706723904645897 -0.00047437181208202919 0 0.0030456101958287055 -0.00014248094497264742 0 0.0029841584174123033 -0.00047265392697834946 0 0.0027224780804371933 -0.00025184167612270192 0 0.0025217649514943734 1.9418893912869287e-05 0 0.0030456101958287055 -0.00014248094497264742 0 0.0027224780804371933 -0.00025184167612270192 0 0.0025217649514943734 1.9418893912869287e-05 0 0.0027224780804371933 -0.00025184167612270192 0 0.0022815774389460517 -0.00042795138910974945 0 0.0027224780804371933 -0.00025184167612270192 0 0.0026706723904645897 -0.00047437181208202919 0 0.0022815774389460517 -0.00042795138910974945 0 0.0026706723904645897 -0.00047437181208202919 0 0.0024184580665354582 -0.00068762533522484146 0 0.0022815774389460517 -0.00042795138910974945 0 0.0024184580665354582 -0.00068762533522484146 0 0.0027528247355911276 -0.00064262278619344306 0 0.0025358431017120891 -0.00097276105209997423 0 0.0026706723904645897 -0.00047437181208202919 0 0.0024184580665354582 -0.00068762533522484146 0 0.0027528247355911276 -0.00064262278619344306 0 0.0029841584174123033 -0.00047265392697834946 0 0.0027528247355911276 -0.00064262278619344306 0 0.0030961653217864596 -0.00073893321902420111 0 0.0030961653217864596 -0.00073893321902420111 0 0.0025358431017120891 -0.00097276105209997423 0 0.0028062782188666212 -0.0013732380998432926 0 0.0030961653217864596 -0.00073893321902420111 0 0.0033309682543298243 -0.00052356946662056932 0 0.0032125392777860953 -0.00050774900247967374 0 0.0033486824100251943 -0.00060252277530528945 0 0.0014473967013354531 -0.00086616430790000746 0 0.0027528247355911276 -0.00064262278619344306 0 0.0030961653217864596 -0.00073893321902420111 0 0.0025358431017120891 -0.00097276105209997423 0 0.0026840900983756645 -0.0013101916177649341 0 0.0014473967013354531 -0.00086616430790000746 0 0.0025358431017120891 -0.00097276105209997423 0 0.0021423369039288956 -0.0011351235123859616 0 0.0022118095845673263 -0.00092744603118782095 0 0.0024184580665354582 -0.00068762533522484146 0 0.0025358431017120891 -0.00097276105209997423 0 0.0022118095845673263 -0.00092744603118782095 0 0.0025358431017120891 -0.00097276105209997423 0 0.0022857888177352497 -0.0012807171378558799 0 0.0021423369039288956 -0.0011351235123859616 0 0.0025358431017120891 -0.00097276105209997423 0 0.0022857888177352497 -0.0012807171378558799 0 0.0026328906189321032 -0.0012087098431248736 0 0.0022857888177352497 -0.0012807171378558799 0 0.0026328906189321032 -0.0012087098431248736 0 0.0024108920183115155 -0.0015874865967948869 0 0.0014473967013354531 -0.00086616430790000746 0 0.00075120300630154662 -0.00027631989623011586 0 -0.001538554321154893 -0.00045365054578127016 0 -0.0015937294580183731 -0.00040838713503244136 0 -0.0016137644358722818 -0.00045920295538227885 0 0.0014473967013354531 -0.00086616430790000746 0 0.00033776177045620898 -0.0010781334173411903 0 -0.0015427020319367783 -0.00053277906718964419 0 -0.001538554321154893 -0.00045365054578127016 0 -0.0016137644358722818 -0.00045920295538227885 0 0.0024108920183115155 -0.0015874865967948869 0 0.002051078717399733 -0.0014902538331117506 0 0.0017709689402820917 -0.0017147711778106917 0 0.0022857888177352497 -0.0012807171378558799 0 0.0024108920183115155 -0.0015874865967948869 0 0.002051078717399733 -0.0014902538331117506 0 0.00033776177045620898 -0.0010781334173411903 0 0.00040500403379913454 -0.0012785530219433898 0 0.0024108920183115155 -0.0015874865967948869 0 0.0023411566896526887 -0.0021803019600564748 0 0.0017709689402820917 -0.0017147711778106917 0 -0.001538554321154893 -0.00045365054578127016 0 -0.0015441387421359493 -0.00038748866371334992 0 -0.0015937294580183731 -0.00040838713503244136 0 -0.0015885762532073014 -0.00033611086801398787 0 -0.0015441387421359493 -0.00038748866371334992 0 -0.0016170450002329295 -0.00034777960681771228 0 -0.0015441387421359493 -0.00038748866371334992 0 -0.0016170450002329295 -0.00034777960681771228 0 -0.0015937294580183731 -0.00040838713503244136 0 0.0032843365793941604 5.2577911554703751e-05 0 0.0031399383788684042 -0.0002961131243982406 0 0.0033033423643750058 -0.00029638014802338441 0 -0.0015937294580183731 -0.00040838713503244136 0 -0.0016724426747008643 -0.00038700355420608442 0 -0.0016137644358722818 -0.00045920295538227885 0 0.00080886017257219103 -0.00018445590690442423 0 0.00075120300630154662 -0.00027631989623011586 0 -0.0016706248837891899 -0.00030013201730289007 0 -0.0016170450002329295 -0.00034777960681771228 0 -0.0016724426747008643 -0.00038700355420608442 0 -0.0016170450002329295 -0.00034777960681771228 0 -0.0015937294580183731 -0.00040838713503244136 0 -0.0016724426747008643 -0.00038700355420608442 0 0.0007157052852640323 0.00020021998165406597 0 0.00080886017257219103 -0.00018445590690442423 0 -0.0016706248837891899 -0.00030013201730289007 0 -0.0017292104150037888 -0.00030972452577069238 0 -0.0016724426747008643 -0.00038700355420608442 0 0.0032843365793941604 5.2577911554703751e-05 0 0.0031399383788684042 -0.0002961131243982406 0 0.0029477713597469224 -0.00013108801362158673 0 0.0031399383788684042 -0.0002961131243982406 0 0.0033033423643750058 -0.00029638014802338441 0 0.0031564569941790947 -0.00045614613337516822 0 0.0033309682543298243 -0.00052356946662056932 0 0.0033033423643750058 -0.00029638014802338441 0 0.0032125392777860953 -0.00050774900247967374 0 0.0033033423643750058 -0.00029638014802338441 0 0.0032125392777860953 -0.00050774900247967374 0 0.0031564569941790947 -0.00045614613337516822 0 0.0031656782443371186 -0.00056890083951126346 0 0.0032125392777860953 -0.00050774900247967374 0 0.0031564569941790947 -0.00045614613337516822 0 0.0031399383788684042 -0.0002961131243982406 0 0.0031564569941790947 -0.00045614613337516822 0 0.0030995950538779027 -0.00045606554387664274 0 0.0031656782443371186 -0.00056890083951126346 0 0.0031564569941790947 -0.00045614613337516822 0 0.0030995950538779027 -0.00045606554387664274 0 0.0030995950538779027 -0.00045606554387664274 0 0.0031203501856683614 -0.000387148508188466 0 0.0029561592763601213 -0.00033610854943690629 0 0.0032613853085744476 -0.00035347389403715939 0 0.0030995950538779027 -0.00045606554387664274 0 0.0031203501856683614 -0.000387148508188466 0 0.0031203501856683614 -0.000387148508188466 0 0.0028541481268898935 -0.00030897946350959743 0 0.0029561592763601213 -0.00033610854943690629 0 0.0033270031511363598 -0.00033188028845329505 0 0.0031203501856683614 -0.000387148508188466 0 0.0028541481268898935 -0.00030897946350959743 0 0.0028541481268898935 -0.00030897946350959743 0 0.0029561592763601213 -0.00033610854943690629 0 0.0025714561573010213 -0.00021104907686240646 0 0.0031399383788684042 -0.0002961131243982406 0 0.0029561592763601213 -0.00033610854943690629 0 0.0029477713597469224 -0.00013108801362158673 0 0.0029561592763601213 -0.00033610854943690629 0 0.0029477713597469224 -0.00013108801362158673 0 0.0025714561573010213 -0.00021104907686240646 0 0.0031399383788684042 -0.0002961131243982406 0 0.0030995950538779027 -0.00045606554387664274 0 0.0029561592763601213 -0.00033610854943690629 0 0.0032843365793941604 5.2577911554703751e-05 0 0.0029477713597469224 -0.00013108801362158673 0 0.0026712848774538278 0.00026703366099050079 0 0.0030657548656068266 0.00060366178085820255 0 0.0032843365793941604 5.2577911554703751e-05 0 0.0026712848774538278 0.00026703366099050079 0 0.0029477713597469224 -0.00013108801362158673 0 0.0026712848774538278 0.00026703366099050079 0 0.0025714561573010213 -0.00021104907686240646 0 0.0026712848774538278 0.00026703366099050079 0 0.0025714561573010213 -0.00021104907686240646 0 0.0018265405196725643 -6.8065016673068165e-05 0 0.0025714561573010213 -0.00021104907686240646 0 0.0018265405196725643 -6.8065016673068165e-05 0 0.0024054226157811495 -0.00017437724946713272 0 0.0019060061651248144 0.00093521120129097643 0 0.0026712848774538278 0.00026703366099050079 0 0.0018265405196725643 -6.8065016673068165e-05 0 0.0019060061651248144 0.00093521120129097643 0 0.0018265405196725643 -6.8065016673068165e-05 0 0.00016584696226514526 2.1103153836570989e-06 0 0.0018265405196725643 -6.8065016673068165e-05 0 0.001489989327209293 -9.2595826710248e-07 0 0.0024054226157811495 -0.00017437724946713272 0 0.0018265405196725643 -6.8065016673068165e-05 0 0.00016584696226514526 2.1103153836570989e-06 0 0.001489989327209293 -9.2595826710248e-07 0 0.001489989327209293 -9.2595826710248e-07 0 0.0024054226157811495 -0.00017437724946713272 0 0.0028181013567863118 -3.267935726294383e-07 0 0.0028541481268898935 -0.00030897946350959743 0 0.0025714561573010213 -0.00021104907686240646 0 0.0024054226157811495 -0.00017437724946713272 0 0.0033621890306302321 -0.00024845576249660423 0 0.0033270031511363598 -0.00033188028845329505 0 0.0028541481268898935 -0.00030897946350959743 0 0.0033621890306302321 -0.00024845576249660423 0 0.0028541481268898935 -0.00030897946350959743 0 0.0024054226157811495 -0.00017437724946713272 0 0.0033621890306302321 -0.00024845576249660423 0 0.0024054226157811495 -0.00017437724946713272 0 0.0028181013567863118 -3.267935726294383e-07 0 0.0010556046059458514 -0.00083067682990859868 0 0.00083029936502623542 -0.0011425871921624906 0 0.00084046477911517252 -0.00077851446887843446 0 0.0010556046059458514 -0.00083067682990859868 0 0.0010838657439843601 -0.0010586325689054209 0 0.00083029936502623542 -0.0011425871921624906 0 0.0010556046059458514 -0.00083067682990859868 0 0.0010838657439843601 -0.0010586325689054209 0 0.0012784599510920725 -0.00071958770238843327 0 0.0010838657439843601 -0.0010586325689054209 0 0.0012784599510920725 -0.00071958770238843327 0 0.0013143011008791136 -0.0010228048417943447 0 0.0010838657439843601 -0.0010586325689054209 0 0.0013143011008791136 -0.0010228048417943447 0 0.0010622106070922956 -0.0013924477746761693 0 0.0010838657439843601 -0.0010586325689054209 0 0.00083029936502623542 -0.0011425871921624906 0 0.0010622106070922956 -0.0013924477746761693 0 0.00083029936502623542 -0.0011425871921624906 0 0.00046589675986870288 -0.00086994980642130274 0 0.00050787285937948026 -0.001426698127393933 0 0.00046589675986870288 -0.00086994980642130274 0 0.00016674064111363941 -0.0014825038937484141 0 0.00050787285937948026 -0.001426698127393933 0 0.00083029936502623542 -0.0011425871921624906 0 0.00046589675986870288 -0.00086994980642130274 0 0.00084046477911517252 -0.00077851446887843446 0 0.00046589675986870288 -0.00086994980642130274 0 0.00084046477911517252 -0.00077851446887843446 0 0.00075746383235762087 -0.0005596480605025595 0 0.00084046477911517252 -0.00077851446887843446 0 0.00075746383235762087 -0.0005596480605025595 0 0.0011359222044022245 -0.00049102451318765031 0 0.00075746383235762087 -0.0005596480605025595 0 0.00061777376550239439 -0.00038766307249704288 0 0.00040096878187109058 -0.00066803099826276402 0 0.00046589675986870288 -0.00086994980642130274 0 0.00075746383235762087 -0.0005596480605025595 0 0.00040096878187109058 -0.00066803099826276402 0 0.00093300592145261082 -0.00017161045140184436 0 0.00075746383235762087 -0.0005596480605025595 0 0.00061777376550239439 -0.00038766307249704288 0 0.00093300592145261082 -0.00017161045140184436 0 0.00075746383235762087 -0.0005596480605025595 0 0.0011359222044022245 -0.00049102451318765031 0 0.0012702965942133486 -6.2425407417557847e-05 0 0.00093300592145261082 -0.00017161045140184436 0 0.0011359222044022245 -0.00049102451318765031 0 0.0010556046059458514 -0.00083067682990859868 0 0.00084046477911517252 -0.00077851446887843446 0 0.0011359222044022245 -0.00049102451318765031 0 0.0011359222044022245 -0.00049102451318765031 0 0.0012784599510920725 -0.00071958770238843327 0 0.0014471894666232236 -0.0004796648053514435 0 0.0010556046059458514 -0.00083067682990859868 0 0.0011359222044022245 -0.00049102451318765031 0 0.0012784599510920725 -0.00071958770238843327 0 0.0014794994951940566 -0.00018436441599655156 0 0.0012702965942133486 -6.2425407417557847e-05 0 0.0011359222044022245 -0.00049102451318765031 0 0.0014794994951940566 -0.00018436441599655156 0 0.0011359222044022245 -0.00049102451318765031 0 0.0014471894666232236 -0.0004796648053514435 0 0.0018495954773188848 -0.00019482736060322153 0 0.0014471894666232236 -0.0004796648053514435 0 0.0016535570383731102 -0.00049926697991858416 0 0.0014794994951940566 -0.00018436441599655156 0 0.0018495954773188848 -0.00019482736060322153 0 0.0014471894666232236 -0.0004796648053514435 0 0.0018495954773188848 -0.00019482736060322153 0 0.0016535570383731102 -0.00049926697991858416 0 0.0023386411460024886 -0.00031499813884484982 0 0.0016862643453589331 -0.0004808745901722835 0 0.0021483521260139168 -0.00027087520472422776 0 0.001621829403677896 -0.00068378335665329304 0 0.0016535570383731102 -0.00049926697991858416 0 0.0018078263229217889 -0.00058354376955545252 0 0.0016535570383731102 -0.00049926697991858416 0 0.001960199110232539 -0.00022674347627438992 0 0.0018078263229217889 -0.00058354376955545252 0 0.001621829403677896 -0.00068378335665329304 0 0.0014689995965081061 -0.00071324807161722169 0 0.0016535570383731102 -0.00049926697991858416 0 0.0012784599510920725 -0.00071958770238843327 0 0.0014689995965081061 -0.00071324807161722169 0 0.0014471894666232236 -0.0004796648053514435 0 0.0014689995965081061 -0.00071324807161722169 0 0.0014471894666232236 -0.0004796648053514435 0 0.0016535570383731102 -0.00049926697991858416 0 0.0026826404007114337 -2.7920321222386259e-05 0 0.0021483521260139168 -0.00027087520472422776 0 0.0025217649514943734 1.9418893912869287e-05 0 0.001960199110232539 -0.00022674347627438992 0 0.0022815774389460517 -0.00042795138910974945 0 0.001960199110232539 -0.00022674347627438992 0 0.0018078263229217889 -0.00058354376955545252 0 0.0020172966834699508 -0.00050005345150429465 0 0.0018078263229217889 -0.00058354376955545252 0 0.0020172966834699508 -0.00050005345150429465 0 0.0020322289699046679 -0.00074689112744666007 0 0.001960199110232539 -0.00022674347627438992 0 0.0020172966834699508 -0.00050005345150429465 0 0.0022815774389460517 -0.00042795138910974945 0 0.0020172966834699508 -0.00050005345150429465 0 0.0022815774389460517 -0.00042795138910974945 0 0.0020322289699046679 -0.00074689112744666007 0 0.0024184580665354582 -0.00068762533522484146 0 0.0022815774389460517 -0.00042795138910974945 0 0.0020322289699046679 -0.00074689112744666007 0 0.0024184580665354582 -0.00068762533522484146 0 0.0020322289699046679 -0.00074689112744666007 0 0.0022118095845673263 -0.00092744603118782095 0 0.0018078263229217889 -0.00058354376955545252 0 0.0020322289699046679 -0.00074689112744666007 0 0.0017140297610703744 -0.0009252467670365389 0 0.0020322289699046679 -0.00074689112744666007 0 0.0019140452836201188 -0.0010596577110743033 0 0.0017140297610703744 -0.0009252467670365389 0 0.0016785347730038677 -0.0011170227731596466 0 0.0019140452836201188 -0.0010596577110743033 0 0.0017140297610703744 -0.0009252467670365389 0 0.0016785347730038677 -0.0011170227731596466 0 0.0019140452836201188 -0.0010596577110743033 0 0.0017077059327272469 -0.0012577564998394511 0 0.0016785347730038677 -0.0011170227731596466 0 0.0015651984075705908 -0.0012417678222880644 0 0.0017077059327272469 -0.0012577564998394511 0 0.0020322289699046679 -0.00074689112744666007 0 0.0019140452836201188 -0.0010596577110743033 0 0.0022118095845673263 -0.00092744603118782095 0 0.0019140452836201188 -0.0010596577110743033 0 0.0021423369039288956 -0.0011351235123859616 0 0.0022118095845673263 -0.00092744603118782095 0 0.0012784599510920725 -0.00071958770238843327 0 0.0014689995965081061 -0.00071324807161722169 0 0.0013143011008791136 -0.0010228048417943447 0 0.0014689995965081061 -0.00071324807161722169 0 0.0014851671543491792 -0.00090909890916523095 0 0.0013143011008791136 -0.0010228048417943447 0 0.001621829403677896 -0.00068378335665329304 0 0.0014689995965081061 -0.00071324807161722169 0 0.0014851671543491792 -0.00090909890916523095 0 0.001621829403677896 -0.00068378335665329304 0 0.0014851671543491792 -0.00090909890916523095 0 0.0017140297610703744 -0.0009252467670365389 0 0.001621829403677896 -0.00068378335665329304 0 0.0018078263229217889 -0.00058354376955545252 0 0.0017140297610703744 -0.0009252467670365389 0 0.0014851671543491792 -0.00090909890916523095 0 0.0017140297610703744 -0.0009252467670365389 0 0.0015162003210152822 -0.0010966540617694867 0 0.0016785347730038677 -0.0011170227731596466 0 0.0017140297610703744 -0.0009252467670365389 0 0.0015162003210152822 -0.0010966540617694867 0 0.0016785347730038677 -0.0011170227731596466 0 0.0015162003210152822 -0.0010966540617694867 0 0.0015651984075705908 -0.0012417678222880644 0 0.0015162003210152822 -0.0010966540617694867 0 0.001414937422377155 -0.0013484967112659956 0 0.0015651984075705908 -0.0012417678222880644 0 0.0015162003210152822 -0.0010966540617694867 0 0.0013143011008791136 -0.0010228048417943447 0 0.0013173409579897604 -0.0012679640009591985 0 0.0015162003210152822 -0.0010966540617694867 0 0.0013173409579897604 -0.0012679640009591985 0 0.001414937422377155 -0.0013484967112659956 0 0.0014851671543491792 -0.00090909890916523095 0 0.0015162003210152822 -0.0010966540617694867 0 0.0013143011008791136 -0.0010228048417943447 0 0.0013143011008791136 -0.0010228048417943447 0 0.0013173409579897604 -0.0012679640009591985 0 0.0010622106070922956 -0.0013924477746761693 0 0.0012587470868682797 -0.0014846108009957215 0 0.0013173409579897604 -0.0012679640009591985 0 0.0010622106070922956 -0.0013924477746761693 0 0.0012587470868682797 -0.0014846108009957215 0 0.001414937422377155 -0.0013484967112659956 0 0.0013721764004781289 -0.0015511783886479696 0 0.0012587470868682797 -0.0014846108009957215 0 0.0013173409579897604 -0.0012679640009591985 0 0.001414937422377155 -0.0013484967112659956 0 0.001414937422377155 -0.0013484967112659956 0 0.0015651984075705908 -0.0012417678222880644 0 0.001520596028175407 -0.0014032207448180488 0 0.0015651984075705908 -0.0012417678222880644 0 0.001520596028175407 -0.0014032207448180488 0 0.0017077059327272469 -0.0012577564998394511 0 0.001520596028175407 -0.0014032207448180488 0 0.0014638539110531535 -0.0015580384663501244 0 0.0016283326538350893 -0.0014517216411600138 0 0.001520596028175407 -0.0014032207448180488 0 0.0013721764004781289 -0.0015511783886479696 0 0.0014638539110531535 -0.0015580384663501244 0 0.001414937422377155 -0.0013484967112659956 0 0.001520596028175407 -0.0014032207448180488 0 0.0013721764004781289 -0.0015511783886479696 0 0.0013721764004781289 -0.0015511783886479696 0 0.0013323265308136775 -0.0017654374246783766 0 0.0012518633282549599 -0.0016827482233454684 0 0.0013721764004781289 -0.0015511783886479696 0 0.0014638539110531535 -0.0015580384663501244 0 0.0013323265308136775 -0.0017654374246783766 0 0.0014638539110531535 -0.0015580384663501244 0 0.0013323265308136775 -0.0017654374246783766 0 0.0014264784732597867 -0.0017049772925001191 0 0.0013323265308136775 -0.0017654374246783766 0 0.0014264784732597867 -0.0017049772925001191 0 0.0013056071927803326 -0.0018861597518156539 0 0.0013323265308136775 -0.0017654374246783766 0 0.0012518633282549599 -0.0016827482233454684 0 0.0012422993339248755 -0.0018406040378438383 0 0.0012518633282549599 -0.0016827482233454684 0 0.001150612863427454 -0.0018048777394606399 0 0.0012422993339248755 -0.0018406040378438383 0 0.0012518633282549599 -0.0016827482233454684 0 0.001150612863427454 -0.0018048777394606399 0 0.0011154033239135865 -0.0016520264641369045 0 0.0012587470868682797 -0.0014846108009957215 0 0.0012518633282549599 -0.0016827482233454684 0 0.0011154033239135865 -0.0016520264641369045 0 0.0012587470868682797 -0.0014846108009957215 0 0.0013721764004781289 -0.0015511783886479696 0 0.0012518633282549599 -0.0016827482233454684 0 0.0022857888177352497 -0.0012807171378558799 0 0.0021423369039288956 -0.0011351235123859616 0 0.0019210142922623987 -0.0013221753666692369 0 0.0022857888177352497 -0.0012807171378558799 0 0.0019210142922623987 -0.0013221753666692369 0 0.002051078717399733 -0.0014902538331117506 0 0.0019140452836201188 -0.0010596577110743033 0 0.0021423369039288956 -0.0011351235123859616 0 0.0019210142922623987 -0.0013221753666692369 0 0.0019140452836201188 -0.0010596577110743033 0 0.0019210142922623987 -0.0013221753666692369 0 0.0017077059327272469 -0.0012577564998394511 0 0.0019210142922623987 -0.0013221753666692369 0 0.0017077059327272469 -0.0012577564998394511 0 0.0016283326538350893 -0.0014517216411600138 0 0.001520596028175407 -0.0014032207448180488 0 0.0017077059327272469 -0.0012577564998394511 0 0.0016283326538350893 -0.0014517216411600138 0 0.0016590621078028025 -0.001587285832140192 0 0.0017709689402820917 -0.0017147711778106917 0 0.0013171060897865954 -0.0018844479767562616 0 0.0016283326538350893 -0.0014517216411600138 0 0.0014264784732597867 -0.0017049772925001191 0 0.0016590621078028025 -0.001587285832140192 0 0.0014638539110531535 -0.0015580384663501244 0 0.0016283326538350893 -0.0014517216411600138 0 0.0014264784732597867 -0.0017049772925001191 0 0.0014264784732597867 -0.0017049772925001191 0 0.0016590621078028025 -0.001587285832140192 0 0.0013171060897865954 -0.0018844479767562616 0 0.0019210142922623987 -0.0013221753666692369 0 0.0016283326538350893 -0.0014517216411600138 0 0.0016590621078028025 -0.001587285832140192 0 0.0016590621078028025 -0.001587285832140192 0 0.002051078717399733 -0.0014902538331117506 0 0.0017709689402820917 -0.0017147711778106917 0 0.0019210142922623987 -0.0013221753666692369 0 0.0016590621078028025 -0.001587285832140192 0 0.002051078717399733 -0.0014902538331117506 0 0.0023411566896526887 -0.0021803019600564748 0 0.0017709689402820917 -0.0017147711778106917 0 0.0010058305621273276 -0.0020906363123364257 0 0.0017709689402820917 -0.0017147711778106917 0 0.0013171060897865954 -0.0018844479767562616 0 0.0010058305621273276 -0.0020906363123364257 0 0.0014264784732597867 -0.0017049772925001191 0 0.0013171060897865954 -0.0018844479767562616 0 0.0013056071927803326 -0.0018861597518156539 0 0.0013171060897865954 -0.0018844479767562616 0 0.0012041249673326413 -0.0019949624767220918 0 0.0010058305621273276 -0.0020906363123364257 0 0.0013171060897865954 -0.0018844479767562616 0 0.0012041249673326413 -0.0019949624767220918 0 0.0012683573069010223 -0.0019550720796674696 0 0.00077472027041947805 -0.0020449212735757778 0 -0.0012748681509886593 -0.0021204694012870542 0 -0.0014267043708524039 -0.0035600636046119087 0 0.0010058305621273276 -0.0020906363123364257 0 -0.0041025972150612105 -0.00219759171720734 0 0.0015446106147763833 -0.0050409322826664715 0 -0.0014267043708524039 -0.0035600636046119087 0 0.0010058305621273276 -0.0020906363123364257 0 0.0012041249673326413 -0.0019949624767220918 0 0.0010058305621273276 -0.0020906363123364257 0 0.0013136482426006715 -0.001948187195774863 0 -0.0015533984054007142 -0.00034450421131331221 0 -0.0015885762532073014 -0.00033611086801398787 0 -0.0015441387421359493 -0.00038748866371334992 0 8.4738205408981464e-05 -0.003047909005495049 0 0.00040500403379913454 -0.0012785530219433898 0 0.0015446106147763833 -0.0050409322826664715 0 0.0023411566896526887 -0.0021803019600564748 0 0.0010058305621273276 -0.0020906363123364257 0 0.0011395598244337548 -0.0019277075831743119 0 0.001041301683847309 -0.0021628159408115153 0 0.00097819518085643384 -0.0019198221049977456 0 0.0012431281430755907 -0.0019467654810607223 0 0.0011395598244337548 -0.0019277075831743119 0 0.001041301683847309 -0.0021628159408115153 0 0.001150612863427454 -0.0018048777394606399 0 0.0011395598244337548 -0.0019277075831743119 0 0.00097819518085643384 -0.0019198221049977456 0 0.001150612863427454 -0.0018048777394606399 0 0.0011395598244337548 -0.0019277075831743119 0 0.0012422993339248755 -0.0018406040378438383 0 0.0012431281430755907 -0.0019467654810607223 0 0.0011395598244337548 -0.0019277075831743119 0 0.0012422993339248755 -0.0018406040378438383 0 0.0013323265308136775 -0.0017654374246783766 0 0.0012826663583362788 -0.0018808003798183161 0 0.0013056071927803326 -0.0018861597518156539 0 0.0012431281430755907 -0.0019467654810607223 0 0.0012422993339248755 -0.0018406040378438383 0 0.0012826663583362788 -0.0018808003798183161 0 0.0013323265308136775 -0.0017654374246783766 0 0.0012422993339248755 -0.0018406040378438383 0 0.0012826663583362788 -0.0018808003798183161 0 0.0012826663583362788 -0.0018808003798183161 0 0.0013056071927803326 -0.0018861597518156539 0 0.001287839169156633 -0.0019364656945042814 0 0.0013171060897865954 -0.0018844479767562616 0 0.0013056071927803326 -0.0018861597518156539 0 0.0012683573069010223 -0.0019550720796674696 0 0.0012683573069010223 -0.0019550720796674696 0 0.001287839169156633 -0.0019364656945042814 0 0.0013136482426006715 -0.001948187195774863 0 0.0012041249673326413 -0.0019949624767220918 0 0.0012683573069010223 -0.0019550720796674696 0 0.0013136482426006715 -0.001948187195774863 0 0.0013056071927803326 -0.0018861597518156539 0 0.0012683573069010223 -0.0019550720796674696 0 0.001287839169156633 -0.0019364656945042814 0 0.0012431281430755907 -0.0019467654810607223 0 0.001287839169156633 -0.0019364656945042814 0 0.0013136482426006715 -0.001948187195774863 0 0.0012431281430755907 -0.0019467654810607223 0 0.0012826663583362788 -0.0018808003798183161 0 0.001287839169156633 -0.0019364656945042814 0 -0.0019767703895070426 -0.0056558594101543663 0 -0.0014267043708524039 -0.0035600636046119087 0 -0.0041720818352417085 -0.0022551838001746774 0 -0.0034393763348321334 -0.0038653852911993908 0 -0.0042324592997758839 -0.0021630479772269257 0 -0.0014267043708524039 -0.0035600636046119087 0 -0.0041025972150612105 -0.00219759171720734 0 -0.0041720818352417085 -0.0022551838001746774 0 0.0012431281430755907 -0.0019467654810607223 0 0.0013136482426006715 -0.001948187195774863 0 0.001041301683847309 -0.0021628159408115153 0 -0.0041025972150612105 -0.00219759171720734 0 -0.0041720818352417085 -0.0022551838001746774 0 -0.003668527252852747 -0.0024002179064191768 0 -0.0012748681509886593 -0.0021204694012870542 0 -0.0013147265874134664 -0.0022726876321189958 0 -0.0042585752601815435 -0.0014766198544850916 0 -0.0041720818352417085 -0.0022551838001746774 0 -0.003668527252852747 -0.0024002179064191768 0 -0.0013147265874134664 -0.0022726876321189958 0 -0.0006995604452194118 -0.0023421148802249179 0 -0.0030748655961125985 -0.0013436061005935218 0 -0.003668527252852747 -0.0024002179064191768 0 -0.0020113151659412578 -0.0025052143051768542 0 0.001041301683847309 -0.0021628159408115153 0 0.0005621453729197038 -0.0022467799914909661 0 0.00097819518085643384 -0.0019198221049977456 0 0.0005621453729197038 -0.0022467799914909661 0 0.00072941255859660195 -0.0019458473033856268 0 0.00097819518085643384 -0.0019198221049977456 0 0.0005621453729197038 -0.0022467799914909661 0 0.00072941255859660195 -0.0019458473033856268 0 0.00030135181552748164 -0.002155845208908329 0 0.00097819518085643384 -0.0019198221049977456 0 0.0011154033239135865 -0.0016520264641369045 0 0.00092917423506180602 -0.0016927628457419704 0 0.001150612863427454 -0.0018048777394606399 0 0.00097819518085643384 -0.0019198221049977456 0 0.0011154033239135865 -0.0016520264641369045 0 0.00072941255859660195 -0.0019458473033856268 0 0.00097819518085643384 -0.0019198221049977456 0 0.00092917423506180602 -0.0016927628457419704 0 0.00072941255859660195 -0.0019458473033856268 0 0.00074093347905239502 -0.0016259769039350337 0 0.00030135181552748164 -0.002155845208908329 0 0.00072941255859660195 -0.0019458473033856268 0 0.00092917423506180602 -0.0016927628457419704 0 0.00074093347905239502 -0.0016259769039350337 0 0.00083029936502623542 -0.0011425871921624906 0 0.00074093347905239502 -0.0016259769039350337 0 0.0010622106070922956 -0.0013924477746761693 0 0.00092917423506180602 -0.0016927628457419704 0 0.00074093347905239502 -0.0016259769039350337 0 0.0010622106070922956 -0.0013924477746761693 0 0.0012587470868682797 -0.0014846108009957215 0 0.0011154033239135865 -0.0016520264641369045 0 0.0010622106070922956 -0.0013924477746761693 0 0.0011154033239135865 -0.0016520264641369045 0 0.00092917423506180602 -0.0016927628457419704 0 0.0010622106070922956 -0.0013924477746761693 0 0.00016674064111363941 -0.0014825038937484141 0 0.00050787285937948026 -0.001426698127393933 0 0.00030135181552748164 -0.002155845208908329 0 0.00083029936502623542 -0.0011425871921624906 0 0.00074093347905239502 -0.0016259769039350337 0 0.00050787285937948026 -0.001426698127393933 0 0.00074093347905239502 -0.0016259769039350337 0 0.00050787285937948026 -0.001426698127393933 0 0.00030135181552748164 -0.002155845208908329 0 0.00034254613555774021 -0.002413797742481065 0 0.00034012679860814798 -0.0021247919881514578 0 0.00067935260766756008 -0.0030352466764848708 0 0.00030135181552748164 -0.002155845208908329 0 0.00097887023276527901 -0.0025190816184628099 0 0.00030135181552748164 -0.002155845208908329 0 0.00055998601940596994 -0.0022092806088924773 0 0.00097887023276527901 -0.0025190816184628099 0 0.00030135181552748164 -0.002155845208908329 0 2.8297295565676324e-05 -0.0021810987688161902 0 0.00055998601940596994 -0.0022092806088924773 0 0.0005621453729197038 -0.0022467799914909661 0 0.00030135181552748164 -0.002155845208908329 0 2.8297295565676324e-05 -0.0021810987688161902 0 -0.0006995604452194118 -0.0023421148802249179 0 -2.7626379970929618e-05 -0.0022170770371956173 0 0.00065986284883225318 -0.0018619771075736103 0 2.8297295565676324e-05 -0.0021810987688161902 0 0.00055998601940596994 -0.0022092806088924773 0 0.00065986284883225318 -0.0018619771075736103 0 0.00055998601940596994 -0.0022092806088924773 0 0.0010453568822995278 -0.0021212690392566958 0 0.0016063433557818722 -0.0017541105792053457 0 0.0010453568822995278 -0.0021212690392566958 0 0.001593279859193325 -0.0023184884227846611 0 0.0010453568822995278 -0.0021212690392566958 0 0.001593279859193325 -0.0023184884227846611 0 0.00097887023276527901 -0.0025190816184628099 0 0.001593279859193325 -0.0023184884227846611 0 0.0016681411583813191 -0.0027197302695387941 0 0.00097887023276527901 -0.0025190816184628099 0 0.00055998601940596994 -0.0022092806088924773 0 0.0010453568822995278 -0.0021212690392566958 0 0.00097887023276527901 -0.0025190816184628099 0 0.0021543918093936839 -0.0023229201664942316 0 0.0016063433557818722 -0.0017541105792053457 0 0.001593279859193325 -0.0023184884227846611 0 0.0021543918093936839 -0.0023229201664942316 0 0.001593279859193325 -0.0023184884227846611 0 0.0020976798080102042 -0.0026437663380964147 0 0.001593279859193325 -0.0023184884227846611 0 0.0020976798080102042 -0.0026437663380964147 0 0.0016681411583813191 -0.0027197302695387941 0 0.0020976798080102042 -0.0026437663380964147 0 0.0020575302700769991 -0.0028322803440694985 0 0.0016681411583813191 -0.0027197302695387941 0 0.0020575302700769991 -0.0028322803440694985 0 0.0016681411583813191 -0.0027197302695387941 0 0.0018080382546699974 -0.0031116067158079548 0 0.0016681411583813191 -0.0027197302695387941 0 0.0018080382546699974 -0.0031116067158079548 0 0.001261572200062898 -0.0031275113229392499 0 0.0020575302700769991 -0.0028322803440694985 0 0.0018080382546699974 -0.0031116067158079548 0 0.0022296277352592576 -0.0030400104760560788 0 0.0016681411583813191 -0.0027197302695387941 0 0.00097887023276527901 -0.0025190816184628099 0 0.001261572200062898 -0.0031275113229392499 0 0.00067935260766756008 -0.0030352466764848708 0 0.00097887023276527901 -0.0025190816184628099 0 0.001261572200062898 -0.0031275113229392499 0 0.00067935260766756008 -0.0030352466764848708 0 0.001261572200062898 -0.0031275113229392499 0 0.0010935661643954977 -0.0036540502773508864 0 0.00046589675986870288 -0.00086994980642130274 0 0.00016674064111363941 -0.0014825038937484141 0 -0.00010067050028855864 -0.00093880993566446266 0 0.00034254613555774021 -0.002413797742481065 0 0.001181595590333473 -0.0014592726676158788 0 0.00046589675986870288 -0.00086994980642130274 0 0.00032459896290618968 -0.0008296002055455593 0 0.00040096878187109058 -0.00066803099826276402 0 3.2177893110668768e-05 -0.00078731069594315157 0 0.001181595590333473 -0.0014592726676158788 0 0.0029829399140946238 -0.00071685602919043879 0 0.0037702995336636731 -0.00062498357597144053 0 0.0033862910662247427 -0.0012832968290918342 0 0.00032459896290618968 -0.0008296002055455593 0 0.00040096878187109058 -0.00066803099826276402 0 0.00023599868603057112 -0.00067580316146001397 0 0.001181595590333473 -0.0014592726676158788 0 0.0025301254902571103 -0.0021631603372856884 0 0.001181595590333473 -0.0014592726676158788 0 0.0016018673638597777 -0.0006876982994759572 0 0.001261572200062898 -0.0031275113229392499 0 0.0010935661643954977 -0.0036540502773508864 0 0.0015749790221008546 -0.0036017883103594602 0 0.004853349908415819 -0.0019149937789506046 0 0.0025301254902571103 -0.0021631603372856884 0 0.0018080382546699974 -0.0031116067158079548 0 0.0020563430032220068 -0.0035457648520308897 0 0.0015749790221008546 -0.0036017883103594602 0 0.0018080382546699974 -0.0031116067158079548 0 0.001261572200062898 -0.0031275113229392499 0 0.0015749790221008546 -0.0036017883103594602 0 0.0018080382546699974 -0.0031116067158079548 0 0.0020563430032220068 -0.0035457648520308897 0 0.0022296277352592576 -0.0030400104760560788 0 0.0087340195680736393 -0.0031167592735947551 0 0.0096822931520271476 -0.001464518893843391 0 0.0078827917351531242 -0.0018654688151181907 0 0.004853349908415819 -0.0019149937789506046 0 0.0071012709803639981 -0.001225044674555073 0 0.0037702995336636731 -0.00062498357597144053 0 0.0041604958315440204 -0.0011891788377014388 0 0.0033862910662247427 -0.0012832968290918342 0 0.0045408587126863544 -0.00054237721993456961 0 0.0037702995336636731 -0.00062498357597144053 0 0.0041604958315440204 -0.0011891788377014388 0 0.0096822931520271476 -0.001464518893843391 0 0.0095220029191482869 -0.00026104199178703238 0 0.010500441049686046 -9.5439461022708757e-05 0 0.0071012709803639981 -0.001225044674555073 0 0.0062335852250930109 -0.00047993616802855275 0 0.0041604958315440204 -0.0011891788377014388 0 0.0037851343102710119 -0.001836532284913348 0 0.0033862910662247427 -0.0012832968290918342 0 0.0096822931520271476 -0.001464518893843391 0 0.0083109148345178047 -0.00059164027833712206 0 0.0078827917351531242 -0.0018654688151181907 0 0.0096822931520271476 -0.001464518893843391 0 0.0095220029191482869 -0.00026104199178703238 0 0.0083109148345178047 -0.00059164027833712206 0 0.0095220029191482869 -0.00026104199178703238 0 0.0083109148345178047 -0.00059164027833712206 0 0.0089967146365856412 0.00054008971150925039 0 0.0083109148345178047 -0.00059164027833712206 0 0.0089967146365856412 0.00054008971150925039 0 0.007822182004220234 0.00041931435972558494 0 0.0095220029191482869 -0.00026104199178703238 0 0.0089967146365856412 0.00054008971150925039 0 0.010088179208984504 0.00064629151307926105 0 0.0089967146365856412 0.00054008971150925039 0 0.007822182004220234 0.00041931435972558494 0 0.0083331090390515641 0.0012948451070050506 0 0.010577723389540649 -0.00013074519116106138 0 0.010088179208984504 0.00064629151307926105 0 0.011683306237602747 0.0014183922444549754 0 0.0062335852250930109 -0.00047993616802855275 0 0.0096666458985186048 -0.000359384179497778 0 0.0095220029191482869 -0.00026104199178703238 0 0.010500441049686046 -9.5439461022708757e-05 0 0.010088179208984504 0.00064629151307926105 0 0.00012546853779232871 -0.00048535441974271814 0 0.00037646700724685672 -0.00040343695785722688 0 0.0002960397135582245 -0.0001286126955577926 0 0.00012546853779232871 -0.00048535441974271814 0 0.00037646700724685672 -0.00040343695785722688 0 0.0002882786750006302 -0.00056095360826722348 0 0.0062335852250930109 -0.00047993616802855275 0 0.0058729635475590833 0.00064557576789060485 0 0.00061777376550239439 -0.00038766307249704288 0 0.00037646700724685672 -0.00040343695785722688 0 0.00040096878187109058 -0.00066803099826276402 0 0.00061777376550239439 -0.00038766307249704288 0 0.00037646700724685672 -0.00040343695785722688 0 0.00061463868495482109 -9.3683249284458152e-05 0 0.00037646700724685672 -0.00040343695785722688 0 0.00040096878187109058 -0.00066803099826276402 0 0.0002882786750006302 -0.00056095360826722348 0 0.00040096878187109058 -0.00066803099826276402 0 0.00023599868603057112 -0.00067580316146001397 0 0.0002882786750006302 -0.00056095360826722348 0 0.00012546853779232871 -0.00048535441974271814 0 0.00023599868603057112 -0.00067580316146001397 0 0.0002882786750006302 -0.00056095360826722348 0 0.0062335852250930109 -0.00047993616802855275 0 0.0016018673638597777 -0.0006876982994759572 0 0.0061219826105907002 0.0010819001795882373 0 0.0062712623679603242 0.0011199446432580823 0 0.0061908731076618113 0.00086586689252672697 0 0.0056041291452419732 -0.00060626013538190042 0 0.003885595572420247 -0.0012847401653488658 0 0.0044141683557249161 -0.001618721146124885 0 0.0049232239822891771 7.9669935688778763e-05 0 0.0056041291452419732 -0.00060626013538190042 0 0.003885595572420247 -0.0012847401653488658 0 0.0056217025048892668 0.00057840160021364071 0 0.0046533027918659329 -0.00031523289227948194 0 0.0050573159944529676 0.00097718134668934144 0 0.0046533027918659329 -0.00031523289227948194 0 0.0061219826105907002 0.0010819001795882373 0 0.0059181469666257135 0.00098504512414000116 0 0.0061908731076618113 0.00086586689252672697 0 0.0061055191467788445 0.001351923979878958 0 0.0057847897132724847 0.0012390543990018817 0 0.0056770258016332394 0.0016017786558208396 0 0.0061219826105907002 0.0010819001795882373 0 0.0059181469666257135 0.00098504512414000116 0 0.0061055191467788445 0.001351923979878958 0 0.0050573159944529676 0.00097718134668934144 0 0.0062751472746323672 0.0013857827117183669 0 0.0058952290819881481 0.00093058964717493951 0 0.0061055191467788445 0.001351923979878958 0 0.0057847897132724847 0.0012390543990018817 0 0.0056217025048892668 0.00057840160021364071 0 0.0061042351497527922 0.0011295824028755615 0 0.0061219826105907002 0.0010819001795882373 0 0.0061055191467788445 0.001351923979878958 0 0.0062712623679603242 0.0011199446432580823 0 0.0061055191467788445 0.001351923979878958 0 0.0062712623679603242 0.0011199446432580823 0 0.006321855920430771 0.0012567748791959853 0 0.0049232239822891771 7.9669935688778763e-05 0 0.0065349975616268768 0.0004326482525106755 0 0.006321855920430771 0.0012567748791959853 0 0.0065349975616268768 0.0004326482525106755 0 0.0074623575961651253 0.0011615738858128679 0 0.006321855920430771 0.0012567748791959853 0 0.0065349975616268768 0.0004326482525106755 0 0.007822182004220234 0.00041931435972558494 0 0.0069246862933117232 -0.00046653306749403341 0 0.0065349975616268768 0.0004326482525106755 0 0.007822182004220234 0.00041931435972558494 0 0.0074623575961651253 0.0011615738858128679 0 0.007822182004220234 0.00041931435972558494 0 0.0083331090390515641 0.0012948451070050506 0 0.0074623575961651253 0.0011615738858128679 0 0.0083109148345178047 -0.00059164027833712206 0 0.007822182004220234 0.00041931435972558494 0 0.0069246862933117232 -0.00046653306749403341 0 0.0069246862933117232 -0.00046653306749403341 0 0.007315955531776352 -0.0011452568679682911 0 0.0062993363815090119 -0.0016895094560020177 0 0.0083109148345178047 -0.00059164027833712206 0 0.007315955531776352 -0.0011452568679682911 0 0.0078827917351531242 -0.0018654688151181907 0 0.0083109148345178047 -0.00059164027833712206 0 0.0069246862933117232 -0.00046653306749403341 0 0.007315955531776352 -0.0011452568679682911 0 0.0049232239822891771 7.9669935688778763e-05 0 0.0065349975616268768 0.0004326482525106755 0 0.0056041291452419732 -0.00060626013538190042 0 0.0065349975616268768 0.0004326482525106755 0 0.0069246862933117232 -0.00046653306749403341 0 0.0056041291452419732 -0.00060626013538190042 0 0.0069246862933117232 -0.00046653306749403341 0 0.005501740152943419 -0.001323009655533599 0 0.0062993363815090119 -0.0016895094560020177 0 0.0069246862933117232 -0.00046653306749403341 0 0.0056041291452419732 -0.00060626013538190042 0 0.005501740152943419 -0.001323009655533599 0 0.0056041291452419732 -0.00060626013538190042 0 0.005501740152943419 -0.001323009655533599 0 0.0044141683557249161 -0.001618721146124885 0 0.005501740152943419 -0.001323009655533599 0 0.0051063269125336767 -0.0022046722016258332 0 0.0044141683557249161 -0.001618721146124885 0 0.0051063269125336767 -0.0022046722016258332 0 0.003643833596554217 -0.0031398467823979359 0 0.0044141683557249161 -0.001618721146124885 0 0.005501740152943419 -0.001323009655533599 0 0.0051063269125336767 -0.0022046722016258332 0 0.0062993363815090119 -0.0016895094560020177 0 0.0051063269125336767 -0.0022046722016258332 0 0.0062993363815090119 -0.0016895094560020177 0 0.0066946059354590906 -0.003383363917467774 0 0.0087340195680736393 -0.0031167592735947551 0 0.0078827917351531242 -0.0018654688151181907 0 0.0066946059354590906 -0.003383363917467774 0 0.007315955531776352 -0.0011452568679682911 0 0.0078827917351531242 -0.0018654688151181907 0 0.0062993363815090119 -0.0016895094560020177 0 0.0078827917351531242 -0.0018654688151181907 0 0.0062993363815090119 -0.0016895094560020177 0 0.0066946059354590906 -0.003383363917467774 0 0.0020563430032220068 -0.0035457648520308897 0 0.0025641341081460195 -0.0034809674312416368 0 0.0022296277352592576 -0.0030400104760560788 0 0.004853349908415819 -0.0019149937789506046 0 0.0046810567193787999 -0.0033986520991679163 0 0.0046810567193787999 -0.0033986520991679163 0 0.0037667341920876612 -0.0032498716397167432 0 0.0051063269125336767 -0.0022046722016258332 0 0.0066946059354590906 -0.003383363917467774 0 0.003643833596554217 -0.0031398467823979359 0 0.0025641341081460195 -0.0034809674312416368 0 0.003643833596554217 -0.0031398467823979359 0 0.0026958602370127684 -0.0029822262713095574 0 0.003643833596554217 -0.0031398467823979359 0 0.0035135595143249575 -0.0014284626694047026 0 0.0024637217269388115 -0.0029778530148040386 0 0.003643833596554217 -0.0031398467823979359 0 0.0024637217269388115 -0.0029778530148040386 0 0.002651722120303463 -0.002980666841243873 0 0.003643833596554217 -0.0031398467823979359 0 0.0035135595143249575 -0.0014284626694047026 0 0.0044141683557249161 -0.001618721146124885 0 0.0046533027918659329 -0.00031523289227948194 0 0.0033105719653069485 -0.0013155660738408781 0 0.0046533027918659329 -0.00031523289227948194 0 0.0044082452167793686 -0.0011019685919993335 0 0.0044078905772768099 0.00055367081550103153 0 0.0044377247798328386 0.0005324420267536253 0 0.0044090548359335792 0.00051941623998525831 0 0.0044377247798328386 0.0005324420267536253 0 0.0044090548359335792 0.00051941623998525831 0 0.0044231839797547025 0.0004732436603333784 0 0.0044078905772768099 0.00055367081550103153 0 0.0044090548359335792 0.00051941623998525831 0 0.0043698204581613265 0.00050351500086913913 0 0.0044090548359335792 0.00051941623998525831 0 0.0044231839797547025 0.0004732436603333784 0 0.0043698204581613265 0.00050351500086913913 0 0.0024637217269388115 -0.0029778530148040386 0 0.0021531734884059511 -0.0029795696094463342 0 0.0014173414023757761 -0.0030282781991159491 0 0.0033105719653069485 -0.0013155660738408781 0 0.0029422428963196451 -0.0013840782224708859 0 0.0024637217269388115 -0.0029778530148040386 0 0.002651722120303463 -0.002980666841243873 0 0.0021531734884059511 -0.0029795696094463342 0 0.002651722120303463 -0.002980666841243873 0 0.0021531734884059511 -0.0029795696094463342 0 0.0020440999207019719 -0.0029140147236700348 0 0.0021531734884059511 -0.0029795696094463342 0 0.0014173414023757761 -0.0030282781991159491 0 0.0020440999207019719 -0.0029140147236700348 0 0.0022296277352592576 -0.0030400104760560788 0 0.0026958602370127684 -0.0029822262713095574 0 0.0024177761264051498 -0.0028240681593695418 0 0.0025641341081460195 -0.0034809674312416368 0 0.0022296277352592576 -0.0030400104760560788 0 0.0026958602370127684 -0.0029822262713095574 0 0.003643833596554217 -0.0031398467823979359 0 0.002651722120303463 -0.002980666841243873 0 0.0026958602370127684 -0.0029822262713095574 0 0.002651722120303463 -0.002980666841243873 0 0.0026958602370127684 -0.0029822262713095574 0 0.0024177761264051498 -0.0028240681593695418 0 0.002651722120303463 -0.002980666841243873 0 0.0024177761264051498 -0.0028240681593695418 0 0.0020440999207019719 -0.0029140147236700348 0 0.0020575302700769991 -0.0028322803440694985 0 0.0022296277352592576 -0.0030400104760560788 0 0.0024177761264051498 -0.0028240681593695418 0 0.0020976798080102042 -0.0026437663380964147 0 0.0020575302700769991 -0.0028322803440694985 0 0.0024177761264051498 -0.0028240681593695418 0 0.0020976798080102042 -0.0026437663380964147 0 0.0024177761264051498 -0.0028240681593695418 0 0.0022785907604538913 -0.0028209697868230342 0 0.0022785907604538913 -0.0028209697868230342 0 0.0021737140090655731 -0.003075673020702449 0 0.0020440999207019719 -0.0029140147236700348 0 0.0024177761264051498 -0.0028240681593695418 0 0.0022785907604538913 -0.0028209697868230342 0 0.0020440999207019719 -0.0029140147236700348 0 -0.001349450493619014 -0.0021558452734041964 0 -0.00029516003573759191 -0.0029721129701305794 0 0.0021543918093936839 -0.0023229201664942316 0 0.0022785907604538913 -0.0028209697868230342 0 0.0021737140090655731 -0.003075673020702449 0 0.0021543918093936839 -0.0023229201664942316 0 0.0020976798080102042 -0.0026437663380964147 0 0.0022785907604538913 -0.0028209697868230342 0 0.0014173414023757761 -0.0030282781991159491 0 0.0020440999207019719 -0.0029140147236700348 0 0.00075359863743584637 -0.0033527712697258567 0 0.0014173414023757761 -0.0030282781991159491 0 0.00075359863743584637 -0.0033527712697258567 0 0.00081859445371636403 -0.003142781829765877 0 0.0021737140090655731 -0.003075673020702449 0 0.0020440999207019719 -0.0029140147236700348 0 0.00075359863743584637 -0.0033527712697258567 0 -0.00029516003573759191 -0.0029721129701305794 0 0.00063340923292053153 -0.0033257718998739002 0 -0.00084549823013181137 -0.0019250146795715022 0 -0.0027278172012291727 -0.0029755938443017998 0 0.00075359863743584637 -0.0033527712697258567 0 -0.00084549823013181137 -0.0019250146795715022 0 0.00075359863743584637 -0.0033527712697258567 0 0.00029690216524693103 -0.0026192609928439264 0 0.00075359863743584637 -0.0033527712697258567 0 0.00029690216524693103 -0.0026192609928439264 0 0.00081859445371636403 -0.003142781829765877 0 0.003927482862062107 -0.00023973610310573884 0 0.0043125150145529008 -5.3397721996380281e-05 0 0.0038827580523999937 4.4729201026904587e-05 0 0.0043125150145529008 -5.3397721996380281e-05 0 0.0042174262313543643 0.00021226177111627442 0 0.0038827580523999937 4.4729201026904587e-05 0 0.0029422428963196451 -0.0013840782224708859 0 0.0025460039226904117 -0.0016045716319532768 0 0.0044210127653729414 0.00032573837676593356 0 0.0043125150145529008 -5.3397721996380281e-05 0 0.0042174262313543643 0.00021226177111627442 0 0.0042174262313543643 0.00021226177111627442 0 0.0038827580523999937 4.4729201026904587e-05 0 0.0040417635773569542 0.00035230188810512201 0 0.0038827580523999937 4.4729201026904587e-05 0 0.0037365029435893083 0.00043582587347227875 0 0.0034218620725870986 0.00015143999113431973 0 0.0034774769844789295 -0.00024322769951613381 0 0.003927482862062107 -0.00023973610310573884 0 0.0038827580523999937 4.4729201026904587e-05 0 0.0034774769844789295 -0.00024322769951613381 0 0.0038827580523999937 4.4729201026904587e-05 0 0.0034218620725870986 0.00015143999113431973 0 0.0040417635773569542 0.00035230188810512201 0 0.0037365029435893083 0.00043582587347227875 0 0.0040348939828019816 0.0006426354404038756 0 0.0038827580523999937 4.4729201026904587e-05 0 0.0040417635773569542 0.00035230188810512201 0 0.0037365029435893083 0.00043582587347227875 0 0.0037365029435893083 0.00043582587347227875 0 0.0033315839073111558 0.00060226033787885659 0 0.0037177281494688557 0.00085028242999301228 0 0.0037365029435893083 0.00043582587347227875 0 0.0040348939828019816 0.0006426354404038756 0 0.0037177281494688557 0.00085028242999301228 0 0.0040417635773569542 0.00035230188810512201 0 0.0040348939828019816 0.0006426354404038756 0 0.0043058691470025875 0.00045702381323905735 0 0.0040348939828019816 0.0006426354404038756 0 0.0043058691470025875 0.00045702381323905735 0 0.0042677632347110439 0.00082356819512168248 0 0.004342595167513859 0.00047866650154138973 0 0.0044100168810317858 0.00071569618420829861 0 0.0044231839797547025 0.0004732436603333784 0 0.0044210127653729414 0.00032573837676593356 0 0.0043058691470025875 0.00045702381323905735 0 0.0044210127653729414 0.00032573837676593356 0 0.0042174262313543643 0.00021226177111627442 0 0.0043058691470025875 0.00045702381323905735 0 0.0042174262313543643 0.00021226177111627442 0 0.0040417635773569542 0.00035230188810512201 0 0.0043058691470025875 0.00045702381323905735 0 0.0005785400743211109 0.00075607235624558565 0 0.0007747589852050322 0.00067951587806669466 0 0.00091186580836784422 0.0008844315163470519 0 0.0005785400743211109 0.00075607235624558565 0 0.00067070075510511828 0.00055282189803181796 0 0.0007747589852050322 0.00067951587806669466 0 0.00081009009021404334 0.00055264907190169705 0 0.00067070075510511828 0.00055282189803181796 0 0.0007747589852050322 0.00067951587806669466 0 0.00081009009021404334 0.00055264907190169705 0 0.0007747589852050322 0.00067951587806669466 0 0.00094279284629392981 0.00070604323184058119 0 0.00081009009021404334 0.00055264907190169705 0 0.00093165522394405176 0.0005285538984645074 0 0.00094279284629392981 0.00070604323184058119 0 0.0007747589852050322 0.00067951587806669466 0 0.00091186580836784422 0.0008844315163470519 0 0.00094279284629392981 0.00070604323184058119 0 0.00091186580836784422 0.0008844315163470519 0 0.00094279284629392981 0.00070604323184058119 0 0.0011615759685726171 0.00080298857134777555 0 0.0011549974497614534 0.00049898743653067586 0 0.00094279284629392981 0.00070604323184058119 0 0.0011615759685726171 0.00080298857134777555 0 0.00093165522394405176 0.0005285538984645074 0 0.0011549974497614534 0.00049898743653067586 0 0.00094279284629392981 0.00070604323184058119 0 0.0022533149613530442 0.00017744380158577278 0 0.0023013950280711352 0.00047120277828107982 0 0.0023013950280711352 0.00047120277828107982 0 0.0022226720645877641 0.00086419695419329417 0 0.0037365029435893083 0.00043582587347227875 0 0.0034218620725870986 0.00015143999113431973 0 0.0033315839073111558 0.00060226033787885659 0 0.00091186580836784422 0.0008844315163470519 0 0.0011615759685726171 0.00080298857134777555 0 0.0011446108983915375 0.0011437894263875595 0 0.00091186580836784422 0.0008844315163470519 0 0.0011446108983915375 0.0011437894263875595 0 0.00079187863754104251 0.0011055139704297637 0 0.0011446108983915375 0.0011437894263875595 0 0.00079187863754104251 0.0011055139704297637 0 0.00090527568767984979 0.001346872532877152 0 0.0005785400743211109 0.00075607235624558565 0 0.00091186580836784422 0.0008844315163470519 0 0.00079187863754104251 0.0011055139704297637 0 0.00052151285221054792 0.0011032695118511266 0 0.00079187863754104251 0.0011055139704297637 0 0.00066271429100164109 0.0013264530450452334 0 0.00079187863754104251 0.0011055139704297637 0 0.00066271429100164109 0.0013264530450452334 0 0.00090527568767984979 0.001346872532877152 0 0.00074277187965623331 0.0015178200028403909 0 0.00066271429100164109 0.0013264530450452334 0 0.00090527568767984979 0.001346872532877152 0 0.00090527568767984979 0.001346872532877152 0 0.0010933513932952891 0.001477094196445953 0 0.00090552334799422142 0.0015954862821232422 0 0.00074277187965623331 0.0015178200028403909 0 0.00090527568767984979 0.001346872532877152 0 0.00090552334799422142 0.0015954862821232422 0 0.0022226720645877641 0.00086419695419329417 0 0.0022600978072916693 0.0013777569056589813 0 0.0011446108983915375 0.0011437894263875595 0 0.00090527568767984979 0.001346872532877152 0 0.0010933513932952891 0.001477094196445953 0 0.0033315839073111558 0.00060226033787885659 0 0.0032400494142421441 0.0011501022639097049 0 0.0037177281494688557 0.00085028242999301228 0 0.0032400494142421441 0.0011501022639097049 0 0.0037177281494688557 0.00085028242999301228 0 0.0038289124929338932 0.0013340290617472963 0 0.0032400494142421441 0.0011501022639097049 0 0.0035822131475899081 0.0016772822516230783 0 0.0038289124929338932 0.0013340290617472963 0 0.0035822131475899081 0.0016772822516230783 0 0.0031788366826312636 0.0017556198648632909 0 0.0036104534325397055 0.0021409486955240717 0 0.0022600978072916693 0.0013777569056589813 0 0.0014541695428669677 0.0014278149736929742 0 0.0010933513932952891 0.001477094196445953 0 0.001030792950087958 0.0017540392690245099 0 0.00090552334799422142 0.0015954862821232422 0 0.0032400494142421441 0.0011501022639097049 0 0.0035822131475899081 0.0016772822516230783 0 0.0031788366826312636 0.0017556198648632909 0 0.001030792950087958 0.0017540392690245099 0 0.00090552334799422142 0.0015954862821232422 0 0.00076998521739003777 0.0017236749966154734 0 0.001030792950087958 0.0017540392690245099 0 0.00076998521739003777 0.0017236749966154734 0 0.00080033829603045627 0.001850582336956794 0 0.00064724568735681531 0.0017972534313844639 0 0.00076998521739003777 0.0017236749966154734 0 0.00080033829603045627 0.001850582336956794 0 0.00060955170425849403 0.0016675426721743287 0 0.00074277187965623331 0.0015178200028403909 0 0.00076998521739003777 0.0017236749966154734 0 0.00074277187965623331 0.0015178200028403909 0 0.00090552334799422142 0.0015954862821232422 0 0.00076998521739003777 0.0017236749966154734 0 0.00064724568735681531 0.0017972534313844639 0 0.00060955170425849403 0.0016675426721743287 0 0.00076998521739003777 0.0017236749966154734 0 0.0043322528415575701 0.0010563786526476991 0 0.0042380790140080912 0.0012818517730326328 0 0.004106696063605148 0.0009787449357569057 0 0.0040378652630378075 0.00090840190050472556 0 0.0042129962855545263 0.0011677161723360259 0 0.0043322528415575701 0.0010563786526476991 0 0.0042380790140080912 0.0012818517730326328 0 0.0044796128425594172 0.0012660348770835432 0 0.0050573159944529676 0.00097718134668934144 0 0.0044100168810317858 0.00071569618420829861 0 0.0043322528415575701 0.0010563786526476991 0 0.0044796128425594172 0.0012660348770835432 0 0.0045930505358588967 0.00095321002106672694 0 0.0048087666491140905 0.0014382083796965716 0 0.0044796128425594172 0.0012660348770835432 0 0.0045930505358588967 0.00095321002106672694 0 0.0044231839797547025 0.0004732436603333784 0 0.0043058691470025875 0.00045702381323905735 0 0.0043698204581613265 0.00050351500086913913 0 0.0043058691470025875 0.00045702381323905735 0 0.0045930505358588967 0.00095321002106672694 0 0.0042677632347110439 0.00082356819512168248 0 0.0043322528415575701 0.0010563786526476991 0 0.0045930505358588967 0.00095321002106672694 0 0.0042677632347110439 0.00082356819512168248 0 0.0040348939828019816 0.0006426354404038756 0 0.0042677632347110439 0.00082356819512168248 0 0.004106696063605148 0.0009787449357569057 0 0.0043322528415575701 0.0010563786526476991 0 0.0042677632347110439 0.00082356819512168248 0 0.004106696063605148 0.0009787449357569057 0 0.0040348939828019816 0.0006426354404038756 0 0.004106696063605148 0.0009787449357569057 0 0.0037177281494688557 0.00085028242999301228 0 0.004106696063605148 0.0009787449357569057 0 0.0037177281494688557 0.00085028242999301228 0 0.0038289124929338932 0.0013340290617472963 0 0.0043614431166472591 0.0013456965115728524 0 0.004106696063605148 0.0009787449357569057 0 0.0038289124929338932 0.0013340290617472963 0 0.0043614431166472591 0.0013456965115728524 0 0.0038289124929338932 0.0013340290617472963 0 0.0040764359833025442 0.001930756706191983 0 0.0035822131475899081 0.0016772822516230783 0 0.0038289124929338932 0.0013340290617472963 0 0.0040764359833025442 0.001930756706191983 0 0.0035822131475899081 0.0016772822516230783 0 0.0040764359833025442 0.001930756706191983 0 0.0036104534325397055 0.0021409486955240717 0 0.0080654105997293984 0.0051380526280991202 0 0.0068866229345606557 0.003216023088196818 0 0.011963625881980994 0.0079006288153161408 0 0.010895159962096231 0.008324678846897993 0 0.011048302929306695 0.0076704817780487364 0 0.0042380790140080912 0.0012818517730326328 0 0.0044796128425594172 0.0012660348770835432 0 0.0044153643830231242 0.0016206131549596433 0 0.0043614431166472591 0.0013456965115728524 0 0.0040764359833025442 0.001930756706191983 0 0.0045791062692725074 0.0017166201249813491 0 0.0040378652630378075 0.00090840190050472556 0 0.0068866229345606557 0.003216023088196818 0 0.0058952290819881481 0.00093058964717493951 0 0.0054839243918754013 0.0011229045723330675 0 0.0057847897132724847 0.0012390543990018817 0 0.0050573159944529676 0.00097718134668934144 0 0.0068866229345606557 0.003216023088196818 0 0.0048087666491140905 0.0014382083796965716 0 0.0044796128425594172 0.0012660348770835432 0 0.0044153643830231242 0.0016206131549596433 0 0.010895159962096231 0.008324678846897993 0 0.010431022536230515 0.0074513565600192525 0 0.011048302929306695 0.0076704817780487364 0 0.0054839243918754013 0.0011229045723330675 0 0.0057847897132724847 0.0012390543990018817 0 0.0056770258016332394 0.0016017786558208396 0 0.0068866229345606557 0.003216023088196818 0 0.0082859246917457059 0.0048872237012255919 0 0.010431022536230515 0.0074513565600192525 0 0.010736258089500572 0.0069391302866740881 0 0.011048302929306695 0.0076704817780487364 0 0.0082859246917457059 0.0048872237012255919 0 0.0078468044164200206 0.0044009112903080185 0 0.010431022536230515 0.0074513565600192525 0 0.010736258089500572 0.0069391302866740881 0 0.00980335992384938 0.0066107114106420664 0 0.010736258089500572 0.0069391302866740881 0 0.010937944496049998 0.0063304535635377406 0 0.00980335992384938 0.0066107114106420664 0 0.010736258089500572 0.0069391302866740881 0 0.011357766040894848 0.0071335633794626756 0 0.010937944496049998 0.0063304535635377406 0 0.011357766040894848 0.0071335633794626756 0 0.011789225309297033 0.0066019207370235783 0 0.010937944496049998 0.0063304535635377406 0 0.010736258089500572 0.0069391302866740881 0 0.011048302929306695 0.0076704817780487364 0 0.011357766040894848 0.0071335633794626756 0 0.011963625881980994 0.0079006288153161408 0 0.011048302929306695 0.0076704817780487364 0 0.011357766040894848 0.0071335633794626756 0 0.011963625881980994 0.0079006288153161408 0 0.011357766040894848 0.0071335633794626756 0 0.012114381810741301 0.0070052516445999616 0 0.011963625881980994 0.0079006288153161408 0 0.012593957024029372 0.007095691338891293 0 0.012114381810741301 0.0070052516445999616 0 0.011963625881980994 0.0079006288153161408 0 0.012593957024029372 0.007095691338891293 0 0.013003417736706385 0.0073711284367474475 0 0.0080654105997293984 0.0051380526280991202 0 0.0086207986571954394 0.004779436440651097 0 0.012593957024029372 0.007095691338891293 0 0.012114381810741301 0.0070052516445999616 0 0.012634828902736374 0.0063659857452364578 0 0.012593957024029372 0.007095691338891293 0 0.012634828902736374 0.0063659857452364578 0 0.013179931139001663 0.0068754873674781742 0 0.011357766040894848 0.0071335633794626756 0 0.011789225309297033 0.0066019207370235783 0 0.012114381810741301 0.0070052516445999616 0 0.011789225309297033 0.0066019207370235783 0 0.012114381810741301 0.0070052516445999616 0 0.012634828902736374 0.0063659857452364578 0 0.011789225309297033 0.0066019207370235783 0 0.012014416928446497 0.0060489014586791049 0 0.012634828902736374 0.0063659857452364578 0 0.011789225309297033 0.0066019207370235783 0 0.012014416928446497 0.0060489014586791049 0 0.011491158250421079 0.0059421781372878653 0 0.012014416928446497 0.0060489014586791049 0 0.011940328287338098 0.0055386838360885187 0 0.011491158250421079 0.0059421781372878653 0 0.012634828902736374 0.0063659857452364578 0 0.012461810909990479 0.0056783704409181443 0 0.012982431236075028 0.0057828434559295139 0 0.012014416928446497 0.0060489014586791049 0 0.012634828902736374 0.0063659857452364578 0 0.012461810909990479 0.0056783704409181443 0 0.012461810909990479 0.0056783704409181443 0 0.012806424330262229 0.0052267634947415712 0 0.012982431236075028 0.0057828434559295139 0 0.012461810909990479 0.0056783704409181443 0 0.012806424330262229 0.0052267634947415712 0 0.012365517698207699 0.0051365239330828909 0 0.012014416928446497 0.0060489014586791049 0 0.012461810909990479 0.0056783704409181443 0 0.011940328287338098 0.0055386838360885187 0 0.012461810909990479 0.0056783704409181443 0 0.011940328287338098 0.0055386838360885187 0 0.012365517698207699 0.0051365239330828909 0 0.011940328287338098 0.0055386838360885187 0 0.011917295544454955 0.005137360976398892 0 0.011442649335625603 0.0053552259801259326 0 0.011940328287338098 0.0055386838360885187 0 0.012365517698207699 0.0051365239330828909 0 0.011917295544454955 0.005137360976398892 0 0.011917295544454955 0.005137360976398892 0 0.011442649335625603 0.0053552259801259326 0 0.011579071196693037 0.0048598540655587193 0 0.011940328287338098 0.0055386838360885187 0 0.011442649335625603 0.0053552259801259326 0 0.011491158250421079 0.0059421781372878653 0 0.011442649335625603 0.0053552259801259326 0 0.010724901737161622 0.0056567786487269579 0 0.011491158250421079 0.0059421781372878653 0 0.011442649335625603 0.0053552259801259326 0 0.010724901737161622 0.0056567786487269579 0 0.011054579923677756 0.0050666156498072974 0 0.010724901737161622 0.0056567786487269579 0 0.010432336046651145 0.0048431165400364927 0 0.011054579923677756 0.0050666156498072974 0 0.010724901737161622 0.0056567786487269579 0 0.010432336046651145 0.0048431165400364927 0 0.0098545311880678492 0.0053899091249203718 0 0.010724901737161622 0.0056567786487269579 0 0.00980335992384938 0.0066107114106420664 0 0.0098545311880678492 0.0053899091249203718 0 0.010724901737161622 0.0056567786487269579 0 0.010937944496049998 0.0063304535635377406 0 0.00980335992384938 0.0066107114106420664 0 0.011789225309297033 0.0066019207370235783 0 0.010937944496049998 0.0063304535635377406 0 0.011491158250421079 0.0059421781372878653 0 0.010724901737161622 0.0056567786487269579 0 0.010937944496049998 0.0063304535635377406 0 0.011491158250421079 0.0059421781372878653 0 0.0054855850853811599 0.0031550263955623884 0 0.0050755095598506222 0.0034687488646011444 0 0.00064576221519607442 0.0020185486358062451 0 0.00071686216305582022 0.0019734963355032904 0 0.00086679890786972916 0.0020293861752031022 0 0.00071686216305582022 0.0019734963355032904 0 0.00078819182595815304 0.0019398474324453263 0 0.00086679890786972916 0.0020293861752031022 0 0.00063127822838386421 0.0019702357480616871 0 0.00065335149986338477 0.0019095394216076043 0 0.00071686216305582022 0.0019734963355032904 0 0.00065335149986338477 0.0019095394216076043 0 0.00071686216305582022 0.0019734963355032904 0 0.00078819182595815304 0.0019398474324453263 0 0.00064724568735681531 0.0017972534313844639 0 0.00065335149986338477 0.0019095394216076043 0 0.00080033829603045627 0.001850582336956794 0 0.00065335149986338477 0.0019095394216076043 0 0.00080033829603045627 0.001850582336956794 0 0.00078819182595815304 0.0019398474324453263 0 0.00080033829603045627 0.001850582336956794 0 0.00078819182595815304 0.0019398474324453263 0 0.00091740086561121613 0.0019610726370225275 0 0.001030792950087958 0.0017540392690245099 0 0.00080033829603045627 0.001850582336956794 0 0.00091740086561121613 0.0019610726370225275 0 0.0050755095598506222 0.0034687488646011444 0 0.0066381446674172112 0.0038567699997509863 0 0.0091054450859183317 0.0047521717644375839 0 0.0089101560554739143 0.0048311805943130207 0 0.0090023750488860497 0.0044915247113862774 0 0.00091740086561121613 0.0019610726370225275 0 0.0009093446203914192 0.0020541280599535184 0 0.0010126074465213314 0.002001630915513258 0 0.0022931424386632236 0.0026365055112554043 0 0.0050755095598506222 0.0034687488646011444 0 0.00078819182595815304 0.0019398474324453263 0 0.00091740086561121613 0.0019610726370225275 0 0.00086679890786972916 0.0020293861752031022 0 0.013516050418489406 0.0065645799023894679 0 0.013685856459480684 0.0069318108165712508 0 0.013775101665504323 0.0062467644638004964 0 0.0066381446674172112 0.0038567699997509863 0 0.011917638188846344 0.0057762711965563132 0 0.013516050418489406 0.0065645799023894679 0 0.013685856459480684 0.0069318108165712508 0 0.013179931139001663 0.0068754873674781742 0 0.0014541695428669677 0.0014278149736929742 0 0.0066381446674172112 0.0038567699997509863 0 0.0031788366826312636 0.0017556198648632909 0 0.0031442911810325986 0.0023646793783612076 0 0.0036104534325397055 0.0021409486955240717 0 0.001030792950087958 0.0017540392690245099 0 0.00091740086561121613 0.0019610726370225275 0 0.0010126074465213314 0.002001630915513258 0 0.0066381446674172112 0.0038567699997509863 0 0.0086207986571954394 0.004779436440651097 0 0.013685856459480684 0.0069318108165712508 0 0.013003417736706385 0.0073711284367474475 0 0.013179931139001663 0.0068754873674781742 0 0.012593957024029372 0.007095691338891293 0 0.013003417736706385 0.0073711284367474475 0 0.013179931139001663 0.0068754873674781742 0 0.012634828902736374 0.0063659857452364578 0 0.013179931139001663 0.0068754873674781742 0 0.013196782657336634 0.0061763549882923744 0 0.013193610169196962 0.0068060502050150875 0 0.013681581881652152 0.006094377169824151 0 0.013179931139001663 0.0068754873674781742 0 0.013196782657336634 0.0061763549882923744 0 0.013782843373426678 0.0058822413528402595 0 0.012634828902736374 0.0063659857452364578 0 0.013196782657336634 0.0061763549882923744 0 0.012982431236075028 0.0057828434559295139 0 0.013196782657336634 0.0061763549882923744 0 0.013335408453471507 0.0058051866903946724 0 0.013782843373426678 0.0058822413528402595 0 0.013196782657336634 0.0061763549882923744 0 0.013335408453471507 0.0058051866903946724 0 0.012982431236075028 0.0057828434559295139 0 0.013335408453471507 0.0058051866903946724 0 0.012982431236075028 0.0057828434559295139 0 0.013396655719233541 0.0053872330517042918 0 0.012806424330262229 0.0052267634947415712 0 0.012982431236075028 0.0057828434559295139 0 0.013396655719233541 0.0053872330517042918 0 0.012806424330262229 0.0052267634947415712 0 0.013396655719233541 0.0053872330517042918 0 0.013026087649009258 0.0047725904785142293 0 0.013335408453471507 0.0058051866903946724 0 0.013396655719233541 0.0053872330517042918 0 0.013782843373426678 0.0058822413528402595 0 0.013396655719233541 0.0053872330517042918 0 0.013782843373426678 0.0058822413528402595 0 0.014229267660266704 0.0049265074585184898 0 0.013426385605867282 0.0061954769508144429 0 0.013775101665504323 0.0062467644638004964 0 0.013713533188521282 0.0054954681016531701 0 0.013681581881652152 0.006094377169824151 0 0.013238900652977817 0.0048127973138408801 0 0.013516050418489406 0.0065645799023894679 0 0.013426385605867282 0.0061954769508144429 0 0.013775101665504323 0.0062467644638004964 0 0.013516050418489406 0.0065645799023894679 0 0.013179931139001663 0.0068754873674781742 0 0.013426385605867282 0.0061954769508144429 0 0.0091054450859183317 0.0047521717644375839 0 0.0090023750488860497 0.0044915247113862774 0 0.0092628437246562757 0.0044661413801619304 0 0.0090023750488860497 0.0044915247113862774 0 0.0092628437246562757 0.0044661413801619304 0 0.0090784269069945876 0.0041435038507622235 0 0.013775101665504323 0.0062467644638004964 0 0.013860873706853013 0.0055110154771007948 0 0.013713533188521282 0.0054954681016531701 0 0.011917638188846344 0.0057762711965563132 0 0.010908273216379777 0.0044893624679769933 0 0.0092628437246562757 0.0044661413801619304 0 0.0094036184641940086 0.0041756274752575836 0 0.0090784269069945876 0.0041435038507622235 0 0.0095658444804558318 0.0043240512748761025 0 0.0096784462216044573 0.0035959186137499619 0 0.0098007179279511695 0.0038546531217243593 0 0.0092634275308579542 0.0039954729178174947 0 0.0095759720708581669 0.0034281642573336896 0 0.0050755095598506222 0.0034687488646011444 0 0.0095658444804558318 0.0043240512748761025 0 0.0098007179279511695 0.0038546531217243593 0 0.0096575427545899685 0.0043095669773156415 0 0.0092634275308579542 0.0039954729178174947 0 0.0096575427545899685 0.0043095669773156415 0 0.0089220006655337854 0.0046219475390032651 0 0.0092634275308579542 0.0039954729178174947 0 0.010261480574210599 0.0032910440283546115 0 0.010225309427328886 0.0033157322097865536 0 0.010247494068410259 0.0032313153109967273 0 0.010225309427328886 0.0033157322097865536 0 0.01018700769228058 0.00327604685309224 0 0.010247494068410259 0.0032313153109967273 0 0.010225309427328886 0.0033157322097865536 0 0.010203649828962017 0.0033456047363012312 0 0.010175303778371527 0.0033140650305585788 0 0.01023985314326022 0.0033744993730440058 0 0.010203649828962017 0.0033456047363012312 0 0.010171449691509437 0.0033752952199973445 0 0.010225309427328886 0.0033157322097865536 0 0.01023985314326022 0.0033744993730440058 0 0.010203649828962017 0.0033456047363012312 0 0.0096784462216044573 0.0035959186137499619 0 0.010908273216379777 0.0044893624679769933 0 0.010908273216379777 0.0044893624679769933 0 0.011533630980089252 0.003769373475158632 0 0.013558529979510795 0.0047179166091755789 0 0.013644924234283276 0.0044527703751490065 0 0.0134654250741814 0.0045178288122307737 0 0.01186678065079803 0.0047627787103333916 0 0.01161709485732138 0.0047346853336154718 0 0.011990121786989636 0.0039354754714657457 0 0.010203649828962017 0.0033456047363012312 0 0.010171449691509437 0.0033752952199973445 0 0.010175303778371527 0.0033140650305585788 0 0.013238900652977817 0.0048127973138408801 0 0.011533630980089252 0.003769373475158632 0 0.010908273216379777 0.0044893624679769933 0 0.013238900652977817 0.0048127973138408801 0 0.010225309427328886 0.0033157322097865536 0 0.010175303778371527 0.0033140650305585788 0 0.01018700769228058 0.00327604685309224 0 0.011533630980089252 0.003769373475158632 0 0.010665744562748289 0.0035413883181612572 0 0.013644924234283276 0.0044527703751490065 0 0.0134654250741814 0.0045178288122307737 0 0.013471869172300701 0.0042778338564640134 0 0.0134654250741814 0.0045178288122307737 0 0.013240551148172708 0.0044713260233302486 0 0.013471869172300701 0.0042778338564640134 0 0.0134654250741814 0.0045178288122307737 0 0.013333448827639571 0.0047264144136017422 0 0.013240551148172708 0.0044713260233302486 0 0.013558529979510795 0.0047179166091755789 0 0.0134654250741814 0.0045178288122307737 0 0.013333448827639571 0.0047264144136017422 0 0.013396655719233541 0.0053872330517042918 0 0.014229267660266704 0.0049265074585184898 0 0.013606448478569576 0.0048580181000826674 0 0.013238900652977817 0.0048127973138408801 0 0.013557728639679143 0.0048061039342329288 0 0.013396655719233541 0.0053872330517042918 0 0.013606448478569576 0.0048580181000826674 0 0.013026087649009258 0.0047725904785142293 0 0.013333448827639571 0.0047264144136017422 0 0.013026087649009258 0.0047725904785142293 0 0.013240551148172708 0.0044713260233302486 0 0.013557728639679143 0.0048061039342329288 0 0.013047048655872124 0.0047637528533803547 0 0.013240551148172708 0.0044713260233302486 0 0.01330592638067311 0.0041736767663890029 0 0.012919684044873224 0.0043197812251289025 0 0.013026087649009258 0.0047725904785142293 0 0.013240551148172708 0.0044713260233302486 0 0.012919684044873224 0.0043197812251289025 0 0.013240551148172708 0.0044713260233302486 0 0.01330592638067311 0.0041736767663890029 0 0.013471869172300701 0.0042778338564640134 0 0.013426390210355741 0.0039463137239868686 0 0.01330592638067311 0.0041736767663890029 0 0.013470815594172902 0.0040589821971550285 0 0.013426390210355741 0.0039463137239868686 0 0.01330592638067311 0.0041736767663890029 0 0.013099470710713521 0.0040620870428472672 0 0.01330592638067311 0.0041736767663890029 0 0.013470815594172902 0.0040589821971550285 0 0.013471869172300701 0.0042778338564640134 0 0.011533630980089252 0.003769373475158632 0 0.011950053609296789 0.0036816517184221523 0 0.013470815594172902 0.0040589821971550285 0 0.013471869172300701 0.0042778338564640134 0 0.01362578662669079 0.00413488350281121 0 0.010173680977749145 0.0033278702911966121 0 0.01018700769228058 0.00327604685309224 0 0.010175076425293295 0.0031811892208464202 0 0.013644924234283276 0.0044527703751490065 0 0.013471869172300701 0.0042778338564640134 0 0.01362578662669079 0.00413488350281121 0 0.011927731914191483 0.0035102993729471091 0 0.011950053609296789 0.0036816517184221523 0 0.013646944408170754 0.0040222915736325164 0 0.013470815594172902 0.0040589821971550285 0 0.01362578662669079 0.00413488350281121 0 0.010349071676278432 0.003107304544860121 0 0.010222830845556044 0.0029890657911200822 0 0.010175076425293295 0.0031811892208464202 0 0.010349071676278432 0.003107304544860121 0 0.010175076425293295 0.0031811892208464202 0 0.010247494068410259 0.0032313153109967273 0 0.01018700769228058 0.00327604685309224 0 0.010175076425293295 0.0031811892208464202 0 0.010247494068410259 0.0032313153109967273 0 0.012084041203282839 0.0044166704511666623 0 0.012170095438163789 0.0044496150653100955 0 0.012582393882540581 0.0041014919162437029 0 0.014233343876830253 0.0027548446736568341 0 0.01472331927671827 0.0029588661542043577 0 0.011471710097487551 0.0040993717940443009 0 0.011664655627679753 0.0043571784649288061 0 0.012170095438163789 0.0044496150653100955 0 0.014233343876830253 0.0027548446736568341 0 0.012096404703933005 0.0034794054475745023 0 0.011471710097487551 0.0040993717940443009 0 0.010175556152302173 0.0037509069873903657 0 0.011078737184489052 0.0045708167136918193 0 0.014233343876830253 0.0027548446736568341 0 0.014123937723926689 0.0024350915790166414 0 0.017226194039603297 0.00090339866014179737 0 0.018075321630632885 0.0011166528613422409 0 0.01767060647481368 0.0016923651985060037 0 0.010175556152302173 0.0037509069873903657 0 0.010432336046651145 0.0048431165400364927 0 0.0093469075028758796 0.0045533608225132973 0 0.010175556152302173 0.0037509069873903657 0 0.010432336046651145 0.0048431165400364927 0 0.011078737184489052 0.0045708167136918193 0 0.010432336046651145 0.0048431165400364927 0 0.011054579923677756 0.0050666156498072974 0 0.011078737184489052 0.0045708167136918193 0 0.011054579923677756 0.0050666156498072974 0 0.011078737184489052 0.0045708167136918193 0 0.011579071196693037 0.0048598540655587193 0 0.011442649335625603 0.0053552259801259326 0 0.011054579923677756 0.0050666156498072974 0 0.011579071196693037 0.0048598540655587193 0 0.011078737184489052 0.0045708167136918193 0 0.011431746266854179 0.0044918939887222918 0 0.011579071196693037 0.0048598540655587193 0 0.011471710097487551 0.0040993717940443009 0 0.011078737184489052 0.0045708167136918193 0 0.011431746266854179 0.0044918939887222918 0 0.011789180691545048 0.0045865941091306674 0 0.011579071196693037 0.0048598540655587193 0 0.012172557554318699 0.0047800941569822435 0 0.011664655627679753 0.0043571784649288061 0 0.011789180691545048 0.0045865941091306674 0 0.012170095438163789 0.0044496150653100955 0 0.011431746266854179 0.0044918939887222918 0 0.011664655627679753 0.0043571784649288061 0 0.011789180691545048 0.0045865941091306674 0 0.011471710097487551 0.0040993717940443009 0 0.011431746266854179 0.0044918939887222918 0 0.011664655627679753 0.0043571784649288061 0 0.011431746266854179 0.0044918939887222918 0 0.011789180691545048 0.0045865941091306674 0 0.011579071196693037 0.0048598540655587193 0 0.012365517698207699 0.0051365239330828909 0 0.011917295544454955 0.005137360976398892 0 0.012172557554318699 0.0047800941569822435 0 0.011917295544454955 0.005137360976398892 0 0.011579071196693037 0.0048598540655587193 0 0.012172557554318699 0.0047800941569822435 0 0.012365517698207699 0.0051365239330828909 0 0.012172557554318699 0.0047800941569822435 0 0.01265027371196494 0.0046533967295394789 0 0.012172557554318699 0.0047800941569822435 0 0.01265027371196494 0.0046533967295394789 0 0.012527735258769608 0.0043948740199027149 0 0.011789180691545048 0.0045865941091306674 0 0.012172557554318699 0.0047800941569822435 0 0.012170095438163789 0.0044496150653100955 0 0.012172557554318699 0.0047800941569822435 0 0.012170095438163789 0.0044496150653100955 0 0.012527735258769608 0.0043948740199027149 0 0.012806424330262229 0.0052267634947415712 0 0.013026087649009258 0.0047725904785142293 0 0.01265027371196494 0.0046533967295394789 0 0.012806424330262229 0.0052267634947415712 0 0.012365517698207699 0.0051365239330828909 0 0.01265027371196494 0.0046533967295394789 0 0.013026087649009258 0.0047725904785142293 0 0.01265027371196494 0.0046533967295394789 0 0.012919684044873224 0.0043197812251289025 0 0.01265027371196494 0.0046533967295394789 0 0.012919684044873224 0.0043197812251289025 0 0.012527735258769608 0.0043948740199027149 0 0.012170095438163789 0.0044496150653100955 0 0.012527735258769608 0.0043948740199027149 0 0.012582393882540581 0.0041014919162437029 0 0.012919684044873224 0.0043197812251289025 0 0.012527735258769608 0.0043948740199027149 0 0.012582393882540581 0.0041014919162437029 0 0.01330592638067311 0.0041736767663890029 0 0.012919684044873224 0.0043197812251289025 0 0.013099470710713521 0.0040620870428472672 0 0.012919684044873224 0.0043197812251289025 0 0.012582393882540581 0.0041014919162437029 0 0.013099470710713521 0.0040620870428472672 0 0.013162668592983455 0.0039230554621245157 0 0.013426390210355741 0.0039463137239868686 0 0.013099470710713521 0.0040620870428472672 0 0.013162668592983455 0.0039230554621245157 0 0.012582393882540581 0.0041014919162437029 0 0.013099470710713521 0.0040620870428472672 0 0.014637097359777352 0.003404261792020742 0 0.01472331927671827 0.0029588661542043577 0 0.016160445777230529 0.002808497064276523 0 0.016775358609976868 0.0018246578396860817 0 0.017872410076370759 0.0027464356566598157 0 0.016775358609976868 0.0018246578396860817 0 0.01767060647481368 0.0016923651985060037 0 0.017872410076370759 0.0027464356566598157 0 0.017226194039603297 0.00090339866014179737 0 0.016775358609976868 0.0018246578396860817 0 0.01767060647481368 0.0016923651985060037 0 0.018075321630632885 0.0011166528613422409 0 0.01767060647481368 0.0016923651985060037 0 0.018378504817226783 0.0019367875830549727 0 0.01767060647481368 0.0016923651985060037 0 0.017872410076370759 0.0027464356566598157 0 0.018378504817226783 0.0019367875830549727 0 0.017872410076370759 0.0027464356566598157 0 0.019180673504663834 0.0025075139333313097 0 0.018378504817226783 0.0019367875830549727 0 0.019180673504663834 0.0025075139333313097 0 0.01885886016710395 0.0013541107459441848 0 0.019564047490598681 0.0015451795719283751 0 0.019801748198840334 0.0034119563019012079 0 0.013426785332725049 0.0039542353790161531 0 0.019180673504663834 0.0025075139333313097 0 0.018378504817226783 0.0019367875830549727 0 0.01885886016710395 0.0013541107459441848 0 0.010175556152302173 0.0037509069873903657 0 0.008716510760169105 0.0035391682014160727 0 0.0093469075028758796 0.0045533608225132973 0 0.018075321630632885 0.0011166528613422409 0 0.018378504817226783 0.0019367875830549727 0 0.01885886016710395 0.0013541107459441848 0 0.014123937723926689 0.0024350915790166414 0 0.013824435375258518 0.0023999972970211469 0 0.008716510760169105 0.0035391682014160727 0 0.0078857893985734111 0.0042191386326999288 0 0.0078230774003853788 0.0037623249574107375 0 0.013824435375258518 0.0023999972970211469 0 0.013426785332725049 0.0039542353790161531 0 0.008716510760169105 0.0035391682014160727 0 0.0078857893985734111 0.0042191386326999288 0 0.0093469075028758796 0.0045533608225132973 0 0.0078857893985734111 0.0042191386326999288 0 0.0093469075028758796 0.0045533608225132973 0 0.0089586727362976435 0.0055973305809225446 0 0.0078304653995847733 0.0041942754422493803 0 0.0078452820544920188 0.0044659564548791492 0 0.010432336046651145 0.0048431165400364927 0 0.0093469075028758796 0.0045533608225132973 0 0.0098545311880678492 0.0053899091249203718 0 0.0080340097503394398 0.0042254810770334618 0 0.0092289998230585223 0.0043417717443222049 0 0.008639607333021113 0.0033459158326280434 0 0.0078857893985734111 0.0042191386326999288 0 0.0080340097503394398 0.0042254810770334618 0 0.0076472580199727479 0.0034956894822063059 0 0.0069534377581612905 0.0050569723598766544 0 0.013426785332725049 0.0039542353790161531 0 0.0078857893985734111 0.0042191386326999288 0 0.0080340097503394398 0.0042254810770334618 0 0.0078230774003853788 0.0037623249574107375 0 0.0080340097503394398 0.0042254810770334618 0 0.0074487460124853635 0.0054866839132176257 0 0.0089802114103314061 0.005852680502095144 0 0.0080340097503394398 0.0042254810770334618 0 0.0089802114103314061 0.005852680502095144 0 0.0092289998230585223 0.0043417717443222049 0 0.01726824357454116 0.0059595239481869964 0 0.017798755284542524 0.0053000307673716747 0 0.016922232152838113 0.0052399723316940419 0 0.013426785332725049 0.0039542353790161531 0 0.013039862421454839 0.0060839751730418874 0 0.0181971869955081 0.0060267392738140328 0 0.01726824357454116 0.0059595239481869964 0 0.017798755284542524 0.0053000307673716747 0 0.018689050913761513 0.0048084564064600696 0 0.0181971869955081 0.0060267392738140328 0 0.017798755284542524 0.0053000307673716747 0 0.017717099036484427 0.004354986533629663 0 0.018689050913761513 0.0048084564064600696 0 0.017798755284542524 0.0053000307673716747 0 0.017717099036484427 0.004354986533629663 0 0.017798755284542524 0.0053000307673716747 0 0.016922232152838113 0.0052399723316940419 0 0.016126700029654887 0.004742854759127146 0 0.01683226671945999 0.0045379789685354418 0 0.016922232152838113 0.0052399723316940419 0 0.016922232152838113 0.0052399723316940419 0 0.015762158249892692 0.00533679705919924 0 0.016142760799288523 0.0061283067980911618 0 0.016126700029654887 0.004742854759127146 0 0.016922232152838113 0.0052399723316940419 0 0.015762158249892692 0.00533679705919924 0 0.016126700029654887 0.004742854759127146 0 0.015762158249892692 0.00533679705919924 0 0.015084448056548433 0.0049370360368669311 0 0.011007313764694824 0.0063183554066903545 0 0.013757545484124112 0.0059425488939183055 0 0.011582256112938623 0.005387698728032261 0 0.015762158249892692 0.00533679705919924 0 0.016142760799288523 0.0061283067980911618 0 0.013757545484124112 0.0059425488939183055 0 0.011007313764694824 0.0063183554066903545 0 0.010057167540858824 0.0052921271726204863 0 0.011582256112938623 0.005387698728032261 0 0.0089802114103314061 0.005852680502095144 0 0.011007313764694824 0.0063183554066903545 0 0.010057167540858824 0.0052921271726204863 0 0.01726824357454116 0.0059595239481869964 0 0.016922232152838113 0.0052399723316940419 0 0.016142760799288523 0.0061283067980911618 0 0.013039862421454839 0.0060839751730418874 0 0.013546914668354722 0.006134583511361159 0 0.013872733019727159 0.004864872057958854 0 0.013642238685009873 0.0051692904919803219 0 0.014146641123878494 0.0052286806921156385 0 0.013642238685009873 0.0051692904919803219 0 0.013703315133779129 0.0055096919509626122 0 0.014146641123878494 0.0052286806921156385 0 0.013703315133779129 0.0055096919509626122 0 0.014146641123878494 0.0052286806921156385 0 0.013757545484124112 0.0059425488939183055 0 0.015762158249892692 0.00533679705919924 0 0.015084448056548433 0.0049370360368669311 0 0.013757545484124112 0.0059425488939183055 0 0.014146641123878494 0.0052286806921156385 0 0.015084448056548433 0.0049370360368669311 0 0.013757545484124112 0.0059425488939183055 0 0.014882915186308934 0.0044828225642704594 0 0.014146641123878494 0.0052286806921156385 0 0.015084448056548433 0.0049370360368669311 0 0.013546914668354722 0.006134583511361159 0 0.013661268207746855 0.0060054280920981444 0 0.013757545484124112 0.0059425488939183055 0 0.012904187239735075 0.0052360998621749193 0 0.011582256112938623 0.005387698728032261 0 0.013757545484124112 0.0059425488939183055 0 0.013476060402155651 0.0053895835505354695 0 0.012904187239735075 0.0052360998621749193 0 0.013703315133779129 0.0055096919509626122 0 0.013757545484124112 0.0059425488939183055 0 0.013476060402155651 0.0053895835505354695 0 0.013604262301967816 0.0053572185134270027 0 0.013703315133779129 0.0055096919509626122 0 0.013476060402155651 0.0053895835505354695 0 0.013476060402155651 0.0053895835505354695 0 0.012904187239735075 0.0052360998621749193 0 0.012946731263337955 0.0047690304023953632 0 0.013448901559929109 0.0049086549074675188 0 0.013476060402155651 0.0053895835505354695 0 0.012946731263337955 0.0047690304023953632 0 0.012904187239735075 0.0052360998621749193 0 0.012149538157970855 0.0047209264755863354 0 0.012946731263337955 0.0047690304023953632 0 0.012904187239735075 0.0052360998621749193 0 0.012149538157970855 0.0047209264755863354 0 0.011582256112938623 0.005387698728032261 0 0.012149538157970855 0.0047209264755863354 0 0.012946731263337955 0.0047690304023953632 0 0.012183450760051293 0.0038612726163228693 0 0.012149538157970855 0.0047209264755863354 0 0.011342318303530271 0.0043026106135709563 0 0.012183450760051293 0.0038612726163228693 0 0.013448901559929109 0.0049086549074675188 0 0.01337450962380185 0.0038166259429547136 0 0.012946731263337955 0.0047690304023953632 0 0.0089802114103314061 0.005852680502095144 0 0.010057167540858824 0.0052921271726204863 0 0.0092289998230585223 0.0043417717443222049 0 0.011481918154969292 0.0053660762783229021 0 0.010867445456251132 0.0041236164416428066 0 0.010057167540858824 0.0052921271726204863 0 0.011582256112938623 0.005387698728032261 0 0.010355388668820738 0.0038421893998977804 0 0.012149538157970855 0.0047209264755863354 0 0.011582256112938623 0.005387698728032261 0 0.011342318303530271 0.0043026106135709563 0 0.010355388668820738 0.0038421893998977804 0 0.0092289998230585223 0.0043417717443222049 0 0.008639607333021113 0.0033459158326280434 0 0.010057167540858824 0.0052921271726204863 0 0.010355388668820738 0.0038421893998977804 0 0.0092289998230585223 0.0043417717443222049 0 0.010355388668820738 0.0038421893998977804 0 0.0095963329892864036 0.0028456657175882018 0 0.008639607333021113 0.0033459158326280434 0 0.011342318303530271 0.0043026106135709563 0 0.010735203707305598 0.0032676063466824104 0 0.012183450760051293 0.0038612726163228693 0 0.010867445456251132 0.0041236164416428066 0 0.010171117908486158 0.0030533825307276219 0 0.010735203707305598 0.0032676063466824104 0 0.012183450760051293 0.0038612726163228693 0 0.011322990567552755 0.0025171807148709931 0 0.0095963329892864036 0.0028456657175882018 0 0.0086315756143847833 0.0025359125804159054 0 0.0091105973758157741 0.0019177693834516354 0 0.0095963329892864036 0.0028456657175882018 0 0.0086315756143847833 0.0025359125804159054 0 0.008639607333021113 0.0033459158326280434 0 0.01337450962380185 0.0038166259429547136 0 0.012946731263337955 0.0047690304023953632 0 0.012183450760051293 0.0038612726163228693 0 0.012183450760051293 0.0038612726163228693 0 0.012583726219114562 0.0026593343311319558 0 0.011322990567552755 0.0025171807148709931 0 0.01337450962380185 0.0038166259429547136 0 0.012183450760051293 0.0038612726163228693 0 0.012583726219114562 0.0026593343311319558 0 0.0070610109063709292 0.0022562475323447788 0 0.0065760739423422658 0.0014761398329884547 0 0.00052713487148929486 0.00026942184318435182 0 0.0002960397135582245 -0.0001286126955577926 0 0.00061463868495482109 -9.3683249284458152e-05 0 0.0065760739423422658 0.0014761398329884547 0 0.0058729635475590833 0.00064557576789060485 0 0.012583726219114562 0.0026593343311319558 0 0.011322990567552755 0.0025171807148709931 0 0.011683306237602747 0.0014183922444549754 0 0.011322990567552755 0.0025171807148709931 0 0.011683306237602747 0.0014183922444549754 0 0.010774429271462308 0.0016792371381489429 0 0.00037646700724685672 -0.00040343695785722688 0 0.0002960397135582245 -0.0001286126955577926 0 0.00061463868495482109 -9.3683249284458152e-05 0 0.010171117908486158 0.0030533825307276219 0 0.0095470434769765605 0.0019284833078441193 0 0.0086315756143847833 0.0025359125804159054 0 0.0091105973758157741 0.0019177693834516354 0 0.0081086743645273143 0.0019552326828340097 0 0.010735203707305598 0.0032676063466824104 0 0.011322990567552755 0.0025171807148709931 0 0.009992786374067664 0.0020517535782993337 0 0.011322990567552755 0.0025171807148709931 0 0.009992786374067664 0.0020517535782993337 0 0.010774429271462308 0.0016792371381489429 0 0.010088179208984504 0.00064629151307926105 0 0.009992786374067664 0.0020517535782993337 0 0.010774429271462308 0.0016792371381489429 0 0.010088179208984504 0.00064629151307926105 0 0.011683306237602747 0.0014183922444549754 0 0.010774429271462308 0.0016792371381489429 0 0.0089967146365856412 0.00054008971150925039 0 0.010088179208984504 0.00064629151307926105 0 0.009992786374067664 0.0020517535782993337 0 0.0090584663299537217 0.00057834264027983157 0 0.0095470434769765605 0.0019284833078441193 0 0.0089967146365856412 0.00054008971150925039 0 0.0091105973758157741 0.0019177693834516354 0 0.0083331090390515641 0.0012948451070050506 0 0.0091105973758157741 0.0019177693834516354 0 0.0083331090390515641 0.0012948451070050506 0 0.0081086743645273143 0.0019552326828340097 0 0.0083331090390515641 0.0012948451070050506 0 0.0074623575961651253 0.0011615738858128679 0 0.0081086743645273143 0.0019552326828340097 0 0.0074623575961651253 0.0011615738858128679 0 0.0081086743645273143 0.0019552326828340097 0 0.0072503631914603026 0.001817638364443121 0 0.0081086743645273143 0.0019552326828340097 0 0.0072503631914603026 0.001817638364443121 0 0.0077121438130399326 0.0026111482737841691 0 0.0086315756143847833 0.0025359125804159054 0 0.0081086743645273143 0.0019552326828340097 0 0.0077121438130399326 0.0026111482737841691 0 0.0072503631914603026 0.001817638364443121 0 0.0066891862303527254 0.0020442549042368357 0 0.0077121438130399326 0.0026111482737841691 0 0.0074623575961651253 0.0011615738858128679 0 0.006321855920430771 0.0012567748791959853 0 0.0072503631914603026 0.001817638364443121 0 0.006321855920430771 0.0012567748791959853 0 0.0072503631914603026 0.001817638364443121 0 0.0066891862303527254 0.0020442549042368357 0 0.0061055191467788445 0.001351923979878958 0 0.006321855920430771 0.0012567748791959853 0 0.0061629135047347261 0.0017121592986768588 0 0.006321855920430771 0.0012567748791959853 0 0.0061629135047347261 0.0017121592986768588 0 0.0066891862303527254 0.0020442549042368357 0 0.0061055191467788445 0.001351923979878958 0 0.0056770258016332394 0.0016017786558208396 0 0.0061629135047347261 0.0017121592986768588 0 0.0056770258016332394 0.0016017786558208396 0 0.0061629135047347261 0.0017121592986768588 0 0.005984198656635434 0.0023713713793483255 0 0.0061629135047347261 0.0017121592986768588 0 0.005984198656635434 0.0023713713793483255 0 0.0066891862303527254 0.0020442549042368357 0 0.005984198656635434 0.0023713713793483255 0 0.0066891862303527254 0.0020442549042368357 0 0.0069942733509294102 0.0027656771786351763 0 0.005984198656635434 0.0023713713793483255 0 0.0069942733509294102 0.0027656771786351763 0 0.0067094684454489786 0.0034052940861378079 0 0.0078468044164200206 0.0044009112903080185 0 0.0078452820544920188 0.0044659564548791492 0 0.00980335992384938 0.0066107114106420664 0 0.0098545311880678492 0.0053899091249203718 0 0.0089586727362976435 0.0055973305809225446 0 0.0093469075028758796 0.0045533608225132973 0 0.0098545311880678492 0.0053899091249203718 0 0.0089586727362976435 0.0055973305809225446 0 0.0078857893985734111 0.0042191386326999288 0 0.0067094684454489786 0.0034052940861378079 0 0.0076472580199727479 0.0034956894822063059 0 0.0069942733509294102 0.0027656771786351763 0 0.0067094684454489786 0.0034052940861378079 0 0.0076472580199727479 0.0034956894822063059 0 0.0076472580199727479 0.0034956894822063059 0 0.008639607333021113 0.0033459158326280434 0 0.0077121438130399326 0.0026111482737841691 0 0.0080340097503394398 0.0042254810770334618 0 0.0076472580199727479 0.0034956894822063059 0 0.008639607333021113 0.0033459158326280434 0 0.0086315756143847833 0.0025359125804159054 0 0.008639607333021113 0.0033459158326280434 0 0.0077121438130399326 0.0026111482737841691 0 0.0066891862303527254 0.0020442549042368357 0 0.0069942733509294102 0.0027656771786351763 0 0.0077121438130399326 0.0026111482737841691 0 0.0069942733509294102 0.0027656771786351763 0 0.0076472580199727479 0.0034956894822063059 0 0.0077121438130399326 0.0026111482737841691 0 
</DataArray>
</PointData>
<CellData Scalars="region_id,cross_section_updated," Vectors="" Tensors="stress,">
<DataArray type="Float64" Name="region_id" format="ascii">
5 5 5 5 5 6 5 5 5 5 5 5 5 5 5 5 6 5 5 6 5 6 5 5 5 5 6 5 5 5 5 5 5 6 5 5 5 5 5 5 6 6 5 5 6 6 5 5 5 5 5 5 5 5 5 5 6 6 5 5 5 6 5 5 5 5 6 5 5 5 5 5 5 5 5 5 5 5 6 5 5 5 6 5 5 5 6 5 5 5 5 6 5 5 5 5 5 5 6 5 5 6 5 5 5 5 6 5 5 5 5 5 6 5 5 5 5 5 5 5 5 5 5 5 5 5 5 5 5 5 5 5 5 5 5 6 5 5 5 6 5 5 5 5 5 5 6 5 5 5 5 5 5 5 5 5 5 5 5 5 5 5 5 5 5 5 5 5 5 5 6 5 6 5 5 5 5 5 5 5 5 5 5 5 5 6 5 5 5 5 5 5 5 5 5 5 5 5 6 5 5 5 5 5 5 5 5 5 5 5 5 6 5 5 5 6 6 5 5 5 5 5 5 5 6 5 5 5 5 5 5 5 5 5 6 5 5 6 5 5 5 5 5 5 5 5 5 5 5 5 5 5 5 5 5 5 6 5 5 5 5 5 5 5 5 5 6 5 5 5 5 5 5 5 5 5 5 5 5 5 5 5 6 5 5 5 5 5 5 5 5 5 5 5 5 5 5 5 5 5 5 6 5 5 5 5 6 5 5 5 5 5 5 5 5 6 5 5 6 5 5 5 5 5 5 5 5 5 5 5 5 5 5 5 5 5 5 5 5 5 5 5 6 5 5 5 5 6 5 5 5 5 5 6 6 5 5 6 6 5 5 5 5 5 5 5 6 5 5 5 5 5 5 5 5 6 5 5 5 5 5 5 5 5 6 5 5 5 5 6 5 5 5 5 5 5 6 5 5 5 5 5 5 5 5 5 5 5 5 5 5 5 5 5 5 5 5 5 5 5 5 5 5 5 5 5 6 5 5 5 5 5 5 5 5 6 5 5 5 6 5 5 6 5 5 5 5 5 5 5 5 6 5 5 5 6 5 6 5 5 5 5 6 5 5 6 5 5 6 5 5 5 6 5 5 5 5 5 5 5 5 5 5 5 5 5 5 5 5 5 5 5 5 5 5 5 6 5 5 5 5 5 5 5 5 6 5 5 5 5 5 5 5 5 5 5 5 5 5 6 5 5 5 5 5 5 5 5 5 5 5 5 5 5 5 5 5 5 5 5 5 6 5 5 5 6 5 5 6 5 5 5 5 6 5 5 5 5 5 5 5 6 5 6 5 5 5 5 5 5 5 5 5 5 5 5 5 5 5 5 5 5 5 5 5 5 6 5 6 5 6 5 5 6 6 5 5 5 5 5 5 5 5 5 5 5 5 5 5 5 5 5 6 5 5 5 5 6 5 5 5 5 6 6 5 6 5 5 5 5 5 5 5 5 5 5 5 5 5 5 5 5 5 5 5 5 5 5 5 5 5 5 6 5 5 5 5 5 5 5 5 5 5 5 5 6 5 5 5 6 5 6 5 5 5 5 5 5 5 5 5 5 6 5 5 5 6 5 5 5 5 5 5 5 5 5 6 5 5 5 5 6 5 5 5 5 5 5 5 5 5 6 5 5 6 5 5 5 5 5 6 5 5 5 5 6 5 5 5 5 5 5 5 6 6 5 5 5 5 5 5 6 5 6 5 5 6 5 6 5 5 5 6 5 5 5 5 6 5 5 6 5 6 6 5 6 6 5 5 6 5 6 5 5 5 6 6 5 5 5 5 5 6 5 5 5 5 5 5 5 5 6 5 6 5 5 5 5 6 6 5 5 6 5 5 5 5 5 6 5 5 6 5 6 5 6 6 5 6 5 6 6 6 5 5 6 5 6 5 5 6 5 5 5 5 5 6 5 5 6 5 5 5 5 6 5 5 5 5 5 5 5 6 5 6 5 5 5 6 5 5 5 5 5 5 5 5 5 5 5 5 5 5 5 5 5 5 6 5 5 5 5 5 5 5 5 5 6 5 5 5 5 5 5 5 5 5 5 5 5 5 6 5 5 5 5 5 5 5 5 5 5 5 5 5 5 5 5 5 5 5 5 5 5 5 5 5 5 5 5 5 5 5 5 5 5 5 5 5 5 5 5 6 5 5 5 5 5 5 5 5 5 5 5 5 5 5 5 6 6 5 5 6 5 5 5 5 5 5 5 5 5 5 5 5 5 5 5 5 5 5 5 5 6 5 6 5 5 5 5 5 6 6 5 5 5 5 5 5 5 5 5 5 5 5 5 5 5 5 5 5 5 5 5 5 5 5 5 5 5 5 5 5 5 5 5 5 5 5 5 5 5 5 5 5 5 5 5 5 5 5 5 5 5 5 5 5 5 5 6 5 5 5 5 5 5 5 6 5 5 5 5 6 5 5 5 5 5 5 5 5 5 5 5 5 5 5 5 6 5 5 5 5 6 5 5 5 5 6 5 5 6 5 5 6 5 5 5 5 6 5 5 5 5 5 5 5 5 5 5 5 5 5 5 5 5 5 5 5 5 5 5 5 5 6 5 6 5 5 5 5 5 5 5 5 5 5 5 5 6 5 5 5 5 5 6 5 5 5 5 5 5 5 5 5 5 5 6 6 5 5 6 5 5 5 5 6 5 5 6 5 5 5 5 5 5 6 5 5 5 5 5 5 5 5 5 5 5 5 5 5 5 5 5 6 5 5 6 5 5 5 6 5 6 5 5 5 5 6 5 5 5 5 5 5 5 6 5 5 5 5 6 6 5 5 6 5 5 5 6 5 5 6 5 5 6 5 5 6 5 5 5 6 5 5 5 5 5 5 5 5 5 5 5 6 5 5 5 6 6 5 5 6 5 5 6 5 5 6 5 6 5 5 5 6 6 6 5 5 6 5 5 5 5 5 6 5 5 5 5 6 5 5 6 5 5 6 6 5 5 5 5 6 5 5 5 6 5 6 5 5 5 5 5 5 5 5 6 5 5 5 6 5 5 5 5 5 5 5 5 5 5 5 6 5 5 5 5 5 6 6 5 6 6 5 5 5 6 5 6 5 5 6 5 5 5 5 5 5 5 5 5 6 5 5 5 5 6 5 5 5 5 5 5 5 5 5 6 5 5 5 5 5 6 6 5 5 6 5 5 5 5 5 6 5 6 5 5 5 6 5 5 5 5 5 5 5 5 5 6 6 5 5 5 6 5 5 6 6 5 5 5 6 5 5 5 5 5 5 6 5 5 5 6 6 5 5 5 6 6 5 5 6 5 5 5 6 5 6 5 5 5 6 5 5 5 5 5 5 6 6 5 6 5 5 6 5 6 6 5 5 6 5 5 5 5 5 6 5 5 5 5 6 5 5 5 5 5 5 5 6 5 5 5 5 6 5 5 5 5 5 5 5 5 5 5 6 5 5 6 6 5 5 5 5 5 5 5 6 5 5 5 6 6 5 5 5 5 5 5 5 5 6 5 5 5 5 6 5 5 5 5 5 6 5 5 5 5 5 5 5 5 5 5 5 5 5 5 5 5 5 5 5 5 5 6 5 5 6 5 5 5 5 6 5 5 5 5 5 5 5 5 5 5 5 5 5 5 5 5 5 5 5 5 5 5 5 5 5 5 5 5 5 5 5 5 5 5 5 5 5 5 5 5 5 5 5 5 5 5 5 5 5 6 5 5 5 5 5 5 6 5 5 5 5 6 5 6 5 5 6 5 5 5 5 5 5 5 5 5 5 5 5 5 6 5 5 6 5 5 6 5 6 5 5 5 5 5 5 5 5 5 5 5 5 5 5 5 5 5 5 5 5 5 5 6 5 5 5 5 5 5 5 5 5 5 5 5 5 5 5 5 5 5 5 5 5 5 5 5 5 5 5 5 5 5 5 5 5 5 6 5 5 5 5 5 5 6 5 5 6 6 5 5 5 5 5 5 5 6 5 5 6 5 5 5 5 5 5 6 5 5 5 6 5 6 5 5 5 6 5 5 5 6 5 5 5 5 5 6 5 5 6 5 6 6 5 5 6 5 6 5 5 5 5 5 6 5 5 6 5 6 5 5 6 5 5 5 5 5 6 6 6 5 5 5 5 5 5 5 5 5 5 6 5 5 6 5 5 6 6 6 5 6 5 5 5 5 6 5 6 5 5 5 6 5 6 5 6 5 5 5 6 5 5 6 5 6 6 6 5 5 6 5 6 6 5 5 5 5 5 5 5 5 5 5 5 5 6 5 5 5 5 6 5 5 5 6 6 6 5 5 5 6 5 6 5 6 5 5 5 5 5 5 6 5 5 6 6 6 5 5 5 6 5 6 5 5 5 5 5 5 5 6 5 5 5 5 6 5 5 5 6 5 6 6 5 6 5 5 5 5 5 5 5 5 5 5 5 5 5 5 6 5 5 5 5 5 5 5 5 5 5 5 6 5 5 5 5 5 5 5 5 5 5 5 5 5 5 5 5 5 6 5 5 5 5 6 5 5 5 5 5 5 5 5 5 5 5 5 5 5 5 5 6 5 6 5 5 5 5 6 5 5 6 5 5 6 5 5 6 6 5 5 6 5 5 6 5 5 5 6 5 5 5 5 6 5 6 5 5 5 5 5 5 5 5 5 5 5 5 5 5 5 5 5 5 5 5 5 5 5 5 5 6 5 5 6 5 5 5 5 5 5 5 5 5 5 5 6 5 5 5 5 6 5 5 6 5 5 5 5 5 6 5 6 5 5 5 5 5 5 5 5 5 5 5 5 5 5 5 5 5 5 5 5 5 5 5 5 5 6 5 6 5 6 6 5 5 5 5 5 6 5 5 5 5 5 5 6 5 5 5 5 5 5 6 6 5 5 5 5 6 5 5 5 5 5 5 5 5 5 5 5 5 5 5 5 5 5 5 6 5 6 6 5 5 5 5 5 5 5 6 5 5 5 6 6 5 5 5 5 5 5 5 5 5 5 5 5 5 5 5 5 5 5 5 5 5 5 5 5 5 5 5 5 6 5 5 5 5 6 5 5 5 5 5 5 5 5 5 5 5 5 5 5 5 5 5 5 6 5 5 5 5 5 5 5 5 6 6 5 6 5 5 5 5 5 5 5 5 5 5 5 6 5 6 5 5 5 5 5 5 5 5 5 6 5 5 5 6 6 5 5 5 6 6 5 6 5 5 5 5 5 5 5 5 5 6 5 5 5 5 5 5 5 6 5 5 5 5 5 5 6 5 5 5 5 5 5 6 5 5 5 5 5 5 5 5 5 5 5 5 5 5 5 6 5 5 5 5 5 5 5 5 5 5 5 5 5 5 5 6 5 5 5 5 5 5 5 5 5 5 6 5 5 5 6 5 5 5 5 5 5 5 6 5 5 5 6 5 5 6 5 5 5 6 6 5 5 5 6 5 5 5 5 5 5 5 6 5 5 5 5 5 6 5 5 5 5 6 5 5 5 5 5 5 5 5 6 5 5 5 5 5 5 5 5 5 5 5 5 5 5 5 5 5 5 5 5 5 5 5 5 5 5 5 5 5 5 5 5 5 6 5 5 6 5 5 5 6 6 5 5 5 5 6 6 5 5 5 5 5 6 5 5 5 5 5 5 5 6 5 5 5 5 5 6 5 5 5 6 5 5 5 5 5 6 6 5 5 5 5 5 5 5 5 5 5 5 6 5 5 6 5 5 5 5 5 5 5 5 5 5 5 5 5 6 6 5 5 5 5 5 5 5 5 5 5 5 5 5 5 6 5 5 5 6 5 5 5 5 5 5 5 5 5 5 5 5 5 5 6 5 6 5 6 5 5 5 5 5 6 6 5 5 5 5 5 6 5 5 5 5 5 5 5 5 5 5 6 5 5 5 5 5 5 5 5 5 5 5 5 5 5 5 5 5 5 5 5 6 5 5 5 5 5 5 5 5 5 5 5 5 5 5 5 5 5 5 5 5 5 5 5 5 5 6 5 5 5 5 5 5 5 6 5 5 5 6 5 5 5 5 6 5 6 5 5 5 5 5 5 6 5 5 5 6 5 5 5 5 6 5 6 5 6 5 5 5 6 5 6 5 5 5 5 5 5 5 5 6 5 5 5 5 5 5 6 5 5 5 5 5 6 6 6 5 5 5 5 5 5 5 5 5 5 5 5 5 6 5 6 5 5 5 5 5 5 5 5 5 6 5 5 6 6 5 5 6 5 5 5 5 6 5 5 5 5 6 5 5 5 5 5 6 5 5 5 5 6 5 5 5 6 5 5 5 5 5 6 5 5 5 5 5 5 5 5 5 6 5 5 5 5 5 5 5 5 5 6 5 5 5 5 5 5 5 5 5 5 6 5 5 6 5 6 5 5 5 5 5 5 5 5 5 5 6 5 6 5 5 5 5 5 5 5 5 5 5 5 6 5 5 5 6 5 5 5 5 6 5 5 6 5 5 5 5 5 5 5 5 5 5 5 5 5 5 5 5 5 5 5 5 5 5 5 5 5 5 5 6 5 5 5 5 6 5 6 6 5 5 5 5 5 6 6 5 5 5 5 5 5 5 5 5 5 5 5 5 5 5 5 5 5 5 6 5 5 5 5 6 5 5 5 5 5 5 5 6 6 5 5 6 5 5 6 5 6 5 6 5 5 5 5 5 6 5 5 6 5 6 5 5 5 5 5 5 5 5 5 5 5 5 5 5 5 5 6 5 6 5 5 5 5 5 5 5 5 5 5 5 5 5 5 5 5 5 5 5 5 5 5 5 5 5 5 5 5 5 5 5 5 5 5 5 6 5 5 5 5 6 5 5 5 5 5 5 5 5 5 5 5 5 5 6 5 6 5 5 5 6 6 5 5 5 5 5 6 5 5 5 5 6 5 5 6 5 5 5 5 5 5 5 5 5 5 5 5 5 5 5 5 5 5 5 5 5 5 5 5 5 5 5 5 5 5 5 5 5 5 5 5 6 5 5 5 5 5 5 5 5 5 5 5 5 5 5 5 5 5 5 5 5 5 5 5 5 5 5 5 5 5 5 5 5 6 5 6 5 5 5 5 6 5 5 5 5 6 5 5 5 5 5 5 5 5 5 5 5 5 5 5 5 5 5 5 5 6 5 5 5 5 5 5 6 5 5 5 5 5 6 5 5 5 5 5 5 5 5 5 5 5 6 5 5 5 5 5 5 5 5 6 5 5 5 5 5 5 5 6 5 5 5 5 5 5 5 5 5 5 5 5 5 5 5 5 5 5 5 5 6 5 6 5 5 5 5 5 5 5 5 5 6 6 5 5 6 5 5 5 6 5 5 5 5 6 5 5 5 6 5 5 5 5 5 5 5 5 5 5 5 6 5 5 6 5 5 5 5 6 5 5 6 5 5 5 5 5 5 5 5 5 5 5 5 5 6 5 5 5 5 5 5 6 5 5 5 6 5 5 5 5 5 5 5 5 6 5 5 5 6 5 5 5 6 5 6 5 5 5 5 5 5 5 5 5 5 6 5 6 5 6 5 6 5 5 5 5 5 5 5 5 6 5 6 5 5 5 5 6 5 5 5 5 5 6 5 5 5 5 6 5 5 5 5 5 6 5 6 5 6 6 5 5 5 5 6 5 5 5 5 5 5 5 5 5 5 5 5 5 5 5 5 5 5 5 5 5 5 6 5 6 5 6 5 5 5 6 5 6 5 5 5 6 5 5 5 5 5 5 5 5 5 5 5 5 5 5 5 5 5 5 5 5 5 5 5 5 5 5 5 5 5 5 5 5 5 5 5 5 5 5 5 5 5 5 5 5 5 5 5 5 5 5 5 5 5 5 5 5 5 5 5 5 5 5 5 5 5 5 5 5 5 5 5 5 5 5 5 5 5 5 5 6 5 5 5 5 5 5 6 5 5 5 5 5 5 6 5 5 5 5 5 6 5 5 5 6 5 5 5 5 5 5 6 5 5 6 5 6 6 5 5 5 6 5 5 5 5 5 5 5 5 5 5 5 5 5 5 5 5 5 5 5 5 5 5 5 5 5 5 5 5 5 5 5 5 5 5 5 5 6 5 5 5 5 5 6 5 5 5 5 5 5 5 5 5 6 6 5 5 6 5 6 5 5 6 6 5 5 6 5 5 5 5 5 5 5 5 5 5 5 5 5 6 5 5 5 5 5 5 5 5 5 5 5 5 5 5 5 5 5 5 5 5 6 5 5 5 5 6 5 5 6 5 5 5 5 5 5 5 5 5 5 5 6 5 5 5 5 5 5 5 5 5 5 5 5 5 5 6 5 5 5 5 6 5 5 5 5 5 6 5 5 5 5 5 5 5 5 5 5 5 5 5 6 5 5 5 5 5 5 5 5 5 5 5 5 5 5 5 5 5 5 6 6 5 5 5 5 5 5 5 5 5 5 6 5 5 5 5 5 5 5 5 5 5 5 6 5 5 5 5 6 5 5 5 5 5 5 5 5 5 5 5 5 6 5 5 5 5 5 5 5 5 5 5 5 5 5 5 5 5 5 5 5 5 5 6 6 5 5 5 5 5 5 5 5 5 5 5 6 6 5 5 5 5 5 6 5 5 5 5 6 6 5 6 5 5 6 5 6 5 5 5 6 5 5 5 5 6 5 5 5 5 5 6 5 5 5 6 5 5 5 5 5 6 5 5 5 5 5 6 5 5 6 5 5 6 5 5 5 6 5 5 5 6 5 5 5 6 5 5 5 6 5 6 5 5 5 5 5 5 5 6 5 5 5 6 5 5 5 5 5 5 5 5 5 5 5 5 5 5 5 5 5 5 5 5 5 5 5 5 5 5 5 5 5 5 5 5 5 5 5 5 5 5 5 5 5 5 5 5 5 5 5 5 5 5 5 5 5 5 5 5 5 5 5 5 5 5 5 5 5 5 5 5 5 5 5 5 5 5 5 5 5 5 6 5 5 6 5 5 5 5 5 5 5 5 5 5 5 5 5 5 6 5 5 6 5 5 6 5 5 5 5 5 5 5 5 5 5 5 5 5 5 5 5 5 5 5 5 5 5 5 5 5 5 5 5 5 5 5 5 5 6 5 5 5 5 5 5 5 5 5 5 5 5 5 5 5 5 5 5 5 5 5 5 5 5 5 5 5 5 5 5 5 5 5 5 5 5 5 6 5 5 5 5 5 5 5 5 5 5 5 5 5 5 5 5 5 5 5 5 5 5 5 5 5 5 5 5 5 5 5 5 5 5 5 5 5 5 5 5 5 5 5 5 5 5 5 5 5 5 5 5 5 5 5 5 5 5 6 5 5 5 5 5 5 5 5 5 5 5 5 5 5 5 5 6 5 5 6 5 6 6 5 5 5 5 5 5 5 5 5 5 5 5 5 5 5 5 5 5 5 5 5 5 5 5 5 5 5 5 5 5 5 5 5 5 5 5 5 5 5 5 6 5 5 5 5 6 5 5 5 5 5 6 6 5 5 5 6 6 6 5 5 5 5 5 5 5 6 5 5 6 5 5 6 5 5 6 5 5 5 5 5 5 6 5 5 6 5 5 5 5 5 5 5 5 5 5 5 5 5 5 5 5 5 5 5 5 5 5 5 5 5 5 6 5 5 5 5 5 5 5 5 5 5 5 5 5 5 5 5 5 5 5 5 5 5 5 5 5 5 5 5 5 5 5 5 5 5 5 5 5 5 5 5 5 5 5 5 5 5 5 5 5 5 5 5 5 5 5 5 6 5 5 6 6 5 5 6 6 5 5 5 6 5 6 5 5 5 6 5 5 5 5 5 5 5 5 5 5 5 5 5 5 6 5 5 5 5 5 6 5 5 5 5 5 5 5 5 6 5 5 5 5 5 6 5 5 5 5 5 5 5 5 5 5 5 5 5 5 6 5 5 5 6 6 5 5 5 5 5 5 5 5 6 5 6 5 6 5 6 5 5 6 5 6 5 5 5 5 5 5 5 5 5 5 5 6 5 5 5 5 5 5 5 5 5 5 6 5 5 5 5 5 5 5 5 5 5 5 5 5 5 5 6 5 5 5 5 5 5 5 5 6 5 5 6 6 5 6 6 5 6 5 5 6 5 6 5 6 5 6 5 5 5 5 5 6 5 5 5 6 5 5 5 5 5 5 5 5 5 6 5 5 5 5 5 5 5 5 5 5 5 5 5 5 5 5 5 5 5 6 5 5 5 5 5 5 5 6 5 6 5 5 5 5 6 5 5 5 5 5 5 6 5 5 5 5 5 5 5 5 5 5 5 5 5 5 5 5 5 6 5 5 5 5 6 5 6 5 5 5 6 6 5 5 5 5 5 6 5 5 5 6 5 5 5 6 6 5 5 5 5 5 6 6 5 6 5 5 5 5 5 5 5 5 5 5 5 5 5 5 5 5 6 5 5 5 5 6 5 5 6 5 5 5 5 5 5 5 5 5 5 5 5 5 5 5 5 5 5 6 5 5 5 5 5 5 5 5 6 5 5 6 5 5 5 5 6 5 5 5 5 5 5 6 6 5 5 5 5 5 6 5 5 5 5 6 5 5 6 5 5 5 5 6 6 5 5 5 5 6 6 5 5 5 5 5 5 5 5 5 5 6 5 5 5 5 5 6 6 5 5 5 5 5 5 5 5 5 5 5 5 6 5 5 5 5 5 5 5 5 6 5 5 5 6 5 5 5 5 6 5 5 6 5 5 5 5 5 5 5 5 5 5 5 5 5 5 5 5 5 5 5 5 5 5 5 5 6 5 5 5 5 5 5 5 5 5 5 5 5 5 5 5 5 5 5 5 5 5 5 5 5 5 5 5 5 6 5 5 6 5 5 6 5 5 5 5 6 5 5 5 5 5 6 5 5 5 5 5 5 6 5 5 5 5 5 5 5 5 6 5 5 5 5 5 5 5 5 5 5 5 5 5 5 5 5 5 5 6 5 5 6 5 6 5 5 6 5 5 5 5 5 5 5 5 5 5 5 5 5 5 5 5 5 5 5 5 5 5 5 5 5 5 5 5 5 5 5 6 5 5 6 5 5 6 6 5 5 5 5 5 5 5 5 5 5 5 5 5 5 5 5 5 5 5 5 5 5 5 5 5 5 5 5 5 5 5 5 5 6 5 6 5 6 5 5 5 5 5 6 5 5 5 5 5 6 5 6 5 6 5 5 5 5 5 5 5 5 6 5 6 5 5 6 5 5 5 5 5 5 6 5 6 6 5 5 5 5 5 5 5 5 6 5 5 6 5 5 6 5 6 5 5 5 6 6 5 6 5 5 5 5 5 5 5 5 5 5 5 5 5 5 5 5 5 5 5 6 5 5 5 5 5 5 5 5 5 5 5 5 5 5 5 5 5 5 5 5 5 5 5 5 5 5 5 5 5 5 5 5 5 5 5 5 5 5 5 5 5 5 5 5 5 5 5 5 5 5 5 5 5 5 6 5 5 5 5 6 5 5 5 5 5 5 5 5 5 5 5 5 5 5 5 5 6 5 6 5 5 5 5 5 5 5 6 6 6 5 5 5 5 6 6 6 6 6 5 5 6 5 5 5 5 6 5 5 5 5 5 5 5 6 5 5 6 6 5 5 5 5 5 5 6 5 6 6 5 6 6 5 5 5 5 6 5 6 5 5 6 5 5 6 5 6 5 5 6 5 6 5 5 5 5 6 5 5 5 5 6 5 5 6 5 5 5 5 5 5 6 5 5 5 5 5 5 5 5 5 6 5 6 5 5 5 5 5 5 5 6 5 5 5 5 5 5 5 5 5 5 5 6 6 5 5 6 6 5 5 6 5 5 5 6 5 6 6 5 5 5 6 6 5 5 6 5 5 6 5 6 5 6 5 5 5 5 5 6 5 5 6 5 6 6 5 6 6 5 5 5 5 5 5 6 6 5 6 5 5 5 5 6 5 5 5 5 5 5 5 5 5 5 5 5 5 5 5 5 5 5 5 5 5 5 5 5 5 5 5 5 5 5 5 5 5 5 5 5 5 5 5 5 5 5 5 5 5 5 5 5 5 5 5 5 5 5 5 5 5 5 5 5 5 5 5 5 5 5 5 5 5 5 5 5 5 5 5 5 5 5 5 5 5 6 5 5 5 5 5 5 6 5 5 5 5 5 5 6 5 5 6 5 5 5 5 5 5 5 5 5 5 5 5 5 5 6 5 5 5 5 5 6 5 5 5 5 6 5 5 5 5 5 5 5 5 5 5 5 5 5 5 5 5 5 5 5 5 5 5 5 5 5 5 5 5 5 5 5 5 5 5 5 6 5 5 5 5 5 5 5 5 5 5 5 5 5 5 5 5 5 5 5 5 5 5 5 5 5 5 5 5 5 5 5 5 5 5 5 5 5 5 5 5 5 5 5 5 5 5 5 5 5 5 5 5 5 5 5 5 5 5 5 5 5 5 5 5 5 5 5 5 5 5 5 5 5 5 5 5 5 5 5 5 5 5 5 5 5 5 5 5 5 5 5 5 5 5 5 5 5 5 5 5 6 5 5 5 5 5 5 5 5 5 5 5 5 5 5 5 5 5 5 5 5 5 5 6 5 6 5 5 5 5 5 6 6 5 5 6 5 6 5 5 6 5 5 5 5 5 5 5 5 5 5 5 5 5 5 5 5 5 5 6 5 5 5 6 5 5 5 6 5 6 5 5 5 5 5 5 5 5 5 5 6 5 5 5 5 6 6 6 5 5 5 5 5 5 5 5 6 5 5 5 5 5 5 5 5 6 5 5 6 5 5 5 5 5 6 5 6 5 6 6 5 6 5 5 6 5 6 5 5 5 5 5 5 5 5 6 5 6 6 5 6 5 6 5 5 5 6 6 5 5 6 5 6 5 6 5 5 5 5 5 6 5 5 5 5 5 5 5 5 5 6 5 6 5 5 5 5 5 5 5 6 5 5 5 6 5 6 6 5 5 5 5 5 6 6 5 5 5 5 5 5 5 5 6 5 6 5 6 5 5 5 5 5 6 5 5 5 5 5 5 5 5 5 5 5 5 5 5 5 5 5 5 5 5 5 5 6 5 5 5 5 5 6 5 5 5 5 6 5 5 5 5 5 5 5 6 5 5 6 5 5 5 5 5 5 5 5 5 5 5 5 5 6 5 6 5 5 5 5 5 5 5 5 5 5 5 5 5 6 5 5 5 6 5 5 6 5 6 5 5 5 5 5 5 6 5 5 5 5 5 5 5 6 5 5 6 5 6 5 6 6 6 5 5 5 6 5 5 6 5 6 5 5 5 5 5 5 5 5 5 5 5 5 5 5 5 5 6 5 6 5 5 5 5 5 5 5 5 5 5 5 5 5 5 5 5 6 5 5 5 5 6 5 5 5 5 5 5 5 5 5 5 5 5 5 5 5 5 5 5 5 5 6 5 5 5 5 6 5 5 5 5 5 5 6 5 5 5 5 5 5 5 5 5 5 5 5 5 5 6 6 5 5 5 5 6 5 5 5 5 6 6 5 5 5 5 5 5 5 5 5 5 5 5 5 5 6 5 6 5 5 5 5 5 5 5 5 5 5 5 5 5 5 5 5 5 5 5 5 5 5 5 5 5 5 5 5 5 5 5 5 5 5 5 5 5 5 5 5 5 6 5 5 5 5 5 5 5 5 5 5 6 5 5 5 5 5 5 5 5 5 5 5 5 5 5 5 5 6 5 5 6 5 6 5 5 5 5 5 6 5 6 5 5 6 5 5 5 5 5 5 5 5 5 5 5 5 5 5 5 5 6 5 5 6 5 5 5 5 5 5 5 5 5 5 5 5 5 5 5 5 5 5 5 5 5 5 5 5 5 5 5 5 5 5 5 5 5 5 5 6 5 5 5 6 5 5 5 5 5 5 5 5 6 5 5 5 6 5 5 6 5 5 5 5 6 6 5 6 5 5 5 5 5 6 5 6 5 6 5 5 5 5 5 5 5 6 5 5 5 5 5 6 5 5 5 6 5 5 5 6 5 5 6 5 5 6 5 5 5 5 5 5 5 5 5 6 5 5 5 5 5 5 6 5 5 5 6 6 5 5 5 5 5 5 5 5 5 5 5 5 5 5 5 5 5 5 5 5 6 5 5 5 5 5 5 5 5 6 5 5 5 5 5 5 5 5 5 5 5 5 5 6 5 5 6 5 5 5 5 5 5 5 5 5 5 5 5 5 5 5 5 5 5 5 5 5 5 5 5 5 5 5 5 5 5 5 5 5 5 5 5 5 5 5 5 5 5 5 5 5 5 5 5 5 5 5 5 5 6 5 5 5 5 5 5 5 5 5 5 5 5 5 5 5 5 5 5 5 5 5 5 5 5 5 5 5 5 5 5 5 5 5 5 5 5 5 5 5 5 5 5 5 5 5 5 5 5 5 5 5 5 5 5 5 5 5 5 5 5 5 6 5 5 5 5 5 5 5 5 5 6 5 5 5 5 5 5 5 6 5 5 5 5 5 5 5 5 6 5 5 5 5 5 5 5 6 6 5 5 5 5 5 5 5 5 5 5 5 5 5 5 5 5 5 5 5 5 5 5 6 5 5 5 5 5 5 5 5 5 5 5 5 5 5 5 5 5 5 5 5 5 5 5 5 5 5 5 5 5 5 5 5 5 5 5 5 5 5 5 5 5 5 5 6 5 5 5 5 5 5 5 5 5 6 5 5 5 5 5 5 6 5 5 5 5 5 5 5 6 5 6 5 5 6 5 5 5 5 6 5 6 5 6 5 5 6 5 5 5 5 5 5 5 5 5 5 5 5 6 5 5 5 5 5 5 5 5 5 5 5 5 5 5 5 5 5 5 5 5 5 5 5 5 5 5 5 5 5 5 6 5 5 5 5 5 5 5 5 5 5 5 5 5 6 5 5 6 5 5 5 6 6 5 5 6 6 5 5 5 5 5 5 5 5 5 5 5 5 5 6 5 5 5 5 6 5 6 5 5 6 6 5 5 5 5 6 5 5 5 6 5 5 5 5 5 5 5 5 5 5 5 5 5 5 6 6 5 5 5 5 5 5 5 6 5 5 6 5 6 5 5 5 5 5 6 6 5 5 6 5 5 6 5 6 5 5 5 5 5 6 6 5 5 5 5 5 6 5 6 5 5 5 5 6 5 5 5 5 6 5 5 5 5 5 5 5 5 6 5 5 6 5 5 5 5 5 5 5 5 5 6 5 5 5 5 5 5 5 5 5 5 5 5 5 6 5 5 5 5 6 5 5 5 5 5 5 6 5 5 5 6 5 6 6 5 5 5 5 5 5 5 5 5 5 5 5 6 5 5 5 5 5 6 5 6 5 5 5 5 5 5 6 5 5 5 5 5 5 5 5 5 5 5 5 5 5 5 5 6 5 5 5 5 5 5 5 5 5 5 6 5 5 5 6 6 5 5 5 5 5 6 6 5 6 5 5 6 5 5 5 5 6 5 5 5 5 5 5 5 5 5 5 5 5 6 5 5 5 5 6 5 5 5 6 5 5 5 6 5 5 5 6 5 5 5 6 5 5 5 5 5 5 5 5 5 5 5 5 5 6 5 5 5 6 5 5 5 5 5 5 6 5 5 5 5 5 5 5 5 5 5 5 5 6 5 5 5 5 5 6 5 5 5 5 6 5 5 5 5 5 5 5 5 5 5 5 6 5 5 5 5 5 5 6 5 5 5 5 5 5 5 5 5 5 5 5 5 5 5 5 5 5 5 5 5 6 5 5 5 5 6 5 5 5 5 5 5 5 5 5 5 6 5 6 5 5 5 5 6 5 5 5 5 5 5 5 5 6 5 5 5 5 5 6 5 5 5 6 5 5 5 5 5 6 5 5 5 5 5 5 6 6 5 5 5 6 5 5 6 6 6 5 5 5 6 5 5 5 6 5 5 5 5 5 5 5 5 5 5 5 6 6 5 5 5 5 6 5 5 5 5 5 5 5 5 5 5 5 5 5 6 5 5 5 6 5 5 5 5 5 5 5 5 6 5 5 6 5 5 5 5 5 5 6 5 5 5 5 6 5 5 6 6 5 6 6 5 5 6 5 5 6 5 5 5 5 5 5 5 5 6 5 5 5 6 5 5 5 5 5 5 5 5 5 5 5 5 5 5 5 5 5 5 5 5 5 5 5 5 5 5 5 5 5 5 5 5 5 6 5 5 5 5 5 5 5 5 5 5 5 5 5 5 5 5 5 6 5 5 5 5 5 5 5 5 5 6 5 5 5 5 5 6 5 6 5 5 5 5 5 5 5 5 5 5 5 5 5 5 5 5 5 5 5 5 5 6 5 5 5 5 5 5 5 5 5 5 5 6 6 5 5 5 6 5 5 5 5 5 5 5 5 5 6 5 5 5 5 5 5 5 6 5 6 5 5 5 5 5 5 5 5 5 5 5 5 5 5 5 5 5 5 5 5 5 5 6 5 5 5 5 5 5 5 5 5 5 5 5 5 5 5 5 5 5 5 6 5 5 5 5 5 5 5 5 5 5 5 5 5 5 5 5 5 5 5 5 5 5 5 5 5 5 5 5 5 5 5 5 5 5 5 5 5 5 5 5 5 5 5 5 5 5 5 5 5 5 5 5 5 5 5 5 5 5 5 5 5 5 5 5 5 5 5 5 5 5 5 5 5 5 5 5 5 5 5 5 5 5 5 5 5 5 5 5 5 5 5 5 5 5 5 5 5 5 5 5 5 5 5 5 5 5 5 6 6 5 5 5 5 5 5 6 6 5 5 5 5 5 5 5 5 5 5 5 5 5 5 6 5 5 5 5 5 5 5 5 5 5 5 5 5 5 5 5 5 6 5 5 5 5 5 5 5 5 5 5 6 5 5 5 6 5 5 5 5 5 5 5 5 5 5 5 5 5 5 5 6 5 5 6 5 5 5 5 5 5 5 5 5 5 5 5 5 5 5 5 6 5 5 6 5 5 5 5 5 6 5 5 5 5 5 5 6 6 5 5 5 6 5 5 6 6 5 5 5 5 6 6 5 5 5 6 5 5 5 5 5 5 6 6 5 5 6 5 6 6 5 5 5 5 6 5 5 6 5 5 5 5 6 5 5 5 5 5 5 5 6 5 5 5 5 5 5 5 5 5 5 5 5 5 5 5 5 5 5 5 6 5 5 5 5 6 5 5 5 5 5 6 5 5 5 5 6 5 5 5 5 6 5 5 5 5 5 6 5 5 5 5 6 5 5 5 5 5 5 6 5 5 6 6 5 5 6 5 5 5 5 6 5 6 5 5 5 6 6 6 5 5 5 5 5 6 5 5 6 5 5 5 5 5 5 5 5 5 5 5 6 5 5 5 5 5 6 5 6 6 5 5 5 6 6 5 5 6 5 5 5 6 5 6 5 5 5 6 5 5 5 6 6 5 5 5 5 5 5 5 5 5 5 5 5 5 5 5 5 5 5 5 5 5 5 5 5 5 5 5 5 5 5 5 5 5 5 5 5 5 5 5 5 5 5 5 5 5 5 5 5 5 6 5 5 6 5 5 5 6 5 5 5 5 6 5 5 5 6 5 5 6 5 5 5 6 5 6 5 6 5 5 5 5 5 6 5 5 5 5 5 5 5 5 5 5 5 5 5 5 5 5 6 5 5 6 5 5 5 5 5 5 6 5 5 6 5 5 5 5 6 6 6 6 5 5 5 5 5 5 5 5 6 6 5 5 5 5 6 5 5 5 5 5 5 5 6 5 5 5 5 5 5 5 5 5 5 5 5 5 5 5 5 5 5 5 5 5 5 5 5 5 5 5 5 5 5 5 5 5 5 5 5 5 5 5 5 5 5 5 5 5 5 5 5 5 5 5 5 5 5 5 5 5 5 5 5 5 5 6 5 5 5 5 5 6 6 5 5 5 6 5 5 6 5 6 5 5 6 5 5 5 5 5 5 5 5 5 5 5 5 5 5 5 5 5 5 5 5 5 5 5 5 5 5 5 5 5 5 6 5 5 5 5 5 5 6 5 5 5 6 5 5 5 5 5 5 5 6 5 5 5 5 5 5 5 5 6 5 5 6 5 5 5 5 5 5 5 5 5 5 5 5 5 5 5 5 5 5 5 5 5 5 5 5 5 5 6 5 5 5 5 5 5 5 5 5 6 5 5 5 5 5 5 5 5 5 6 5 6 5 5 6 5 6 5 5 5 5 5 5 5 6 5 5 5 5 5 5 5 5 5 5 5 5 5 5 5 6 5 5 6 5 5 5 5 5 6 5 5 6 5 5 6 6 5 5 6 5 5 5 6 5 6 5 5 5 5 6 5 5 5 5 5 5 5 5 5 6 5 5 5 5 5 5 5 5 6 5 5 5 5 6 5 6 5 5 5 5 5 6 5 6 6 5 5 6 5 5 5 5 5 6 5 6 5 5 5 5 5 6 5 5 6 5 6 5 5 5 5 5 5 6 5 5 5 5 6 5 5 6 6 5 5 5 5 5 5 6 5 5 5 5 5 5 5 5 5 5 6 5 5 5 6 5 5 5 5 5 5 5 5 5 5 6 5 5 5 5 5 5 5 5 5 5 5 5 5 5 5 5 5 5 6 5 5 5 5 5 6 5 6 5 5 5 5 5 5 5 5 5 5 6 5 5 5 6 5 5 5 5 5 5 5 5 5 5 5 5 5 5 5 5 6 5 5 5 5 5 5 5 6 5 5 5 5 6 5 5 5 5 6 5 5 6 5 5 6 5 5 5 5 6 6 5 5 5 5 5 5 5 5 5 5 5 5 5 5 5 5 5 5 5 5 5 6 5 5 5 5 6 5 5 5 5 5 5 5 5 6 5 6 6 5 5 5 6 5 5 5 5 5 5 5 5 5 6 5 6 5 5 5 6 5 5 6 5 6 5 5 5 5 6 6 5 5 5 5 6 5 6 6 5 5 5 5 5 5 5 5 5 5 5 5 5 5 5 5 6 5 5 5 5 5 5 5 5 5 5 5 5 5 5 5 5 5 5 5 5 5 5 5 5 5 5 5 5 5 5 5 5 5 5 5 5 5 6 5 5 5 5 5 6 5 5 5 6 5 5 5 5 5 5 6 6 5 5 5 5 6 5 5 5 5 5 5 5 6 5 5 5 5 5 6 5 5 5 6 5 5 5 5 6 5 5 5 5 5 5 6 5 5 5 5 5 5 5 5 5 5 5 6 5 5 5 5 5 5 5 5 5 5 5 5 5 5 6 5 5 6 5 6 6 5 5 5 5 5 5 5 5 5 5 5 5 5 5 5 5 5 5 5 5 5 6 5 5 5 5 5 5 5 5 5 5 5 5 5 5 5 5 5 5 5 5 5 5 5 5 5 5 5 5 5 5 5 5 5 5 5 5 5 5 5 5 5 5 5 5 5 5 5 5 5 5 5 5 5 5 5 5 5 5 5 5 5 5 5 5 5 5 6 5 5 5 5 6 6 5 5 5 5 6 5 5 5 5 5 5 5 5 5 5 5 5 6 5 5 5 5 5 5 5 5 5 5 5 5 6 5 5 5 5 5 5 5 5 5 5 6 5 5 6 5 5 5 5 5 5 5 5 5 5 5 5 5 5 5 5 5 5 5 5 5 5 5 5 5 6 5 5 6 5 5 6 5 5 5 5 5 5 6 5 5 5 5 6 5 5 5 5 5 5 5 5 5 5 5 5 5 5 5 5 5 5 5 5 5 6 5 5 5 5 5 5 5 5 5 5 5 5 5 5 5 6 5 6 5 5 5 5 5 5 5 5 5 5 5 5 5 6 5 5 5 5 5 5 6 5 5 6 5 5 5 5 5 5 5 5 6 5 5 5 5 5 5 6 5 5 5 5 5 5 5 5 5 5 5 5 5 5 5 5 5 5 5 5 5 5 6 5 5 5 5 5 5 5 5 5 5 5 5 5 5 5 5 5 5 5 5 5 5 6 5 5 5 5 6 5 5 6 5 5 6 5 5 5 5 5 6 6 5 6 6 5 5 5 6 5 5 6 5 5 5 5 5 5 5 5 5 5 5 5 5 5 5 5 5 5 5 5 5 5 5 5 5 5 5 5 5 5 5 5 5 5 5 5 5 5 5 5 5 5 5 5 5 5 6 5 5 5 5 5 5 5 5 5 5 5 5 5 6 5 5 6 6 5 5 5 5 5 5 5 6 5 5 6 5 5 5 6 5 5 5 6 5 5 5 5 5 5 5 5 5 5 5 5 5 5 5 5 5 5 5 5 5 6 5 5 5 5 6 5 6 5 6 5 5 6 6 5 5 5 5 5 5 5 6 5 6 5 5 5 5 5 5 5 5 5 6 5 6 5 5 5 6 5 5 6 5 6 5 5 5 6 5 5 5 5 5 5 5 5 5 5 5 6 5 5 5 5 6 5 5 5 5 5 5 5 5 5 5 5 5 5 5 5 5 5 5 5 5 6 5 5 5 6 5 6 6 6 5 5 5 5 5 5 5 5 5 5 5 5 6 5 5 6 5 6 5 6 5 5 6 5 5 5 5 6 5 5 5 5 5 5 5 6 5 5 5 5 5 5 5 5 5 5 6 5 5 5 5 5 5 5 5 5 5 5 5 5 6 5 5 5 6 6 6 5 5 5 5 5 5 6 5 5 5 5 5 6 5 5 5 5 5 5 6 5 5 6 5 5 6 5 5 5 6 5 5 6 5 5 5 6 5 5 6 6 5 5 5 5 6 5 5 5 5 5 5 5 5 5 5 5 5 5 5 5 5 5 5 5 5 5 5 5 5 5 5 5 5 5 5 5 6 5 5 5 5 5 5 5 5 6 5 5 5 5 5 5 5 5 5 5 5 6 5 5 5 5 5 5 5 5 5 5 5 5 5 5 5 5 5 6 5 5 5 5 5 6 5 5 6 5 5 5 5 5 5 6 5 5 5 6 5 5 6 5 5 5 6 5 6 5 5 5 5 6 5 5 5 5 5 6 6 5 5 5 5 5 5 5 5 5 5 5 5 6 5 5 5 5 5 5 5 5 5 5 5 5 5 6 5 5 5 6 5 5 6 5 5 6 5 6 5 5 6 5 5 5 5 6 6 5 6 5 5 5 5 5 5 5 5 5 5 5 5 5 6 5 5 5 5 5 6 5 5 5 5 5 5 5 5 5 5 5 5 5 5 5 5 5 5 5 5 5 5 5 5 5 5 5 5 5 5 5 6 5 5 5 5 6 5 5 5 6 5 5 5 5 5 5 5 5 5 5 5 5 5 5 5 6 5 5 5 5 5 5 5 5 5 5 5 5 5 5 6 6 5 6 5 6 5 5 5 5 5 5 5 5 5 5 5 6 5 5 5 5 5 6 5 5 5 5 5 5 6 5 5 5 5 5 5 5 5 5 5 5 5 5 5 5 5 5 5 5 5 5 5 5 5 6 5 5 5 5 5 6 5 5 5 5 5 5 5 5 5 5 5 5 5 5 5 5 5 5 5 5 5 5 5 5 6 5 5 5 6 5 5 5 5 5 5 5 5 5 5 5 5 5 5 5 5 5 5 5 5 5 5 5 5 5 5 5 5 5 5 6 5 5 6 5 5 5 5 5 5 5 5 5 6 5 6 5 5 5 5 5 5 5 5 6 5 5 5 6 5 5 5 5 5 5 6 5 5 5 6 5 5 5 5 5 5 5 5 5 5 5 5 5 5 5 5 5 5 5 5 5 5 6 5 5 5 5 5 5 6 5 5 5 6 6 5 5 5 5 5 5 6 6 5 6 5 6 5 5 6 5 6 5 5 5 5 6 6 5 5 5 5 5 5 5 5 5 6 5 5 5 5 5 6 5 5 5 5 5 5 5 5 5 5 6 5 6 5 5 5 5 5 5 5 5 5 5 5 5 5 5 5 5 5 5 5 5 5 5 5 5 6 5 5 5 5 5 5 5 5 5 5 5 6 5 6 5 5 5 5 5 5 5 5 5 5 5 6 5 5 5 6 5 5 5 6 5 5 5 5 5 5 5 5 5 5 5 5 5 5 5 5 5 5 6 5 6 5 5 5 5 5 6 5 6 5 5 5 6 5 5 5 5 5 5 6 5 5 6 5 5 5 5 5 5 5 5 5 5 5 5 5 5 5 5 5 5 5 5 5 5 5 5 5 5 5 5 5 5 5 5 5 5 5 5 5 5 5 5 5 5 5 5 5 5 5 5 5 5 5 5 5 5 6 5 5 5 5 5 6 5 5 5 5 5 5 5 5 5 5 5 5 5 5 5 5 5 5 5 5 5 5 5 5 5 5 5 5 5 5 5 5 5 5 5 5 5 5 5 5 5 5 5 5 5 5 5 5 5 5 5 5 5 5 5 5 5 5 5 5 5 5 6 5 5 5 5 6 5 5 5 5 5 5 5 5 5 5 5 5 5 5 5 5 5 6 5 5 5 6 5 6 5 5 5 5 5 5 5 5 5 5 5 5 5 5 5 5 6 5 5 5 5 6 5 5 5 5 5 5 5 5 5 5 5 5 5 5 5 5 5 6 5 6 5 5 6 6 5 6 5 5 5 5 6 5 5 5 6 5 5 5 5 5 5 5 5 6 5 5 5 6 5 5 5 5 5 6 5 5 5 6 6 5 5 5 6 5 6 5 5 5 5 5 5 5 5 5 5 5 5 5 5 5 5 5 5 5 5 5 5 5 5 6 6 5 5 5 5 5 6 6 5 5 5 5 5 6 5 5 5 5 5 5 5 5 5 5 5 5 5 6 5 5 5 5 5 6 5 5 5 5 5 6 5 5 5 5 5 5 5 5 5 5 5 6 5 5 5 5 5 5 5 5 5 5 5 5 6 6 5 5 5 5 5 5 5 5 5 5 6 5 5 5 5 5 6 5 5 5 5 5 5 5 5 5 6 5 6 5 5 5 5 5 5 5 5 5 5 5 5 5 6 5 5 5 6 5 6 5 5 5 6 5 6 5 5 5 5 5 5 5 5 5 6 5 5 5 5 5 5 5 5 5 5 5 5 5 5 5 5 5 5 5 5 5 5 5 5 5 6 5 5 5 5 5 5 5 5 6 5 5 6 5 5 6 5 6 5 5 6 5 5 5 6 5 5 5 5 5 5 5 5 5 5 6 5 5 5 5 5 6 5 6 5 6 5 5 5 5 5 5 5 6 6 5 5 5 6 6 5 6 5 5 5 5 5 6 5 5 6 5 5 5 5 5 5 6 5 5 5 6 5 5 5 5 5 6 5 6 5 6 5 5 5 5 5 5 5 5 5 5 5 5 5 5 5 5 5 5 5 5 5 5 5 5 5 5 5 5 5 6 5 5 5 5 5 5 5 6 5 5 5 6 5 6 5 5 6 5 5 5 6 5 5 5 5 6 5 5 5 5 5 5 5 5 5 5 5 5 5 6 5 5 5 5 5 5 6 5 5 5 5 5 5 5 5 5 5 5 5 6 5 5 5 5 5 5 6 5 5 5 5 5 5 6 5 6 5 5 5 6 5 5 5 5 5 5 6 5 5 5 5 5 5 5 5 5 5 5 5 5 5 5 5 6 5 5 5 5 5 5 5 5 5 
</DataArray>
<DataArray type="Float64" Name="stress" NumberOfComponents="9" format="ascii">
2877.4817698186889 228.66684755016229 0 228.66684755016229 -385.66328390469511 0 0 0 0 11.561794331049896 -6.9968345432646109 0 -6.9968345432646109 -2.7120226805382481 0 0 0 0 989.85398636567697 43.499661639519921 0 43.499661639519921 -0.1094172563703269 0 0 0 0 2497.8543043977916 -354.92988535921518 0 -354.92988535921518 41.725245453422147 0 0 0 0 2247.3880390413469 775.66132911075886 0 775.66132911075886 230.77876800882737 0 0 0 0 7.321207302553205 -1.1561259906612236 0 -1.1561259906612236 -0.13751317529106263 0 0 0 0 669.65715711087978 554.29638588476053 0 554.29638588476053 200.60909919767653 0 0 0 0 2532.8679794569725 43.365565780901903 0 43.365565780901903 -317.32402392621509 0 0 0 0 2495.9580622304952 -975.44286488754449 0 -975.44286488754449 -104.27358151166469 0 0 0 0 1439.9022551202252 80.152728917890073 0 80.152728917890073 2.5344471312175187 0 0 0 0 1344.3658920261514 -149.1487227577698 0 -149.1487227577698 -179.8031549768686 0 0 0 0 1144.8993803201556 -344.71904137448536 0 -344.71904137448536 224.69882843966707 0 0 0 0 1197.4998691387809 -204.04728560386289 0 -204.04728560386289 -152.1680562001398 0 0 0 0 -47.216004818095826 -35.528004560145149 0 -35.528004560145149 -20.17797157490887 0 0 0 0 -45.861237151533714 -27.781065247885106 0 -27.781065247885106 21.664530009286914 0 0 0 0 412.73812525511312 185.53220752498666 0 185.53220752498666 -7.3318686830645383 0 0 0 0 3.2908779613947274 -2.0677033083841252 0 -2.0677033083841252 -0.63038990653450144 0 0 0 0 297.10131072286458 -31.757077676168251 0 -31.757077676168251 272.60270016680357 0 0 0 0 -86.681307269987883 130.81681845507677 0 130.81681845507677 -53.314010348358011 0 0 0 0 2.2474066455492476 -0.84183010980108008 0 -0.84183010980108008 -0.27867887800959412 0 0 0 0 -35.428750990540721 -123.5592059958195 0 -123.5592059958195 -105.59386380670298 0 0 0 0 -0.87885587992383307 -2.9236569928377918 0 -2.9236569928377918 0.59663292278822122 0 0 0 0 6.2628639585745987 -95.447381858366896 0 -95.447381858366896 -205.88552177772158 0 0 0 0 -26.896459079143824 -58.511885306608349 0 -58.511885306608349 -88.860518861829291 0 0 0 0 -64.07771350783878 -103.23423554518524 0 -103.23423554518524 23.956618354263703 0 0 0 0 -28.236156162904081 -58.386547543269977 0 -58.386547543269977 -39.531516737776826 0 0 0 0 12.777371789860382 -4.3902875140593594 0 -4.3902875140593594 0.4680446166534078 0 0 0 0 -223.99399211454147 -134.31855344027355 0 -134.31855344027355 -55.134736074073622 0 0 0 0 -213.6662934867054 -207.30296686988606 0 -207.30296686988606 219.01091074989435 0 0 0 0 21.824270657409215 -9.3716280990259833 0 -9.3716280990259833 -7.625090546062296 0 0 0 0 14.593790390925278 -8.0612731248397616 0 -8.0612731248397616 -3.4328510333043067 0 0 0 0 72.830203632286612 11.740998947269336 0 11.740998947269336 -23.967948258438202 0 0 0 0 101.91316844874564 143.89081327994035 0 143.89081327994035 84.155886041344331 0 0 0 0 1.4709935819139446 -0.046831212319411675 0 -0.046831212319411675 0.085448585300830382 0 0 0 0 62.718424816877814 -36.201762335674438 0 -36.201762335674438 43.53828148114242 0 0 0 0 -5.8239362712920411 6.8545917723184857 0 6.8545917723184857 24.653348466433016 0 0 0 0 -9.3771641228377121 -16.788068993125464 0 -16.788068993125464 26.788815236402002 0 0 0 0 51.003109780693194 -5.8324098749260429 0 -5.8324098749260429 -19.871970707559683 0 0 0 0 -28.972830686732777 38.454823862785332 0 38.454823862785332 11.23363779009577 0 0 0 0 0.13378785013628658 -11.264130405380534 0 -11.264130405380534 5.369134580195059 0 0 0 0 6.4732537848317975 -3.0344833657656878 0 -3.0344833657656878 1.4707640094866368 0 0 0 0 4.9810104982379073 -1.3820034963599672 0 -1.3820034963599672 0.39696259321776856 0 0 0 0 -8.8199470516992733 1.608279970858348 0 1.608279970858348 17.667956470577881 0 0 0 0 5.8599743336690153 5.4726617006664853 0 5.4726617006664853 3.837665463532403 0 0 0 0 3.6118757095526632 0.22587174971610935 0 0.22587174971610935 -0.029578839261102847 0 0 0 0 5.6428991921011402 -3.2181949547597029 0 -3.2181949547597029 1.6976817033697482 0 0 0 0 -3.6736069636244792 -18.782546783173117 0 -18.782546783173117 -9.5360825755446115 0 0 0 0 -22.965572530847567 -23.663445667228025 0 -23.663445667228025 -15.371544684659755 0 0 0 0 -22.44793401514471 -30.59754856639492 0 -30.59754856639492 -29.372642306836529 0 0 0 0 -29.716973062502802 -36.710440235941462 0 -36.710440235941462 -32.830557757470174 0 0 0 0 -36.910518579505151 -28.867812279054345 0 -28.867812279054345 -16.417597058224604 0 0 0 0 -37.195580006191449 -35.233140803134305 0 -35.233140803134305 -16.720154518500102 0 0 0 0 -6.8511689764636685 -23.516998435553049 0 -23.516998435553049 -18.132253194226223 0 0 0 0 -39.641966751667496 -38.418356170256061 0 -38.418356170256061 -13.383082613932743 0 0 0 0 -30.490694029587758 -30.747148658478473 0 -30.747148658478473 -7.5654705093938759 0 0 0 0 -30.178432141685334 -28.763448257447948 0 -28.763448257447948 -21.00937104926544 0 0 0 0 5.393613462515674 -2.880838963798567 0 -2.880838963798567 1.280129612174095 0 0 0 0 2.0245881286693646 0.029651551093692774 0 0.029651551093692774 -0.35289442925687764 0 0 0 0 7.4980101635665051 -2.5929101861894708 0 -2.5929101861894708 -19.254774146823365 0 0 0 0 -12.804652297461871 -6.3413596956002323 0 -6.3413596956002323 -1.2563309235480347 0 0 0 0 -26.266399026637373 -11.293413187385681 0 -11.293413187385681 3.4222386245298253 0 0 0 0 1.1052606151306463 -0.52591698101409179 0 -0.52591698101409179 -0.31023500597812181 0 0 0 0 -13.747684152906004 -16.526495470843514 0 -16.526495470843514 -6.9711705576163894 0 0 0 0 2.4353837982598634 14.523443550125862 0 14.523443550125862 21.821435010466871 0 0 0 0 10.74607713774094 -32.330950417351687 0 -32.330950417351687 37.008582203095898 0 0 0 0 -131.43915027015464 -34.325652314292938 0 -34.325652314292938 0.072582268382632265 0 0 0 0 -0.099690485906407389 0.068856304961869341 0 0.068856304961869341 -0.2150712390539824 0 0 0 0 -32.106188396737707 -93.085469398035457 0 -93.085469398035457 -67.091618798102445 0 0 0 0 18.007119993038941 -26.055422691612193 0 -26.055422691612193 -64.622316006955913 0 0 0 0 -87.468000964960083 -158.07253408385941 0 -158.07253408385941 -103.76647926210148 0 0 0 0 19.270754730016051 -42.688166883255207 0 -42.688166883255207 -3.9464284187756675 0 0 0 0 -172.49779469062923 -86.708529341924418 0 -86.708529341924418 0.73897975953117623 0 0 0 0 -30.506622012559092 71.645057260100657 0 71.645057260100657 -202.63127445010582 0 0 0 0 23.213538548006909 11.13444263464396 0 11.13444263464396 -103.98639493476355 0 0 0 0 -359.88493057247251 -64.04962187821593 0 -64.04962187821593 -1.3769517303461782 0 0 0 0 -224.44169169390807 93.058129001512555 0 93.058129001512555 -129.34651469434857 0 0 0 0 -22.696364500152413 46.190429842458116 0 46.190429842458116 -119.67427383444502 0 0 0 0 28.220646348555874 96.551090674751421 0 96.551090674751421 -130.45454054142147 0 0 0 0 3.617478003023848 -3.3768495541036287 0 -3.3768495541036287 -1.4991744564121472 0 0 0 0 178.09580500540324 108.15698067513094 0 108.15698067513094 -21.950323376341089 0 0 0 0 -12.791927313432097 -30.439402285375763 0 -30.439402285375763 -21.28421407925542 0 0 0 0 -18.50336712400167 -45.099164503405547 0 -45.099164503405547 -24.21727144697104 0 0 0 0 17.144619977338749 -2.2902711789580934 0 -2.2902711789580934 -1.5293711915973422 0 0 0 0 -22.116426593593133 -30.20592138224518 0 -30.20592138224518 -4.0267093408079973 0 0 0 0 52.98737895929662 1.8339946688605551 0 1.8339946688605551 -44.426374219668446 0 0 0 0 82.147306834929623 -62.893969333851373 0 -62.893969333851373 -72.304342514617474 0 0 0 0 43.914967820675486 -10.616459179060286 0 -10.616459179060286 0.66808326036607135 0 0 0 0 13.470379374875847 -31.782706722004676 0 -31.782706722004676 8.3068425370872774 0 0 0 0 91.670781362379785 -73.990879414629774 0 -73.990879414629774 -263.9680253990615 0 0 0 0 51.050475874231779 -27.171665563703357 0 -27.171665563703357 28.023703358689318 0 0 0 0 3.7432828066957882 -25.122211449983865 0 -25.122211449983865 181.10183909628 0 0 0 0 36.609389736413107 -16.185871970599017 0 -16.185871970599017 2.1394080190660154 0 0 0 0 672.35763555527956 -245.23623530058376 0 -245.23623530058376 4.3354383747094403 0 0 0 0 1853.4172434417233 865.87445402298169 0 865.87445402298169 315.33080458293352 0 0 0 0 1374.4391725984169 1068.69072776805 0 1068.69072776805 401.17472448416004 0 0 0 0 2499.9130399985734 1220.3076421432086 0 1220.3076421432086 208.05372084628689 0 0 0 0 1504.4977434899192 1062.8502901349384 0 1062.8502901349384 504.91532151364436 0 0 0 0 1466.7538409132758 711.64351339646191 0 711.64351339646191 134.40351009308137 0 0 0 0 32.231160084261433 -12.084277065491342 0 -12.084277065491342 1.1083065124677631 0 0 0 0 92.074112185677222 -230.97554525087321 0 -230.97554525087321 -425.77951262161025 0 0 0 0 2497.5702177729763 1803.647681206108 0 1803.647681206108 1057.1122352005289 0 0 0 0 13.832418212006388 -3.6915906963440079 0 -3.6915906963440079 1.6393674312319486 0 0 0 0 110.75712117582589 -871.14798362537715 0 -871.14798362537715 445.27776121278066 0 0 0 0 209.42214321414576 158.75462020559556 0 158.75462020559556 -64.396715187849964 0 0 0 0 165.65807997083175 -18.612512299610273 0 -18.612512299610273 287.80432601950696 0 0 0 0 197.38667472006637 219.3829965813579 0 219.3829965813579 83.57233849920749 0 0 0 0 4.2859671917189104 -2.4804258518040854 0 -2.4804258518040854 -1.7960346893429597 0 0 0 0 189.30257834179793 218.82439492885598 0 218.82439492885598 40.209439202070598 0 0 0 0 141.87411131198314 69.15766364696178 0 69.15766364696178 -55.488556656264905 0 0 0 0 51.567101347493008 75.670208141721844 0 75.670208141721844 6.8010512508941474 0 0 0 0 178.8772282544669 383.61986514432272 0 383.61986514432272 -141.66396941981839 0 0 0 0 1255.6687138922571 450.33650256782573 0 450.33650256782573 -373.34013713393597 0 0 0 0 3.6998105885676154 5.1031520969941653 0 5.1031520969941653 5.0949982603376132 0 0 0 0 -96.606533343910996 154.26880435846047 0 154.26880435846047 43.373597916640705 0 0 0 0 1910.3782672372399 -313.79013355067571 0 -313.79013355067571 -568.95480619139835 0 0 0 0 416.07773376116529 322.07358666628346 0 322.07358666628346 55.215296080015406 0 0 0 0 1015.7088587069447 98.760346695093901 0 98.760346695093901 -90.940605400314752 0 0 0 0 325.11560036315859 -197.46877806854206 0 -197.46877806854206 253.56363233408746 0 0 0 0 470.95381685873053 46.729297586885728 0 46.729297586885728 -78.478447061578947 0 0 0 0 493.99915355143094 103.26437964182738 0 103.26437964182738 -0.063978327497979159 0 0 0 0 361.35004178177405 139.72863281279831 0 139.72863281279831 43.137079366885935 0 0 0 0 327.43200899632939 100.80556491319467 0 100.80556491319467 5.5794461397383941 0 0 0 0 398.44783601971722 135.40360780855178 0 135.40360780855178 -70.261292869979968 0 0 0 0 385.11725540961925 179.93499087275706 0 179.93499087275706 30.021642603366331 0 0 0 0 316.82299038471683 63.514058707474824 0 63.514058707474824 0.10888523638731469 0 0 0 0 327.32810712023638 131.72900856854977 0 131.72900856854977 10.229366869503888 0 0 0 0 292.39181815822303 158.38010019024014 0 158.38010019024014 59.601707266273024 0 0 0 0 243.61324689669709 79.339538744443303 0 79.339538744443303 45.866257881894597 0 0 0 0 365.85188345560528 115.03874099352844 0 115.03874099352844 11.672928522101206 0 0 0 0 340.26492439318463 92.887722965973325 0 92.887722965973325 28.021901204413751 0 0 0 0 240.54144660342718 49.409871948964685 0 49.409871948964685 63.001454691314848 0 0 0 0 290.16074490407482 129.34146682353324 0 129.34146682353324 97.165592844310567 0 0 0 0 338.46641718879255 140.01493418054858 0 140.01493418054858 45.576175733786272 0 0 0 0 342.77938624077069 68.225188054749665 0 68.225188054749665 11.589996364297861 0 0 0 0 334.38593245067023 84.326469145180425 0 84.326469145180425 40.676673216791073 0 0 0 0 0.81633753803319564 -0.17517662073949225 0 -0.17517662073949225 0.36011390157457868 0 0 0 0 433.12868136445104 121.91587228454259 0 121.91587228454259 -16.170707991639233 0 0 0 0 437.53551463344047 58.702175984941647 0 58.702175984941647 -44.317504164965953 0 0 0 0 394.17095517883718 93.099414776883918 0 93.099414776883918 79.807116231995963 0 0 0 0 0.47502245002019094 0.39677972734295963 0 0.39677972734295963 -0.090497487878051563 0 0 0 0 103.52050696926017 76.482034095949828 0 76.482034095949828 46.632398975347485 0 0 0 0 337.42257655908179 -16.538617534231776 0 -16.538617534231776 -29.014912117092528 0 0 0 0 308.39489713413786 82.044995234037955 0 82.044995234037955 11.750821846095107 0 0 0 0 335.49967683974387 107.38931124916353 0 107.38931124916353 19.142125473703857 0 0 0 0 146.39978426184825 21.356344439315592 0 21.356344439315592 174.65742162656883 0 0 0 0 296.46513199238689 96.801084336897446 0 96.801084336897446 48.389150847020026 0 0 0 0 1.8193735575957817 -0.84562318533498626 0 -0.84562318533498626 0.45409711757164223 0 0 0 0 52.175328933830315 -68.084036922960308 0 -68.084036922960308 79.245953890059468 0 0 0 0 168.87427313861554 -55.085996243321318 0 -55.085996243321318 -31.428223244232754 0 0 0 0 273.82349597956636 -83.012885765907868 0 -83.012885765907868 -35.154922430752322 0 0 0 0 147.3381565073505 -6.0254467704730246 0 -6.0254467704730246 -72.01028425984498 0 0 0 0 186.58578092344396 -12.89542732330176 0 -12.89542732330176 -72.26760600762546 0 0 0 0 252.81876661127171 -110.34927504147225 0 -110.34927504147225 -47.32456739328768 0 0 0 0 269.01609902654309 -183.1256529216883 0 -183.1256529216883 -69.62009795957249 0 0 0 0 189.85373293307202 -32.156985242812425 0 -32.156985242812425 -144.01619280635907 0 0 0 0 425.63150007862714 -87.266759617889988 0 -87.266759617889988 -180.9136518211065 0 0 0 0 72.13442358931934 -98.998602939740238 0 -98.998602939740238 89.696393542290252 0 0 0 0 185.64051345746338 -169.51501622067869 0 -169.51501622067869 -32.769830299517821 0 0 0 0 197.52578654293029 -147.56127801681862 0 -147.56127801681862 -69.031345222719779 0 0 0 0 222.1801923339317 55.944942821286254 0 55.944942821286254 108.77488017044845 0 0 0 0 84.467533715105674 82.811841215267521 0 82.811841215267521 173.20213322211623 0 0 0 0 71.777286806267512 -45.45229132972517 0 -45.45229132972517 43.895447920531922 0 0 0 0 -27.726638451655162 -148.8044351010634 0 -148.8044351010634 66.242668430737126 0 0 0 0 26.371035179297905 54.831419062082915 0 54.831419062082915 272.50153641659358 0 0 0 0 18.254852771060541 -67.761229153667159 0 -67.761229153667159 -194.44372785143423 0 0 0 0 -2.5188017149121151 -172.87442434295696 0 -172.87442434295696 16.727458800048908 0 0 0 0 -21.587357332752617 -17.253767165966778 0 -17.253767165966778 39.857306256472611 0 0 0 0 -32.402686504690791 -141.72197440947548 0 -141.72197440947548 336.9234465486482 0 0 0 0 194.43469190855831 170.02037016265746 0 170.02037016265746 178.4389745039598 0 0 0 0 69.135897075948378 232.05821289541925 0 232.05821289541925 417.56766142672541 0 0 0 0 0.53699432686292425 -0.01966539471332851 0 -0.01966539471332851 0.69090721804465627 0 0 0 0 141.09880560755118 57.388342133292255 0 57.388342133292255 99.292384822030016 0 0 0 0 0.99658840214226529 -0.3787950295556044 0 -0.3787950295556044 0.97177649509526143 0 0 0 0 296.03846057599003 174.23738222065856 0 174.23738222065856 69.941311283443326 0 0 0 0 302.14868822715107 194.04265138131279 0 194.04265138131279 35.137978155447627 0 0 0 0 351.80829635601117 65.580296810616147 0 65.580296810616147 -93.991369445141459 0 0 0 0 352.40509015985299 135.04859369572557 0 135.04859369572557 -14.162324040709791 0 0 0 0 389.8116657416067 98.705850856453708 0 98.705850856453708 11.885368873561561 0 0 0 0 361.45996903574633 131.68302896873183 0 131.68302896873183 -11.937479448703698 0 0 0 0 444.19468532352039 317.12287650215404 0 317.12287650215404 141.75402407483546 0 0 0 0 491.93247603953932 148.61365327252105 0 148.61365327252105 -39.664651976867788 0 0 0 0 627.76973786795497 696.5439550097758 0 696.5439550097758 634.81102629148882 0 0 0 0 -182.4527270077815 81.263035620887877 0 81.263035620887877 1063.1863667360697 0 0 0 0 75.784675045957556 178.310873402048 0 178.310873402048 170.75748580486641 0 0 0 0 1335.3914890337473 213.99946186513512 0 213.99946186513512 19.238600663604622 0 0 0 0 1.6960769729178367 4.0410551739669813 0 4.0410551739669813 11.06999880684689 0 0 0 0 -811.35875587660121 58.612903976191774 0 58.612903976191774 923.46008542130039 0 0 0 0 2189.5377179022325 392.15694317043062 0 392.15694317043062 -341.8016199881389 0 0 0 0 2092.3441015473218 883.90115094778912 0 883.90115094778912 -99.375409319858477 0 0 0 0 1290.0977384345315 453.22698478160328 0 453.22698478160328 202.81254485990758 0 0 0 0 662.51226640291861 -346.13597224082378 0 -346.13597224082378 -321.97138214771638 0 0 0 0 338.46949353291711 662.11493274200461 0 662.11493274200461 885.2362582549988 0 0 0 0 -135.01490221952554 448.11177060658429 0 448.11177060658429 788.69349169013458 0 0 0 0 1297.2712442576449 378.80183583488906 0 378.80183583488906 178.93686595362487 0 0 0 0 374.55245367751922 711.39789446140833 0 711.39789446140833 595.71746947379779 0 0 0 0 1202.57918783887 886.61336266184117 0 886.61336266184117 615.24683417882534 0 0 0 0 2614.1275470762994 426.01776891712387 0 426.01776891712387 -151.88712096611971 0 0 0 0 -339.49051485368545 413.54868830185831 0 413.54868830185831 200.06302714171761 0 0 0 0 5.1838136954470748 1.9625573010450097 0 1.9625573010450097 5.6487703733993904 0 0 0 0 1194.1507331792964 1010.0802200824558 0 1010.0802200824558 456.18206640795074 0 0 0 0 1866.0189091397624 658.0422736618375 0 658.0422736618375 146.59289537581964 0 0 0 0 1334.2882374869951 533.37851218528249 0 533.37851218528249 287.71640703156481 0 0 0 0 1768.753385693708 628.12429220130252 0 628.12429220130252 151.01922576556944 0 0 0 0 1611.6901392614236 331.82875463499022 0 331.82875463499022 167.9211549850379 0 0 0 0 1677.6999686380441 442.28940138228154 0 442.28940138228154 104.12413027649745 0 0 0 0 2124.2739172842194 -171.78661581885922 0 -171.78661581885922 73.106235297418607 0 0 0 0 2271.2114964735956 337.98340966164596 0 337.98340966164596 44.372937194561018 0 0 0 0 1656.3443150783278 1105.5930564636674 0 1105.5930564636674 505.20127976455433 0 0 0 0 966.89808860448466 -520.33412538438267 0 -520.33412538438267 408.79255221692438 0 0 0 0 597.09917801339179 218.95842573764639 0 218.95842573764639 777.45009916895378 0 0 0 0 1594.3919206326082 -488.34534329427021 0 -488.34534329427021 294.84232869100379 0 0 0 0 18.629936214394746 -9.4055550120026794 0 -9.4055550120026794 3.3421002744418935 0 0 0 0 1641.2496446761434 253.94804234445684 0 253.94804234445684 297.60976253235276 0 0 0 0 815.17601566921439 308.7165046001727 0 308.7165046001727 337.23710019690407 0 0 0 0 33.248533287202008 -145.30416330029766 0 -145.30416330029766 641.42021762862169 0 0 0 0 -0.4060355759846459 1.3926888333859004 0 1.3926888333859004 -0.59589685886609178 0 0 0 0 42.26246769431863 -6.0427247501603318 0 -6.0427247501603318 -5.302092891321621 0 0 0 0 1587.9956926565792 515.05736699478075 0 515.05736699478075 135.39556803673167 0 0 0 0 1462.2010378978157 619.28743156861856 0 619.28743156861856 291.8791978786976 0 0 0 0 1468.3925784966705 351.51088580858459 0 351.51088580858459 -26.661917941837601 0 0 0 0 -13.008134879797581 78.19596219951336 0 78.19596219951336 -10.91573525424792 0 0 0 0 142.75127728880761 -158.72650584403618 0 -158.72650584403618 102.85092246281783 0 0 0 0 67.522169229385327 -167.51487487123313 0 -167.51487487123313 113.93132165394491 0 0 0 0 789.50765772044542 -505.67198675325608 0 -505.67198675325608 45.710672761553496 0 0 0 0 5.0839820821433364 10.393015617404203 0 10.393015617404203 15.509099572004795 0 0 0 0 1233.3060095346664 -1047.6611533746473 0 -1047.6611533746473 -1493.4246262799916 0 0 0 0 593.64905618285411 1116.1560207440145 0 1116.1560207440145 1101.6380024690704 0 0 0 0 1351.7279331849095 -231.34182494681988 0 -231.34182494681988 -389.36219700485617 0 0 0 0 1043.3261107811559 -240.20599876213373 0 -240.20599876213373 -305.99896000967146 0 0 0 0 1083.8045666666731 -48.856239032148096 0 -48.856239032148096 -367.05533819784887 0 0 0 0 383.49592126706557 -119.28717249523288 0 -119.28717249523288 -149.32467748969793 0 0 0 0 426.90160092401493 -3.3881879626960654 0 -3.3881879626960654 -206.95640208245186 0 0 0 0 169.0484196266043 215.67182436003827 0 215.67182436003827 -120.34841344482811 0 0 0 0 35.335474684317887 75.026286970339015 0 75.026286970339015 -178.62232707455269 0 0 0 0 2.9659003910517185 8.3547775501933188 0 8.3547775501933188 -1.368714454391565 0 0 0 0 48.844988070133695 45.300225602044975 0 45.300225602044975 13.893553445824182 0 0 0 0 284.20840393431718 164.62546679983188 0 164.62546679983188 102.71549608824705 0 0 0 0 -0.92187880260263455 -0.26366335497115756 0 -0.26366335497115756 -0.10002057739564663 0 0 0 0 44.406092205899768 54.237871372406516 0 54.237871372406516 74.505127061707981 0 0 0 0 199.92710080611141 -177.7186235169205 0 -177.7186235169205 -343.20979025014913 0 0 0 0 2.4195929340968689 -102.96983820216984 0 -102.96983820216984 -131.99411516184591 0 0 0 0 345.27053728530882 86.468683670104383 0 86.468683670104383 -99.164749957525828 0 0 0 0 113.24325296611642 -215.60235429448016 0 -215.60235429448016 34.129771790982886 0 0 0 0 141.59779497586715 -218.40437917810095 0 -218.40437917810095 -17.152472495777147 0 0 0 0 210.62963371683145 -208.565612858637 0 -208.565612858637 -115.09846581118376 0 0 0 0 190.04268297666567 -55.474348458445775 0 -55.474348458445775 -188.84102063947833 0 0 0 0 176.08010493417169 -46.532829643517744 0 -46.532829643517744 -188.85673144597831 0 0 0 0 1.9536953376013173 44.07855080639861 0 44.07855080639861 -199.91613730901736 0 0 0 0 222.36065338215485 42.062391040223986 0 42.062391040223986 -254.39143142533339 0 0 0 0 1589.0836448435966 1929.0541478782282 0 1929.0541478782282 591.53174656763031 0 0 0 0 1164.2746943417951 -70.010502963893487 0 -70.010502963893487 -204.44279715360199 0 0 0 0 2029.1044415317447 561.53845037123756 0 561.53845037123756 929.57998756983761 0 0 0 0 1771.9201221052062 942.64525852837039 0 942.64525852837039 538.73041810758946 0 0 0 0 2011.2439913643029 1272.65365058729 0 1272.65365058729 368.48490656846684 0 0 0 0 2488.8820504544165 1072.7263756234981 0 1072.7263756234981 23.514863387479636 0 0 0 0 562.77006358638755 1093.0903508694435 0 1093.0903508694435 525.93883082261368 0 0 0 0 19.273165419162325 3.2577387348770102 0 3.2577387348770102 0.1412667531018279 0 0 0 0 1292.933702317081 1162.989939051037 0 1162.989939051037 441.57419488901837 0 0 0 0 160.97980080325942 1153.2018622040123 0 1153.2018622040123 798.24945479484518 0 0 0 0 329.79387787349697 -343.92863201400326 0 -343.92863201400326 93.730253201203027 0 0 0 0 33.281283779673686 -182.2654331896 0 -182.2654331896 50.710689419968674 0 0 0 0 82.018222508177132 -44.774550844324708 0 -44.774550844324708 -467.74835005255966 0 0 0 0 -9.1786629537455156 9.8092016124306838 0 9.8092016124306838 -49.859744893980178 0 0 0 0 -27.979415565670934 89.969562256534118 0 89.969562256534118 -14.606166325682068 0 0 0 0 -224.70455401070649 663.47615946826488 0 663.47615946826488 954.63712155743337 0 0 0 0 696.86738944653553 -567.94884925471854 0 -567.94884925471854 -241.97176963079323 0 0 0 0 42.127130459631388 1.2571987017857216 0 1.2571987017857216 -1.2832677054934165 0 0 0 0 528.63034691123903 39.016035604815642 0 39.016035604815642 -958.66859759256613 0 0 0 0 -332.90310100387433 -35.478512285793499 0 -35.478512285793499 202.02417986079593 0 0 0 0 -164.78407404513564 -260.55118823155931 0 -260.55118823155931 -69.958646783029053 0 0 0 0 -374.66756972012809 -250.93714975698913 0 -250.93714975698913 377.06162979918281 0 0 0 0 -32.527876268854016 82.772342124193983 0 82.772342124193983 99.882203519684708 0 0 0 0 116.92258022152237 128.49648874752779 0 128.49648874752779 26.224794516837846 0 0 0 0 -116.91004671068913 103.89298997114537 0 103.89298997114537 23.767564472838785 0 0 0 0 -123.22949514942593 127.05411060997017 0 127.05411060997017 174.22612883449665 0 0 0 0 -188.5594474622776 202.76401342391682 0 202.76401342391682 57.000415083958387 0 0 0 0 -49.370921757799806 150.46882296599392 0 150.46882296599392 -0.049039158224786661 0 0 0 0 56.086205931896984 154.05018440210551 0 154.05018440210551 -24.709332777878899 0 0 0 0 276.08435260226543 -135.04078619364418 0 -135.04078619364418 17.654345863460321 0 0 0 0 179.62152993914788 -101.23858577226747 0 -101.23858577226747 201.63250726939623 0 0 0 0 450.2999501102604 251.16921161794517 0 251.16921161794517 148.98713201867457 0 0 0 0 591.40151137751491 -78.701581526555287 0 -78.701581526555287 -106.75886556907835 0 0 0 0 1.4860998726739183 1.7692563495521796 0 1.7692563495521796 2.0412104043673835 0 0 0 0 417.175638782639 -102.05455418706651 0 -102.05455418706651 65.194598919585815 0 0 0 0 57.371597562902025 35.891738599239034 0 35.891738599239034 -95.961438994138291 0 0 0 0 -161.99966911168121 76.757170841679056 0 76.757170841679056 18.347683693098134 0 0 0 0 163.34602301681298 -44.389113517883288 0 -44.389113517883288 -67.049592823366311 0 0 0 0 56.578065190529742 42.264937392782485 0 42.264937392782485 -46.681254733525748 0 0 0 0 107.2046769278586 -69.111921032156403 0 -69.111921032156403 8.4732856064292719 0 0 0 0 111.19602258644591 -42.502721241110748 0 -42.502721241110748 -27.072521022333603 0 0 0 0 214.89050887840858 -114.3199877272973 0 -114.3199877272973 21.916546910875468 0 0 0 0 45.470749458923819 -52.99370557673592 0 -52.99370557673592 42.591523620222688 0 0 0 0 101.37659890957048 -84.614527533220183 0 -84.614527533220183 60.428132838749661 0 0 0 0 101.01824838400353 -78.787978346574164 0 -78.787978346574164 65.62021003534187 0 0 0 0 283.84014386847775 26.330363583287465 0 26.330363583287465 -47.594762839379655 0 0 0 0 647.67764081605128 200.1609186081198 0 200.1609186081198 49.914488588966037 0 0 0 0 107.82258797313261 80.195236770764041 0 80.195236770764041 24.362387630701164 0 0 0 0 652.39242843892862 331.85370607201622 0 331.85370607201622 -564.93924501008223 0 0 0 0 14.180443908884627 380.68451307034451 0 380.68451307034451 588.14687693704218 0 0 0 0 381.82855984735943 -164.27409250470242 0 -164.27409250470242 85.614285429273423 0 0 0 0 -395.21321868363975 -28.041155242545486 0 -28.041155242545486 635.50890562270433 0 0 0 0 36.329928043195878 0.77204844811683371 0 0.77204844811683371 -1.1058578241398811 0 0 0 0 112.56966098186967 -158.61155182813064 0 -158.61155182813064 -565.49352035136133 0 0 0 0 -174.96746818076645 -375.42485985211738 0 -375.42485985211738 -200.75362567935605 0 0 0 0 -119.37755849800305 20.024882604994417 0 20.024882604994417 -79.502721557465748 0 0 0 0 -33.981260403917986 88.714042122039587 0 88.714042122039587 -247.107009641188 0 0 0 0 8.8534418975123401 0.16196222925269055 0 0.16196222925269055 -0.2356057121141677 0 0 0 0 89.735067205139785 -101.55245653010525 0 -101.55245653010525 159.32184052052219 0 0 0 0 -57.911700668060803 -65.597662857790965 0 -65.597662857790965 68.274507546033874 0 0 0 0 -7.1206209041702095 -42.176964337848858 0 -42.176964337848858 111.77573758365497 0 0 0 0 -34.082337458850816 11.155704638645602 0 11.155704638645602 87.775210495623469 0 0 0 0 15.780881307669915 -3.6956319299806637 0 -3.6956319299806637 19.165450101175225 0 0 0 0 -0.42977355016773799 43.710744565037885 0 43.710744565037885 5.4508684891820849 0 0 0 0 34.20108255064406 4.9514508636068513 0 4.9514508636068513 -35.516385074148957 0 0 0 0 36.282220814737229 110.23771055941108 0 110.23771055941108 -171.21537260037115 0 0 0 0 25.869381773792668 -2.5354044941813587 0 -2.5354044941813587 0.034311657899823211 0 0 0 0 -1021.759113616019 563.93906669506805 0 563.93906669506805 -21.116730504053905 0 0 0 0 140.51888639047684 -231.72834568625018 0 -231.72834568625018 110.80929125400087 0 0 0 0 13.41854782466902 1.1846275065335523 0 1.1846275065335523 -0.077400891357926743 0 0 0 0 -35.894192539621145 -155.78588270515007 0 -155.78588270515007 79.212164808124385 0 0 0 0 162.94538191462925 -166.38309003882148 0 -166.38309003882148 -32.484996156393095 0 0 0 0 266.06517682835329 -287.02050870046043 0 -287.02050870046043 63.344330618713457 0 0 0 0 304.65350041770625 -46.362419599590126 0 -46.362419599590126 -176.56655458967316 0 0 0 0 697.93407875986304 -79.870830275635058 0 -79.870830275635058 -276.71711784084198 0 0 0 0 519.93566751430626 -291.64602490811245 0 -291.64602490811245 -93.021890007778808 0 0 0 0 2921.6338526153704 -1830.3676845605021 0 -1830.3676845605021 785.86665943610615 0 0 0 0 442.42146431219589 181.87929122857872 0 181.87929122857872 -182.77974712815535 0 0 0 0 26.313087364003877 -1.7442393172470929 0 -1.7442393172470929 -5.1880890067882319 0 0 0 0 21.844050818868709 -4.5693750075158164 0 -4.5693750075158164 -1.4499686019453293 0 0 0 0 22.928358962773927 -8.5324893005404192 0 -8.5324893005404192 0.046678862503540586 0 0 0 0 24.71697715773189 -5.2914812012145376 0 -5.2914812012145376 0.38733974257772275 0 0 0 0 27.769112886540825 -7.8875953267929617 0 -7.8875953267929617 0.31930577778121005 0 0 0 0 29.777838169571623 -3.876302234498155 0 -3.876302234498155 -4.034716845386356 0 0 0 0 25.586422876156576 -14.444579835715786 0 -14.444579835715786 15.161514699157351 0 0 0 0 23.816131614199548 -5.5879149203058205 0 -5.5879149203058205 6.1567027784992661 0 0 0 0 18.226725855507539 -16.402308006553085 0 -16.402308006553085 40.406933936408223 0 0 0 0 43.572030735142107 -34.819178338008726 0 -34.819178338008726 17.030888738562226 0 0 0 0 47.730697506303841 -37.021546680886104 0 -37.021546680886104 18.18621581890784 0 0 0 0 86.078734416689258 -22.725737050894168 0 -22.725737050894168 -21.60748592145751 0 0 0 0 71.4978181995466 -34.080591856327374 0 -34.080591856327374 -25.874953075933718 0 0 0 0 41.450992923539161 -16.520566941994645 0 -16.520566941994645 -4.2522092059380157 0 0 0 0 41.270233003177054 -19.316972817314877 0 -19.316972817314877 -3.6916465531407994 0 0 0 0 21.984376277391789 -15.79180591455237 0 -15.79180591455237 -5.528504461513327 0 0 0 0 21.576304593836539 -31.804229974556506 0 -31.804229974556506 0.27591392488443489 0 0 0 0 53.038127759849885 -4.8109819608096132 0 -4.8109819608096132 -23.355810383996868 0 0 0 0 37.49901037098607 0.12537547394049398 0 0.12537547394049398 -2.0319190872710351 0 0 0 0 80.544674232849502 15.671213823765356 0 15.671213823765356 -8.8822986464260794 0 0 0 0 21.896198880712959 -11.999036753731104 0 -11.999036753731104 -11.451267300837003 0 0 0 0 15.901615256272635 -11.272106430456859 0 -11.272106430456859 -11.271214970633423 0 0 0 0 11.972418816309073 -15.472074428281218 0 -15.472074428281218 -15.260598801700354 0 0 0 0 21.963230643978932 -20.270436273365984 0 -20.270436273365984 -13.291751394185383 0 0 0 0 40.963202195962367 -93.627857291002712 0 -93.627857291002712 5.292292527159189 0 0 0 0 45.667583836169797 -11.546632961540809 0 -11.546632961540809 -59.059450356699244 0 0 0 0 21.301844021317294 -3.8971687224455493 0 -3.8971687224455493 -7.2425514301681444 0 0 0 0 7.2965621889801753 -3.1933384636955253 0 -3.1933384636955253 -2.5669919991440668 0 0 0 0 67.102077121075126 -137.2017666334591 0 -137.2017666334591 -20.152024933137312 0 0 0 0 44.494601039387589 -26.462386375106927 0 -26.462386375106927 -4.4890280398924318 0 0 0 0 12.05901262740781 4.5082110471592358 0 4.5082110471592358 3.5589395541376092 0 0 0 0 24.75407207301123 -16.407641659902239 0 -16.407641659902239 -7.0602353219638543 0 0 0 0 48.878658639790956 10.557365796931663 0 10.557365796931663 -21.229534989953507 0 0 0 0 131.6348580976919 -97.134859556850643 0 -97.134859556850643 -68.590953609882035 0 0 0 0 -58.331328979104001 -32.788518866224024 0 -32.788518866224024 -4.0916209578822418 0 0 0 0 -46.430451700114645 -112.87598449358684 0 -112.87598449358684 32.076734903113447 0 0 0 0 555.36413053454453 -89.462732159318989 0 -89.462732159318989 -374.69145366234875 0 0 0 0 267.37358317481994 302.55935301070861 0 302.55935301070861 334.18378875458052 0 0 0 0 133.13601854085027 1.9403240864458553 0 1.9403240864458553 -134.54235714508377 0 0 0 0 4.5093949776974824 7.0807073522229729 0 7.0807073522229729 7.4258419866059269 0 0 0 0 -47.907385177086326 186.70136127693905 0 186.70136127693905 198.5687837600708 0 0 0 0 47.006441935627663 23.354009306008493 0 23.354009306008493 37.974102903366656 0 0 0 0 106.13873440657335 71.204380281546946 0 71.204380281546946 -7.9307187626661744 0 0 0 0 80.277475461251015 21.089818671245496 0 21.089818671245496 -67.284284076841686 0 0 0 0 112.47735794509936 -9.5884882567639806 0 -9.5884882567639806 -59.867774211113101 0 0 0 0 96.150874006867525 14.66092277284497 0 14.66092277284497 -93.409187462405043 0 0 0 0 10.124941655172734 -28.173404920986286 0 -28.173404920986286 -70.9917962454997 0 0 0 0 209.91226728144102 -66.183441487318987 0 -66.183441487318987 -36.421114286408283 0 0 0 0 4.4419003544568056 5.3312893213222026 0 5.3312893213222026 5.0895642207798151 0 0 0 0 -80.492227156079025 108.1753192230849 0 108.1753192230849 -87.99070439247339 0 0 0 0 193.59140150147869 -7.1994919016271979 0 -7.1994919016271979 -16.173538528598044 0 0 0 0 162.10993636218336 -8.2696784879432812 0 -8.2696784879432812 37.619849940956101 0 0 0 0 77.378833001050225 7.8999632002371527 0 7.8999632002371527 -17.74930886271477 0 0 0 0 132.57439181736481 -53.492766546609801 0 -53.492766546609801 -25.396107885114816 0 0 0 0 67.467305119920638 -126.02566881933973 0 -126.02566881933973 -15.41158186620487 0 0 0 0 70.696123064044514 -110.70183706560351 0 -110.70183706560351 -47.108402813812916 0 0 0 0 30.866760959106614 -113.73349534655733 0 -113.73349534655733 2.6507853543098463 0 0 0 0 4.4518982502012534 -0.56829355603731813 0 -0.56829355603731813 0.0016339675142775789 0 0 0 0 293.64755682000578 328.51069519782732 0 328.51069519782732 257.0495145113232 0 0 0 0 75.2354507882701 42.30470733911784 0 42.30470733911784 96.867322668682391 0 0 0 0 122.22370549467087 34.99796191386281 0 34.99796191386281 -90.325057913608816 0 0 0 0 22.962689888474415 105.96194406023392 0 105.96194406023392 156.42581620716965 0 0 0 0 11.126360842136961 -3.9897333161965918 0 -3.9897333161965918 0.87834201047200011 0 0 0 0 57.968141925644886 -13.240811838232617 0 -13.240811838232617 -99.186002586659811 0 0 0 0 -23.669018864427926 -30.250230553684787 0 -30.250230553684787 -26.470604203359585 0 0 0 0 26.810348407605488 -0.36631360341664276 0 -0.36631360341664276 -27.790692673404067 0 0 0 0 47.303174703702098 43.434836483056642 0 43.434836483056642 -16.264571446920627 0 0 0 0 28.562778037929093 63.602547103399957 0 63.602547103399957 64.499951472840166 0 0 0 0 93.524447045172565 27.151478026702762 0 27.151478026702762 -20.69200713112059 0 0 0 0 24.759024550237399 0.29068107820786793 0 0.29068107820786793 3.4024089685579813 0 0 0 0 73.818333235787577 19.874436709698216 0 19.874436709698216 -27.296135731260506 0 0 0 0 53.24455519154435 25.167702894752438 0 25.167702894752438 34.687323777437996 0 0 0 0 65.709558801565436 23.821591806449533 0 23.821591806449533 1.7631069864094115 0 0 0 0 71.770532784874376 56.522586555859164 0 56.522586555859164 -10.238541770966322 0 0 0 0 67.307103138169623 57.498237188929579 0 57.498237188929579 -5.5296145123303404 0 0 0 0 71.112060339195523 55.767912759659183 0 55.767912759659183 -7.4505459962060741 0 0 0 0 107.16752144870406 29.505442358533855 0 29.505442358533855 -44.127236189114853 0 0 0 0 74.454152038328175 60.323882445226388 0 60.323882445226388 -4.8986608420377706 0 0 0 0 71.250837478699395 54.558873050348893 0 54.558873050348893 -0.74334596884943949 0 0 0 0 151.67362928375223 100.22958753451158 0 100.22958753451158 21.03268875612639 0 0 0 0 4.4052890445527737 48.762719727548415 0 48.762719727548415 37.27449692357186 0 0 0 0 1588.1131080778505 347.204340042556 0 347.204340042556 -228.42097587253022 0 0 0 0 1345.8103156781472 318.98780394416661 0 318.98780394416661 -187.25790058961479 0 0 0 0 1050.6663760265001 225.41735949067723 0 225.41735949067723 -73.26036462509046 0 0 0 0 541.19505190652126 207.66899301984301 0 207.66899301984301 40.843837949929934 0 0 0 0 1046.9695345355576 -8.3331070958417968 0 -8.3331070958417968 -81.198800164452109 0 0 0 0 1151.8769320745778 83.245018309631064 0 83.245018309631064 -143.61388356627526 0 0 0 0 1103.2602928412234 166.45451816498792 0 166.45451816498792 -98.02262762097439 0 0 0 0 1922.8111308971565 271.69968270487453 0 271.69968270487453 -343.66235620936106 0 0 0 0 1935.2920895035968 217.69840883273628 0 217.69840883273628 -440.33572540618684 0 0 0 0 2499.5860584827424 343.7733924809848 0 343.7733924809848 -475.85664131741987 0 0 0 0 1763.5596933474626 561.01990852921631 0 561.01990852921631 -240.86433409023488 0 0 0 0 1938.9993699885163 354.45023895717264 0 354.45023895717264 -367.55474188511022 0 0 0 0 2017.4753039275311 642.82436024011133 0 642.82436024011133 -217.3750794167928 0 0 0 0 2123.7083799385146 388.35638416038739 0 388.35638416038739 -361.33856782229651 0 0 0 0 2499.7069039567577 679.05400990633348 0 679.05400990633348 -158.24293180786955 0 0 0 0 1859.8855430193435 430.98125999527201 0 430.98125999527201 -0.70851100220079388 0 0 0 0 1915.3322012172066 525.68663139666398 0 525.68663139666398 153.77080284444727 0 0 0 0 655.83250158316514 908.25529717233087 0 908.25529717233087 768.18842385727294 0 0 0 0 9.1428073345020664 1.4934448782631318 0 1.4934448782631318 -0.032427438650073026 0 0 0 0 1659.2531833507655 820.48832341301545 0 820.48832341301545 70.807898671070049 0 0 0 0 745.77750067500165 399.87704047578904 0 399.87704047578904 34.894662191876122 0 0 0 0 964.09484611160588 517.62127040361497 0 517.62127040361497 44.890216981815342 0 0 0 0 847.89372645038929 240.9534614316625 0 240.9534614316625 -12.498808235057027 0 0 0 0 709.13238025118335 412.28597432106443 0 412.28597432106443 162.70246771393721 0 0 0 0 299.63826043828885 193.5608209316606 0 193.5608209316606 117.30517535115735 0 0 0 0 37.126539091244922 -41.646060459415366 0 -41.646060459415366 138.06879885411962 0 0 0 0 300.52772400841422 -48.134334388230315 0 -48.134334388230315 -290.17144373503953 0 0 0 0 19.879373428490226 -4.9537642947360059 0 -4.9537642947360059 0.66112396894374259 0 0 0 0 32.566381572913087 76.461381096724637 0 76.461381096724637 -22.803199805704992 0 0 0 0 -42.418804857763462 -222.98318922017035 0 -222.98318922017035 -259.91161940214624 0 0 0 0 138.77407762847724 -10.967511460017583 0 -10.967511460017583 -114.46204275390622 0 0 0 0 68.057240667568237 -13.565877520896091 0 -13.565877520896091 -1.2161117708903699 0 0 0 0 137.82291308293497 33.442037853732714 0 33.442037853732714 -36.368215773061706 0 0 0 0 6.9081236658676062 -70.739934747764067 0 -70.739934747764067 -137.07810842370415 0 0 0 0 14.920158192177226 7.0943590942171539 0 7.0943590942171539 -7.2613173019646036 0 0 0 0 30.506055842117348 -128.58357655675988 0 -128.58357655675988 -14.497189067531849 0 0 0 0 58.92008726122549 -22.867925623108356 0 -22.867925623108356 -18.359061119951718 0 0 0 0 112.30085863813292 -74.446216870052808 0 -74.446216870052808 -22.245732505711629 0 0 0 0 107.35428206914366 -83.530983176165591 0 -83.530983176165591 54.572623036433697 0 0 0 0 203.39632623432408 -61.811391901096613 0 -61.811391901096613 -27.375175808322865 0 0 0 0 183.14972839949769 69.919602061271746 0 69.919602061271746 87.624573455648715 0 0 0 0 343.91224966232039 59.451443882336363 0 59.451443882336363 -84.113187576512871 0 0 0 0 869.23549344776256 -325.00395184813476 0 -325.00395184813476 -266.10292249959036 0 0 0 0 35.940891434993375 -6.3607931740798449 0 -6.3607931740798449 0.0055877603567167089 0 0 0 0 -191.76627760211704 285.88559729274277 0 285.88559729274277 -61.969500894331873 0 0 0 0 310.02477341623126 106.38573146775701 0 106.38573146775701 -262.25155871544712 0 0 0 0 200.25059737013362 -22.956101066181304 0 -22.956101066181304 -196.62263995047329 0 0 0 0 10.843283254926563 -2.5660055362756538 0 -2.5660055362756538 -1.0181247435556919 0 0 0 0 -837.02448802196886 15.712114873008602 0 15.712114873008602 11.047801414923242 0 0 0 0 36.948015968215856 -10.211864322657025 0 -10.211864322657025 -0.45026248453151674 0 0 0 0 11.162171955686063 -18.06809252874973 0 -18.06809252874973 49.128798386025778 0 0 0 0 118.41324471820008 -39.588139501285319 0 -39.588139501285319 -48.448672636347055 0 0 0 0 43.893081776381223 -55.872937109107923 0 -55.872937109107923 -30.33386317701752 0 0 0 0 44.115238028069143 -6.2613163918863393 0 -6.2613163918863393 -1.051979992876511 0 0 0 0 33.20722707761422 -17.859017457564164 0 -17.859017457564164 -3.5796169207064605 0 0 0 0 -17.424094449484983 -143.96351650844696 0 -143.96351650844696 -13.795538404435888 0 0 0 0 46.971898439427605 -10.686823642363606 0 -10.686823642363606 -7.9853579339421685 0 0 0 0 21.228362885698299 -6.4570847310398989 0 -6.4570847310398989 -3.4451024452862153 0 0 0 0 39.542639181978302 -6.5121815495422197 0 -6.5121815495422197 -9.9448990365036707 0 0 0 0 36.519234785657318 -12.067044229640373 0 -12.067044229640373 3.3560896019416759 0 0 0 0 21.776169830373163 -20.138305602917583 0 -20.138305602917583 -0.87531363285259101 0 0 0 0 25.48763496337051 -15.761028399892666 0 -15.761028399892666 2.6665694860651286 0 0 0 0 25.836909530313278 -97.860389621363481 0 -97.860389621363481 -73.459355614344531 0 0 0 0 -226.86960070727218 -27.233205065578886 0 -27.233205065578886 53.713424668537584 0 0 0 0 8.0447711394436645 -1.2313162732175158 0 -1.2313162732175158 -5.6539439791841239 0 0 0 0 94.919557035223988 -99.704503282053111 0 -99.704503282053111 -43.40718826802356 0 0 0 0 -21.566037675904226 -156.32104070766803 0 -156.32104070766803 6.7316166519767648 0 0 0 0 64.623798592777348 -25.459882960072242 0 -25.459882960072242 -5.478500118935699 0 0 0 0 280.72348381978372 -44.701979838404611 0 -44.701979838404611 56.011460156595376 0 0 0 0 563.80386389667729 79.455081046450218 0 79.455081046450218 -24.070682197856058 0 0 0 0 17.902331553064869 -95.325629744750955 0 -95.325629744750955 57.584776040485622 0 0 0 0 215.12822552977741 21.217453531674209 0 21.217453531674209 50.760783968290255 0 0 0 0 166.80119304023538 -107.99425527756102 0 -107.99425527756102 -23.249161603542348 0 0 0 0 184.72232560565317 -7.8898006425863514 0 -7.8898006425863514 -18.849357844967358 0 0 0 0 215.68446980067529 -72.787872025936963 0 -72.787872025936963 67.652494198855834 0 0 0 0 2.1368952345655998 -27.357749309819496 0 -27.357749309819496 83.284491458481625 0 0 0 0 577.68175004429213 29.074614402483689 0 29.074614402483689 -26.235827648357315 0 0 0 0 577.23055887798546 28.787502376799239 0 28.787502376799239 -14.630264827877113 0 0 0 0 596.18031001198051 -42.857991134385678 0 -42.857991134385678 -17.269925532927118 0 0 0 0 213.24193762065261 9.1440515535563236 0 9.1440515535563236 84.42889862504876 0 0 0 0 590.00380765370073 -78.632405283203624 0 -78.632405283203624 -15.845426843240375 0 0 0 0 77.974874724874098 -124.51018594322528 0 -124.51018594322528 42.411571568074407 0 0 0 0 139.83433542252169 23.903703822342095 0 23.903703822342095 -17.407197950168026 0 0 0 0 202.27973885690153 -167.4313816883809 0 -167.4313816883809 195.05695814382312 0 0 0 0 540.71397675581102 -30.018969334366034 0 -30.018969334366034 23.748091133742776 0 0 0 0 111.53891885305347 -22.210080237702385 0 -22.210080237702385 -27.507655012291934 0 0 0 0 38.746106625825632 10.195369838243096 0 10.195369838243096 6.8853344235407121 0 0 0 0 -290.2544513193352 28.629698616368103 0 28.629698616368103 88.711884544805429 0 0 0 0 -1.181532132955974 -0.10676492827077766 0 -0.10676492827077766 -1.5107628568430691 0 0 0 0 -42.429975749280857 84.416855665829331 0 84.416855665829331 48.039851028609064 0 0 0 0 39.108148849598365 -44.032688931023628 0 -44.032688931023628 -17.410745605193597 0 0 0 0 -63.616002019021835 -32.955934439887926 0 -32.955934439887926 -2.2038936783924896 0 0 0 0 13.112722262256284 -3.2412267151340259 0 -3.2412267151340259 6.0782908077263187 0 0 0 0 -97.597978487981891 45.241773118151904 0 45.241773118151904 43.949220164715214 0 0 0 0 -7.9150342121210997 58.538577066357789 0 58.538577066357789 11.046586597793691 0 0 0 0 2.3758219384471886 29.841269678811045 0 29.841269678811045 -15.106223287293915 0 0 0 0 0.91328803890792187 -8.3614805319351717 0 -8.3614805319351717 12.663541321365415 0 0 0 0 17.290035457023947 2.1107988189210118 0 2.1107988189210118 -3.0766563367563244 0 0 0 0 39.394638968318759 127.2008611407083 0 127.2008611407083 -125.65252414303734 0 0 0 0 48.932925369779696 90.661339322227207 0 90.661339322227207 14.274111923817372 0 0 0 0 79.670728139964922 -325.60997934973022 0 -325.60997934973022 142.68799824654653 0 0 0 0 73.665023247463978 10.362226994184255 0 10.362226994184255 158.24685556754008 0 0 0 0 93.509744884868269 113.56004131984 0 113.56004131984 12.380911113272873 0 0 0 0 3.2118111712261452 73.642231697544275 0 73.642231697544275 -5.1241678464049869 0 0 0 0 115.61975983324373 80.430254918323158 0 80.430254918323158 -81.706475984265467 0 0 0 0 24.000433571112808 -15.57576978528698 0 -15.57576978528698 -106.76405256404564 0 0 0 0 59.601623264185037 137.8729639526488 0 137.8729639526488 75.781120270590534 0 0 0 0 1587.3263739885042 -61.927413370706205 0 -61.927413370706205 37.512325548147686 0 0 0 0 2035.7959516447736 -369.57974898407991 0 -369.57974898407991 -43.759680102417526 0 0 0 0 1594.6757324859191 -390.86626844447431 0 -390.86626844447431 41.84839164639186 0 0 0 0 1831.3459994289951 -240.65705713853743 0 -240.65705713853743 126.37435629157227 0 0 0 0 3.6275426209340651 -2.8770250903362751 0 -2.8770250903362751 2.5221545431870571 0 0 0 0 1461.2996889039132 -446.68975693286581 0 -446.68975693286581 26.47897859576679 0 0 0 0 581.40862664189262 -224.31842392681409 0 -224.31842392681409 71.611939996470937 0 0 0 0 1843.0838087696829 -69.023528418635465 0 -69.023528418635465 -194.50246017891914 0 0 0 0 1421.2842362651252 14.02205528907413 0 14.02205528907413 2.0501560758933692 0 0 0 0 1558.9630266775857 25.765519462132602 0 25.765519462132602 -224.0850785813949 0 0 0 0 1362.0048337589365 45.655886061200263 0 45.655886061200263 -193.53793856177435 0 0 0 0 1307.9483121335143 -186.89532481029062 0 -186.89532481029062 -77.981014541891568 0 0 0 0 2231.9143653287392 144.82282623530671 0 144.82282623530671 -423.75049535829692 0 0 0 0 1797.1945666301372 74.38162663062144 0 74.38162663062144 -231.12277870980114 0 0 0 0 2499.9325986991353 -31.011698318386628 0 -31.011698318386628 -410.85973109165428 0 0 0 0 2499.6092484616929 -247.77184887239176 0 -247.77184887239176 -241.32586434470102 0 0 0 0 2095.5502932448726 -38.29839085912586 0 -38.29839085912586 -343.3643347100417 0 0 0 0 2083.7664993532599 -53.577114625553151 0 -53.577114625553151 -174.65862743980995 0 0 0 0 2116.5948746273934 -467.6973808791405 0 -467.6973808791405 -7.1006782427008375 0 0 0 0 2281.529630065379 -198.53841233795865 0 -198.53841233795865 -146.13681469808233 0 0 0 0 2500.0230798599914 -411.86741080923287 0 -411.86741080923287 61.500609640798217 0 0 0 0 2126.0951802640739 -295.15006021729585 0 -295.15006021729585 213.05706935039171 0 0 0 0 2363.6083439362956 -605.30089487655266 0 -605.30089487655266 431.66655714478219 0 0 0 0 2332.0667000808062 -421.44077422103237 0 -421.44077422103237 118.39539663396037 0 0 0 0 166.51828873761315 125.46930476608871 0 125.46930476608871 -2.0931224545354894 0 0 0 0 1330.8406167296162 -589.39543784585567 0 -589.39543784585567 243.31233266111099 0 0 0 0 0.71808683635243931 -0.88838028458972929 0 -0.88838028458972929 0.17000274325148323 0 0 0 0 1758.1774158331282 -724.33955544180947 0 -724.33955544180947 116.51770169472206 0 0 0 0 2163.8549119493618 -477.20487948719943 0 -477.20487948719943 -30.804538448527524 0 0 0 0 1619.7900042665751 -358.51875466995426 0 -358.51875466995426 57.031275999933754 0 0 0 0 2.9314129517091665 -3.4602215797834504 0 -3.4602215797834504 5.3778771378105485 0 0 0 0 -176.1430131447778 -53.331439202754154 0 -53.331439202754154 216.16783627982704 0 0 0 0 85.986183775850805 -196.26412439264186 0 -196.26412439264186 262.73268504764621 0 0 0 0 4.2904946757486648 -0.38529461459880565 0 -0.38529461459880565 -3.1252267391579736 0 0 0 0 -6.5180380519450409 -44.627251463859459 0 -44.627251463859459 125.34598588315919 0 0 0 0 357.78699317498103 -62.733454108263913 0 -62.733454108263913 20.404051637401153 0 0 0 0 354.33626809139969 13.038199083858899 0 13.038199083858899 0.17556549778601038 0 0 0 0 361.12904810978216 102.84807654403085 0 102.84807654403085 26.881449575706938 0 0 0 0 1.6057769543281495 0.76154883064369727 0 0.76154883064369727 -0.73003781320309091 0 0 0 0 138.03887536279217 95.085350176592783 0 95.085350176592783 12.155181227676621 0 0 0 0 129.70669875736348 -16.253794225918682 0 -16.253794225918682 77.336763185565815 0 0 0 0 201.65028139113565 -85.792224442288898 0 -85.792224442288898 8.2190027235137677 0 0 0 0 138.64145714313418 0.44341837554964059 0 0.44341837554964059 -126.0678617124704 0 0 0 0 85.399073717562715 -114.58102547655699 0 -114.58102547655699 -69.863886132143762 0 0 0 0 139.70825825409429 84.749699297116251 0 84.749699297116251 -77.826858008191266 0 0 0 0 1855.9188315736537 -307.96095741634605 0 -307.96095741634605 0.33168963087945258 0 0 0 0 4.3997138381698768 -10.531317922736726 0 -10.531317922736726 13.950239889238622 0 0 0 0 -66.838692251083557 -77.599831605002237 0 -77.599831605002237 32.285475192054037 0 0 0 0 0.41177854973377848 9.6451310603560572 0 9.6451310603560572 5.4959473831161212 0 0 0 0 65.225121141826094 18.748125063429143 0 18.748125063429143 9.3980485718316231 0 0 0 0 194.59027806630911 -8.2587291281918169 0 -8.2587291281918169 -34.1741057369195 0 0 0 0 181.64677191687952 6.9433739345508911 0 6.9433739345508911 -41.898251064043507 0 0 0 0 86.123836957038293 -40.512922802345457 0 -40.512922802345457 17.799734992542653 0 0 0 0 2499.3658577086208 -513.22697936593693 0 -513.22697936593693 168.70865572731043 0 0 0 0 3313.5155346575511 -434.9876145427541 0 -434.9876145427541 56.484905726026824 0 0 0 0 2172.1407067094879 -164.93915441917832 0 -164.93915441917832 19.073036959749437 0 0 0 0 2071.2935598733675 -632.42137350746066 0 -632.42137350746066 -102.98427055862886 0 0 0 0 2372.9147413164073 -709.62403659768268 0 -709.62403659768268 -87.286273422475432 0 0 0 0 1914.1931308675448 -966.23437783941858 0 -966.23437783941858 -127.09929517072996 0 0 0 0 2500.7460394183472 -813.70875918716308 0 -813.70875918716308 -300.12664693067131 0 0 0 0 1777.3339704673672 -926.12191475187694 0 -926.12191475187694 -137.67137219088337 0 0 0 0 1188.6123173840315 -643.82515440180146 0 -643.82515440180146 58.814690955128924 0 0 0 0 1393.2707564270968 -1108.9671176832319 0 -1108.9671176832319 376.48172956515987 0 0 0 0 1484.1946700565459 -662.02386795818938 0 -662.02386795818938 -31.567204470555424 0 0 0 0 889.58020734565798 -510.39331292983843 0 -510.39331292983843 34.584416324936257 0 0 0 0 1600.9564796230661 -559.32279674008726 0 -559.32279674008726 -141.79882240726295 0 0 0 0 1667.7753701709726 -176.65522755268981 0 -176.65522755268981 -78.325907034537636 0 0 0 0 1879.420014823274 -761.42873347575028 0 -761.42873347575028 -66.663272475567851 0 0 0 0 835.97803347889567 -222.48300556879479 0 -222.48300556879479 77.617689689327776 0 0 0 0 28.429214721567405 -20.740024440124216 0 -20.740024440124216 16.326811105926026 0 0 0 0 747.36775882510483 -327.66620518919882 0 -327.66620518919882 39.329018948433344 0 0 0 0 5.4639670523407506 -13.202888751065082 0 -13.202888751065082 19.801842439800343 0 0 0 0 100.26848891377085 -2.5694002191694381 0 -2.5694002191694381 -7.423570698389085 0 0 0 0 8.5283199828202374 9.3800093702029201 0 9.3800093702029201 -1.6443024444534586 0 0 0 0 70.00479781802278 -25.536191936139403 0 -25.536191936139403 -5.9830793046173767 0 0 0 0 4.2708070612348124 4.9779798546026512 0 4.9779798546026512 6.7638298520343572 0 0 0 0 29.264948364852899 5.2085591325621863 0 5.2085591325621863 8.3516630824433378 0 0 0 0 50.934910267191299 0.64625192926132513 0 0.64625192926132513 11.501335370486231 0 0 0 0 28.623504974412967 5.7071688501518807 0 5.7071688501518807 1.3600583549284089 0 0 0 0 6.6112589146296905 -0.28013734786539857 0 -0.28013734786539857 12.839652234189378 0 0 0 0 -263.27917708839232 -100.26871812593441 0 -100.26871812593441 296.28857993989959 0 0 0 0 381.19084406206093 26.88002702018926 0 26.88002702018926 -106.34603772258876 0 0 0 0 -122.64631464967533 45.577071515134634 0 45.577071515134634 204.54681817385767 0 0 0 0 360.64727775141364 -79.964965256757637 0 -79.964965256757637 38.760562250202113 0 0 0 0 198.23215705141774 -174.49814636804774 0 -174.49814636804774 167.90145920122131 0 0 0 0 833.41269861168985 -542.96872828194466 0 -542.96872828194466 99.775279964879473 0 0 0 0 797.31790282252769 -290.13305461507315 0 -290.13305461507315 8.7856503459597093 0 0 0 0 488.93325735973485 -372.06639996770446 0 -372.06639996770446 194.48589574147456 0 0 0 0 22.380178804509342 -75.379967864343143 0 -75.379967864343143 265.48113144204285 0 0 0 0 195.54054497240577 -311.82857392499693 0 -311.82857392499693 330.34117476443748 0 0 0 0 -36.081926873583143 -189.19389076514136 0 -189.19389076514136 55.151220767724453 0 0 0 0 -137.47100091117318 135.46698316379661 0 135.46698316379661 49.567716739804951 0 0 0 0 200.39304271934816 -106.47313688884446 0 -106.47313688884446 192.81868839665594 0 0 0 0 12.735669733820032 -108.3087850680605 0 -108.3087850680605 249.04285215739628 0 0 0 0 31.934075665529235 7.7217321608669636 0 7.7217321608669636 8.5322888414357294 0 0 0 0 36.604021299825035 9.8872771890930835 0 9.8872771890930835 4.3463812259847145 0 0 0 0 25.857195195191707 7.4128396919010697 0 7.4128396919010697 9.1589234552393464 0 0 0 0 1.7773299739730426 3.7771147459764478 0 3.7771147459764478 6.511902992135143 0 0 0 0 -113.33809050695709 108.35280460544982 0 108.35280460544982 -65.905309147895423 0 0 0 0 53.340563439880498 -5.6811201434566101 0 -5.6811201434566101 -143.09563536652115 0 0 0 0 -16.919978758145589 175.55312021601458 0 175.55312021601458 -107.1645110355671 0 0 0 0 12.359512869195896 276.49805087227219 0 276.49805087227219 27.761875364182742 0 0 0 0 2.2290115629016469 2.6446771255174468 0 2.6446771255174468 1.8810379657070637 0 0 0 0 -115.77957903632705 -162.46242070370397 0 -162.46242070370397 664.72244746724141 0 0 0 0 2434.1279604330557 -202.31953535518392 0 -202.31953535518392 -473.49089125381636 0 0 0 0 613.71798328256409 -689.598606182494 0 -689.598606182494 864.9353574044884 0 0 0 0 12.822182080974017 3.6764905187412751 0 3.6764905187412751 19.223375672444035 0 0 0 0 12.836266299210791 -1.9639067140224675 0 -1.9639067140224675 0.95077926638657306 0 0 0 0 3.7973837451658561 -3.823235925076915 0 -3.823235925076915 9.6822015649952053 0 0 0 0 2473.6496198930727 -340.42438066105632 0 -340.42438066105632 -29.61738605567658 0 0 0 0 28.606545557405546 -21.519572089841979 0 -21.519572089841979 13.189957964273052 0 0 0 0 1148.6260282268777 -1537.3313080843579 0 -1537.3313080843579 1364.1605074459574 0 0 0 0 2495.737553983337 -1487.2357056273777 0 -1487.2357056273777 162.91446514174947 0 0 0 0 -1442.2555776451482 1180.8652117499155 0 1180.8652117499155 2255.4248794019827 0 0 0 0 1005.0464438891004 -796.31551908570043 0 -796.31551908570043 440.86613665927166 0 0 0 0 852.90985017783532 -758.97494733594272 0 -758.97494733594272 452.97728589341125 0 0 0 0 556.8730614367887 -607.6177224824537 0 -607.6177224824537 431.0087731572396 0 0 0 0 572.22207042653463 -385.73508982010571 0 -385.73508982010571 176.44706739468768 0 0 0 0 889.24963437647784 -646.83889546217529 0 -646.83889546217529 339.91159821010842 0 0 0 0 225.2057959750091 -488.11687925317824 0 -488.11687925317824 566.6439249878897 0 0 0 0 626.8081343222002 -743.78339852894965 0 -743.78339852894965 709.33084225492166 0 0 0 0 187.35194231030619 19.654303588090897 0 19.654303588090897 36.32947977927688 0 0 0 0 216.11315519083291 23.36794236396463 0 23.36794236396463 -15.607595797482645 0 0 0 0 74.401004782892414 49.769823819548037 0 49.769823819548037 -20.408264573054566 0 0 0 0 153.26833542620079 -26.282872639280868 0 -26.282872639280868 -65.264006491313921 0 0 0 0 71.208883584826253 -82.31441556468144 0 -82.31441556468144 -19.28071171150475 0 0 0 0 169.21454742310561 -188.32318171173984 0 -188.32318171173984 -98.456321336236215 0 0 0 0 163.16483924800923 -130.58632901592932 0 -130.58632901592932 -23.278442211767469 0 0 0 0 149.76251697790212 -157.170178831047 0 -157.170178831047 112.8930631945459 0 0 0 0 298.33027207304258 -102.32599245494021 0 -102.32599245494021 -17.518803504917969 0 0 0 0 393.20021226086828 -263.50485568214663 0 -263.50485568214663 144.80596188621621 0 0 0 0 68.52243171783266 -175.74756362571725 0 -175.74756362571725 447.3734548066418 0 0 0 0 163.97770123233204 170.55157181436562 0 170.55157181436562 293.75753812888615 0 0 0 0 524.01308363239332 8.1448300558597566 0 8.1448300558597566 24.278491931721874 0 0 0 0 29.922046096111444 10.152707589182228 0 10.152707589182228 148.94790515413001 0 0 0 0 32.410693515848834 15.534532223900442 0 15.534532223900442 15.436954195424704 0 0 0 0 -162.67514250203203 35.859819782517718 0 35.859819782517718 114.98074216176974 0 0 0 0 1.7800541768997853 4.1206414834647589 0 4.1206414834647589 6.511786072289782 0 0 0 0 27.896064546112029 107.24340484658296 0 107.24340484658296 8.8594834810425596 0 0 0 0 -25.085252987923013 89.788208536770071 0 89.788208536770071 6.396828869122146 0 0 0 0 121.92660096829786 137.07028195951989 0 137.07028195951989 68.026278583494786 0 0 0 0 74.687753849095316 98.400101415886638 0 98.400101415886638 -20.288811258869828 0 0 0 0 53.439289457912309 66.090443393399028 0 66.090443393399028 -5.448525860776499 0 0 0 0 41.064081685139172 61.150846235883364 0 61.150846235883364 -47.267563456251082 0 0 0 0 55.126355210850306 75.534568526613839 0 75.534568526613839 -46.767867594004201 0 0 0 0 78.054902825973841 46.537474228307474 0 46.537474228307474 -101.58676083401588 0 0 0 0 -63.380466403073115 51.770934669532096 0 51.770934669532096 3.4729225097034941 0 0 0 0 14.564442116265127 32.521710634870942 0 32.521710634870942 -12.074506663811007 0 0 0 0 17.130971607064566 47.354752940245817 0 47.354752940245817 -53.959100131858577 0 0 0 0 32.668197360485465 11.751039288547872 0 11.751039288547872 -6.4712637501079371 0 0 0 0 23.955556158709555 11.977658552217717 0 11.977658552217717 4.563260094844658 0 0 0 0 25.601202061243384 17.108906474645664 0 17.108906474645664 -3.4812815702644002 0 0 0 0 25.083369164480246 -0.92391260253930341 0 -0.92391260253930341 -87.137150985916378 0 0 0 0 32.393393635495158 20.621417527360791 0 20.621417527360791 -25.10611492701355 0 0 0 0 27.399273186819698 7.7068028572342326 0 7.7068028572342326 0.48539621701355706 0 0 0 0 -49.111790201022814 -1.0825804877231349 0 -1.0825804877231349 -1.048650922515435 0 0 0 0 5.5961808988748913 6.2139578148563857 0 6.2139578148563857 0.2327312655297078 0 0 0 0 52.06597165038329 -7.4636778803396737 0 -7.4636778803396737 -145.67191461944276 0 0 0 0 -11.194827093961067 129.6517770902683 0 129.6517770902683 -38.594529063710297 0 0 0 0 5.2580798644266906 175.2003892408211 0 175.2003892408211 87.323296935948065 0 0 0 0 -72.73943647739361 -6.0133308952113111 0 -6.0133308952113111 160.02853267608953 0 0 0 0 57.895216436740156 49.91361348382361 0 49.91361348382361 -74.046767750034633 0 0 0 0 81.818309504538774 21.492265368721746 0 21.492265368721746 -130.73621788846503 0 0 0 0 -82.685058220038627 10.713251430665423 0 10.713251430665423 -65.899752869074291 0 0 0 0 8.2619763784095994 50.066326457385912 0 50.066326457385912 -134.44053851871831 0 0 0 0 -23.166448452680925 -17.407390876978297 0 -17.407390876978297 -64.811926746899189 0 0 0 0 107.71840343625263 48.731352795238081 0 48.731352795238081 -76.514359939703354 0 0 0 0 0.20205784210182287 -1.1160784530292247 0 -1.1160784530292247 0.10825026431911233 0 0 0 0 268.19411039516126 148.85058637461134 0 148.85058637461134 -76.632407701494799 0 0 0 0 2.1771395878895419 -207.89081991917703 0 -207.89081991917703 -92.652267386776657 0 0 0 0 766.61102548980853 354.70901507283997 0 354.70901507283997 -123.54540248941339 0 0 0 0 5.0561803182691563 1.7635767233917807 0 1.7635767233917807 0.3788062055080772 0 0 0 0 125.9087775678272 224.35339814533017 0 224.35339814533017 124.88339995104343 0 0 0 0 182.48554144657101 -186.95669022307948 0 -186.95669022307948 100.70412847528496 0 0 0 0 10.816245148511371 2.5768693903683015 0 2.5768693903683015 15.114118002417854 0 0 0 0 400.45227651180267 -102.66158030870906 0 -102.66158030870906 -49.575375099151643 0 0 0 0 155.88959802546015 622.71243991998563 0 622.71243991998563 838.23159976196621 0 0 0 0 133.39447157543327 -32.273813540132323 0 -32.273813540132323 -13.647345008202137 0 0 0 0 79.424112676089862 -83.944497855305144 0 -83.944497855305144 117.40043108883765 0 0 0 0 175.25135189727007 -83.617710942757185 0 -83.617710942757185 -48.506726211740897 0 0 0 0 140.13233392730763 72.805858382177803 0 72.805858382177803 -186.10605941771087 0 0 0 0 47.22280763505151 14.435310684127622 0 14.435310684127622 3.2742463572931602 0 0 0 0 28.883667603964568 62.839178741690375 0 62.839178741690375 8.9899221796662232 0 0 0 0 87.288024683122785 2.7731087011806892 0 2.7731087011806892 -50.052036633607031 0 0 0 0 144.86721787802526 -47.990225005995853 0 -47.990225005995853 -66.875267935981356 0 0 0 0 60.46831386629492 11.155092604396032 0 11.155092604396032 9.281712504714676 0 0 0 0 53.52618944057231 16.423942184586195 0 16.423942184586195 2.3050928614789417 0 0 0 0 20.683858328397037 15.876958117593688 0 15.876958117593688 11.332578250815232 0 0 0 0 -14.590734583842277 35.309934297291875 0 35.309934297291875 52.747405811327098 0 0 0 0 52.573358025387279 -22.321271298369709 0 -22.321271298369709 30.191683093837582 0 0 0 0 -67.485716207454971 -39.52960518230077 0 -39.52960518230077 27.726598696407621 0 0 0 0 24.896442020028189 3.4641633724148733 0 3.4641633724148733 -13.373606495853892 0 0 0 0 248.59596891582987 53.106507617516229 0 53.106507617516229 -3.2851975865241911 0 0 0 0 99.618868377114268 -141.60749261971566 0 -141.60749261971566 40.894713503513458 0 0 0 0 32.762595604673606 14.057447389609763 0 14.057447389609763 8.7916748298912353 0 0 0 0 57.985758638562402 43.681930332697675 0 43.681930332697675 0.87124363267895433 0 0 0 0 19.525894481028047 -0.78209277639776786 0 -0.78209277639776786 -8.520813049106156 0 0 0 0 27.717608030347037 6.6186584019105794 0 6.6186584019105794 3.1236827919019561 0 0 0 0 56.483215699059656 29.728128631953609 0 29.728128631953609 -8.5845622015866638 0 0 0 0 28.976684358701931 3.6082023123560276 0 3.6082023123560276 -6.0556364983545441 0 0 0 0 46.302255645168771 35.149002642090636 0 35.149002642090636 25.017834274663755 0 0 0 0 46.927610976816368 42.167435376977956 0 42.167435376977956 10.028982111969299 0 0 0 0 61.591578848121571 60.051859879736639 0 60.051859879736639 19.655293091737121 0 0 0 0 61.163876217658981 -17.272655626604319 0 -17.272655626604319 -57.70520393483423 0 0 0 0 125.6878309905951 45.516943792694462 0 45.516943792694462 -23.285704451387517 0 0 0 0 2.5422622607378287 -0.39913206020746372 0 -0.39913206020746372 0.67381934897806117 0 0 0 0 124.86341047831957 103.85597612293648 0 103.85597612293648 -8.2262701934978537 0 0 0 0 76.604576216439455 95.302668055685615 0 95.302668055685615 96.667369171719884 0 0 0 0 15.245711659408698 38.03485800480945 0 38.03485800480945 135.29563700477121 0 0 0 0 12.132092736675986 25.65846906874134 0 25.65846906874134 105.20202500966968 0 0 0 0 9.4023721108939924 -5.885174224255131 0 -5.885174224255131 4.2879992832122271 0 0 0 0 133.67361651835381 13.033366219296823 0 13.033366219296823 -0.89292984755510929 0 0 0 0 -9.9327963825926417 -16.920985563503152 0 -16.920985563503152 15.153277723447189 0 0 0 0 251.07368367936579 -55.497792320398389 0 -55.497792320398389 41.893765395549224 0 0 0 0 257.20690550912877 -28.992885141953863 0 -28.992885141953863 -36.911181136538971 0 0 0 0 -66.777819638220535 61.711728177620387 0 61.711728177620387 120.96054208076728 0 0 0 0 11.494314676392605 18.521060544014141 0 18.521060544014141 42.42719045852391 0 0 0 0 -110.2757166521551 -46.334284049424184 0 -46.334284049424184 22.636281032195257 0 0 0 0 1.5310544789115994 1.5602267147005904 0 1.5602267147005904 -0.82525097390112379 0 0 0 0 18.370696968474505 1.2553955722910963 0 1.2553955722910963 -2.8600175587207994 0 0 0 0 30.173396965882603 15.445262931537556 0 15.445262931537556 -8.1922667409307905 0 0 0 0 -101.39102424573503 117.41869219389162 0 117.41869219389162 -33.396107216554014 0 0 0 0 391.02830983314925 -66.757307156842288 0 -66.757307156842288 -101.17790533434611 0 0 0 0 -138.26522767132974 -11.096240525500136 0 -11.096240525500136 146.05174544591455 0 0 0 0 -69.523543127448647 -65.062189235225333 0 -65.062189235225333 159.92383140996259 0 0 0 0 145.17916556362616 29.245530489911857 0 29.245530489911857 25.371212501791831 0 0 0 0 2.3866670286648173 -0.81372941460539294 0 -0.81372941460539294 0.011126256580941712 0 0 0 0 24.534206267380796 56.585804775651923 0 56.585804775651923 134.86011570569832 0 0 0 0 1.9784249028874399 -0.25269167338884735 0 -0.25269167338884735 -0.11547836984350635 0 0 0 0 193.02239762662794 -32.799841192903841 0 -32.799841192903841 13.734142353345987 0 0 0 0 -39.039741977518133 -22.430529362475795 0 -22.430529362475795 42.608589777176093 0 0 0 0 19.064692825842393 11.115327647662134 0 11.115327647662134 5.7776973478161544 0 0 0 0 -15.883270937381894 13.968317686172099 0 13.968317686172099 6.562021739656501 0 0 0 0 3.9416243432530678 3.0410945296979133 0 3.0410945296979133 2.2113938785602949 0 0 0 0 -11.068398627765418 21.688823650540371 0 21.688823650540371 20.282623084220404 0 0 0 0 -1.3585893178260449 34.748845881947773 0 34.748845881947773 44.5026071440343 0 0 0 0 12.897066455509048 1.8552867697480337 0 1.8552867697480337 8.9609930156855171 0 0 0 0 7.2035890666343505 -1.7588101703441004 0 -1.7588101703441004 0.57117627144399741 0 0 0 0 18.634460406516155 -30.126459117797395 0 -30.126459117797395 27.413923971317104 0 0 0 0 43.713981286346097 -8.9432886149654678 0 -8.9432886149654678 43.071895993814707 0 0 0 0 18.321862025739392 -10.718586165751162 0 -10.718586165751162 -10.271186089629964 0 0 0 0 23.275586647054297 1.6558303541893338 0 1.6558303541893338 -3.764684422931623 0 0 0 0 23.019419495361475 -5.8827909362674546 0 -5.8827909362674546 -7.3566861034772559 0 0 0 0 25.495959397143451 2.5007115429683751 0 2.5007115429683751 -4.7379599573528708 0 0 0 0 33.094063387543429 -11.366328420762329 0 -11.366328420762329 -0.013028877215674584 0 0 0 0 31.447128385593587 2.4015750212729188 0 2.4015750212729188 -2.2915272285139654 0 0 0 0 26.678182232164545 -0.39282184270837206 0 -0.39282184270837206 -2.5329612974780389 0 0 0 0 21.526681117368838 -2.3437014140642178 0 -2.3437014140642178 -0.52741374577925848 0 0 0 0 13.715101332944045 0.28670580447867877 0 0.28670580447867877 1.7503147740621308 0 0 0 0 54.545389669743599 18.729432843647942 0 18.729432843647942 -20.604288869039692 0 0 0 0 2.2606778503694045 0.11765622632426798 0 0.11765622632426798 0.97731218822782351 0 0 0 0 51.646976713945918 10.969685018666647 0 10.969685018666647 -1.3837246632274947 0 0 0 0 51.906140092993155 -42.338054329596844 0 -42.338054329596844 -105.78176930433574 0 0 0 0 14.340934264422685 -16.01777779976419 0 -16.01777779976419 9.8445436604347378 0 0 0 0 21.425428754097098 11.483625609090716 0 11.483625609090716 2.7985163421930013 0 0 0 0 38.489385633860365 -25.012836691919802 0 -25.012836691919802 13.128182172749348 0 0 0 0 20.898899143842598 0.85138348972598266 0 0.85138348972598266 1.1152126163271667 0 0 0 0 23.303753871187837 -21.13972944725316 0 -21.13972944725316 20.049133129529764 0 0 0 0 29.709555006462324 7.2519567698905121 0 7.2519567698905121 -34.64258623688454 0 0 0 0 89.834240611184214 -18.911906235445713 0 -18.911906235445713 -23.261656251402201 0 0 0 0 26.675753370575421 3.7756729811378271 0 3.7756729811378271 -0.52486227353033543 0 0 0 0 1.8371418645104995 1.0842632259328759 0 1.0842632259328759 0.71803349018335538 0 0 0 0 -12.768089158103976 -8.1647036938247766 0 -8.1647036938247766 -29.63277302578058 0 0 0 0 65.683649924554629 -42.231318780148285 0 -42.231318780148285 24.569380832260322 0 0 0 0 76.379367224988528 89.975033374157647 0 89.975033374157647 81.375151593710598 0 0 0 0 63.241590577403258 199.73089215260734 0 199.73089215260734 41.261919461649086 0 0 0 0 44.021051522038761 28.212788736989978 0 28.212788736989978 -19.247139165737735 0 0 0 0 28.513706966902191 10.559860162802771 0 10.559860162802771 3.3914202557284971 0 0 0 0 106.44875732733271 -27.538307271251597 0 -27.538307271251597 -3.3035690105134563 0 0 0 0 57.523239546773766 20.435240700531949 0 20.435240700531949 25.589823096317559 0 0 0 0 69.971932980522979 -10.172733610177602 0 -10.172733610177602 -9.0690871164124474 0 0 0 0 47.048317308530386 3.7666722013218532 0 3.7666722013218532 -0.93326443922478575 0 0 0 0 50.569990929329833 -35.471082760158879 0 -35.471082760158879 27.558003569484754 0 0 0 0 18.644696800787642 -27.278524749809549 0 -27.278524749809549 25.971895214338474 0 0 0 0 55.004225314762152 -10.403484093141742 0 -10.403484093141742 23.723182421445927 0 0 0 0 -7.5771009832969867 -12.241318664210667 0 -12.241318664210667 30.896418561756946 0 0 0 0 20.133029439400389 6.8697140356446944 0 6.8697140356446944 2.8386379145352212 0 0 0 0 10.267520967929158 10.83145835463074 0 10.83145835463074 -4.848607632698986 0 0 0 0 5.4969318147283133 3.2441031803852081 0 3.2441031803852081 1.6170012874883906 0 0 0 0 6.9727983905704605 19.715857522607394 0 19.715857522607394 -3.0865280197185712 0 0 0 0 30.307329051909619 8.1009677670772362 0 8.1009677670772362 -30.155260557688962 0 0 0 0 -8.2066226143360836 1.5662000220700065 0 1.5662000220700065 21.059443627091241 0 0 0 0 8.3641831786517287 8.5291729605310138 0 8.5291729605310138 -4.4326010360956616 0 0 0 0 5.1549737933403179 -3.60977369115367 0 -3.60977369115367 0.67684438085682608 0 0 0 0 7.4849101280854882 1.4578876173124158 0 1.4578876173124158 1.1627377528333511 0 0 0 0 67.908812150944868 -5.0035627918159662 0 -5.0035627918159662 -61.901331106454109 0 0 0 0 4.4912004930811236 -3.3521309257521352 0 -3.3521309257521352 112.79674836353115 0 0 0 0 1.9733758651455844 -1.7348256040564589 0 -1.7348256040564589 0.54549732890675084 0 0 0 0 56.455989045534807 16.017525474453578 0 16.017525474453578 13.657919967968155 0 0 0 0 82.874442266926053 -44.106943968590713 0 -44.106943968590713 38.011512676132043 0 0 0 0 69.868711044275187 -117.81031151425725 0 -117.81031151425725 34.594926378912533 0 0 0 0 1.2959725523287489 4.7800250131623443 0 4.7800250131623443 24.48576640994645 0 0 0 0 85.085065397075596 83.44180166588535 0 83.44180166588535 -45.828341672826127 0 0 0 0 39.046544015551973 11.672109997976198 0 11.672109997976198 2.6267635801590847 0 0 0 0 35.606016022022231 11.2468533459828 0 11.2468533459828 -4.8721887345022878 0 0 0 0 -1.083065583530697 -71.228511092912129 0 -71.228511092912129 14.382553202891813 0 0 0 0 0.23603492657063896 0.46058746795285899 0 0.46058746795285899 2.2163955953105487 0 0 0 0 80.174854272507218 32.630976576798957 0 32.630976576798957 -11.220783021315583 0 0 0 0 10.706382274137136 0.98494831010851414 0 0.98494831010851414 -10.722707339601074 0 0 0 0 107.83911821538823 1.5626798758709697 0 1.5626798758709697 -26.602956706587975 0 0 0 0 44.546789636239993 4.153747015109662 0 4.153747015109662 -0.80858557633797101 0 0 0 0 44.244072589652191 12.456661356771779 0 12.456661356771779 -1.3718649088042896 0 0 0 0 33.102197364489257 13.41019621989642 0 13.41019621989642 -34.263233889804724 0 0 0 0 36.974385190411759 5.2904402009782956 0 5.2904402009782956 -0.52869289865977842 0 0 0 0 12.357015611953102 26.029504714752875 0 26.029504714752875 -5.910731458983264 0 0 0 0 31.559692380353141 32.361389180503181 0 32.361389180503181 2.1423170708592782 0 0 0 0 34.030708216631638 36.162522787547402 0 36.162522787547402 3.3694797743341676 0 0 0 0 66.307354606808175 13.398754915587162 0 13.398754915587162 -8.2835300807524295 0 0 0 0 23.669165467144921 15.550401534818775 0 15.550401534818775 -25.997332263757926 0 0 0 0 83.310695656492499 31.278030011455371 0 31.278030011455371 -36.225021595476392 0 0 0 0 45.370356388590963 11.515114579477071 0 11.515114579477071 2.0958371822654795 0 0 0 0 103.83338035599445 76.551836387372305 0 76.551836387372305 -59.004086795238436 0 0 0 0 41.936911088224036 17.330629480212806 0 17.330629480212806 4.905456976681112 0 0 0 0 13.180327021946141 24.592022986269512 0 24.592022986269512 -24.023360664097254 0 0 0 0 75.764549926832842 9.6834101092717901 0 9.6834101092717901 -22.530087039295495 0 0 0 0 48.879804573922371 10.644873649877379 0 10.644873649877379 0.44946965531202565 0 0 0 0 1.8128973878538091 14.963285102235943 0 14.963285102235943 15.192569468950524 0 0 0 0 -140.90937901410507 161.94403244726982 0 161.94403244726982 166.78871056403796 0 0 0 0 263.98194269725354 -155.53907280333488 0 -155.53907280333488 -102.36830068745917 0 0 0 0 57.934216613175522 38.289877888491432 0 38.289877888491432 -20.95372528001235 0 0 0 0 171.63017091405345 29.26997194601563 0 29.26997194601563 -22.085997774566209 0 0 0 0 45.734782456590167 16.705510691285625 0 16.705510691285625 4.9762985962997233 0 0 0 0 38.864867397882335 43.426906644358951 0 43.426906644358951 -6.8002977410428684 0 0 0 0 33.228904338686334 28.92634311425445 0 28.92634311425445 2.6003138532805679 0 0 0 0 6.6932975982720322 5.3726107769980302 0 5.3726107769980302 1.4459733814115872 0 0 0 0 -103.12326414080599 -56.637335417914869 0 -56.637335417914869 237.2258597452892 0 0 0 0 95.607339157625574 7.8291299480787302 0 7.8291299480787302 -27.891331301174432 0 0 0 0 41.501927523935592 53.961678377801491 0 53.961678377801491 -29.85228898638502 0 0 0 0 17.306762630363664 14.326613695578089 0 14.326613695578089 32.489604625244738 0 0 0 0 -2.3778738043242953 0.051857507446314344 0 0.051857507446314344 2.5787341247914597 0 0 0 0 35.949570178800059 35.70227720825369 0 35.70227720825369 19.122977512250145 0 0 0 0 47.861431385006654 23.328619329084859 0 23.328619329084859 18.349977357758689 0 0 0 0 33.708818674960639 39.653734577900877 0 39.653734577900877 11.177539125535077 0 0 0 0 73.176737532005063 10.864218005888688 0 10.864218005888688 5.2309525476373437 0 0 0 0 103.02605108583521 16.592594225086941 0 16.592594225086941 21.719592938226924 0 0 0 0 89.528615774548598 51.280770707870715 0 51.280770707870715 17.818618627421529 0 0 0 0 153.63161957498232 21.699241477640953 0 21.699241477640953 -3.1369598983892502 0 0 0 0 -0.36257894404042634 0.81599823093571189 0 0.81599823093571189 -2.2876210516348863 0 0 0 0 435.86368845643301 79.800377863005906 0 79.800377863005906 -62.057117484908758 0 0 0 0 0.9838274115681056 1.6211889199968539 0 1.6211889199968539 3.0551296515666699 0 0 0 0 270.61191654764662 43.359139962783416 0 43.359139962783416 -15.099185353521534 0 0 0 0 37.797661177014561 -2.7005076654506865 0 -2.7005076654506865 18.291329560923259 0 0 0 0 73.620146965964523 84.38566548775043 0 84.38566548775043 58.71944308227603 0 0 0 0 -0.3445156892451493 -0.60258486588843851 0 -0.60258486588843851 3.8563248037099633 0 0 0 0 55.333261269581271 70.392862886175863 0 70.392862886175863 100.2926526318297 0 0 0 0 55.990921063770656 73.702794758207801 0 73.702794758207801 91.035956216287559 0 0 0 0 29.958443907751644 49.819208338686167 0 49.819208338686167 49.295131181497709 0 0 0 0 6.1562734304352489 36.681197799217443 0 36.681197799217443 41.355830369582691 0 0 0 0 23.897432014302467 32.287624804802363 0 32.287624804802363 42.443827026270583 0 0 0 0 -91.906022887746076 27.204195332223662 0 27.204195332223662 214.67152474754857 0 0 0 0 -10.424516488455993 62.360180625165867 0 62.360180625165867 155.44331336251798 0 0 0 0 -6.853661276785715 61.842674286574947 0 61.842674286574947 123.49592555742493 0 0 0 0 -50.601478393989964 0.99718918515372934 0 0.99718918515372934 172.66688007460107 0 0 0 0 -101.69347254248351 -32.353636163388273 0 -32.353636163388273 183.6093563321474 0 0 0 0 -135.47284948029846 -83.650774222905966 0 -83.650774222905966 102.86750680481055 0 0 0 0 -112.30090884205129 -9.4100267982157675 0 -9.4100267982157675 219.96346383072705 0 0 0 0 -53.295411692854941 2.1596963494263264 0 2.1596963494263264 368.78461743725711 0 0 0 0 45.462214763105294 -18.786612665601297 0 -18.786612665601297 176.54089270241093 0 0 0 0 42.284647298904019 -43.513332490454104 0 -43.513332490454104 377.71384359377225 0 0 0 0 50.264858677393931 145.03483490863209 0 145.03483490863209 234.46831510961965 0 0 0 0 91.880900062757064 89.686084728807145 0 89.686084728807145 101.93960259883443 0 0 0 0 140.06751002193778 202.44803725131715 0 202.44803725131715 357.15043761810921 0 0 0 0 0.10577503872703886 -0.48728227756080145 0 -0.48728227756080145 2.1844822354522861 0 0 0 0 144.3628180265664 158.39987279106197 0 158.39987279106197 674.45620640305788 0 0 0 0 141.20324494360102 -169.9616441814278 0 -169.9616441814278 530.14525291730615 0 0 0 0 242.99376251616923 -101.81217333072027 0 -101.81217333072027 310.44018277060422 0 0 0 0 417.24700900710741 -342.28365245643363 0 -342.28365245643363 629.25696545310063 0 0 0 0 606.87853527591142 -144.30834724607394 0 -144.30834724607394 422.10851080928614 0 0 0 0 573.17868473623457 -270.86216394229928 0 -270.86216394229928 605.10294404531487 0 0 0 0 554.52694360267196 -222.68281219840173 0 -222.68281219840173 491.20736352927725 0 0 0 0 141.53695624831926 -309.01566884775752 0 -309.01566884775752 669.67181654565502 0 0 0 0 123.00194619009199 -373.54404295847598 0 -373.54404295847598 645.88098099846138 0 0 0 0 0.49726884199892396 0.32812177882997418 0 0.32812177882997418 2.5250661363326934 0 0 0 0 7.1473722169430403 -69.975082154354368 0 -69.975082154354368 109.44945148977786 0 0 0 0 52.274157142659533 -78.449158302152682 0 -78.449158302152682 44.474385294970489 0 0 0 0 -0.669430993955757 -51.662880227513597 0 -51.662880227513597 70.367784434023633 0 0 0 0 -12.95100807234121 -52.520508310468358 0 -52.520508310468358 108.97089348655948 0 0 0 0 148.13252009927237 -122.74228172947369 0 -122.74228172947369 95.500918681199437 0 0 0 0 27.362995554096415 -67.914954357731403 0 -67.914954357731403 156.31671777434394 0 0 0 0 279.75721233706281 107.98228250848751 0 107.98228250848751 30.364475850721647 0 0 0 0 43.086314224805392 -49.72185696915858 0 -49.72185696915858 45.61260010586011 0 0 0 0 53.844010209781118 -79.104050217221811 0 -79.104050217221811 14.652383423902393 0 0 0 0 53.700521719067183 -25.455790402113962 0 -25.455790402113962 -61.273169625483206 0 0 0 0 89.259250399059965 -33.725176771375573 0 -33.725176771375573 -105.20343990914444 0 0 0 0 -64.636330437628203 58.195493754503332 0 58.195493754503332 29.211885544379015 0 0 0 0 -62.167940432860632 91.740754557478795 0 91.740754557478795 -116.82453530576015 0 0 0 0 3.2942764982824286 0.48612364788472107 0 0.48612364788472107 -2.0641105647362075 0 0 0 0 29.546924769882025 -10.435803212099927 0 -10.435803212099927 -27.172031860167408 0 0 0 0 30.664630179751839 -15.152962573110017 0 -15.152962573110017 -22.161012610733451 0 0 0 0 45.785773239054834 -40.618810706511113 0 -40.618810706511113 8.3946711781863996 0 0 0 0 26.851521503180265 -36.789480406012444 0 -36.789480406012444 20.233956754258543 0 0 0 0 30.502239723151433 -43.744702799016977 0 -43.744702799016977 24.007111244598491 0 0 0 0 6.7124079458590131 -41.319433998657132 0 -41.319433998657132 67.494176330747905 0 0 0 0 13.755053453867731 -13.482191730847262 0 -13.482191730847262 9.7322102109537809 0 0 0 0 19.658920061239769 -26.506326220139499 0 -26.506326220139499 27.554505489408257 0 0 0 0 13.405809232324827 -30.149614457024654 0 -30.149614457024654 29.862795136994976 0 0 0 0 21.280888273990058 -18.851873900156079 0 -18.851873900156079 45.245439056709074 0 0 0 0 22.832179482202264 -16.591167894100181 0 -16.591167894100181 25.440492587833432 0 0 0 0 5.5692858714610338 -16.18824041017524 0 -16.18824041017524 83.658050777536118 0 0 0 0 1.2855155657380237 -30.566779365872208 0 -30.566779365872208 46.339274934789444 0 0 0 0 20.845514403939887 -3.8495427281245611 0 -3.8495427281245611 48.705204334807604 0 0 0 0 19.149159305612557 17.499250957800541 0 17.499250957800541 30.155983483252385 0 0 0 0 14.926004319295316 42.278017759762747 0 42.278017759762747 85.996700855670497 0 0 0 0 -24.48907994574256 -1.4616514864223973 0 -1.4616514864223973 123.17173512436329 0 0 0 0 -37.674812881869002 22.783178132349349 0 22.783178132349349 107.44016999898895 0 0 0 0 -26.082349928110489 -19.293312457216416 0 -19.293312457216416 83.362508731120329 0 0 0 0 -13.764464417923591 -37.395865933667665 0 -37.395865933667665 105.6761300326707 0 0 0 0 -12.846491084237641 -51.767699368607282 0 -51.767699368607282 114.39317882199293 0 0 0 0 -45.815551423631405 -39.666336893544212 0 -39.666336893544212 125.08220606541545 0 0 0 0 -49.864507030112691 -46.902724531571266 0 -46.902724531571266 130.62381235420071 0 0 0 0 -63.8926792667271 -17.086044190834286 0 -17.086044190834286 139.11852355205792 0 0 0 0 -84.436695984724793 -25.507061623053232 0 -25.507061623053232 137.51746566403381 0 0 0 0 -88.475339343447558 -31.304638900842292 0 -31.304638900842292 143.96592296753761 0 0 0 0 -142.97858762411852 -93.02864973240662 0 -93.02864973240662 87.212697027523973 0 0 0 0 -109.00174722810698 -11.605776087993945 0 -11.605776087993945 163.60247086731033 0 0 0 0 -36.259360773354274 -41.669163674585889 0 -41.669163674585889 59.868354705837646 0 0 0 0 -85.763048166678345 -69.630867348831543 0 -69.630867348831543 102.72702261275208 0 0 0 0 -33.768295028861758 -54.758682862141086 0 -54.758682862141086 71.453364193634116 0 0 0 0 -22.370844225439214 -27.27080964251536 0 -27.27080964251536 112.72466716625331 0 0 0 0 -16.433970051171855 -72.886541524196446 0 -72.886541524196446 120.05758024680108 0 0 0 0 39.594211971689219 -52.764939430731829 0 -52.764939430731829 113.70227751179448 0 0 0 0 26.276104103017133 -76.812591357044766 0 -76.812591357044766 117.11430887111783 0 0 0 0 130.5175458896083 -137.30273146660875 0 -137.30273146660875 149.44345423266986 0 0 0 0 41.220722170794033 -46.521983886850194 0 -46.521983886850194 132.39216272238218 0 0 0 0 34.517103496296841 -33.94854449262175 0 -33.94854449262175 55.518190644587776 0 0 0 0 5.7745761741825845 -32.495488589464912 0 -32.495488589464912 144.16565773879253 0 0 0 0 224.3712928902678 -67.833040096828995 0 -67.833040096828995 -521.67030745578404 0 0 0 0 17.795100766057885 -7.0351678363986245 0 -7.0351678363986245 2.3269054794398771 0 0 0 0 54.201056017922383 6.4027576927407495 0 6.4027576927407495 46.662996595438244 0 0 0 0 115.497322370853 132.68181004419671 0 132.68181004419671 -369.44203238103046 0 0 0 0 -61.121534508611148 -67.896305948187859 0 -67.896305948187859 -128.73136118748607 0 0 0 0 0.12515163897114689 -41.057545083933746 0 -41.057545083933746 54.64334608850686 0 0 0 0 -0.78408943484919291 -17.399542878460323 0 -17.399542878460323 19.093073796742829 0 0 0 0 36.045659346280445 -103.52523203830378 0 -103.52523203830378 24.28527414690825 0 0 0 0 18.858900147159147 -64.844258955739861 0 -64.844258955739861 -58.62788949199512 0 0 0 0 -69.135046083189081 -78.792351009622053 0 -78.792351009622053 18.51707185360101 0 0 0 0 -168.96169456153439 -75.32046571664614 0 -75.32046571664614 100.94618183706007 0 0 0 0 -78.129824505303986 -41.973370200888894 0 -41.973370200888894 35.333174022548519 0 0 0 0 -91.677973283001847 -120.22761685519072 0 -120.22761685519072 -127.76126741399457 0 0 0 0 -129.50326435033639 -251.94041097429727 0 -251.94041097429727 -170.82450693055762 0 0 0 0 -218.91476711122959 -322.91067881555864 0 -322.91067881555864 -108.35790003769671 0 0 0 0 -200.47292964390363 -167.00253902484019 0 -167.00253902484019 30.170244292638017 0 0 0 0 89.741917737131644 36.726940592094877 0 36.726940592094877 -55.557391043742427 0 0 0 0 26.293978168147333 -16.01912658124472 0 -16.01912658124472 7.8084930871815246 0 0 0 0 4.2453240319942935 0.057655293358614301 0 0.057655293358614301 -3.5673705396292128 0 0 0 0 -304.62251228842069 -311.49561587477183 0 -311.49561587477183 -75.310067548714869 0 0 0 0 19.356884664746758 -440.2459834683591 0 -440.2459834683591 -806.02103703443242 0 0 0 0 25.440654937547251 -11.564074124336322 0 -11.564074124336322 4.1047572678255166 0 0 0 0 166.05756607528383 -232.39133097065405 0 -232.39133097065405 -754.2070445592434 0 0 0 0 -36.097276941822201 -4.1342367213227931 0 -4.1342367213227931 -251.57469564599774 0 0 0 0 -154.66916659051367 -363.99002199332381 0 -363.99002199332381 -512.27902449283283 0 0 0 0 152.06507413721738 -99.908958870334743 0 -99.908958870334743 -213.11266345770616 0 0 0 0 337.08321587887622 65.048382339880618 0 65.048382339880618 -364.51190237013361 0 0 0 0 34.885972061056236 -218.40829564317238 0 -218.40829564317238 -710.76692748213441 0 0 0 0 -189.44383973125878 -421.81987048595539 0 -421.81987048595539 -468.18556400354584 0 0 0 0 -120.74051548703574 -209.11092660315708 0 -209.11092660315708 -704.603213454002 0 0 0 0 138.47871050634785 -46.645452597899464 0 -46.645452597899464 -281.00183717619285 0 0 0 0 33.130922797647145 -326.38075115842179 0 -326.38075115842179 -478.17241374454551 0 0 0 0 200.43874188001064 -18.056930374534232 0 -18.056930374534232 -342.52401863641876 0 0 0 0 72.379481478036723 -340.27257168049368 0 -340.27257168049368 -465.81400179048723 0 0 0 0 334.50193474057596 -28.6577993568946 0 -28.6577993568946 -238.33312198383902 0 0 0 0 197.78351530703003 -64.698413827409212 0 -64.698413827409212 -203.13940099559318 0 0 0 0 495.00599502852856 149.91307590456941 0 149.91307590456941 -144.3829619729579 0 0 0 0 258.59512022565468 -37.613464631165527 0 -37.613464631165527 -34.927674516404522 0 0 0 0 438.59089287417055 662.64668058175846 0 662.64668058175846 353.89764361971459 0 0 0 0 579.99393829140899 223.77688089722707 0 223.77688089722707 -146.44676128267594 0 0 0 0 330.94259212991165 224.33110251546134 0 224.33110251546134 -8.8908465227825673 0 0 0 0 438.25669393978023 174.17221799106102 0 174.17221799106102 -27.283969272458648 0 0 0 0 1.8778458096979378 1.3018444407218759 0 1.3018444407218759 -2.0031587974451082 0 0 0 0 -138.14058051471147 338.5591713975914 0 338.5591713975914 355.69946792664837 0 0 0 0 3.9157164497381487 0.19794611060470935 0 0.19794611060470935 -0.53664875427594927 0 0 0 0 371.43421254799978 -166.29353273020661 0 -166.29353273020661 -98.49121104712782 0 0 0 0 0.46052841791242827 1.7142797949310307 0 1.7142797949310307 3.3296271569166151 0 0 0 0 7.783622307353653 -5.4352444697961459 0 -5.4352444697961459 -14.278890051458347 0 0 0 0 261.96163636657184 80.189429501837935 0 80.189429501837935 52.318103958641132 0 0 0 0 -16.050958192088729 -12.724780194624145 0 -12.724780194624145 -0.081020347365438283 0 0 0 0 7.6571124748988879 -4.9734296779658251 0 -4.9734296779658251 -0.2299143793089482 0 0 0 0 4.0539161027297155 2.5937679061630305 0 2.5937679061630305 -5.2926578622593556 0 0 0 0 107.34233917918027 143.5617433804648 0 143.5617433804648 145.43082096286253 0 0 0 0 119.58546864488954 49.313155709943111 0 49.313155709943111 68.8760645295622 0 0 0 0 238.38653326830899 376.67159649009858 0 376.67159649009858 144.92217788830058 0 0 0 0 115.95951446451113 139.44144000701874 0 139.44144000701874 86.382790947086505 0 0 0 0 377.79473536145815 62.058833680969087 0 62.058833680969087 -222.97534419093836 0 0 0 0 116.48774976678033 94.531310547196654 0 94.531310547196654 337.38059386408702 0 0 0 0 580.92564962615143 -345.16321910438683 0 -345.16321910438683 59.165812311923219 0 0 0 0 646.68981582229208 -254.46745456656663 0 -254.46745456656663 21.285395802808125 0 0 0 0 635.38383422386869 -269.68609160943242 0 -269.68609160943242 195.36993173382689 0 0 0 0 620.11823187015398 -291.26403029801986 0 -291.26403029801986 277.38761465842435 0 0 0 0 683.60311969470604 -216.30799257552121 0 -216.30799257552121 265.4362209853789 0 0 0 0 506.6406455958313 -238.85852598803103 0 -238.85852598803103 78.890016711529825 0 0 0 0 512.1549479423411 -209.58259894050434 0 -209.58259894050434 220.13271877956686 0 0 0 0 241.77700731348159 -183.3416967462399 0 -183.3416967462399 348.65172393065359 0 0 0 0 583.59972838768226 -333.72822564234275 0 -333.72822564234275 22.754290660183869 0 0 0 0 290.64309266690179 -102.08416098156749 0 -102.08416098156749 18.01344340772448 0 0 0 0 594.49253132205558 -271.83448584718781 0 -271.83448584718781 -119.42983264029363 0 0 0 0 244.1758841685587 -260.27900528002283 0 -260.27900528002283 -211.55282754718883 0 0 0 0 21.021314696001355 -216.09756513254069 0 -216.09756513254069 -18.994470308581413 0 0 0 0 160.00499567676161 -157.61198176620292 0 -157.61198176620292 -9.5267378632670443 0 0 0 0 19.804463693799335 -88.168132492935911 0 -88.168132492935911 -32.02147967999872 0 0 0 0 178.72137134258082 -203.57925917309149 0 -203.57925917309149 86.835466555225139 0 0 0 0 88.93633763219259 -66.172062986262972 0 -66.172062986262972 134.59199416180127 0 0 0 0 242.63504050699316 -173.6072887667392 0 -173.6072887667392 195.83922999816787 0 0 0 0 46.928724261801108 -149.11475853583852 0 -149.11475853583852 269.29082658895049 0 0 0 0 -15.80261096326285 -45.56329207018689 0 -45.56329207018689 98.57273534106389 0 0 0 0 -77.253237315533624 -115.3036962561755 0 -115.3036962561755 138.94553748373073 0 0 0 0 -76.34480724929017 -85.876979979699172 0 -85.876979979699172 44.546073923082986 0 0 0 0 -165.12200029219821 -160.58293463937025 0 -160.58293463937025 60.97245711398682 0 0 0 0 -78.543758857578723 -136.14998259172012 0 -136.14998259172012 139.62343114909891 0 0 0 0 -144.23752611067903 -81.280757075907786 0 -81.280757075907786 93.795233094066134 0 0 0 0 -143.38497552446643 -166.22258274945489 0 -166.22258274945489 15.104122562490375 0 0 0 0 -202.80283814641007 -136.79327417877175 0 -136.79327417877175 49.041814187165073 0 0 0 0 -216.89388232628698 -228.02718995413125 0 -228.02718995413125 -11.170080480764227 0 0 0 0 -275.57367826180052 -219.26656154927878 0 -219.26656154927878 5.4504373485542601 0 0 0 0 -278.92162129827193 -250.02203217464194 0 -250.02203217464194 -27.091201265089694 0 0 0 0 -382.38297606521519 -236.86318753073829 0 -236.86318753073829 -19.754330323252361 0 0 0 0 -303.71052149799652 -160.29116615843668 0 -160.29116615843668 -0.23367863112071063 0 0 0 0 -249.57692377275089 -170.95008718383178 0 -170.95008718383178 -65.45672637435564 0 0 0 0 -220.83462825266906 -188.93893823087001 0 -188.93893823087001 2.1328865180184948 0 0 0 0 -160.81305207758123 -114.86287406545853 0 -114.86287406545853 -23.871852853517339 0 0 0 0 -154.63275637637707 -138.91178887162641 0 -138.91178887162641 58.454696196426539 0 0 0 0 -152.42950314826157 -95.318642717404146 0 -95.318642717404146 -72.633134389832776 0 0 0 0 9.5795557520887087 -151.30641717705453 0 -151.30641717705453 -61.564248069535097 0 0 0 0 -156.89989887103729 -145.13066267357681 0 -145.13066267357681 -110.58158208772875 0 0 0 0 -257.43169293044775 -139.02489684325155 0 -139.02489684325155 -14.068644887941446 0 0 0 0 21.719862276833737 -188.01610311748755 0 -188.01610311748755 -214.23839171959389 0 0 0 0 -267.28588253559428 -78.365377455846101 0 -78.365377455846101 -148.74200400331756 0 0 0 0 -221.08362897230836 -159.74580729184345 0 -159.74580729184345 -188.14932414715804 0 0 0 0 -187.72721060404729 -111.70160095376195 0 -111.70160095376195 -270.50381828010177 0 0 0 0 -79.139056640800845 -93.676888442194013 0 -93.676888442194013 -298.95132146928154 0 0 0 0 -378.34475023995037 -136.35145462697255 0 -136.35145462697255 -397.09230794817631 0 0 0 0 -392.59886041245773 -175.95842306071427 0 -175.95842306071427 -281.20044138873629 0 0 0 0 -386.17099411247182 -193.460380567838 0 -193.460380567838 -128.87421206854196 0 0 0 0 -408.97187794008642 -22.81791412216262 0 -22.81791412216262 -287.87794927360642 0 0 0 0 -757.39207073891885 -691.10802789968511 0 -691.10802789968511 -933.68180143615609 0 0 0 0 -2.4970374249426186 -2.5792900014399507 0 -2.5792900014399507 2.512396910391514 0 0 0 0 -336.97111391153885 -172.96978165546352 0 -172.96978165546352 -166.17341819197463 0 0 0 0 -358.71217906672973 -158.03079614540547 0 -158.03079614540547 -58.118536644860797 0 0 0 0 -440.018039512428 -198.10803005502839 0 -198.10803005502839 -114.84184649004601 0 0 0 0 -227.95572310689386 -754.56273285246675 0 -754.56273285246675 -528.31098329749307 0 0 0 0 -244.46540747994732 -229.70355610972592 0 -229.70355610972592 -166.35944356633172 0 0 0 0 -38.327426933006791 -322.84042762987292 0 -322.84042762987292 -249.00476540707132 0 0 0 0 -461.56674776447949 -751.51602857911735 0 -751.51602857911735 -456.79214107388259 0 0 0 0 18.639589609480211 -16.967502097639635 0 -16.967502097639635 10.972270873389489 0 0 0 0 -516.40381154877468 -274.45916042179084 0 -274.45916042179084 -521.68131980084581 0 0 0 0 -3.6133206298472942 -307.48515006518301 0 -307.48515006518301 -460.47946608279437 0 0 0 0 -404.17792536108254 -285.98760861502728 0 -285.98760861502728 48.306755744998384 0 0 0 0 199.58802133148856 -537.13440925700309 0 -537.13440925700309 -579.87161461539677 0 0 0 0 6.4443483747217556 -6.9808304926326095 0 -6.9808304926326095 6.2101177644184542 0 0 0 0 270.89242181859026 -39.295573203815991 0 -39.295573203815991 -143.3713705992086 0 0 0 0 -75.210028315521413 -255.87837637312418 0 -255.87837637312418 -83.884754862097907 0 0 0 0 67.564027764394268 -109.70104771969363 0 -109.70104771969363 -83.294379850790392 0 0 0 0 1064.387554562918 -97.67314418350486 0 -97.67314418350486 -217.5929851056859 0 0 0 0 881.14140362001308 -806.39045483948985 0 -806.39045483948985 259.72899306798354 0 0 0 0 448.53152073355523 -441.39522750175388 0 -441.39522750175388 -19.35689309540885 0 0 0 0 606.70279471726462 -343.58515093482106 0 -343.58515093482106 -18.480819766312834 0 0 0 0 604.30755774166755 -358.74405767868188 0 -358.74405767868188 14.959767476502748 0 0 0 0 35.385609335889967 46.127742108357438 0 46.127742108357438 -53.972143682880414 0 0 0 0 658.7668097322703 -566.35611771169556 0 -566.35611771169556 -1063.5022375089493 0 0 0 0 76.441840205767676 -415.55184177508102 0 -415.55184177508102 553.24337098955493 0 0 0 0 -249.21855522958322 -869.32972491683131 0 -869.32972491683131 615.8774821096199 0 0 0 0 -613.42535856880932 -883.88043537283204 0 -883.88043537283204 626.52770997802475 0 0 0 0 932.35152938736428 -913.28924675657572 0 -913.28924675657572 317.15535166180609 0 0 0 0 1620.8229584574492 514.2106238316095 0 514.2106238316095 256.80561549460737 0 0 0 0 20.877659690804379 -4.7632840463654924 0 -4.7632840463654924 1.3083840792629027 0 0 0 0 -169.54946900130562 -995.36288163020697 0 -995.36288163020697 607.4794235873685 0 0 0 0 159.25538723320733 207.76210602461373 0 207.76210602461373 205.40325645031089 0 0 0 0 -41.283397143618458 235.44578724885787 0 235.44578724885787 1.9246455408732572 0 0 0 0 293.74736888454481 265.86710719287657 0 265.86710719287657 4.674146831460348 0 0 0 0 55.268309375446357 -12.33374816169027 0 -12.33374816169027 1.0246820035421855 0 0 0 0 355.53841968928327 260.3164967773684 0 260.3164967773684 -421.50997202359304 0 0 0 0 583.8486365773698 546.23060526977815 0 546.23060526977815 -135.46499562393547 0 0 0 0 133.71251852741909 528.9643215601742 0 528.9643215601742 334.09384995453729 0 0 0 0 398.41393044332904 -539.33688430965594 0 -539.33688430965594 197.11620783696344 0 0 0 0 72.768666450909734 -15.457587674866291 0 -15.457587674866291 0.60070778462332552 0 0 0 0 258.49056651636693 -158.4628538066828 0 -158.4628538066828 -1356.2666712667206 0 0 0 0 3.8939324015373131 -105.89403734865854 0 -105.89403734865854 -93.325409029106467 0 0 0 0 21.167003632023178 -22.175938832627764 0 -22.175938832627764 -3.0914491973653453 0 0 0 0 -130.36238855894044 -141.27057374103686 0 -141.27057374103686 -13.989455750389538 0 0 0 0 -250.00691845602796 59.372514267123492 0 59.372514267123492 192.76081060598858 0 0 0 0 11.385873006722253 -10.763260836428204 0 -10.763260836428204 5.250835958977814 0 0 0 0 98.689892932187377 194.51109753172938 0 194.51109753172938 11.394097412333281 0 0 0 0 -104.86156532119003 -9.1251253187503778 0 -9.1251253187503778 -17.033109247771904 0 0 0 0 -345.09056674968542 -142.7749774499398 0 -142.7749774499398 125.91586895837742 0 0 0 0 -77.53880562366794 -51.000860891060768 0 -51.000860891060768 25.348918295444491 0 0 0 0 17.301676003093675 -17.144317309416593 0 -17.144317309416593 1.638442887162366 0 0 0 0 244.01774808524715 -319.49258032876577 0 -319.49258032876577 48.902469349743228 0 0 0 0 43.432807613757177 9.7491142240601789 0 9.7491142240601789 3.3969089407044066 0 0 0 0 -51.113238567808366 14.287097678743123 0 14.287097678743123 106.22370233580682 0 0 0 0 235.44727748150763 305.12340055382606 0 305.12340055382606 190.31658068018419 0 0 0 0 218.08204559568912 403.97129321510715 0 403.97129321510715 -151.69714704118186 0 0 0 0 766.12736803836015 343.29886158423335 0 343.29886158423335 -0.7732065922849074 0 0 0 0 288.92541533942676 617.82717431370065 0 617.82717431370065 415.92418693693389 0 0 0 0 1486.490753870341 524.87359540503098 0 524.87359540503098 212.43006147240351 0 0 0 0 636.61857953677099 17.601759538386091 0 17.601759538386091 -65.895108408775599 0 0 0 0 383.00782408497253 419.43366691989331 0 419.43366691989331 1371.6307995372131 0 0 0 0 1029.7199103791172 -896.46163698403188 0 -896.46163698403188 866.27540436421305 0 0 0 0 54.378344198057675 321.27372581838961 0 321.27372581838961 246.58523733592034 0 0 0 0 291.90107448934577 -514.49060322876073 0 -514.49060322876073 203.35879898764267 0 0 0 0 290.74493075389546 111.33026331878676 0 111.33026331878676 385.24806459321508 0 0 0 0 546.72022631774507 -256.1049908534261 0 -256.1049908534261 35.124132439910682 0 0 0 0 827.47307621629079 -553.66507205511266 0 -553.66507205511266 33.475571396168334 0 0 0 0 1153.8345986501809 -1.6347889332682826 0 -1.6347889332682826 -109.62818003469738 0 0 0 0 -177.72885351220975 -22.083099498960564 0 -22.083099498960564 -88.176589858015745 0 0 0 0 422.91118333161648 -215.07343700773163 0 -215.07343700773163 -194.87821638774858 0 0 0 0 1493.4581930997465 -73.209177209472273 0 -73.209177209472273 -218.40559707173736 0 0 0 0 -69.132803993979905 -206.40717020320335 0 -206.40717020320335 -534.49455093636334 0 0 0 0 78.200525027180447 -130.95603665380486 0 -130.95603665380486 -518.83101205605089 0 0 0 0 237.21227627767348 -369.54611624689574 0 -369.54611624689574 142.21195623013682 0 0 0 0 -343.55396564173498 -66.822575970991011 0 -66.822575970991011 37.794037009496606 0 0 0 0 18.565321798084678 -37.889620826646436 0 -37.889620826646436 51.343817896194608 0 0 0 0 47.726866626153878 24.237641015713223 0 24.237641015713223 -30.644553951039214 0 0 0 0 21.385786571423903 -9.5998863632497553 0 -9.5998863632497553 -56.504467102081556 0 0 0 0 77.728160379708243 -21.668255758312171 0 -21.668255758312171 -49.620924863698804 0 0 0 0 73.842887229938015 -19.273786834556461 0 -19.273786834556461 -35.923446203199092 0 0 0 0 69.474980546609913 -24.094898750061134 0 -24.094898750061134 -32.368529883801045 0 0 0 0 99.822829395746339 -49.115468602347796 0 -49.115468602347796 -43.974449119164888 0 0 0 0 73.083108562431335 -13.844421661538604 0 -13.844421661538604 -56.995324873340905 0 0 0 0 96.046867164774085 -22.264579035263125 0 -22.264579035263125 -73.376029170397999 0 0 0 0 86.950063198809403 -82.610660492060873 0 -82.610660492060873 5.6281507657624275 0 0 0 0 278.05083111848739 -69.138292787839077 0 -69.138292787839077 -63.003693633090393 0 0 0 0 -16.203346411130951 -27.30474154517421 0 -27.30474154517421 -8.3014743488911336 0 0 0 0 -1.4352040991225294 21.860902487919901 0 21.860902487919901 33.133551753520351 0 0 0 0 71.542662782825573 97.229185938720832 0 97.229185938720832 107.10365623533974 0 0 0 0 345.32135376689803 23.849537678339743 0 23.849537678339743 -24.997472409809575 0 0 0 0 4.467754419387262 0.50214970425036798 0 0.50214970425036798 -0.052020483318597738 0 0 0 0 170.64392366259563 402.7000553799885 0 402.7000553799885 8.8325997938131877 0 0 0 0 229.20464090256064 116.65352050723037 0 116.65352050723037 -73.679734663120882 0 0 0 0 39.810619046947977 57.714280398704773 0 57.714280398704773 16.636464100866078 0 0 0 0 35.407224174812654 -55.73615385442946 0 -55.73615385442946 34.569740195976237 0 0 0 0 37.603123193403007 18.282408248550041 0 18.282408248550041 -44.502903038719168 0 0 0 0 12.389611395170167 0.42752327099492005 0 0.42752327099492005 -0.1639687266024854 0 0 0 0 29.736547712102038 -13.259527465494443 0 -13.259527465494443 -90.584465190622026 0 0 0 0 28.344195370403213 -3.3157804942410394 0 -3.3157804942410394 -80.684205477090018 0 0 0 0 18.533031011626008 -10.795640362540865 0 -10.795640362540865 -50.202832484919213 0 0 0 0 12.77360201000829 0.034318656751480603 0 0.034318656751480603 -79.713496367922062 0 0 0 0 34.018768412750433 -11.087027058020396 0 -11.087027058020396 -78.887241290195107 0 0 0 0 25.43058297807147 -2.9540818681471137 0 -2.9540818681471137 -81.636425286139911 0 0 0 0 41.945934404680429 -26.945721201169476 0 -26.945721201169476 -50.566387922201024 0 0 0 0 37.249097051300851 -42.084015423429378 0 -42.084015423429378 -42.233418913742867 0 0 0 0 25.02326331339691 -26.569398181603816 0 -26.569398181603816 -17.571894844468602 0 0 0 0 170.71822153034009 76.187797852306886 0 76.187797852306886 -176.90461596146827 0 0 0 0 113.68015857301634 -156.53386804901606 0 -156.53386804901606 -130.94508634440206 0 0 0 0 28.664047057725114 -14.814520860700373 0 -14.814520860700373 -9.6700227965814527 0 0 0 0 35.682780039575519 13.788704917733646 0 13.788704917733646 3.6777398259753271 0 0 0 0 607.13486943326279 -48.517905265603815 0 -48.517905265603815 -29.142358322484824 0 0 0 0 -126.01037411646348 82.423245270811449 0 82.423245270811449 -45.044981078859962 0 0 0 0 9.87332154046074 2.8789691583119303 0 2.8789691583119303 -1.7850828147171292 0 0 0 0 22.32697695829529 -23.066864824058428 0 -23.066864824058428 -9.5461108552342466 0 0 0 0 27.918709874566048 -25.2635522817571 0 -25.2635522817571 -54.421014880133612 0 0 0 0 14.159102831266864 -49.705433236335807 0 -49.705433236335807 -188.36774540398591 0 0 0 0 12.18786118652497 -50.894303679975565 0 -50.894303679975565 -120.32466235812694 0 0 0 0 8.6231578110677383 -6.3946134358936115 0 -6.3946134358936115 -5.8756479215387154 0 0 0 0 24.815423989153715 -28.24849538582464 0 -28.24849538582464 -54.832806430314037 0 0 0 0 60.112188874334606 -27.005610922981873 0 -27.005610922981873 -166.45899067298421 0 0 0 0 14.429154270151061 5.6700068142381364 0 5.6700068142381364 3.7813321201074022 0 0 0 0 2494.9470644899693 -944.41283079464461 0 -944.41283079464461 160.01414480949759 0 0 0 0 584.76326203658903 -100.01640540804505 0 -100.01640540804505 -129.01407359008019 0 0 0 0 2500.975056476279 122.83318988925041 0 122.83318988925041 -303.59967079893482 0 0 0 0 1142.948561782774 -173.27799200796892 0 -173.27799200796892 -144.59688088197532 0 0 0 0 481.41679404878141 212.33494029164171 0 212.33494029164171 -12.06241522520736 0 0 0 0 103.92977180181242 17.074873589253741 0 17.074873589253741 8.5286612700670048 0 0 0 0 0.15445536571494678 1.8782752081271372 0 1.8782752081271372 0.23946316130390655 0 0 0 0 153.87876511273362 25.028281088944929 0 25.028281088944929 -45.858495061915285 0 0 0 0 80.936575592221061 31.904804696291762 0 31.904804696291762 8.2026861865283038 0 0 0 0 1835.9381980198486 300.60794834287253 0 300.60794834287253 -218.00659109142634 0 0 0 0 16.324231474358385 2.9964893534662451 0 2.9964893534662451 -77.838287177777687 0 0 0 0 -18.316217154844708 26.729713788181016 0 26.729713788181016 -98.104827422248491 0 0 0 0 -13.062526652740416 17.403760626030135 0 17.403760626030135 -84.624554970031056 0 0 0 0 35.579292303460534 1.8040078042605217 0 1.8040078042605217 -102.93643061495402 0 0 0 0 -10.87098248561233 29.694252920097824 0 29.694252920097824 -118.09492538511734 0 0 0 0 -19.630407085605839 22.235150706255382 0 22.235150706255382 -94.799430477522492 0 0 0 0 -80.920927089393444 118.13560957984271 0 118.13560957984271 -243.06364109021015 0 0 0 0 -139.4272455704488 -12.986255506420633 0 -12.986255506420633 -13.506916558140801 0 0 0 0 157.60453678219346 -113.04575707625287 0 -113.04575707625287 -114.81971468271178 0 0 0 0 154.03744624805586 -10.986582648289016 0 -10.986582648289016 -81.769596471462478 0 0 0 0 -76.653640445735618 -19.708774791859298 0 -19.708774791859298 -63.797207656583964 0 0 0 0 -7.8811460057313525 -94.960761285954163 0 -94.960761285954163 5.418862821003998 0 0 0 0 6.4839523327609641 -16.45704725368941 0 -16.45704725368941 2.5662459256783663 0 0 0 0 -47.246832100305255 -87.990176465210652 0 -87.990176465210652 -43.200574147721866 0 0 0 0 11.97453186152133 -10.487036313382257 0 -10.487036313382257 1.3132272524921258 0 0 0 0 8.43443925234169 -22.735815041945358 0 -22.735815041945358 10.299570748683436 0 0 0 0 25.039295566173678 -54.813793416430855 0 -54.813793416430855 -103.80054183954519 0 0 0 0 -0.82483486013209273 -4.4389805941301299 0 -4.4389805941301299 1.0714299756966086 0 0 0 0 -0.99183159562380752 -15.615842771333519 0 -15.615842771333519 -42.394884533649957 0 0 0 0 99.859244234093239 -28.957604767873043 0 -28.957604767873043 -56.717618480428825 0 0 0 0 29.998869786293653 -19.327486842762255 0 -19.327486842762255 -38.368661476276046 0 0 0 0 18.581248694761449 -1.0967384522135513 0 -1.0967384522135513 -0.74117699802189663 0 0 0 0 16.152323263626386 14.97418993296543 0 14.97418993296543 -71.464996181425278 0 0 0 0 4.9423341557524072 -0.3221037579557775 0 -0.3221037579557775 -1.6351975365558236 0 0 0 0 16.118360584377115 17.582463911225233 0 17.582463911225233 50.877064317647637 0 0 0 0 7.8726164773543132 -1.0689421496487057 0 -1.0689421496487057 19.046128034252433 0 0 0 0 4.3851091409096625 -22.167777227355373 0 -22.167777227355373 17.203204017091366 0 0 0 0 12.77176568240975 -0.4817437307185628 0 -0.4817437307185628 9.846948390443913 0 0 0 0 21.390546936169834 2.1099915635629189 0 2.1099915635629189 3.0284822953227799 0 0 0 0 12.856863781977609 1.8385783091182475 0 1.8385783091182475 11.589828353340181 0 0 0 0 9.3055751542633516 -0.24402170423240932 0 -0.24402170423240932 14.448165937403701 0 0 0 0 32.170991175567906 9.4822341060532835 0 9.4822341060532835 3.3542326829733611 0 0 0 0 15.497786691692909 8.9158943440674534 0 8.9158943440674534 20.531497394480994 0 0 0 0 2043.5628482226593 375.03963991681303 0 375.03963991681303 -193.61032716854163 0 0 0 0 2496.6278381514403 919.3470017332055 0 919.3470017332055 -45.800472669105318 0 0 0 0 1047.527872572995 616.57278517431428 0 616.57278517431428 610.75944964079099 0 0 0 0 4.6822406725671373 5.7963305684005597 0 5.7963305684005597 0.1213898299964129 0 0 0 0 53.703723798212195 -17.410875718746126 0 -17.410875718746126 2.7951426800107697 0 0 0 0 93.296520113692168 -1.1092059520891837 0 -1.1092059520891837 -8.1500033176978377 0 0 0 0 66.29937035453986 -12.270346436880544 0 -12.270346436880544 21.482900242050029 0 0 0 0 58.459719269516427 3.8450234515014472 0 3.8450234515014472 -10.074361912600864 0 0 0 0 18.378479943425219 -10.031641157360387 0 -10.031641157360387 4.2109876430458124 0 0 0 0 37.749588163214362 4.1281543212153853 0 4.1281543212153853 1.8862598357740665 0 0 0 0 61.573802373177159 10.07660780206232 0 10.07660780206232 4.5597378875032746 0 0 0 0 1834.8786472417614 -614.20676681355667 0 -614.20676681355667 209.20032682220051 0 0 0 0 5.2627376731640751 1.9527441039775444 0 1.9527441039775444 1.3387137951635537 0 0 0 0 1438.3063961540383 1304.3446196347259 0 1304.3446196347259 871.03618380612977 0 0 0 0 57.428182180525255 17.215815704850257 0 17.215815704850257 5.8145559056385849 0 0 0 0 2497.1437915060642 296.24315551287401 0 296.24315551287401 -185.53894103713174 0 0 0 0 10.181288296824199 -2.5999802678482915 0 -2.5999802678482915 -2.9099326347203629 0 0 0 0 24.898481778714995 -9.3767811489587984 0 -9.3767811489587984 12.452168712845378 0 0 0 0 51.572223780673085 2.6828042512437378 0 2.6828042512437378 40.404330000935374 0 0 0 0 9.2730477601080423 -4.5213731879651995 0 -4.5213731879651995 8.3900993514538467 0 0 0 0 21.535843009355631 5.9243742284384666 0 5.9243742284384666 13.759952359873296 0 0 0 0 27.269965949813923 -11.080066716795955 0 -11.080066716795955 13.656358817555066 0 0 0 0 2.8518457412484786 -1.7196031159429488 0 -1.7196031159429488 -0.88171289237993522 0 0 0 0 870.74551107646766 592.22701139977141 0 592.22701139977141 336.99396845572096 0 0 0 0 2712.3486301874254 217.86255234675764 0 217.86255234675764 -167.31134780844832 0 0 0 0 21.686540579188438 6.4477766732857926 0 6.4477766732857926 1.2468819601009866 0 0 0 0 30.930769369293557 18.638173392845829 0 18.638173392845829 -6.9653539054954763 0 0 0 0 28.57982321712916 12.885833692379947 0 12.885833692379947 15.724456702092084 0 0 0 0 23.612672399482108 13.286336507424494 0 13.286336507424494 16.98037228079238 0 0 0 0 18.851310170241391 -0.2635053799025755 0 -0.2635053799025755 0.58576681116191409 0 0 0 0 24.854777271233615 15.875715484134616 0 15.875715484134616 15.641756672427164 0 0 0 0 22.3814905666909 17.6373484591617 0 17.6373484591617 15.159466791345039 0 0 0 0 26.400292129845184 23.172775036411394 0 23.172775036411394 4.0000293239745588 0 0 0 0 33.670530140982009 -12.914879812317849 0 -12.914879812317849 3.586359707524025 0 0 0 0 17.471272315637179 6.0392219973304009 0 6.0392219973304009 11.227126034950743 0 0 0 0 34.541368164987944 -3.6190651594390602 0 -3.6190651594390602 -8.4582687111023915 0 0 0 0 49.479119895622716 -7.1805451452501075 0 -7.1805451452501075 5.1438141897003788 0 0 0 0 27.335334626330223 -12.027363350254348 0 -12.027363350254348 25.382131239030059 0 0 0 0 42.241984368924022 -4.8599251464643203 0 -4.8599251464643203 20.026188698119768 0 0 0 0 57.209186336229322 6.8134487751335655 0 6.8134487751335655 11.120354168455322 0 0 0 0 65.345636189049401 -2.6991138474631953 0 -2.6991138474631953 14.512224605206939 0 0 0 0 30.923150912549247 -9.4828774104398619 0 -9.4828774104398619 1.5379522762142095 0 0 0 0 96.509780071864952 9.5637713017586066 0 9.5637713017586066 22.793236212493412 0 0 0 0 26.336984052851221 -4.4095876775850229 0 -4.4095876775850229 31.869133033434082 0 0 0 0 50.342359737580409 -17.057270852747479 0 -17.057270852747479 25.686425825961578 0 0 0 0 6.7666997595772553 9.9250896980010737 0 9.9250896980010737 1.3562526981193841 0 0 0 0 16.294569903508219 -2.4168635564339453 0 -2.4168635564339453 -2.2944053765918895 0 0 0 0 30.165258375923258 8.1239561149063206 0 8.1239561149063206 6.3525511141360766 0 0 0 0 31.731569996834878 22.752818933182425 0 22.752818933182425 44.671385718803322 0 0 0 0 -4.3610210896534909 -3.9267545351462889 0 -3.9267545351462889 2.9783390063906729 0 0 0 0 59.254548020446236 40.817769343351756 0 40.817769343351756 51.055214801923285 0 0 0 0 -26.89910979718843 1.4290350540759391 0 1.4290350540759391 14.907245694403173 0 0 0 0 23.473492154711938 -8.0441071999211005 0 -8.0441071999211005 2.3969217221115642 0 0 0 0 42.354494386017905 -37.919522653066451 0 -37.919522653066451 -5.8918748257203788 0 0 0 0 0.9754626826634194 1.7660653214365993 0 1.7660653214365993 -13.28128048016606 0 0 0 0 1.899130614653032 1.2754057289391518 0 1.2754057289391518 -0.39388595660047709 0 0 0 0 96.79103641200345 60.608604497066153 0 60.608604497066153 -15.231078510862062 0 0 0 0 25.352916778767696 2.4271165144191613 0 2.4271165144191613 5.5290577904766405 0 0 0 0 -78.917604126567312 35.87793901667419 0 35.87793901667419 163.12719998719604 0 0 0 0 25.300055840820278 7.9102584748322897 0 7.9102584748322897 11.834094045325401 0 0 0 0 157.14556879248994 -30.88046695398225 0 -30.88046695398225 12.434364668482885 0 0 0 0 27.091489693558447 -3.0560412837665023 0 -3.0560412837665023 -0.21344817756348178 0 0 0 0 23.232030818022238 -3.7949214661646664 0 -3.7949214661646664 1.0685575873521636 0 0 0 0 -1.17878849869793 4.4083746871563196 0 4.4083746871563196 3.1762624096153322 0 0 0 0 -8.3778734517816247 10.619202497551385 0 10.619202497551385 23.378152197351483 0 0 0 0 144.9127222900679 -47.92395929676195 0 -47.92395929676195 27.295886944664062 0 0 0 0 14.794076417521076 10.191904544932417 0 10.191904544932417 6.8217715377012693 0 0 0 0 18.612926803121809 5.036836601675077 0 5.036836601675077 5.1334840048007209 0 0 0 0 240.47282424619516 -50.040221116473845 0 -50.040221116473845 -232.95204029147681 0 0 0 0 -69.083647521481907 -158.37413378430483 0 -158.37413378430483 31.151631893165927 0 0 0 0 158.82094835946191 80.207083088272157 0 80.207083088272157 -40.619963817917551 0 0 0 0 473.0941750155398 -61.992764646246087 0 -61.992764646246087 -35.200879113386463 0 0 0 0 2.8363273382285001 0.67141711959200379 0 0.67141711959200379 -2.7586970905282726 0 0 0 0 279.49324784168493 -633.7424586838074 0 -633.7424586838074 -189.29259070112539 0 0 0 0 153.40579971268198 366.24336588756114 0 366.24336588756114 197.45525891198849 0 0 0 0 54.605856558961023 28.306074128089904 0 28.306074128089904 -272.79457832530852 0 0 0 0 109.41883759037592 196.9943929280771 0 196.9943929280771 -90.660593784685261 0 0 0 0 6.6960271197442722 -1.8352214386004455 0 -1.8352214386004455 0.6070999768687706 0 0 0 0 123.26415412029019 174.78224981295511 0 174.78224981295511 153.84585533866766 0 0 0 0 203.64473468836513 55.424041400920032 0 55.424041400920032 -276.73529130740826 0 0 0 0 4.8922237230309236 2.0490648045615742 0 2.0490648045615742 -5.6220214503367183 0 0 0 0 185.84928782206589 120.792698097173 0 120.792698097173 -69.696401526903173 0 0 0 0 91.914030335115967 69.266432759688769 0 69.266432759688769 239.06054261699052 0 0 0 0 41.688460763031799 -6.9144173858269813 0 -6.9144173858269813 -7.7114856792647606 0 0 0 0 14.428798986182535 -2.6900165588901892 0 -2.6900165588901892 3.5126698126327032 0 0 0 0 52.903600907982764 53.745656799814242 0 53.745656799814242 27.554534605462322 0 0 0 0 101.82227958277599 -41.803991884286575 0 -41.803991884286575 -5.1614112837696666 0 0 0 0 46.000049810798373 -3.9226216720126104 0 -3.9226216720126104 13.785023458095566 0 0 0 0 138.32612907645307 183.2018859576433 0 183.2018859576433 95.452827254715885 0 0 0 0 8.8588027762203581 -0.62815456926548308 0 -0.62815456926548308 -3.3099131957785657 0 0 0 0 124.42476091343997 104.85808272424697 0 104.85808272424697 145.33791261866691 0 0 0 0 111.71491187423817 40.859844145291845 0 40.859844145291845 32.99526598024022 0 0 0 0 310.85759435868204 -282.56560712266014 0 -282.56560712266014 -194.61623103229817 0 0 0 0 24.517072588915873 -13.206895273122113 0 -13.206895273122113 -5.8533174457951649 0 0 0 0 94.457783759874474 128.93870857809532 0 128.93870857809532 41.091615919007509 0 0 0 0 3.5115536002848238 -2.1087491913541161 0 -2.1087491913541161 -0.22078018864377347 0 0 0 0 43.823877462313476 -27.239811633242866 0 -27.239811633242866 -33.468509185583912 0 0 0 0 11.766135772382768 31.096683381196442 0 31.096683381196442 31.34976797939953 0 0 0 0 14.024909802253205 35.291482808048556 0 35.291482808048556 22.339740079760304 0 0 0 0 19.979489207617007 32.990376731246101 0 32.990376731246101 7.4320972692116811 0 0 0 0 18.649791953710519 27.50243061199194 0 27.50243061199194 18.122201367020807 0 0 0 0 24.38037378232184 -3.1409007738782293 0 -3.1409007738782293 70.494305266016454 0 0 0 0 86.84340821942078 -16.441910994116711 0 -16.441910994116711 13.557202718727694 0 0 0 0 91.187247388123524 -11.329434113434218 0 -11.329434113434218 5.6810591623161599 0 0 0 0 3.5670534785247381 -0.61006067952139276 0 -0.61006067952139276 0.92951449666595387 0 0 0 0 42.896668767684787 21.968800263320077 0 21.968800263320077 15.876775622330342 0 0 0 0 87.225447707025523 -6.4086940191282338 0 -6.4086940191282338 -0.080230408269017062 0 0 0 0 18.553204289230052 42.02376862487472 0 42.02376862487472 15.626117396345762 0 0 0 0 36.462737221627222 -5.740187260608721 0 -5.740187260608721 -4.2694504794076229 0 0 0 0 20.755734567257605 -11.66731528159653 0 -11.66731528159653 7.1629295512043427 0 0 0 0 81.484119594050753 -12.590711630610713 0 -12.590711630610713 11.038772588257871 0 0 0 0 97.922559246947458 -31.904546764911174 0 -31.904546764911174 -13.966830856874367 0 0 0 0 77.760221943744 -63.189908870379213 0 -63.189908870379213 17.104102445953686 0 0 0 0 32.058741910064782 -27.838167233506738 0 -27.838167233506738 0.64337484653879073 0 0 0 0 82.558746185445671 -38.408015749162814 0 -38.408015749162814 35.854309219590505 0 0 0 0 83.091041652060085 -38.144677084769683 0 -38.144677084769683 -2.5328101930117555 0 0 0 0 130.46345108601963 -37.202697998769509 0 -37.202697998769509 -2.0942780610203044 0 0 0 0 131.73445471829837 -68.282536503269512 0 -68.282536503269512 -26.547906234532093 0 0 0 0 110.77690908262957 28.008242944099948 0 28.008242944099948 15.591586357867527 0 0 0 0 139.44175435052603 -62.92611840113841 0 -62.92611840113841 4.6094504654056436 0 0 0 0 -10.158195378387767 -9.468531088639331 0 -9.468531088639331 8.8896589352929034 0 0 0 0 83.742228120374421 -22.109565746100998 0 -22.109565746100998 18.345963917836002 0 0 0 0 48.843425165490771 5.7150971372611821 0 5.7150971372611821 -20.970732031029911 0 0 0 0 75.853853166750923 -36.495560369132363 0 -36.495560369132363 -12.223770300118531 0 0 0 0 59.738408443656226 -10.454208339341676 0 -10.454208339341676 -0.87039382379953167 0 0 0 0 39.210320918029538 -22.983183649484545 0 -22.983183649484545 -14.071642135643742 0 0 0 0 27.521185867510901 -8.9821179723125972 0 -8.9821179723125972 -7.1922214291670734 0 0 0 0 53.596241208718922 -17.391951441627299 0 -17.391951441627299 -7.2980156172903197 0 0 0 0 29.212696003443398 -11.423119213220275 0 -11.423119213220275 -14.392342219112834 0 0 0 0 41.943227365356989 -14.361801947281347 0 -14.361801947281347 -3.7018170755381297 0 0 0 0 52.798962705401351 -14.498758745622494 0 -14.498758745622494 -10.241291481107609 0 0 0 0 43.524526995440397 -17.35410273059756 0 -17.35410273059756 -1.592090761056852 0 0 0 0 79.734080844993514 -39.669689676575672 0 -39.669689676575672 -9.6596480919415626 0 0 0 0 22.579177973101764 -12.364325805361773 0 -12.364325805361773 19.673756988235937 0 0 0 0 42.979477048886636 -15.229866418273829 0 -15.229866418273829 3.314643306127159 0 0 0 0 19.753621767770142 -1.9894246600454153 0 -1.9894246600454153 9.7718333828947834 0 0 0 0 -1.5006456107466368 -2.5137184377797772 0 -2.5137184377797772 3.6696195905216538 0 0 0 0 -27.671443041108432 19.103234551651724 0 19.103234551651724 48.093089414346139 0 0 0 0 100.37659500154496 -2.5989488179384352 0 -2.5989488179384352 -17.627614414771415 0 0 0 0 5.0064613746046742 -5.3572784300206067 0 -5.3572784300206067 2.3937943003453768 0 0 0 0 423.14388578485887 81.062781819282804 0 81.062781819282804 -11.653238719661204 0 0 0 0 21.681834204983033 -61.123032431412753 0 -61.123032431412753 51.620482424703823 0 0 0 0 200.07332733403473 -79.400698393988023 0 -79.400698393988023 -6.9725825737696141 0 0 0 0 211.53986557432631 -9.4069096136781667 0 -9.4069096136781667 77.044691782929021 0 0 0 0 349.02840171439311 32.318734096467097 0 32.318734096467097 53.205300665085701 0 0 0 0 129.73699182016253 -1.4908039814908989 0 -1.4908039814908989 100.90805123454538 0 0 0 0 144.51856272890461 -12.575488834497719 0 -12.575488834497719 50.187823647319419 0 0 0 0 -1.0873212904059528 -48.586240364128571 0 -48.586240364128571 124.52705205968732 0 0 0 0 -15.984119132205251 -18.247716731196306 0 -18.247716731196306 65.41667132630937 0 0 0 0 -11.148007779809694 -18.67142563527517 0 -18.67142563527517 12.520545470813421 0 0 0 0 56.822997924281935 -91.854234076939974 0 -91.854234076939974 74.702670188215507 0 0 0 0 28.225782276252403 -54.980850131450325 0 -54.980850131450325 29.65647080263625 0 0 0 0 22.796249420167555 -65.608429202923617 0 -65.608429202923617 23.76341806750861 0 0 0 0 149.68371065371321 -31.293627250832287 0 -31.293627250832287 -53.796792105584473 0 0 0 0 63.725286486276978 -20.168628337187791 0 -20.168628337187791 1.5314135010012322 0 0 0 0 46.082879554302281 -101.9462760906913 0 -101.9462760906913 -79.16005652376316 0 0 0 0 42.339908524601924 -105.36875121156845 0 -105.36875121156845 -23.247252043789558 0 0 0 0 -5.7458074495662004 -108.65699564016995 0 -108.65699564016995 -17.995984588399551 0 0 0 0 134.9489843503552 -35.346651238605318 0 -35.346651238605318 -196.53326826912416 0 0 0 0 105.0890527709073 35.70160681819857 0 35.70160681819857 45.170869289129769 0 0 0 0 29.770859893539409 -39.779792335555499 0 -39.779792335555499 -1.9852252203218086 0 0 0 0 71.941621287546695 -73.58578022662914 0 -73.58578022662914 25.019216856063849 0 0 0 0 -34.830359670288544 -49.059199843394708 0 -49.059199843394708 -0.99825708032449256 0 0 0 0 -39.182300847076476 -55.291586638695662 0 -55.291586638695662 11.07529576408524 0 0 0 0 40.69411303455383 -11.678393717224685 0 -11.678393717224685 3.6655938312574037 0 0 0 0 -117.47093651397154 -31.240429469311039 0 -31.240429469311039 30.020088172888791 0 0 0 0 -19.997703030414414 -51.749504374362004 0 -51.749504374362004 -55.859954586405365 0 0 0 0 288.88982925994424 -1.4467388009370552 0 -1.4467388009370552 -37.695683524318156 0 0 0 0 107.90923758901772 -84.014867662699544 0 -84.014867662699544 -13.987101045274358 0 0 0 0 231.0710517903135 -52.320638766304 0 -52.320638766304 -28.763193845141359 0 0 0 0 0.27212302639094776 1.8312284596262387 0 1.8312284596262387 -0.082997196092776448 0 0 0 0 26.476625068145253 9.7822761226955528 0 9.7822761226955528 -17.373983360691909 0 0 0 0 129.39464286858856 -19.019759261273975 0 -19.019759261273975 -20.847540156911919 0 0 0 0 60.197566151769024 9.0826077318827174 0 9.0826077318827174 15.563937225717382 0 0 0 0 -0.51340963391189831 -1.8886476005794322 0 -1.8886476005794322 -1.5690621517097023 0 0 0 0 186.12379132036222 37.823313416638484 0 37.823313416638484 6.0914882864412903 0 0 0 0 66.056919576591099 -81.990474965988597 0 -81.990474965988597 43.131896887189214 0 0 0 0 140.38454264132815 -40.129686526152 0 -40.129686526152 -3.3008351147473149 0 0 0 0 22.928856904327404 -19.542326822883297 0 -19.542326822883297 30.001547224834212 0 0 0 0 33.398113800536521 -53.474441310936982 0 -53.474441310936982 -36.120913678935722 0 0 0 0 -4.3742043610079389 -23.592712125303333 0 -23.592712125303333 4.7665219517548252 0 0 0 0 54.424017452012777 -42.541726265512807 0 -42.541726265512807 49.105704729250647 0 0 0 0 13.363092933979212 -28.718765423897935 0 -28.718765423897935 8.6936602866972841 0 0 0 0 78.545705166237894 -24.241710016022239 0 -24.241710016022239 11.685447286796261 0 0 0 0 94.904282264165886 33.125387981191352 0 33.125387981191352 108.47419900679051 0 0 0 0 74.859704556418365 -22.31080375597935 0 -22.31080375597935 -23.372962852086857 0 0 0 0 13.130207056138904 -30.010610867474266 0 -30.010610867474266 -1.5198510914025825 0 0 0 0 61.176810907454637 -33.290443390331575 0 -33.290443390331575 0.82963458089307096 0 0 0 0 51.389501678357192 -44.422045510394128 0 -44.422045510394128 -10.038639840034989 0 0 0 0 51.200381206639577 -20.188388194234221 0 -20.188388194234221 -15.998079460400731 0 0 0 0 49.852573478432532 -27.783120788551571 0 -27.783120788551571 -49.029571214899988 0 0 0 0 28.924535864287463 -51.20119379868629 0 -51.20119379868629 -6.020603031558494 0 0 0 0 53.12559690058697 -21.679885857625322 0 -21.679885857625322 -1.5082908882197898 0 0 0 0 67.573429458738246 -15.774763755761342 0 -15.774763755761342 5.2061525484052709 0 0 0 0 57.159396729496621 -34.760921563077432 0 -34.760921563077432 20.566258640397791 0 0 0 0 49.910167154637747 -3.8126447205413569 0 -3.8126447205413569 -12.329519063009684 0 0 0 0 40.286599387067952 -8.1480252244398415 0 -8.1480252244398415 -16.238746751851458 0 0 0 0 48.847525779804158 -5.7412359298467219 0 -5.7412359298467219 -8.5456287500771388 0 0 0 0 77.053677508250985 -1.8128814629562839 0 -1.8128814629562839 -58.813774019405173 0 0 0 0 54.005609960251604 -22.569175552208435 0 -22.569175552208435 -23.942615681566167 0 0 0 0 45.969978367058502 -36.838868236256531 0 -36.838868236256531 -48.903307412968843 0 0 0 0 7.1864991838150161 8.7167922762510308 0 8.7167922762510308 -6.6444065313925718 0 0 0 0 66.089522811649658 -32.778434987173569 0 -32.778434987173569 1.6627482139015228 0 0 0 0 80.592364400625229 -64.449400540726856 0 -64.449400540726856 -34.26794428229914 0 0 0 0 50.492907671937473 -19.691769928780889 0 -19.691769928780889 6.1851626063091727 0 0 0 0 2.8741289364247962 -11.817307431646663 0 -11.817307431646663 2.0389615735790767 0 0 0 0 53.915666230743227 0.28229584189830348 0 0.28229584189830348 -53.116146588400852 0 0 0 0 58.744388647992309 -45.680836414212536 0 -45.680836414212536 10.063714674578023 0 0 0 0 61.047281653154641 -24.546971085307234 0 -24.546971085307234 9.1731834762466633 0 0 0 0 30.37895400833537 -1.9255259593025258 0 -1.9255259593025258 -20.256087021347799 0 0 0 0 140.52188351651239 -21.202388672639017 0 -21.202388672639017 -11.605521806989486 0 0 0 0 52.402726402153348 -44.014000278468302 0 -44.014000278468302 6.0299724941821751 0 0 0 0 68.498991438100347 -30.367592147191544 0 -30.367592147191544 -25.835053178806902 0 0 0 0 41.157194259369135 -14.142347901467929 0 -14.142347901467929 -14.065123655631851 0 0 0 0 -18.435242388721235 -40.894598135351771 0 -40.894598135351771 -4.4601913763427774 0 0 0 0 35.818424607736233 -35.191280717552218 0 -35.191280717552218 5.1475100143484269 0 0 0 0 -1.3464168974476785 2.0740835131451334 0 2.0740835131451334 0.62558698914932265 0 0 0 0 162.52756118302204 0.25697342253599231 0 0.25697342253599231 -34.823597386216989 0 0 0 0 85.845945121551267 17.286545687340549 0 17.286545687340549 11.820308605282207 0 0 0 0 83.440991491959721 -12.796909995075339 0 -12.796909995075339 -25.34721094303859 0 0 0 0 43.264211454090415 -15.326672228958909 0 -15.326672228958909 3.9691785396332104 0 0 0 0 10.994161594760488 1.2884685315533417 0 1.2884685315533417 0.2843479299984164 0 0 0 0 41.462547572842595 -19.303093056430896 0 -19.303093056430896 -8.3016726720043152 0 0 0 0 71.343114136128861 -24.792627281020941 0 -24.792627281020941 15.920162759435698 0 0 0 0 74.44108829110337 -39.221838141282205 0 -39.221838141282205 21.310767724358584 0 0 0 0 47.422180131695541 -24.886821980790373 0 -24.886821980790373 -1.433031071493712 0 0 0 0 37.235159266336353 -9.679110533336873 0 -9.679110533336873 -18.133904945501506 0 0 0 0 33.57285559191314 -17.470668935017315 0 -17.470668935017315 -21.649424165605978 0 0 0 0 36.961600896593154 -15.433345722758986 0 -15.433345722758986 -0.15938854365613331 0 0 0 0 43.923802565343891 -9.401035053994665 0 -9.401035053994665 -1.5834419208817203 0 0 0 0 61.708193148384453 -21.854735783309252 0 -21.854735783309252 -6.1245018553768205 0 0 0 0 59.515550549705949 -12.832181493311737 0 -12.832181493311737 -0.16983074221202799 0 0 0 0 62.891922227794566 -26.61436485316267 0 -26.61436485316267 -3.3117326725104022 0 0 0 0 35.8846483478303 -14.028246738546382 0 -14.028246738546382 -7.0358591018613179 0 0 0 0 41.978716992428417 -21.025966122175021 0 -21.025966122175021 -4.4421184049074327 0 0 0 0 43.406440076018669 -14.194876497996589 0 -14.194876497996589 4.5673861684584267 0 0 0 0 169.0693340194407 14.134056110852953 0 14.134056110852953 -120.03184871421799 0 0 0 0 -8.7067859744779525 1.6821937653441239 0 1.6821937653441239 99.068051961665162 0 0 0 0 3.5825958174385732 -119.47265343730113 0 -119.47265343730113 66.416676654877747 0 0 0 0 4.1308229257976636 -4.8932765637225799 0 -4.8932765637225799 1.4252632663766205 0 0 0 0 122.6950574380503 18.447093895702722 0 18.447093895702722 -6.4936213397322717 0 0 0 0 89.625707988753675 25.019611654653772 0 25.019611654653772 21.758945203149096 0 0 0 0 53.026977934851857 10.458945617870768 0 10.458945617870768 32.367591723879372 0 0 0 0 72.031163134895905 9.0455600164116277 0 9.0455600164116277 8.9641529394156123 0 0 0 0 132.98193672157186 -30.552192059234358 0 -30.552192059234358 -36.134398804859757 0 0 0 0 46.230758773486741 -9.6084885952002423 0 -9.6084885952002423 6.6484226702866636 0 0 0 0 23.02427301209223 -17.524649588216093 0 -17.524649588216093 0.74776600237985613 0 0 0 0 31.171255521872197 -14.094751808067052 0 -14.094751808067052 0.67347901495229046 0 0 0 0 24.114380072074709 -18.170645623788005 0 -18.170645623788005 -14.814210448279937 0 0 0 0 54.047876550332454 -10.099998221443748 0 -10.099998221443748 -6.2060986510737948 0 0 0 0 13.643984037934842 -22.833095135129838 0 -22.833095135129838 -12.585501864195066 0 0 0 0 18.308040347532369 -16.166048463999232 0 -16.166048463999232 -7.708695499830128 0 0 0 0 25.958873483853278 -24.552861486731985 0 -24.552861486731985 1.6438806825295207 0 0 0 0 39.576226033669627 -24.80206092554829 0 -24.80206092554829 -8.1678047449477162 0 0 0 0 53.680529525281599 -8.408790549661024 0 -8.408790549661024 -4.6929328982023968 0 0 0 0 28.139462568996656 -19.012265083463188 0 -19.012265083463188 0.19525369960880706 0 0 0 0 46.643509790976168 -13.085551199966289 0 -13.085551199966289 -8.2551913623642577 0 0 0 0 50.080699929512775 -16.860944333080624 0 -16.860944333080624 -4.1129825890252505 0 0 0 0 46.29583354287071 -10.770597311596932 0 -10.770597311596932 2.8092721862301078 0 0 0 0 41.698965295119251 -3.6586443531869008 0 -3.6586443531869008 13.627756569566714 0 0 0 0 53.424363398497235 4.7835829878270033 0 4.7835829878270033 19.618557833125465 0 0 0 0 55.58059108776979 4.187253883711719 0 4.187253883711719 9.8907674677514024 0 0 0 0 23.489943710374519 -7.481730955049386 0 -7.481730955049386 23.972624438910316 0 0 0 0 41.927742735771062 -10.007656893886633 0 -10.007656893886633 4.0280902851907285 0 0 0 0 16.409882326926429 -10.642236778761882 0 -10.642236778761882 3.3372560009589942 0 0 0 0 33.478273192182428 -7.8724154100723496 0 -7.8724154100723496 -0.94429763304503922 0 0 0 0 43.199181947970146 -16.218083398847057 0 -16.218083398847057 13.501230308031268 0 0 0 0 25.229747113313351 -33.457077976765788 0 -33.457077976765788 2.0767897146565701 0 0 0 0 35.383217008406746 -12.280197607455193 0 -12.280197607455193 5.4676133596743739 0 0 0 0 3.4772949759435674 -11.290844323785842 0 -11.290844323785842 9.5442111104505063 0 0 0 0 49.347172071491059 -22.76951875757311 0 -22.76951875757311 13.291026108838196 0 0 0 0 50.215379537830131 -15.934485813520837 0 -15.934485813520837 -20.19952658941088 0 0 0 0 57.248355534621169 -5.2519484108671577 0 -5.2519484108671577 -3.4800296412154239 0 0 0 0 61.983870006952657 -2.4160918902590538 0 -2.4160918902590538 -4.6732035244402823 0 0 0 0 61.647727303464762 -2.8274402556734231 0 -2.8274402556734231 -9.9194317416090598 0 0 0 0 56.209939989967665 7.3725156210871887 0 7.3725156210871887 -25.389798467449737 0 0 0 0 23.99447303718307 33.369604260024403 0 33.369604260024403 -86.600411994526894 0 0 0 0 3.4341768184768018 -6.5046901202215093 0 -6.5046901202215093 1.3314923171760653 0 0 0 0 37.957212049773261 0.6268870501986612 0 0.6268870501986612 -9.8221911246789659 0 0 0 0 15.200315036551729 -16.394723681003939 0 -16.394723681003939 -6.5390410250063269 0 0 0 0 81.852360750554681 -17.104608419031081 0 -17.104608419031081 -6.5150955470778626 0 0 0 0 65.82529189737761 -34.358504348267388 0 -34.358504348267388 -12.815091495285969 0 0 0 0 1.9967655548991434 -11.36662032898162 0 -11.36662032898162 8.1336464375819375 0 0 0 0 94.337328435271957 -1.1640900044344562 0 -1.1640900044344562 -18.269788958757999 0 0 0 0 73.563520935460474 -11.320211714375091 0 -11.320211714375091 -11.489798513391634 0 0 0 0 76.945167413770832 -9.9268365659929714 0 -9.9268365659929714 -16.621662733842044 0 0 0 0 71.331042029357832 -8.9255172507178884 0 -8.9255172507178884 4.8401215676256015 0 0 0 0 67.424597704407915 -0.34718793872798415 0 -0.34718793872798415 -13.958950712344404 0 0 0 0 65.780517400957251 -19.533585897896842 0 -19.533585897896842 -0.66405806321840188 0 0 0 0 43.517283195659502 -17.339097934646844 0 -17.339097934646844 9.4299669356073537 0 0 0 0 69.10189824405461 -16.769970675327841 0 -16.769970675327841 6.7806624824406754 0 0 0 0 67.842956935618531 -18.405393106664178 0 -18.405393106664178 10.396025746145142 0 0 0 0 59.391015559551306 -14.577340172733216 0 -14.577340172733216 9.9400761390415937 0 0 0 0 30.347289395179402 8.9166690602202614 0 8.9166690602202614 -6.2642978440797199 0 0 0 0 33.337589126362218 -32.011976060771417 0 -32.011976060771417 25.723887689211239 0 0 0 0 69.395831400297538 -25.889882318966784 0 -25.889882318966784 17.70443293349399 0 0 0 0 13.654914794530178 -12.069162110927454 0 -12.069162110927454 7.9218360979579225 0 0 0 0 37.377902072414578 -5.748303389053337 0 -5.748303389053337 -1.5842736708049618 0 0 0 0 80.051905831607883 -21.527802536431551 0 -21.527802536431551 8.4065311286021824 0 0 0 0 26.327029807387589 73.846970766522531 0 73.846970766522531 108.59717765016683 0 0 0 0 470.29139506451611 -70.501654414858365 0 -70.501654414858365 -6.6042724159323711 0 0 0 0 218.22317028581892 -62.95073301933121 0 -62.95073301933121 41.22295682910692 0 0 0 0 227.08668080057714 -36.859323951066983 0 -36.859323951066983 69.089159303582392 0 0 0 0 223.23868127330354 -13.08880352796259 0 -13.08880352796259 -75.961546387826843 0 0 0 0 26.645367734435922 -16.269062879492481 0 -16.269062879492481 8.898996710080155 0 0 0 0 -0.99713878014229951 -0.9299239965041568 0 -0.9299239965041568 0.90941323486233061 0 0 0 0 38.249150486390363 -22.198058808609971 0 -22.198058808609971 1.6395430693151667 0 0 0 0 -66.42175287626651 -40.181779267710226 0 -40.181779267710226 -52.557413721840931 0 0 0 0 -2.8020649415120715 95.561612127798981 0 95.561612127798981 142.81474989419803 0 0 0 0 10.734972428472091 12.576967033086184 0 12.576967033086184 6.682717338185812 0 0 0 0 10.975049257315003 8.0537077156070946 0 8.0537077156070946 -3.9085452878395741 0 0 0 0 71.009016839321703 -20.239222355503557 0 -20.239222355503557 8.7736167817731712 0 0 0 0 998.22689136196777 -388.55940258273131 0 -388.55940258273131 159.11174676247606 0 0 0 0 142.7053933576226 -119.22354975233554 0 -119.22354975233554 195.70664532642695 0 0 0 0 -132.60527494912776 16.933378492644465 0 16.933378492644465 140.06680757913182 0 0 0 0 787.39213765268869 -239.80513375411124 0 -239.80513375411124 26.801632207066405 0 0 0 0 182.76700500042489 -304.43877419996272 0 -304.43877419996272 160.13813948683537 0 0 0 0 251.49955621512868 351.64390970313809 0 351.64390970313809 224.94264574704675 0 0 0 0 594.67084966677714 140.65408635904123 0 140.65408635904123 -9.7547572456935541 0 0 0 0 4.7136382743226921 3.9387408259364016 0 3.9387408259364016 4.1543935000715688 0 0 0 0 -52.231931827980361 -101.27010325488106 0 -101.27010325488106 149.11282808356373 0 0 0 0 70.053108166677703 -8.9492413680393526 0 -8.9492413680393526 16.609436146629605 0 0 0 0 81.088480184297623 -4.7981836648341059 0 -4.7981836648341059 3.0518356087942848 0 0 0 0 864.17065309760505 -755.21396513216496 0 -755.21396513216496 -236.66014886233279 0 0 0 0 8.7934892467133778 16.874409860186123 0 16.874409860186123 19.26164629373104 0 0 0 0 245.6010265439611 75.404451887626237 0 75.404451887626237 25.357290495576308 0 0 0 0 1638.5610973480752 244.97629562620295 0 244.97629562620295 -686.01893731398513 0 0 0 0 1407.3888508937735 446.43252829416861 0 446.43252829416861 -556.96496546328376 0 0 0 0 930.90350301531168 101.00934111108916 0 101.00934111108916 476.54087115892867 0 0 0 0 938.02860964951594 643.57232304863862 0 643.57232304863862 139.5402765996314 0 0 0 0 2.824297014931143 0.11025781663951317 0 0.11025781663951317 -4.8126068570107172 0 0 0 0 1512.2178405142213 507.33085709177101 0 507.33085709177101 -242.28841701473925 0 0 0 0 380.71758044991111 514.77068441140864 0 514.77068441140864 23.069906702341996 0 0 0 0 595.12592111779759 -59.714249280618333 0 -59.714249280618333 -734.6112467557864 0 0 0 0 207.38175131054913 269.44187702340491 0 269.44187702340491 -43.664569668205786 0 0 0 0 691.84687832806048 425.56431644301324 0 425.56431644301324 432.43571377164437 0 0 0 0 736.45226593802636 160.19447814495413 0 160.19447814495413 -184.79139080488574 0 0 0 0 1350.893993177604 630.02783989159241 0 630.02783989159241 4.0856818355942508 0 0 0 0 381.79685026448624 165.55280850854822 0 165.55280850854822 110.13293975488068 0 0 0 0 507.03213587081154 407.60761918777098 0 407.60761918777098 216.2128813837312 0 0 0 0 582.23431207465546 433.03479374496351 0 433.03479374496351 89.930796018332501 0 0 0 0 1035.5376513212213 291.58986953043768 0 291.58986953043768 119.9830429064034 0 0 0 0 630.5817666756684 338.42274271199585 0 338.42274271199585 269.55673510657448 0 0 0 0 753.41099124185075 322.49954811413022 0 322.49954811413022 157.20979550310972 0 0 0 0 818.21710037747016 190.53322098959239 0 190.53322098959239 -73.29945561778618 0 0 0 0 481.31677671200578 24.391612500322026 0 24.391612500322026 -10.382098527525045 0 0 0 0 580.8067481460098 111.4716763751495 0 111.4716763751495 4.9989887734651575 0 0 0 0 678.39749012327638 75.610425867636479 0 75.610425867636479 -63.004392556782591 0 0 0 0 1137.0087972439389 511.33771682271856 0 511.33771682271856 18.594608186268943 0 0 0 0 1430.0033038603929 35.158690166458882 0 35.158690166458882 -110.88722724704985 0 0 0 0 847.42937637105024 128.45820758864375 0 128.45820758864375 -49.809640445883872 0 0 0 0 906.88800167799309 370.27170063488165 0 370.27170063488165 12.433749872657927 0 0 0 0 1.184475844839592 4.0667374884584664 0 4.0667374884584664 -8.55549290720238 0 0 0 0 259.62085952108032 -130.00569331122642 0 -130.00569331122642 -715.82748403134951 0 0 0 0 -54.264545402951853 -113.82338144638675 0 -113.82338144638675 231.77838786237498 0 0 0 0 75.994719465586826 -14.654834149159727 0 -14.654834149159727 0.17461457128826341 0 0 0 0 -23.089835118853443 -169.00509810171729 0 -169.00509810171729 -469.25685144227009 0 0 0 0 111.58086893491054 -254.93853031399837 0 -254.93853031399837 -1016.2443482605856 0 0 0 0 -29.104505148703538 -59.512758463359631 0 -59.512758463359631 -280.62132184133634 0 0 0 0 185.33071909397768 -148.17605545245857 0 -148.17605545245857 -942.07956575375124 0 0 0 0 71.630599364318385 -11.982709959406961 0 -11.982709959406961 -1.0908378102632739 0 0 0 0 68.389352700181917 -228.80355497002301 0 -228.80355497002301 -358.30128942116335 0 0 0 0 296.28049178591755 287.67727328847423 0 287.67727328847423 -64.266612413780933 0 0 0 0 329.83096674940089 297.29086020005661 0 297.29086020005661 181.0347026684417 0 0 0 0 400.33431954473781 162.49001293293236 0 162.49001293293236 22.559426887273275 0 0 0 0 110.62968186503713 200.33716581417826 0 200.33716581417826 36.856879811088362 0 0 0 0 137.81073115849404 -65.525400897537935 0 -65.525400897537935 -316.59545535457056 0 0 0 0 107.87949600175067 -128.43288434556123 0 -128.43288434556123 -204.33198976883455 0 0 0 0 -13.635765714841909 54.948653318040783 0 54.948653318040783 -389.91410958720223 0 0 0 0 147.94183532821626 77.437181939632183 0 77.437181939632183 44.076532491567377 0 0 0 0 104.22642050198556 -228.99869225436544 0 -228.99869225436544 241.93428472098503 0 0 0 0 38.329863868520988 35.812853061021279 0 35.812853061021279 -186.35222392870992 0 0 0 0 -36.522921896694243 -264.26379111963047 0 -264.26379111963047 -348.745303728301 0 0 0 0 447.08563263992983 -261.73054176845517 0 -261.73054176845517 65.878061379929022 0 0 0 0 593.77989735760093 -216.78510013857078 0 -216.78510013857078 76.906288724817387 0 0 0 0 475.99518641185705 -329.41603237741458 0 -329.41603237741458 163.08665320963655 0 0 0 0 338.21078209791813 -50.50955427697204 0 -50.50955427697204 126.7025923910785 0 0 0 0 482.62821273048121 -10.177335767032162 0 -10.177335767032162 114.01438859725022 0 0 0 0 491.97224755194475 13.31415040839147 0 13.31415040839147 68.102035584713576 0 0 0 0 499.07508014738596 205.38232593685871 0 205.38232593685871 115.99170777004656 0 0 0 0 643.90637379208783 241.678524170728 0 241.678524170728 120.79783564704212 0 0 0 0 298.15884070979837 229.59327343324111 0 229.59327343324111 136.15969976000542 0 0 0 0 508.02200483822622 349.23034123858037 0 349.23034123858037 186.04908811550104 0 0 0 0 623.88765410721555 378.31992946416449 0 378.31992946416449 143.81587002041033 0 0 0 0 618.17264919150193 294.23080149284215 0 294.23080149284215 77.393618017400513 0 0 0 0 1240.088366680644 245.68127791144707 0 245.68127791144707 -16.744918623011927 0 0 0 0 1103.9528050056761 -67.47573896586573 0 -67.47573896586573 117.18741272810985 0 0 0 0 856.51059996324307 12.418750490034739 0 12.418750490034739 54.706753451568147 0 0 0 0 833.21175813524314 330.97753486468173 0 330.97753486468173 -34.596253114177671 0 0 0 0 801.42796078449464 31.916612177365096 0 31.916612177365096 63.264746075022231 0 0 0 0 644.17842677057706 -80.009035423498517 0 -80.009035423498517 94.352679837713367 0 0 0 0 896.14385984930414 37.041122739589355 0 37.041122739589355 68.753291649751191 0 0 0 0 958.85110390740738 -127.24030003773612 0 -127.24030003773612 93.611289250819027 0 0 0 0 731.96816183376359 -306.00958493968483 0 -306.00958493968483 207.90121342228394 0 0 0 0 819.35081607977554 -183.19089590457725 0 -183.19089590457725 167.61215269457898 0 0 0 0 854.85635378231018 -232.00728649022676 0 -232.00728649022676 124.07871637138851 0 0 0 0 716.6949775428584 -186.02778623474114 0 -186.02778623474114 108.8557031408709 0 0 0 0 732.66602971159227 -235.99944767870466 0 -235.99944767870466 54.283127182759017 0 0 0 0 744.88634625307577 493.65231697103945 0 493.65231697103945 175.29382347544743 0 0 0 0 444.03232305721031 217.60626767533267 0 217.60626767533267 101.17598294774263 0 0 0 0 467.08413390971054 132.20992671072872 0 132.20992671072872 54.394828195458103 0 0 0 0 239.93142058969715 174.26027470754707 0 174.26027470754707 136.85384092162985 0 0 0 0 225.93331182375005 -0.97834605545767772 0 -0.97834605545767772 40.374549854059296 0 0 0 0 600.86097971800427 102.41387823298851 0 102.41387823298851 20.305916664170354 0 0 0 0 344.23960364843151 161.89482069526571 0 161.89482069526571 101.60039624450314 0 0 0 0 565.97313008988704 202.8372382928147 0 202.8372382928147 84.723220975598224 0 0 0 0 840.65199590152997 183.56181341065411 0 183.56181341065411 32.153248304703311 0 0 0 0 653.59293280698603 319.57484051994732 0 319.57484051994732 82.174526391149556 0 0 0 0 926.00392115257819 335.18882544762016 0 335.18882544762016 -33.761593495183661 0 0 0 0 999.95251344092685 396.0220572768153 0 396.0220572768153 104.86636746620479 0 0 0 0 0.054415455889309072 4.7773867171483175 0 4.7773867171483175 -7.487924315389149 0 0 0 0 699.24821520267869 487.60895964969495 0 487.60895964969495 191.13244553561344 0 0 0 0 641.27536221952323 322.83279400332458 0 322.83279400332458 127.04550675606401 0 0 0 0 610.16536704531973 369.34677115596287 0 369.34677115596287 138.61572117690821 0 0 0 0 608.0112115011998 373.9722566446203 0 373.9722566446203 144.71407492134767 0 0 0 0 961.90273057684135 269.16588474799983 0 269.16588474799983 5.2931136724291719 0 0 0 0 930.84507080449566 382.22686325719974 0 382.22686325719974 479.80322922184314 0 0 0 0 0.35344969376470203 3.2991188380498997 0 3.2991188380498997 -3.69899031555072 0 0 0 0 601.48201757892093 371.87259179152852 0 371.87259179152852 149.66908277391076 0 0 0 0 606.89496939540368 380.12147300062634 0 380.12147300062634 161.23457995465014 0 0 0 0 1229.4179510651284 450.05705137659152 0 450.05705137659152 -37.266623531259938 0 0 0 0 195.63589702655008 244.03894418494838 0 244.03894418494838 159.60314568423749 0 0 0 0 1.3079017034771034 0.63253451102221447 0 0.63253451102221447 -1.5167729165456123 0 0 0 0 179.75961325083904 -705.97411980352069 0 -705.97411980352069 1729.7766026117606 0 0 0 0 1.3844183351516 -0.60590929571626972 0 -0.60590929571626972 4.0044640633454485 0 0 0 0 1193.8432507833331 500.96613705181971 0 500.96613705181971 98.002822802011906 0 0 0 0 100.98706249180759 -209.07130367530499 0 -209.07130367530499 426.65989324988504 0 0 0 0 14.273238424252014 -3.8970078300104198 0 -3.8970078300104198 1.2275196806727564 0 0 0 0 194.99604786370818 149.59858162935188 0 149.59858162935188 64.256944987315364 0 0 0 0 260.58617401351967 142.10344500148722 0 142.10344500148722 -42.398589729436935 0 0 0 0 238.80568653364844 216.68249824464738 0 216.68249824464738 28.377077479823129 0 0 0 0 193.4547694390094 216.34257031323637 0 216.34257031323637 246.42338901044423 0 0 0 0 136.19966582049619 -97.247387303511459 0 -97.247387303511459 -86.364973770043889 0 0 0 0 59.154302277514944 -11.98045358508989 0 -11.98045358508989 99.060241294607067 0 0 0 0 49.969773940141749 -51.720599547568327 0 -51.720599547568327 -12.523248161849551 0 0 0 0 43.598784150041865 -81.188980522548491 0 -81.188980522548491 11.091366261362055 0 0 0 0 151.99210668684464 -48.850408415531092 0 -48.850408415531092 -32.731589924850141 0 0 0 0 75.3215999521708 -41.080868959407326 0 -41.080868959407326 -25.281165063314802 0 0 0 0 153.88110544586408 6.8813579452190723 0 6.8813579452190723 -29.149536958352655 0 0 0 0 101.36737833476218 91.646562052667377 0 91.646562052667377 -151.04391334292268 0 0 0 0 2000.2934671897819 -1223.4623090248097 0 -1223.4623090248097 -1869.9272755337224 0 0 0 0 -1.8436299926704378 3.3848065307103461 0 3.3848065307103461 -5.8467357339518422 0 0 0 0 313.03440875379056 38.775882196904149 0 38.775882196904149 -12.56735697570457 0 0 0 0 319.92933869366152 270.91377713226439 0 270.91377713226439 334.36639876860181 0 0 0 0 15.387493006869432 6.621504659050796 0 6.621504659050796 -35.121085574045296 0 0 0 0 139.12240171339113 86.072341315203744 0 86.072341315203744 -7.3327844303130405 0 0 0 0 416.78084046644653 -84.904823861547357 0 -84.904823861547357 -1.7707464700970377 0 0 0 0 55.681412131735421 26.5057871569946 0 26.5057871569946 4.5435240449240091 0 0 0 0 80.546765297754973 12.456295467921791 0 12.456295467921791 -30.065352290753481 0 0 0 0 61.567907995621553 12.199032695990464 0 12.199032695990464 -13.18413396291831 0 0 0 0 74.132400629061522 -13.382508595165859 0 -13.382508595165859 -15.647421064564384 0 0 0 0 64.991181875877373 -13.299708165424249 0 -13.299708165424249 -3.7027414128895089 0 0 0 0 111.64394184837693 -25.913554961411819 0 -25.913554961411819 -25.397245327883866 0 0 0 0 76.915321280904209 -19.081058991780537 0 -19.081058991780537 -18.234623185836426 0 0 0 0 66.77752794947537 -32.836678407753425 0 -32.836678407753425 -12.961841309817828 0 0 0 0 68.3266167231277 -30.215640388721908 0 -30.215640388721908 -13.043873555929167 0 0 0 0 104.3687690740735 -2.2576235916189944 0 -2.2576235916189944 -29.619015894107449 0 0 0 0 113.56606079341736 2.5476341377264049 0 2.5476341377264049 -30.199731874407007 0 0 0 0 1019.1828723604376 -226.60787026881144 0 -226.60787026881144 417.40485263444225 0 0 0 0 561.27294825580066 -279.70153395082474 0 -279.70153395082474 775.18432461134762 0 0 0 0 553.70731415846967 -150.58973636658357 0 -150.58973636658357 560.20517026459129 0 0 0 0 655.37895869036947 -278.70675508874046 0 -278.70675508874046 468.17606400492696 0 0 0 0 795.08495502033475 -374.62360047397578 0 -374.62360047397578 453.5019910105475 0 0 0 0 967.63767890759482 -223.61292269737714 0 -223.61292269737714 167.72826664025084 0 0 0 0 862.92405979239629 -511.20478340335967 0 -511.20478340335967 703.93076350717456 0 0 0 0 1250.5826839601432 -432.05248123409001 0 -432.05248123409001 312.84099064111251 0 0 0 0 1192.7030875801784 -91.484979126555629 0 -91.484979126555629 76.071885116970407 0 0 0 0 999.00572962143269 -215.26076060745345 0 -215.26076060745345 1557.3174306441097 0 0 0 0 168.09778062007626 617.34332363997567 0 617.34332363997567 850.14697616886588 0 0 0 0 2021.8391309382168 -561.72112431590085 0 -561.72112431590085 335.61052371057758 0 0 0 0 627.19495769354489 665.07584576054569 0 665.07584576054569 120.90555147914165 0 0 0 0 1800.3271000360182 627.80660333352489 0 627.80660333352489 45.853970528818536 0 0 0 0 21.888482081818424 7.8892533400805904 0 7.8892533400805904 5.3366972261166836 0 0 0 0 2048.066988099712 -1092.6019389729727 0 -1092.6019389729727 445.7541782680014 0 0 0 0 1128.5654053440376 -776.90836803628395 0 -776.90836803628395 340.31606915394809 0 0 0 0 459.70114382398424 -30.858812516067701 0 -30.858812516067701 22.700095701157807 0 0 0 0 1907.7296285943848 66.944412280281085 0 66.944412280281085 -290.13877052814814 0 0 0 0 2983.1623056323924 467.56511485966098 0 467.56511485966098 201.89507716255503 0 0 0 0 1329.4197686219813 75.194530514733742 0 75.194530514733742 115.15642169924922 0 0 0 0 446.33774713957087 380.78523257584533 0 380.78523257584533 218.66582037728858 0 0 0 0 1289.8541642530981 -25.084757688701302 0 -25.084757688701302 -132.82476703479824 0 0 0 0 589.05827012182453 -490.90102809140444 0 -490.90102809140444 321.28440172179944 0 0 0 0 545.0356436393547 0.27052498138647252 0 0.27052498138647252 -44.466797839641913 0 0 0 0 1178.9121835847545 105.81283502085626 0 105.81283502085626 -181.16737896247969 0 0 0 0 1512.9156822672521 -95.056339604030882 0 -95.056339604030882 -373.47000707083316 0 0 0 0 1527.52587556457 -59.072431782843751 0 -59.072431782843751 -364.17565692798053 0 0 0 0 1363.8422567003363 -38.660370879368202 0 -38.660370879368202 -320.33968675855067 0 0 0 0 1621.2479403487814 21.776266405339584 0 21.776266405339584 -309.04915894041665 0 0 0 0 1511.9176718700601 -92.461975622826685 0 -92.461975622826685 -344.62549376961761 0 0 0 0 810.79929422878195 -240.12856213443092 0 -240.12856213443092 24.769242981812759 0 0 0 0 844.29503008906613 22.853737951159474 0 22.853737951159474 -146.96722932826378 0 0 0 0 1364.0773833448682 -80.008638282783167 0 -80.008638282783167 -224.29794034421866 0 0 0 0 1254.1547330766116 104.58930675167852 0 104.58930675167852 -143.36403306288503 0 0 0 0 1242.8691284395718 75.869215088344617 0 75.869215088344617 -154.7206172504284 0 0 0 0 1045.8695425983806 139.71405585184294 0 139.71405585184294 -65.62483889647433 0 0 0 0 1121.7816292607458 136.27900865614924 0 136.27900865614924 192.60812392705952 0 0 0 0 1029.879548850804 295.3753495534188 0 295.3753495534188 101.33246686817438 0 0 0 0 1289.2950601975972 46.210449468924253 0 46.210449468924253 370.78238266863082 0 0 0 0 1169.2140761348746 310.08709769276834 0 310.08709769276834 42.243677858939009 0 0 0 0 1769.8240329025139 -88.933081829530806 0 -88.933081829530806 12.594649007733665 0 0 0 0 1943.6918769900367 -509.38772928211273 0 -509.38772928211273 1190.3559482664418 0 0 0 0 1548.2229169883103 -101.25235216423857 0 -101.25235216423857 -279.13346438504232 0 0 0 0 1742.3102759439594 -107.32292749821993 0 -107.32292749821993 -55.092109619144139 0 0 0 0 1812.3902741869169 250.66627331546329 0 250.66627331546329 -115.44751177899752 0 0 0 0 1026.0309442505586 -397.30605685810201 0 -397.30605685810201 -82.439645647675206 0 0 0 0 1869.2758469577236 -650.00975384525839 0 -650.00975384525839 -52.650474921150817 0 0 0 0 1813.159154919078 6.0181413506145418 0 6.0181413506145418 -248.95881131866258 0 0 0 0 19.142061313822751 -0.92817741510736784 0 -0.92817741510736784 0.33607527331878478 0 0 0 0 2910.1447897859107 429.41642993907175 0 429.41642993907175 187.46344031882415 0 0 0 0 2177.4354109718524 -1141.2495415974329 0 -1141.2495415974329 338.88219148458143 0 0 0 0 408.41600457717868 -500.76638999916077 0 -500.76638999916077 155.55322293681229 0 0 0 0 357.49409841905435 375.80376037785663 0 375.80376037785663 446.21558882360716 0 0 0 0 474.15226898955734 -259.33137139487417 0 -259.33137139487417 -39.429353730867888 0 0 0 0 154.40899185767921 -327.51922502754519 0 -327.51922502754519 1033.2777066534138 0 0 0 0 3.9316085921690984 7.0124645230577123 0 7.0124645230577123 -1.94294362849152 0 0 0 0 20.399986583926875 -0.32632201709090225 0 -0.32632201709090225 -9.7047473067856345 0 0 0 0 17.171795535004094 10.853897448690574 0 10.853897448690574 -10.879051928882745 0 0 0 0 24.497481535652213 13.019579482478708 0 13.019579482478708 0.91229271189935723 0 0 0 0 25.693778557500252 6.0323060214163835 0 6.0323060214163835 -9.2922546183637333 0 0 0 0 220.84034525342577 6.350079165445095 0 6.350079165445095 -53.325631431734891 0 0 0 0 265.95930422021684 -124.32246912038903 0 -124.32246912038903 199.26153585566408 0 0 0 0 909.39779122282198 -54.347593103660756 0 -54.347593103660756 -172.97312078972914 0 0 0 0 54.836301801654372 7.7926257271767554 0 7.7926257271767554 1.9879619454782187 0 0 0 0 85.772165250557009 7.5279292553109372 0 7.5279292553109372 -4.7789481115107719 0 0 0 0 56.150260140026603 11.710425203844807 0 11.710425203844807 -20.662207222224424 0 0 0 0 44.031923687303788 7.6124529057451582 0 7.6124529057451582 -5.7166562089454374 0 0 0 0 55.128687575693604 5.060779660703929 0 5.060779660703929 -8.1196019395968175 0 0 0 0 61.124449923572683 -10.589748987198163 0 -10.589748987198163 -4.7483257251448094 0 0 0 0 86.777009757701308 15.925503210859688 0 15.925503210859688 -20.451384968175034 0 0 0 0 16.998394408421873 10.189329004126641 0 10.189329004126641 -5.0475885768409334 0 0 0 0 -1.9929274511414405 29.230930175450567 0 29.230930175450567 87.208217009923374 0 0 0 0 400.51787130756748 48.85853667467677 0 48.85853667467677 -163.22061264497825 0 0 0 0 395.0171206342493 27.19004305202634 0 27.19004305202634 8.06731290164862 0 0 0 0 382.70047999665258 76.218365134545593 0 76.218365134545593 83.821530445225108 0 0 0 0 769.78340807960922 -114.84588451019727 0 -114.84588451019727 -63.737013833669948 0 0 0 0 -36.944161588586212 -8.8508421475142995 0 -8.8508421475142995 334.07670163695366 0 0 0 0 -2.9286217295420354 7.555739099576094 0 7.555739099576094 3.4607995541191556 0 0 0 0 104.42874185229448 -154.99948369149661 0 -154.99948369149661 9.4016890226982923 0 0 0 0 197.12587765649732 103.42964102699614 0 103.42964102699614 -237.34573046839023 0 0 0 0 609.41544211843575 263.33035154113588 0 263.33035154113588 70.376161374514595 0 0 0 0 -1.272530855157207 0.98238221642366597 0 0.98238221642366597 2.0925792754756056 0 0 0 0 417.50149502783097 -2.9974147041534707 0 -2.9974147041534707 89.169813125026991 0 0 0 0 5.5049390197846719 1.1766305241924684 0 1.1766305241924684 1.0803288218525573 0 0 0 0 444.04879354304285 75.826661510918257 0 75.826661510918257 229.85376346121666 0 0 0 0 72.995598527428228 -6.6889365151130846 0 -6.6889365151130846 -20.392626031015425 0 0 0 0 727.75289955023982 31.923916227637505 0 31.923916227637505 47.5016858894694 0 0 0 0 9.19801943091732 6.9957363339170939 0 6.9957363339170939 8.6721028610442339 0 0 0 0 68.626573408058903 3.0188642322907526 0 3.0188642322907526 2.2922581632365109 0 0 0 0 -4.0259679921473435 -2.6614713197768651 0 -2.6614713197768651 71.75740342201675 0 0 0 0 134.38234851138259 -65.640520601316439 0 -65.640520601316439 -125.79647528608007 0 0 0 0 48.364070656885914 -3.8040906204210145 0 -3.8040906204210145 -1.790106618668478 0 0 0 0 51.759556505570799 2.9052912823187853 0 2.9052912823187853 7.6706497742336524 0 0 0 0 50.099101673320547 -2.8352241675129335 0 -2.8352241675129335 -4.7948236507527326 0 0 0 0 51.595267797263659 -1.6267631038710988 0 -1.6267631038710988 -3.8722280041470185 0 0 0 0 49.407775030824268 -0.89328383604561168 0 -0.89328383604561168 -1.6177039939475435 0 0 0 0 101.53836216201307 51.279361011599121 0 51.279361011599121 -45.978638587707337 0 0 0 0 45.856571246564897 -4.3965850349342794 0 -4.3965850349342794 -3.4159831524009974 0 0 0 0 -31.121151419465605 53.520660098360736 0 53.520660098360736 92.381892107467138 0 0 0 0 24.049883436484379 12.801510823725494 0 12.801510823725494 21.384538721238641 0 0 0 0 4.3771248202265127 0.38053534683621848 0 0.38053534683621848 3.1103053851809213 0 0 0 0 48.895215413736878 -9.116569485999662 0 -9.116569485999662 -27.573086572658667 0 0 0 0 6.4869385383588138 4.1122005912359043 0 4.1122005912359043 6.5595654702771427 0 0 0 0 21.838318769256716 -5.8432041438858278 0 -5.8432041438858278 -1.0926819578224709 0 0 0 0 117.17027051837067 36.714098808290146 0 36.714098808290146 -33.220007520620129 0 0 0 0 41.003463458218903 8.2530652423311039 0 8.2530652423311039 8.9748074043927772 0 0 0 0 7.7534249873466479 0.64936997177743194 0 0.64936997177743194 2.4610678845392062 0 0 0 0 7.6667463550693356 -5.8187524635577574 0 -5.8187524635577574 -5.7758643858760479 0 0 0 0 13.90763631830724 7.5657331371572383 0 7.5657331371572383 0.98154660244979297 0 0 0 0 9.2063491034932667 -11.403217600197422 0 -11.403217600197422 5.6933012272447741 0 0 0 0 23.9461416653794 -16.673587409715765 0 -16.673587409715765 16.285882958497496 0 0 0 0 32.255544786996325 -23.612044986221463 0 -23.612044986221463 -10.953639009611834 0 0 0 0 9.1661410131928278 -11.561929461331601 0 -11.561929461331601 16.314770218357808 0 0 0 0 54.976229167252313 49.658750317351405 0 49.658750317351405 52.815333669939491 0 0 0 0 3.279453431328875 -0.59126453272036628 0 -0.59126453272036628 0.1001895541925073 0 0 0 0 22.803205207572319 -28.794869997353999 0 -28.794869997353999 -15.151827871341084 0 0 0 0 -38.924645183058601 67.802959460580723 0 67.802959460580723 111.53923925500908 0 0 0 0 27.246769084736741 -7.2312519110933522 0 -7.2312519110933522 -6.0358630344228672 0 0 0 0 3.818695778521942 -20.343787377739318 0 -20.343787377739318 -1.8660856337301084 0 0 0 0 -0.19591948811148541 -0.31568390401631419 0 -0.31568390401631419 0.68973132653378855 0 0 0 0 286.09617522900226 203.08684085788263 0 203.08684085788263 74.852328948185459 0 0 0 0 48.338911939645186 -33.583072943020852 0 -33.583072943020852 -7.2225641733102748 0 0 0 0 30.255565613879412 -15.39167992528337 0 -15.39167992528337 2.6698107635779955 0 0 0 0 235.13740225201764 -82.655128829759633 0 -82.655128829759633 -39.642568798053617 0 0 0 0 -134.04826665399014 -149.88188422954045 0 -149.88188422954045 16.299960677791205 0 0 0 0 -43.761765077171731 8.6044377880175489 0 8.6044377880175489 79.743117288509893 0 0 0 0 49.412257539164784 2.7469252038357581 0 2.7469252038357581 -13.742104973512141 0 0 0 0 46.852064998263813 -2.2661522407279335 0 -2.2661522407279335 -2.3276160230461755 0 0 0 0 -0.27072051050521395 -3.6109145774815303 0 -3.6109145774815303 2.2956353754171999 0 0 0 0 12.148932942555113 0.71815907156106107 0 0.71815907156106107 -7.2327736819355479 0 0 0 0 0.65024671469817008 -0.042304346583321717 0 -0.042304346583321717 -1.172484971159685 0 0 0 0 83.73201489818166 -71.570394946724718 0 -71.570394946724718 54.594412099421334 0 0 0 0 12.309459377283929 19.22727669079768 0 19.22727669079768 7.6003296237486211 0 0 0 0 56.227290744849597 -57.533173196484313 0 -57.533173196484313 37.872675017566962 0 0 0 0 111.12145117271211 -15.3528692634045 0 -15.3528692634045 15.648359860546407 0 0 0 0 33.265247631148668 -15.405310098919017 0 -15.405310098919017 65.605212093630826 0 0 0 0 32.63140494604886 -9.6707003976525812 0 -9.6707003976525812 16.081836617408271 0 0 0 0 38.861085847078357 -40.452780710862498 0 -40.452780710862498 30.1675003399464 0 0 0 0 38.018882477743318 -11.247039019685417 0 -11.247039019685417 6.342209990633819 0 0 0 0 56.81230435073121 -3.5086635104646575 0 -3.5086635104646575 -27.6663849013039 0 0 0 0 13.61374474972763 -48.178781642017384 0 -48.178781642017384 -1.2071897818314028 0 0 0 0 12.462859036753045 -3.6482423559748298 0 -3.6482423559748298 -1.4796353676626275 0 0 0 0 47.757281237092684 -38.735482936385324 0 -38.735482936385324 -1.9358499168411072 0 0 0 0 38.288676039504935 -34.656991523740089 0 -34.656991523740089 -7.6042967547982698 0 0 0 0 34.623169896482764 -14.11588342583525 0 -14.11588342583525 -3.8686515414540796 0 0 0 0 -375.57307199310162 17.005056115083789 0 17.005056115083789 67.583323787055178 0 0 0 0 16.42736496674479 -12.2864679182494 0 -12.2864679182494 -9.4911919947662682 0 0 0 0 19.812507914310004 -19.110131526082128 0 -19.110131526082128 4.1364514691031733 0 0 0 0 23.486797224967518 -16.922304950379498 0 -16.922304950379498 -0.61613836439270386 0 0 0 0 30.474051980864544 -2.6807748579190687 0 -2.6807748579190687 -7.5168637211588321 0 0 0 0 113.33709864736738 -18.042348648403049 0 -18.042348648403049 -25.822613188722244 0 0 0 0 1.6730288736656362 -5.676318674574361 0 -5.676318674574361 2.365221691538423 0 0 0 0 43.311733741225908 -14.023312375760725 0 -14.023312375760725 -1.4593760338129869 0 0 0 0 45.604811221695854 -11.508906954651138 0 -11.508906954651138 0.42809397161636298 0 0 0 0 38.727009628910309 -19.139335866497362 0 -19.139335866497362 -0.075310123048211608 0 0 0 0 39.027401034923969 -11.498263652546029 0 -11.498263652546029 -2.682415263819621 0 0 0 0 11.329876353987778 -14.047338475089227 0 -14.047338475089227 2.1547908709297143 0 0 0 0 39.129433732767211 -10.149928554564781 0 -10.149928554564781 6.0126771544728399 0 0 0 0 5.0333734487022923 1.6118001994740467 0 1.6118001994740467 -3.9436553241405488 0 0 0 0 15.759093101689359 -10.492667903416987 0 -10.492667903416987 -1.898983386985492 0 0 0 0 21.971470836972003 -15.65899917937179 0 -15.65899917937179 5.1888363742770025 0 0 0 0 44.216640060483769 -14.579251430660861 0 -14.579251430660861 5.5659961062128787 0 0 0 0 16.178514357503566 -13.400651522806371 0 -13.400651522806371 3.9202083296490713 0 0 0 0 27.081826839428686 -13.256154739667977 0 -13.256154739667977 6.3131702230007249 0 0 0 0 12.27580129334428 -21.46556280356549 0 -21.46556280356549 1.7357104959301894 0 0 0 0 42.178234915256326 -11.668422536025446 0 -11.668422536025446 1.5976948938950954 0 0 0 0 2.742126250181947 -4.5735183477609525 0 -4.5735183477609525 4.2791188749962874 0 0 0 0 43.25842199568433 -14.679044282474479 0 -14.679044282474479 6.6698261588203422 0 0 0 0 8.3385163834172999 -3.5213406423526976 0 -3.5213406423526976 5.2719221753204693 0 0 0 0 41.911995243826823 -14.609765617134997 0 -14.609765617134997 8.0334206120460294 0 0 0 0 47.879163932636658 0.60080497704297642 0 0.60080497704297642 -11.312555557656651 0 0 0 0 48.771127857871761 9.4446284250448116 0 9.4446284250448116 -19.952600021877743 0 0 0 0 33.138033676717896 -1.7198766841993347 0 -1.7198766841993347 -14.612285503428211 0 0 0 0 8.0645796040241429 1.3249913286992268 0 1.3249913286992268 -0.22218137621406875 0 0 0 0 32.894857971716192 -11.560812514259275 0 -11.560812514259275 -7.9438338934055537 0 0 0 0 41.921974513038364 -3.2771929607081489 0 -3.2771929607081489 -13.054876942931941 0 0 0 0 51.602164268970412 -15.888502413665641 0 -15.888502413665641 -2.8827805337405485 0 0 0 0 31.313664702629183 -13.457312657074844 0 -13.457312657074844 0.92226854020748794 0 0 0 0 290.72508855097112 113.73893917140276 0 113.73893917140276 -109.88681618916121 0 0 0 0 -30.657253575423965 -152.63220576670165 0 -152.63220576670165 -32.608421215452836 0 0 0 0 32.847337628900277 -20.653844690178289 0 -20.653844690178289 -6.7121647640143527 0 0 0 0 74.63546284243057 -4.3745355502270513 0 -4.3745355502270513 20.547585668678039 0 0 0 0 29.676773659373012 -20.665953417996626 0 -20.665953417996626 2.3644468792935092 0 0 0 0 10.895740124441826 -1.8704405289730914 0 -1.8704405289730914 4.449429661915822 0 0 0 0 48.569359740144137 -46.27352020797241 0 -46.27352020797241 15.472529322886658 0 0 0 0 122.38743987602356 -16.345501101121499 0 -16.345501101121499 -19.487339086147358 0 0 0 0 59.108115179784363 -7.183660966057829 0 -7.183660966057829 3.9221527062707082 0 0 0 0 64.886239449637287 -13.694098816492442 0 -13.694098816492442 10.722215015637858 0 0 0 0 48.579195541922672 -10.645858494962226 0 -10.645858494962226 3.9704048644200611 0 0 0 0 56.335526665970974 -19.512189566494271 0 -19.512189566494271 -5.1462369956770999 0 0 0 0 46.002435604332277 -21.505260569061647 0 -21.505260569061647 -4.8796850885669301 0 0 0 0 47.514188058571563 -18.873907404936062 0 -18.873907404936062 -2.6937990560745675 0 0 0 0 7.7493211202890961 -5.3224875962741862 0 -5.3224875962741862 -5.0388491140108727 0 0 0 0 158.08746045666339 30.200639545249942 0 30.200639545249942 14.420438166254542 0 0 0 0 76.997575649907958 -31.555961881624626 0 -31.555961881624626 8.3390761997015943 0 0 0 0 127.37247279136136 -66.779831014413958 0 -66.779831014413958 8.8868478131043958 0 0 0 0 -0.92085376916632899 0.78333355122057213 0 0.78333355122057213 1.8666455876046495 0 0 0 0 183.74192641284753 -35.783582181602696 0 -35.783582181602696 -30.416506109197599 0 0 0 0 41.570868719296413 -16.050941839779966 0 -16.050941839779966 0.65451007273486539 0 0 0 0 163.59520513601092 -9.6275503065544399 0 -9.6275503065544399 -17.603776916417701 0 0 0 0 90.956695160683012 13.134289682189319 0 13.134289682189319 16.240499002746937 0 0 0 0 12.197083413375765 -18.26626504882659 0 -18.26626504882659 1.1071840942034044 0 0 0 0 10.972116813627508 -35.165980729703961 0 -35.165980729703961 29.681108144524842 0 0 0 0 8.0825662031566026 -13.194728996323192 0 -13.194728996323192 3.424804974858489 0 0 0 0 43.19428040994535 -14.614059557522978 0 -14.614059557522978 9.6396315389692973 0 0 0 0 -3.0546462956114055 -16.941002280502531 0 -16.941002280502531 2.7225440135196646 0 0 0 0 18.380872924442983 -11.927443558944603 0 -11.927443558944603 0.12931688043291878 0 0 0 0 1.3742247861089822 -3.6274224862632138 0 -3.6274224862632138 2.1649712041194604 0 0 0 0 15.303271156662959 -9.1640015026439414 0 -9.1640015026439414 7.2585349612431855 0 0 0 0 19.406925253446389 -13.329435056684815 0 -13.329435056684815 9.8893394326000816 0 0 0 0 20.662549830625721 -13.017629944483701 0 -13.017629944483701 4.5186804079094145 0 0 0 0 -3.7698338945957914 -14.645637017813044 0 -14.645637017813044 6.2886629964246072 0 0 0 0 3.7217678438319126 -29.003855462911815 0 -29.003855462911815 21.374122529400665 0 0 0 0 -4.2406440591550023 -4.398594228014872 0 -4.398594228014872 10.532440013282812 0 0 0 0 18.663080063954112 -11.891915532855819 0 -11.891915532855819 -0.27602693016524427 0 0 0 0 12.906786493288848 -29.55001429676657 0 -29.55001429676657 3.6510936395893516 0 0 0 0 -32.498333348688902 -72.757236837111122 0 -72.757236837111122 76.407254009245662 0 0 0 0 -28.101019069530594 -16.793184466135244 0 -16.793184466135244 37.562419355706879 0 0 0 0 5.5158936718780751 -22.133154473882087 0 -22.133154473882087 36.09336620977956 0 0 0 0 76.074076703629544 -12.316154919980363 0 -12.316154919980363 -20.402577022236983 0 0 0 0 68.050292768840336 -25.269281918109982 0 -25.269281918109982 -13.410610651335446 0 0 0 0 77.303598296293785 -31.452023912933328 0 -31.452023912933328 -8.8653148302946647 0 0 0 0 14.675516723325629 -10.849447717676476 0 -10.849447717676476 -4.7135802517390282 0 0 0 0 -17.990362995071337 -21.977836402125831 0 -21.977836402125831 -10.293038372003139 0 0 0 0 13.0175304110453 -10.220630362332031 0 -10.220630362332031 -8.1097459132943186 0 0 0 0 46.310014313839304 -31.815462007704394 0 -31.815462007704394 -6.1130460067170205 0 0 0 0 -13.353493509388844 -23.223935504671061 0 -23.223935504671061 2.2608536095869916 0 0 0 0 11.086162683288663 -17.342214284651988 0 -17.342214284651988 -5.4510083990882023 0 0 0 0 33.664600042931852 -11.766836808039443 0 -11.766836808039443 -5.1403749585388141 0 0 0 0 99.819993139266444 -44.676934331736447 0 -44.676934331736447 7.0607560854568874 0 0 0 0 42.896330436189601 -41.693920275475193 0 -41.693920275475193 19.787475041926882 0 0 0 0 17.634324560478554 -35.391844434241428 0 -35.391844434241428 4.364919745368482 0 0 0 0 66.021000669330533 -47.918419498540061 0 -47.918419498540061 4.0526046534359921 0 0 0 0 -10.920863060559682 -13.509429893096303 0 -13.509429893096303 8.7497252126966671 0 0 0 0 69.630577185420407 -54.764615134385167 0 -54.764615134385167 16.721923184322804 0 0 0 0 112.55907236734492 -47.266499998919244 0 -47.266499998919244 6.2145647596853451 0 0 0 0 95.962978875766566 -24.862701192211716 0 -24.862701192211716 20.000043097485104 0 0 0 0 127.27242713357009 -15.732599275955863 0 -15.732599275955863 9.6120843319731648 0 0 0 0 35.687815902303555 -71.707834115214609 0 -71.707834115214609 -30.837893228643225 0 0 0 0 -105.30206298450139 -128.6660640180346 0 -128.6660640180346 35.471680427628598 0 0 0 0 -14.719094767020579 136.10786932440465 0 136.10786932440465 -120.14567488268949 0 0 0 0 -0.66897436412347133 -0.64746648422323005 0 -0.64746648422323005 4.1166156499237907 0 0 0 0 27.397048079394153 -74.197391605077428 0 -74.197391605077428 14.756674864878732 0 0 0 0 -2.328846014876035 -139.48606982110505 0 -139.48606982110505 -81.499768494260934 0 0 0 0 69.123877535879728 -14.271316461271454 0 -14.271316461271454 36.761153601506521 0 0 0 0 104.38704026331834 -90.974171041882073 0 -90.974171041882073 -83.378113324678623 0 0 0 0 21.208408884261068 -3.3965546095077173 0 -3.3965546095077173 -1.8587907495383718 0 0 0 0 -155.28009755352105 -225.48110365145658 0 -225.48110365145658 322.80536736921567 0 0 0 0 -458.80605396829924 114.05416812564908 0 114.05416812564908 -16.981711328542588 0 0 0 0 64.041830291964288 -32.337840459825998 0 -32.337840459825998 -37.867611987653618 0 0 0 0 53.200700257624334 -25.654111814003439 0 -25.654111814003439 6.7890158315104276 0 0 0 0 231.0698998625885 -286.76933264946274 0 -286.76933264946274 -198.81448136558492 0 0 0 0 23.963416640886699 -12.431571279125677 0 -12.431571279125677 -1.4918329965531001 0 0 0 0 45.197524367915754 -15.670913599364631 0 -15.670913599364631 -15.53454291767863 0 0 0 0 43.003627677426266 -18.535158847430466 0 -18.535158847430466 -3.0582255589833949 0 0 0 0 40.347574929674209 -34.319295353229144 0 -34.319295353229144 -6.1314691216807997 0 0 0 0 50.895307669990871 -24.96147766294871 0 -24.96147766294871 -10.244042912267105 0 0 0 0 114.52009508616902 -18.608009193090766 0 -18.608009193090766 -9.775221646398677 0 0 0 0 84.70717127394164 -50.870163495901579 0 -50.870163495901579 10.041552415557817 0 0 0 0 9.0524411155711277 -40.027676388348027 0 -40.027676388348027 5.1910018563903577 0 0 0 0 80.219154303893447 -17.217064141023002 0 -17.217064141023002 -18.821277191656918 0 0 0 0 108.07658079807879 -12.311459966867915 0 -12.311459966867915 -29.886519334833793 0 0 0 0 67.15164288894448 -50.429599314673396 0 -50.429599314673396 -24.392848196075647 0 0 0 0 133.68824907208182 -38.997281594098695 0 -38.997281594098695 -4.7005550670546654 0 0 0 0 111.10623787279837 1.1054417014870523 0 1.1054417014870523 19.69978275955873 0 0 0 0 173.31219756531937 -52.998157972357149 0 -52.998157972357149 18.380887165733839 0 0 0 0 166.304756899317 1.0160887421811822 0 1.0160887421811822 39.060754630461815 0 0 0 0 0.43561962841340574 -22.00520369497508 0 -22.00520369497508 -31.021360233282394 0 0 0 0 -0.95080340665390395 -20.868462234924209 0 -20.868462234924209 4.959798816280454 0 0 0 0 37.431723834963122 -48.274632667255901 0 -48.274632667255901 2.0764396518825379 0 0 0 0 0.43102916989457718 0.96178314289817735 0 0.96178314289817735 0.47339338524425756 0 0 0 0 239.61819464904897 -26.430200099266358 0 -26.430200099266358 -29.410508653787474 0 0 0 0 -22.431696255843917 -17.392895179830816 0 -17.392895179830816 17.794298119893938 0 0 0 0 68.643095139188517 -34.734742302693576 0 -34.734742302693576 -1.6021559257451372 0 0 0 0 100.7451304008282 -33.454432654397806 0 -33.454432654397806 -35.821100105122241 0 0 0 0 85.940951845022937 7.6775382263900838 0 7.6775382263900838 -44.832819617304267 0 0 0 0 116.94198086873075 -22.953123219228928 0 -22.953123219228928 -26.376332306260338 0 0 0 0 72.58155471234204 -3.4419430228863348 0 -3.4419430228863348 -53.091304776016841 0 0 0 0 74.514983499248046 -1.3891362723734346 0 -1.3891362723734346 -54.948423052712315 0 0 0 0 61.874008017186497 3.7293749788325385 0 3.7293749788325385 -61.704694794578245 0 0 0 0 74.297041358724528 -24.98354556713457 0 -24.98354556713457 -101.75380395498632 0 0 0 0 36.30194706029215 -38.239381705997403 0 -38.239381705997403 -16.696743945978596 0 0 0 0 52.782082682403058 -22.727734311791775 0 -22.727734311791775 9.5855618615311329 0 0 0 0 71.025617526749556 -19.566797469091398 0 -19.566797469091398 -206.35262127654732 0 0 0 0 -72.021512223582249 0.44887765012026648 0 0.44887765012026648 144.22713060179376 0 0 0 0 452.41815742992912 -402.0562416422963 0 -402.0562416422963 -163.27427296215319 0 0 0 0 69.375790262245573 -117.94113648321672 0 -117.94113648321672 67.254565278067275 0 0 0 0 192.26784308679635 -194.66542567216834 0 -194.66542567216834 112.26169973490323 0 0 0 0 284.84852589939692 -39.91418354875168 0 -39.91418354875168 -9.8882156759082136 0 0 0 0 50.870822940392827 -63.378892395517141 0 -63.378892395517141 24.560050030193452 0 0 0 0 90.654904309601989 -55.357947379842699 0 -55.357947379842699 -14.660351906017695 0 0 0 0 107.10719403805342 -97.126700416200038 0 -97.126700416200038 40.022753629105864 0 0 0 0 104.41996985989681 -99.92142167829661 0 -99.92142167829661 37.116312293203009 0 0 0 0 88.829314184804389 -64.419385672491217 0 -64.419385672491217 46.817448452862664 0 0 0 0 24.101522407123412 -5.8034612345095411 0 -5.8034612345095411 21.198764248682437 0 0 0 0 130.64942038229492 -5.9482975099417672 0 -5.9482975099417672 -16.841595748962391 0 0 0 0 159.46964081251645 -123.88404938908752 0 -123.88404938908752 21.131475760487774 0 0 0 0 104.25305508394922 -97.468437335922658 0 -97.468437335922658 8.6231112883306196 0 0 0 0 -1.8014458970865235 3.2639052672934667 0 3.2639052672934667 54.720332452856042 0 0 0 0 37.319649115808716 -77.444777289125341 0 -77.444777289125341 54.507992778411335 0 0 0 0 -2.488069541814184 -1.555289930474423 0 -1.555289930474423 0.52076036458064578 0 0 0 0 79.036761256218597 -107.88225867474694 0 -107.88225867474694 74.521646781519848 0 0 0 0 124.04941688623512 -94.135465316572663 0 -94.135465316572663 53.841158080729656 0 0 0 0 107.4243673242745 -81.038782895315762 0 -81.038782895315762 122.55840964541403 0 0 0 0 127.67160016990965 -82.957781515748138 0 -82.957781515748138 34.252390992308733 0 0 0 0 -0.65425653896114433 1.2070075789879837 0 1.2070075789879837 0.54508720883045214 0 0 0 0 160.30578329027048 -127.51005487937482 0 -127.51005487937482 96.769665549448291 0 0 0 0 163.38825315896247 -119.47180960704964 0 -119.47180960704964 75.299153723472955 0 0 0 0 120.06699183227556 -68.662262628012002 0 -68.662262628012002 31.892840345935838 0 0 0 0 114.9636631100002 -56.587766238819313 0 -56.587766238819313 0.34682327564257776 0 0 0 0 115.74494580568717 -69.697358922431704 0 -69.697358922431704 31.903228891325853 0 0 0 0 135.60052002434531 -15.562135382606812 0 -15.562135382606812 -24.152400577836488 0 0 0 0 127.68743066297611 -34.427034460021332 0 -34.427034460021332 9.5295541375307948 0 0 0 0 214.83712998296323 -44.149340038273067 0 -44.149340038273067 -6.256079730907004 0 0 0 0 228.13043559176003 -180.42303258823995 0 -180.42303258823995 110.40234322499941 0 0 0 0 125.89404407817347 -122.92363253105077 0 -122.92363253105077 79.737814127448928 0 0 0 0 49.93318930681653 -2.1063195848267426 0 -2.1063195848267426 0.30140961936831445 0 0 0 0 45.467657765168383 -116.43656310751594 0 -116.43656310751594 150.63095387463363 0 0 0 0 -52.875603059772402 -16.804777916764237 0 -16.804777916764237 84.343463284826839 0 0 0 0 2.5455175636598142 -6.9993976580760773 0 -6.9993976580760773 6.1551045957098722 0 0 0 0 7.2591774211286975 -6.1104305477427943 0 -6.1104305477427943 3.9939490992264837 0 0 0 0 126.07069577495349 -120.41064085498067 0 -120.41064085498067 99.526788383021994 0 0 0 0 2.2089626347542435 -1.2561995774021426 0 -1.2561995774021426 -1.0819488096646559 0 0 0 0 7.5624677754749428 4.0363797886342354 0 4.0363797886342354 12.915859529060526 0 0 0 0 -0.5711353362413103 -1.8080466075147541 0 -1.8080466075147541 2.8796185903721661 0 0 0 0 17.158486734015241 -7.8230346592680746 0 -7.8230346592680746 1.3360394719541091 0 0 0 0 4.7691318869765382 -5.1180994175527985 0 -5.1180994175527985 6.5280386837010838 0 0 0 0 11.01106595483725 -5.8367720098612494 0 -5.8367720098612494 1.084312860702056 0 0 0 0 23.619933114925516 9.8704216240982987 0 9.8704216240982987 3.3034604880135987 0 0 0 0 1.3794819170309029 -2.3698300521101316 0 -2.3698300521101316 1.6747919623060037 0 0 0 0 18.350722338698688 1.8616463783749282 0 1.8616463783749282 -8.6879366360805079 0 0 0 0 20.416337812348502 -7.273103011136385 0 -7.273103011136385 -9.9801364694230301 0 0 0 0 13.170618946692571 -6.2992307126069189 0 -6.2992307126069189 -3.1126190425196714 0 0 0 0 18.838732534655719 -5.1080138258643331 0 -5.1080138258643331 -3.4049755588487187 0 0 0 0 17.183042038435815 -11.729354918520215 0 -11.729354918520215 -6.4055472321368256 0 0 0 0 12.549041932520341 -2.0817922564095426 0 -2.0817922564095426 -6.6126022612585569 0 0 0 0 8.2796402503736317 -0.28265356158237864 0 -0.28265356158237864 -9.345577095002227 0 0 0 0 18.733505100070033 -9.9883355691808902 0 -9.9883355691808902 3.985197178436465 0 0 0 0 0.53463837228051148 -0.36021287913116851 0 -0.36021287913116851 -0.66345831032074742 0 0 0 0 10.969248204787391 -2.5290362048852035 0 -2.5290362048852035 -4.0286072227184233 0 0 0 0 11.733127298226464 0.23406740781274493 0 0.23406740781274493 -5.7631882763248541 0 0 0 0 11.544984226027736 -3.5320092808783556 0 -3.5320092808783556 -4.3338026364244797 0 0 0 0 10.886700366380637 -1.7076346148536246 0 -1.7076346148536246 -4.6899270069136865 0 0 0 0 14.809933967928373 -4.5980300892790353 0 -4.5980300892790353 -4.1000615983000444 0 0 0 0 542.31184727477375 3.8892712586234666 0 3.8892712586234666 -50.769762954625094 0 0 0 0 0.56262449282539251 -1.3170051765140585 0 -1.3170051765140585 3.5786472839824324 0 0 0 0 223.93032187597419 -7.6805352357879428 0 -7.6805352357879428 -46.096978284876968 0 0 0 0 62.035659742166899 -16.356736036541406 0 -16.356736036541406 -31.839435141238027 0 0 0 0 19.331892626873014 -5.9383750584728645 0 -5.9383750584728645 -7.099793742362067 0 0 0 0 3.8779172083315103 -4.9619232527032722 0 -4.9619232527032722 6.8848504783622069 0 0 0 0 0.42026571846508887 -30.984210437960456 0 -30.984210437960456 -20.685556477863699 0 0 0 0 74.696995760339632 -60.842638642657676 0 -60.842638642657676 45.354896795204695 0 0 0 0 185.86217676081287 -82.555324044591771 0 -82.555324044591771 44.818669096076974 0 0 0 0 86.348917270475795 59.904343249669523 0 59.904343249669523 7.436710635751524 0 0 0 0 1.5845003915532061 -1.1897812025034433 0 -1.1897812025034433 0.63098155525151656 0 0 0 0 -21.377233408144548 -68.396620949297358 0 -68.396620949297358 -46.273891035157249 0 0 0 0 1.4431212351569087 0.60410549803607694 0 0.60410549803607694 -2.2315420080372288 0 0 0 0 -19.695328726905473 -29.395547964881359 0 -29.395547964881359 -12.855555275927145 0 0 0 0 138.38421846956044 18.814493772938476 0 18.814493772938476 -30.334893668061682 0 0 0 0 29.314565648592179 -15.383053725356348 0 -15.383053725356348 -51.963519910402283 0 0 0 0 19.916817474490017 26.471632946480185 0 26.471632946480185 14.343534598560382 0 0 0 0 141.33249315339344 63.670577710731777 0 63.670577710731777 24.021052328180758 0 0 0 0 205.40402218967938 52.80622751143585 0 52.80622751143585 -49.085176832665866 0 0 0 0 223.10346428527919 77.453758009815772 0 77.453758009815772 -14.718752075013981 0 0 0 0 192.14823257297394 66.872607127371907 0 66.872607127371907 -17.348293560973275 0 0 0 0 66.681530496971391 30.112440061675954 0 30.112440061675954 28.269490760412737 0 0 0 0 201.96623859216925 7.6022611426547542 0 7.6022611426547542 41.5363372580224 0 0 0 0 72.140935552983137 -58.52194052202541 0 -58.52194052202541 141.99496643711592 0 0 0 0 175.05798993273493 -11.132095008214264 0 -11.132095008214264 34.17316573537164 0 0 0 0 343.31429835067684 35.831500488624044 0 35.831500488624044 -1.4307327258916303 0 0 0 0 244.83718519206741 -31.92491167160766 0 -31.92491167160766 76.144842310510967 0 0 0 0 11.743500556251092 -22.724908252709184 0 -22.724908252709184 87.753160518296852 0 0 0 0 64.535313138301717 -38.34386088330875 0 -38.34386088330875 89.169041154416036 0 0 0 0 78.710913368900947 -41.667025743152323 0 -41.667025743152323 -28.627516454377655 0 0 0 0 -8.9511220755011891 -22.232256200567804 0 -22.232256200567804 85.838663195847857 0 0 0 0 29.374993139601429 -67.922906168808311 0 -67.922906168808311 1.9015693571341217 0 0 0 0 47.749989336694853 -29.64506329011428 0 -29.64506329011428 80.850807525748792 0 0 0 0 121.84742869876209 -81.612891845227296 0 -81.612891845227296 38.037160841581226 0 0 0 0 50.447040989718516 -17.877945899782617 0 -17.877945899782617 -14.224106601009112 0 0 0 0 45.4760085195594 29.285675769988757 0 29.285675769988757 124.53827059101968 0 0 0 0 31.842483356034791 -24.669222904770322 0 -24.669222904770322 -50.660047745855991 0 0 0 0 54.339224513234512 -0.34549910682324025 0 -0.34549910682324025 41.83957053269296 0 0 0 0 -0.99660068692230652 0.63111399592681039 0 0.63111399592681039 0.36640915876948021 0 0 0 0 -87.498624074622057 -71.624774527364707 0 -71.624774527364707 -2.6843906999745286 0 0 0 0 -53.128697866981383 58.002111600602802 0 58.002111600602802 11.780523177204941 0 0 0 0 3.9689870396534852 -0.74737700387798611 0 -0.74737700387798611 -0.79994345814387735 0 0 0 0 46.88709044168354 7.5182263142683041 0 7.5182263142683041 -18.856635513930996 0 0 0 0 -6.5312562650769905 -20.698942473499329 0 -20.698942473499329 -7.6384997444683904 0 0 0 0 15.623076561110793 -4.5313236768110983 0 -4.5313236768110983 -1.8333848601118916 0 0 0 0 34.547956650494598 -21.554893399656066 0 -21.554893399656066 -42.721380510445442 0 0 0 0 -16.105728515549345 30.152905178281316 0 30.152905178281316 -37.711971274135067 0 0 0 0 76.425446379726054 -0.74159497583195844 0 -0.74159497583195844 -81.423005297278905 0 0 0 0 159.02114098019956 40.48734033218318 0 40.48734033218318 -61.57133768060703 0 0 0 0 61.555150211745058 74.364034764776079 0 74.364034764776079 -38.19520526066924 0 0 0 0 1.0786035910823557 -28.036704325776554 0 -28.036704325776554 -51.706135089162672 0 0 0 0 64.104732952946506 -56.977955885092115 0 -56.977955885092115 4.7257726421756843 0 0 0 0 67.354740887096341 -41.741704343237643 0 -41.741704343237643 16.772885628573931 0 0 0 0 2.2315454092719875 0.43393288809248531 0 0.43393288809248531 -0.76477192478299827 0 0 0 0 19.73892248183256 -14.677136747547706 0 -14.677136747547706 19.276600729645622 0 0 0 0 31.980618233596033 5.1023161513610376 0 5.1023161513610376 -6.8201596453855018 0 0 0 0 109.76471143459366 2.4846235004486417 0 2.4846235004486417 -86.866845150191011 0 0 0 0 65.146948669544145 -129.80409176951511 0 -129.80409176951511 81.200671907756714 0 0 0 0 1.6913976205787264 -1.4207730331924857 0 -1.4207730331924857 0.068669353015125001 0 0 0 0 2.0592072257459222 8.8900345437634201 0 8.8900345437634201 0.31387502440247772 0 0 0 0 15.07100959838499 4.5958691799530698 0 4.5958691799530698 1.3063876482974592 0 0 0 0 2.8516457760847231 2.7791654139203672 0 2.7791654139203672 2.5598558813985264 0 0 0 0 6.2203462211473379 -0.73959465907637423 0 -0.73959465907637423 7.6352491436401237 0 0 0 0 7.6733717533352319 -2.360818261692657 0 -2.360818261692657 22.905179471608903 0 0 0 0 -2.8739946585701546 -3.3031365775852919 0 -3.3031365775852919 5.3381349062033223 0 0 0 0 10.524699368514121 -2.9514014720296018 0 -2.9514014720296018 4.9597632484733367 0 0 0 0 21.325623152697517 -9.0829001284515698 0 -9.0829001284515698 -21.589317947584732 0 0 0 0 4.2096080042888957 -2.0358925444735547 0 -2.0358925444735547 0.053662771184455726 0 0 0 0 39.530012611903658 -7.7497364892844871 0 -7.7497364892844871 -93.098446394270752 0 0 0 0 5.1652600729862854 -1.968765766914415 0 -1.968765766914415 -0.086602756478434295 0 0 0 0 10.744508276686247 3.3218503999983113 0 3.3218503999983113 -12.026063436830555 0 0 0 0 23.104370466033288 -21.614241163777251 0 -21.614241163777251 -34.143219135126856 0 0 0 0 22.214863782755856 -31.802846217152933 0 -31.802846217152933 39.640757075450679 0 0 0 0 -23.29523177001829 -31.733290857064844 0 -31.733290857064844 39.642963891202953 0 0 0 0 -8.5182816853557597 -53.833922787521971 0 -53.833922787521971 115.7578209640979 0 0 0 0 24.221426296477148 -34.56450331333798 0 -34.56450331333798 118.51971977574588 0 0 0 0 -11.429086631873361 -68.170412927861904 0 -68.170412927861904 179.20587604774511 0 0 0 0 11.89715972837439 36.763802032511535 0 36.763802032511535 -9.0545973423528494 0 0 0 0 74.644972460984718 -7.762228721913857 0 -7.762228721913857 2.0079865394957039 0 0 0 0 71.213552623128635 -12.407348910968153 0 -12.407348910968153 15.072165441738832 0 0 0 0 -9.828248830337543 -42.053749470256093 0 -42.053749470256093 10.264753386908069 0 0 0 0 2.6254466696555028 10.86030940744314 0 10.86030940744314 71.377695201512665 0 0 0 0 58.064654227418941 -29.935550526333856 0 -29.935550526333856 88.583288623829418 0 0 0 0 19.047481690264249 5.3421388103331466 0 5.3421388103331466 175.34433341877883 0 0 0 0 3.369552727226619 -36.734051576680763 0 -36.734051576680763 143.8537267591783 0 0 0 0 122.91880749382835 31.524711202381695 0 31.524711202381695 143.383764477255 0 0 0 0 14.098584669241973 0.65579460460207883 0 0.65579460460207883 272.74968734707511 0 0 0 0 35.9070727690887 -106.35393077170338 0 -106.35393077170338 181.45271199500417 0 0 0 0 128.81768886222744 -3.4333168763176332 0 -3.4333168763176332 -22.677174260748416 0 0 0 0 11.078649240545928 -34.170012107244972 0 -34.170012107244972 137.16693012521654 0 0 0 0 45.715795993601205 -54.749107459416564 0 -54.749107459416564 33.655196746298202 0 0 0 0 -5.0249163829212193 -41.338565807599309 0 -41.338565807599309 189.20224549528149 0 0 0 0 -0.55394816643820377 -25.511390009573446 0 -25.511390009573446 169.69782551004732 0 0 0 0 60.282619795503706 -106.06031553006966 0 -106.06031553006966 214.52589276534206 0 0 0 0 6.8526576115982607 6.7476795406923884 0 6.7476795406923884 286.39542842715667 0 0 0 0 40.835417506838183 -12.279072194983442 0 -12.279072194983442 -5.542479852409441 0 0 0 0 136.89355804055231 -62.582790138032578 0 -62.582790138032578 -94.828315650983313 0 0 0 0 3.3199416963344675 -0.096695375987472687 0 -0.096695375987472687 -2.6531084412232575 0 0 0 0 -19.245653732898063 -88.37701355334957 0 -88.37701355334957 13.571244799992712 0 0 0 0 -6.6785133533902865 -7.7195598063048294 0 -7.7195598063048294 2.6344189709122601 0 0 0 0 38.968831171252248 -23.887167931676586 0 -23.887167931676586 11.72454968167154 0 0 0 0 -219.1900486681443 -95.772852328588328 0 -95.772852328588328 183.34744272494254 0 0 0 0 -26.881533420235428 -41.382045553462092 0 -41.382045553462092 198.42322284548482 0 0 0 0 10.321483404586616 -114.70511079528114 0 -114.70511079528114 -12.915111396141583 0 0 0 0 123.10822158414521 -243.63702016329967 0 -243.63702016329967 99.600496436655249 0 0 0 0 -55.749783494673466 -250.78757087625002 0 -250.78757087625002 173.71708715808586 0 0 0 0 45.714290886187882 -6.2734422149683553 0 -6.2734422149683553 -8.4142363273617846 0 0 0 0 197.85660139236279 72.367162152757032 0 72.367162152757032 -317.02225064453705 0 0 0 0 179.53128145229857 -122.46389178853019 0 -122.46389178853019 -128.89716975652618 0 0 0 0 -14.614535123517271 -103.86141312007612 0 -103.86141312007612 -43.923013813621992 0 0 0 0 258.74864997564873 -63.794087569218618 0 -63.794087569218618 -64.445026864631473 0 0 0 0 57.449878246537992 -114.58864079533873 0 -114.58864079533873 173.54760942597181 0 0 0 0 35.56001976524567 125.54302659977793 0 125.54302659977793 -31.674595140081124 0 0 0 0 49.022300082816287 -4.9132391168521821 0 -4.9132391168521821 -7.0867286601449155 0 0 0 0 39.630981962269288 30.009661989963433 0 30.009661989963433 19.545316599478099 0 0 0 0 98.231461769104499 121.27426506177426 0 121.27426506177426 -264.86209830911184 0 0 0 0 -15.446058448964322 53.222081279641543 0 53.222081279641543 -32.520672230855553 0 0 0 0 -3.3917279354136554 90.310656906911163 0 90.310656906911163 -82.640036854142409 0 0 0 0 -37.041779478129683 43.687301499441276 0 43.687301499441276 -10.443810419380952 0 0 0 0 42.516504006969626 -6.6694301368899715 0 -6.6694301368899715 -11.129980924705478 0 0 0 0 10.717940876945988 2.3073515792681007 0 2.3073515792681007 -12.158628684646935 0 0 0 0 13.13005142358918 -0.89144275052875344 0 -0.89144275052875344 -3.1300012402188218 0 0 0 0 293.93079520668107 -122.58710080332702 0 -122.58710080332702 7.2724073563085767 0 0 0 0 -32.346419602487003 -105.95053893071895 0 -105.95053893071895 -82.361253274930732 0 0 0 0 209.18057241817587 -138.99561252203875 0 -138.99561252203875 112.01272269861147 0 0 0 0 277.46143843463506 -178.58380777680827 0 -178.58380777680827 -106.06193787592883 0 0 0 0 49.075465639269765 -3.6706023956101674 0 -3.6706023956101674 -8.4056778127427201 0 0 0 0 108.59839587150782 15.540272997162901 0 15.540272997162901 -68.605740647380117 0 0 0 0 75.346095355984289 -11.942442409378941 0 -11.942442409378941 -32.420854284591087 0 0 0 0 130.63474190187117 128.97867128177381 0 128.97867128177381 207.32030550386162 0 0 0 0 108.44450390571728 -14.206180545391987 0 -14.206180545391987 205.93685708923542 0 0 0 0 564.31093834713738 -463.28828991359802 0 -463.28828991359802 -62.05245742198008 0 0 0 0 263.48805053828983 -2.5452491424157415 0 -2.5452491424157415 -155.32892729737569 0 0 0 0 442.71094147632539 301.05492720259178 0 301.05492720259178 210.73639023751076 0 0 0 0 97.390433740773005 1.7064780539729583 0 1.7064780539729583 647.40756998024517 0 0 0 0 241.60704676652676 -27.952401817433085 0 -27.952401817433085 78.176085078534527 0 0 0 0 549.38590526239568 -268.83455722237625 0 -268.83455722237625 257.2180451124168 0 0 0 0 27.059542731760303 -6.2242926091474295 0 -6.2242926091474295 284.32698568962263 0 0 0 0 213.88444083215381 -122.21128441751041 0 -122.21128441751041 169.68021014856171 0 0 0 0 7.4041171772041707 -5.9562103542086788 0 -5.9562103542086788 165.66188377243174 0 0 0 0 3.4904211808679975 -33.688867169678076 0 -33.688867169678076 168.36091565430428 0 0 0 0 12.349639510495763 -26.204667047944675 0 -26.204667047944675 124.97241612673702 0 0 0 0 16.785855008372891 37.937484203650996 0 37.937484203650996 148.15605703524795 0 0 0 0 35.116220318392152 -30.467747179133653 0 -30.467747179133653 135.96740034812956 0 0 0 0 -17.326136558076541 168.89537680361082 0 168.89537680361082 -230.16435284356885 0 0 0 0 42.769662096953951 -3.4136806328218192 0 -3.4136806328218192 -0.736309164905395 0 0 0 0 39.825864465513405 363.74598876843726 0 363.74598876843726 48.140428808020943 0 0 0 0 9.5102570646918778 35.300937382912394 0 35.300937382912394 -2.3347847749459829 0 0 0 0 14.001431891967371 -4.7756021467024681 0 -4.7756021467024681 2.5736804727370615 0 0 0 0 1300.5558538108526 -1107.6448330021481 0 -1107.6448330021481 -61.791423686175676 0 0 0 0 -63.425471743939852 -347.05533763788856 0 -347.05533763788856 524.35704910335551 0 0 0 0 1684.1526063437923 -204.22059269147562 0 -204.22059269147562 244.29137059415694 0 0 0 0 1322.0494679135809 -606.53262962972065 0 -606.53262962972065 441.85127634487748 0 0 0 0 736.27422445731645 89.242732959436012 0 89.242732959436012 101.63138867403552 0 0 0 0 340.00420681905962 -270.02797367290668 0 -270.02797367290668 121.51685047572369 0 0 0 0 -417.90415848112025 53.002580590286982 0 53.002580590286982 328.41969656989727 0 0 0 0 2.8722850688721957 36.026292092682738 0 36.026292092682738 5.9789029249710248 0 0 0 0 462.06387006627483 96.611553672010473 0 96.611553672010473 -110.52322623246562 0 0 0 0 423.54908338544192 -275.3671327657064 0 -275.3671327657064 -7.9184930284231996 0 0 0 0 -72.489054956403834 -7.7672524662901665 0 -7.7672524662901665 16.30769608743617 0 0 0 0 12.816951657117523 33.687820899794275 0 33.687820899794275 9.2805277753520414 0 0 0 0 -8.3656207537316334 2.4253605061852959 0 2.4253605061852959 3.9094910610497831 0 0 0 0 13.107739949042298 -8.4299906252222172 0 -8.4299906252222172 19.51059162150159 0 0 0 0 2386.2517202543258 -719.93516876088006 0 -719.93516876088006 123.20409910590479 0 0 0 0 2589.8605049010002 48.111747267910346 0 48.111747267910346 -555.12646885702259 0 0 0 0 799.07129792069463 270.62314495842497 0 270.62314495842497 -181.7492654103072 0 0 0 0 1851.0621297321049 32.20152693525705 0 32.20152693525705 -290.86581341296289 0 0 0 0 781.42330901364039 -372.26549686680994 0 -372.26549686680994 274.94169692839432 0 0 0 0 2100.9369884677872 -571.43852894740894 0 -571.43852894740894 -76.469959071524045 0 0 0 0 2689.7161790818209 -70.615768128349998 0 -70.615768128349998 -240.65240834563951 0 0 0 0 2258.2255936742258 289.46601076965413 0 289.46601076965413 178.49739167008522 0 0 0 0 3874.5788241295959 619.97393001045418 0 619.97393001045418 74.921833538943091 0 0 0 0 2283.4167991208815 -291.06577065412341 0 -291.06577065412341 -360.23555355446808 0 0 0 0 2214.1361265222258 19.08761966294216 0 19.08761966294216 -65.85414636030464 0 0 0 0 1755.9162794402582 -81.505455641471485 0 -81.505455641471485 215.34525592889031 0 0 0 0 2385.358717950774 -698.90797236331105 0 -698.90797236331105 43.231965393723385 0 0 0 0 656.46312727810437 507.75355847199546 0 507.75355847199546 95.080179227159533 0 0 0 0 1466.198830926849 127.5572376609216 0 127.5572376609216 70.942509420082501 0 0 0 0 1149.0222781166667 523.30347876956591 0 523.30347876956591 -30.637168625674803 0 0 0 0 677.31759434437845 142.64962653525981 0 142.64962653525981 -319.93507256632165 0 0 0 0 976.73906153668941 159.37799631716916 0 159.37799631716916 157.33590050065277 0 0 0 0 1240.0725960328637 336.64424464622482 0 336.64424464622482 -9.0586042924542198 0 0 0 0 1567.1648165132792 48.794173147979336 0 48.794173147979336 27.706259871039606 0 0 0 0 1552.5914044396704 39.519372855684992 0 39.519372855684992 91.652710549790072 0 0 0 0 2031.5061950066593 -138.27306309968969 0 -138.27306309968969 35.044985166420133 0 0 0 0 1656.5304695315863 81.770273718447584 0 81.770273718447584 110.74076527006014 0 0 0 0 1718.9532467716781 118.70028885687157 0 118.70028885687157 -34.415729326718974 0 0 0 0 1606.5336723790169 365.89572512693206 0 365.89572512693206 13.252860240218979 0 0 0 0 870.16086016967893 514.46145735302616 0 514.46145735302616 421.50078450072397 0 0 0 0 -139.59520961111411 -255.78331828622822 0 -255.78331828622822 -116.53472496667064 0 0 0 0 16.051633222266226 -12.99638614624434 0 -12.99638614624434 5.7873348163263429 0 0 0 0 1830.8474480450077 307.64837736079772 0 307.64837736079772 94.507409461762109 0 0 0 0 1958.5587585331778 119.30224469464582 0 119.30224469464582 82.004774969810683 0 0 0 0 1875.5997674408791 45.574486890202365 0 45.574486890202365 95.274810211402439 0 0 0 0 402.51626099798887 -660.19645007462975 0 -660.19645007462975 562.08231035420772 0 0 0 0 5.9384089535984259 -4.2570516656478787 0 -4.2570516656478787 2.9763903677435342 0 0 0 0 4617.2398152273818 613.89618293087267 0 613.89618293087267 -316.1946483461553 0 0 0 0 -492.00783802671867 -340.1779861680908 0 -340.1779861680908 451.89514634174594 0 0 0 0 2505.0984408037766 -188.10580583696529 0 -188.10580583696529 -106.02705628266392 0 0 0 0 2449.1601516075971 -136.34672078359392 0 -136.34672078359392 212.26527276957961 0 0 0 0 3157.9220965880522 -892.74440725813179 0 -892.74440725813179 -330.53122570845926 0 0 0 0 3659.1782787504926 414.84694575005506 0 414.84694575005506 922.3977640399977 0 0 0 0 4128.8929765980356 -308.32358577936935 0 -308.32358577936935 -28.133897143123704 0 0 0 0 2642.287663917843 -723.37393921109697 0 -723.37393921109697 729.93286948869195 0 0 0 0 2209.2018375681509 312.21523155107332 0 312.21523155107332 1866.7026907631684 0 0 0 0 3049.3928308244213 1486.8621271063862 0 1486.8621271063862 877.43687964911612 0 0 0 0 889.11631038389169 -707.53503285228612 0 -707.53503285228612 957.81009425482637 0 0 0 0 2016.9132121605689 -381.48711276252288 0 -381.48711276252288 509.86414849991252 0 0 0 0 637.78796039766894 -198.35283897858164 0 -198.35283897858164 286.29444438915687 0 0 0 0 256.74926664809755 -107.95337962686671 0 -107.95337962686671 675.32867228411533 0 0 0 0 266.23340346897021 -87.897802626311659 0 -87.897802626311659 161.6998765056162 0 0 0 0 60.66657871989446 -105.49966020138481 0 -105.49966020138481 224.36146164238676 0 0 0 0 386.17266103258953 295.60096374819898 0 295.60096374819898 171.06237383144708 0 0 0 0 -34.976175437383063 -2.2219186557264834 0 -2.2219186557264834 207.45103680688999 0 0 0 0 0.25968161326542827 -0.55233034728760089 0 -0.55233034728760089 1.6394886456647877 0 0 0 0 208.02092328203435 -81.000116261538778 0 -81.000116261538778 206.15037451661806 0 0 0 0 303.42539794760432 153.52646465350051 0 153.52646465350051 348.80327566381499 0 0 0 0 25.243020672278362 -256.1836451216418 0 -256.1836451216418 -196.11393969102787 0 0 0 0 197.34451495095345 86.117495478583692 0 86.117495478583692 -185.13191705629356 0 0 0 0 226.4367844749213 -108.31208256658829 0 -108.31208256658829 -216.00766595353252 0 0 0 0 139.30781363117057 40.016682656447188 0 40.016682656447188 15.159754441941914 0 0 0 0 67.218942296232854 -35.397291768226523 0 -35.397291768226523 -137.71149885338673 0 0 0 0 -53.780279598977359 -79.228621679655589 0 -79.228621679655589 -150.70170662667033 0 0 0 0 34.817584924781556 -9.1912637365329566 0 -9.1912637365329566 3.68857580578472 0 0 0 0 -2.4074548242032421 -3.1058760180042384 0 -3.1058760180042384 2.3090004664922388 0 0 0 0 -146.83114015289266 -109.48911867846266 0 -109.48911867846266 -113.24006818641328 0 0 0 0 14.066408201799911 0.92348392680253255 0 0.92348392680253255 -1.0819008677743085 0 0 0 0 72.607935696069035 17.378139679336982 0 17.378139679336982 -285.67716795771776 0 0 0 0 -5.0248906021734001 -142.84492270902274 0 -142.84492270902274 -175.5331764399582 0 0 0 0 -96.118674823956098 135.26575572559568 0 135.26575572559568 19.984481784408672 0 0 0 0 202.58046378127619 32.491447863102167 0 32.491447863102167 -262.6071249634615 0 0 0 0 306.79936767257459 98.033542924671565 0 98.033542924671565 -0.90672821434066009 0 0 0 0 270.15477642540645 311.48487882236071 0 311.48487882236071 131.14043602603488 0 0 0 0 62.662618411690346 -1.428772734492668 0 -1.428772734492668 109.32506389397417 0 0 0 0 67.419360220665112 -14.657713587050807 0 -14.657713587050807 -21.372000184272792 0 0 0 0 68.897300040436676 -8.4564254861849122 0 -8.4564254861849122 1.0570343882441335 0 0 0 0 56.816604428029677 4.1839293735849878 0 4.1839293735849878 -292.71408441604399 0 0 0 0 3.4788197880661755 78.648436160149117 0 78.648436160149117 104.86818613070045 0 0 0 0 5.6629247139339185 -2.0240577454047113 0 -2.0240577454047113 2.7805532580056074 0 0 0 0 215.55159567928058 342.44474385614831 0 342.44474385614831 208.49701840293164 0 0 0 0 3.3875360237753398 -1.7010267246388864 0 -1.7010267246388864 1.9585323945918995 0 0 0 0 -56.31554536477779 -132.04025979881862 0 -132.04025979881862 108.13147455927583 0 0 0 0 173.1393150628719 111.58258485632541 0 111.58258485632541 274.8949569095098 0 0 0 0 239.77612084566499 138.19816373988124 0 138.19816373988124 -72.534674804867791 0 0 0 0 147.33879070625699 19.468426172197724 0 19.468426172197724 61.199719877088228 0 0 0 0 315.84837462253927 184.65041402122779 0 184.65041402122779 147.83344273466719 0 0 0 0 144.29146235898952 28.190800762003846 0 28.190800762003846 59.931837580895717 0 0 0 0 53.094991219641088 -73.214047138880119 0 -73.214047138880119 -37.843388757046341 0 0 0 0 224.84347710231668 58.274328196820534 0 58.274328196820534 -109.39767201290215 0 0 0 0 17.717115043778904 22.058880863103695 0 22.058880863103695 12.40759245008303 0 0 0 0 9.277396381531446 -1.3999927003425512 0 -1.3999927003425512 1.3297616865413566 0 0 0 0 54.768818333322997 13.82823026165579 0 13.82823026165579 -8.765641826654246 0 0 0 0 118.7102162143201 139.3385336908371 0 139.3385336908371 70.070311586879598 0 0 0 0 21.468235190608539 13.583760305598844 0 13.583760305598844 30.36413966557302 0 0 0 0 2.7196363610782015 -1.6384138838820732 0 -1.6384138838820732 2.722502345084429 0 0 0 0 4.7058953072607324 -1.4735575904425531 0 -1.4735575904425531 -0.76776026613215187 0 0 0 0 16.558942465431755 -19.100472375770551 0 -19.100472375770551 -33.442584720045488 0 0 0 0 51.299535957688931 53.061829847731588 0 53.061829847731588 -10.820116808544753 0 0 0 0 -22.912616140398313 8.8545849105248635 0 8.8545849105248635 54.958642338864593 0 0 0 0 -1.5153036198755814 2.420177988726536 0 2.420177988726536 0.28473748036463142 0 0 0 0 0.64361466030914016 -0.24720826129696061 0 -0.24720826129696061 -0.18631479969741305 0 0 0 0 55.245835390378488 23.00395585160868 0 23.00395585160868 -52.214645185994755 0 0 0 0 0.028183391904306632 0.65323712813052737 0 0.65323712813052737 0.82667352344183165 0 0 0 0 -27.447391581139527 -18.286784081816108 0 -18.286784081816108 59.041993003943617 0 0 0 0 14.262516012466222 -20.174625229012491 0 -20.174625229012491 58.565159575199971 0 0 0 0 -23.403959957511688 -42.848945285549149 0 -42.848945285549149 131.72227758414886 0 0 0 0 28.192785854684189 56.119275001445203 0 56.119275001445203 44.581829765520183 0 0 0 0 2.7762395435929648 -24.841627753660219 0 -24.841627753660219 136.67791283004678 0 0 0 0 11.58318507194781 -75.283364558985568 0 -75.283364558985568 195.65476337656196 0 0 0 0 4.9269735747657251 1.9872766940857787 0 1.9872766940857787 163.99749965198288 0 0 0 0 6.7197742164426018 -52.714097044889627 0 -52.714097044889627 130.71367291570428 0 0 0 0 -12.79521595917322 -48.722785801141981 0 -48.722785801141981 179.34776195058043 0 0 0 0 -5.0231572356602499 -1.4495171631938177 0 -1.4495171631938177 -0.57290962146848101 0 0 0 0 -4.978650709694584 -65.933400536426504 0 -65.933400536426504 191.0383500831598 0 0 0 0 13.304234794923104 -32.453761359850546 0 -32.453761359850546 92.896988225651057 0 0 0 0 34.751183362139273 19.390447622903793 0 19.390447622903793 143.62573540865242 0 0 0 0 -40.310489347684779 -2.0099995479464496 0 -2.0099995479464496 76.352384504302449 0 0 0 0 14.103971217733488 140.80531074812222 0 140.80531074812222 237.13076539897429 0 0 0 0 4.0301302805928572 171.61040772633027 0 171.61040772633027 143.03862017916208 0 0 0 0 -220.37012146534107 430.57577727298263 0 430.57577727298263 518.33064859241324 0 0 0 0 30.069145755818596 -17.887519204327489 0 -17.887519204327489 11.280015125508617 0 0 0 0 90.034904738797195 -192.71282858940418 0 -192.71282858940418 119.53347893539353 0 0 0 0 84.810964490181505 -138.4458524643585 0 -138.4458524643585 -119.80121940214576 0 0 0 0 568.75335163762065 348.73484210102879 0 348.73484210102879 -2.5126874664858576 0 0 0 0 1816.0624563440433 435.5448652579297 0 435.5448652579297 -19.956406881671455 0 0 0 0 -152.73672515257203 -262.49229391964411 0 -262.49229391964411 1761.0004014769008 0 0 0 0 1523.0695217601024 -393.36778851934048 0 -393.36778851934048 273.06581726719287 0 0 0 0 12.833446127147852 -7.4554153861245425 0 -7.4554153861245425 5.3118271589980459 0 0 0 0 2638.2935244353357 -906.87897377739978 0 -906.87897377739978 -251.58920833387708 0 0 0 0 1263.0283786329637 -412.7585012470139 0 -412.7585012470139 -179.76812410900084 0 0 0 0 1039.8635676655394 -632.56855785353275 0 -632.56855785353275 -265.27208217080454 0 0 0 0 937.36586522509015 -395.21852288476509 0 -395.21852288476509 -122.23747377581026 0 0 0 0 922.38736712217724 -503.2083609380436 0 -503.2083609380436 47.183350156091592 0 0 0 0 55.254640342871426 -24.375203008291578 0 -24.375203008291578 193.29467629346209 0 0 0 0 -0.73570212005719782 -1.4025071791211374 0 -1.4025071791211374 -0.38607438686487128 0 0 0 0 414.73625528186676 -181.31116717042937 0 -181.31116717042937 98.676452665725037 0 0 0 0 374.36789499726001 -242.18655711454096 0 -242.18655711454096 157.24998051873007 0 0 0 0 741.08388873999866 -590.01826908511703 0 -590.01826908511703 353.47193576150562 0 0 0 0 1126.4129153639878 -397.04956485786613 0 -397.04956485786613 289.15830566914184 0 0 0 0 1186.2192027937053 -473.50351208591928 0 -473.50351208591928 0.85898542146378531 0 0 0 0 2147.7493804092228 -236.64484837149996 0 -236.64484837149996 272.37091558805196 0 0 0 0 335.32403302587045 -168.1149443125214 0 -168.1149443125214 129.10859815839186 0 0 0 0 1886.0330395474193 122.67314180109179 0 122.67314180109179 183.3702075904821 0 0 0 0 826.08532432690117 -644.02623429702544 0 -644.02623429702544 -131.64888942675645 0 0 0 0 891.39531156548037 -555.99834238361791 0 -555.99834238361791 -113.96829274466842 0 0 0 0 833.17514192561066 -619.86738507021403 0 -619.86738507021403 -60.422983453471033 0 0 0 0 881.6102451333536 -587.94837084008498 0 -587.94837084008498 -208.08312720530637 0 0 0 0 61.238022089486549 -1443.2132327045356 0 -1443.2132327045356 1130.5688864674912 0 0 0 0 -548.19591139399563 306.90360304327191 0 306.90360304327191 -33.512248721959395 0 0 0 0 97.065281460556434 -95.554814331546822 0 -95.554814331546822 211.72414414805684 0 0 0 0 -3.473858288178576 3.5689350073464752 0 3.5689350073464752 -5.7115207123191603 0 0 0 0 -69.306860030259486 357.44562052535139 0 357.44562052535139 61.986423485632713 0 0 0 0 834.94988454606028 693.39476636274094 0 693.39476636274094 272.74133791971553 0 0 0 0 593.87504870760313 7.009774870833283 0 7.009774870833283 -372.55041173347394 0 0 0 0 802.0254249767695 867.53208881387911 0 867.53208881387911 431.10929338513427 0 0 0 0 -207.04166275313037 -567.18701538306846 0 -567.18701538306846 -92.204907551226825 0 0 0 0 -159.55504518040107 348.1970017791316 0 348.1970017791316 106.79823166199321 0 0 0 0 455.68428739391675 227.58687976563346 0 227.58687976563346 419.64976754050849 0 0 0 0 452.22680259725894 337.60722758719021 0 337.60722758719021 61.615953590699064 0 0 0 0 93.236992116522742 70.733479571763382 0 70.733479571763382 112.1470250953189 0 0 0 0 410.91783494625633 65.348367636205211 0 65.348367636205211 36.397875712023051 0 0 0 0 472.08300163497915 622.85895138666774 0 622.85895138666774 402.61560051351773 0 0 0 0 362.91201982914936 43.511237072663704 0 43.511237072663704 256.20446419662426 0 0 0 0 210.42629362278967 537.59779970912234 0 537.59779970912234 1033.209062477571 0 0 0 0 1037.7379590064957 976.2413219631726 0 976.2413219631726 628.29727509039776 0 0 0 0 678.35970836153865 1009.0232138199235 0 1009.0232138199235 2041.4682043166586 0 0 0 0 0.83494433471828344 2.5383308072733968 0 2.5383308072733968 1.7473307482465223 0 0 0 0 2578.7913740953154 1095.0578922401799 0 1095.0578922401799 169.37356735289677 0 0 0 0 -1033.31184401254 748.02029487444543 0 748.02029487444543 321.83130690627627 0 0 0 0 514.72574463825731 899.32805532269185 0 899.32805532269185 1208.9733642602605 0 0 0 0 -40.955588712706231 161.30894251731252 0 161.30894251731252 -240.43727890957922 0 0 0 0 1026.3586191096911 436.49792293916641 0 436.49792293916641 141.84479003993306 0 0 0 0 1041.7301855002588 613.5484766330203 0 613.5484766330203 213.38092820380734 0 0 0 0 800.48225306872337 562.56253186943331 0 562.56253186943331 514.1165893290447 0 0 0 0 1351.5315425208501 773.53523822413058 0 773.53523822413058 295.83969788673221 0 0 0 0 852.72055437749441 407.01088634194468 0 407.01088634194468 210.97391626999615 0 0 0 0 706.4214642417719 439.87414384204044 0 439.87414384204044 322.81583782528219 0 0 0 0 7.4754719939945478 7.9483694437585655 0 7.9483694437585655 2.9003864093428131 0 0 0 0 -251.32524612316047 87.7239752401278 0 87.7239752401278 25.442577984392642 0 0 0 0 -18.446418429317418 9.3574556911917171 0 9.3574556911917171 -16.774660447168571 0 0 0 0 241.47848183626775 -124.8564085234807 0 -124.8564085234807 -96.937162881901344 0 0 0 0 -0.96847122855197654 1.6468781884578334 0 1.6468781884578334 -3.2457121120825541 0 0 0 0 329.09273305920942 418.58900934998542 0 418.58900934998542 -24.287984782180629 0 0 0 0 1167.7890823032831 404.4754978027554 0 404.4754978027554 34.447932217503421 0 0 0 0 32.569423124878085 39.153239477471516 0 39.153239477471516 530.82165246367902 0 0 0 0 1129.9316671308843 182.68806786818553 0 182.68806786818553 -263.097526556753 0 0 0 0 379.39418622819358 -375.76408831247198 0 -375.76408831247198 276.32240243250078 0 0 0 0 -109.33119877317222 -271.31763482057499 0 -271.31763482057499 49.932240363760883 0 0 0 0 197.66497375031031 -98.263357352656598 0 -98.263357352656598 -146.26794802256379 0 0 0 0 5.4499310310091715 9.936341574818087 0 9.936341574818087 -15.367111077002102 0 0 0 0 -662.19891423337685 124.65212059683677 0 124.65212059683677 292.7297328302875 0 0 0 0 46.016942404194197 19.31142992638091 0 19.31142992638091 -43.374267419110538 0 0 0 0 -338.6235100247286 -186.36195542064823 0 -186.36195542064823 49.516700057252706 0 0 0 0 59.513584171885583 -5.9233464121123305 0 -5.9233464121123305 -6.2435510292052259 0 0 0 0 -413.73667860034402 -88.657323186706563 0 -88.657323186706563 5.908140291372888 0 0 0 0 -145.35122040081478 -93.875166353054396 0 -93.875166353054396 -122.64409903269012 0 0 0 0 15.407150081945758 5.9596157559568184 0 5.9596157559568184 -32.064446223120434 0 0 0 0 48.112130276989774 -94.693318106977955 0 -94.693318106977955 -123.46654929554335 0 0 0 0 -148.10197817260632 -93.209551345633372 0 -93.209551345633372 -112.19710192699176 0 0 0 0 26.513859973791114 11.403448011977844 0 11.403448011977844 -18.736212193700339 0 0 0 0 47.923471493043735 8.3783467907862246 0 8.3783467907862246 -27.475167057584592 0 0 0 0 26.085479021265797 17.99203050851721 0 17.99203050851721 -29.599044212079654 0 0 0 0 -193.70632486055547 -20.144328554519348 0 -20.144328554519348 -214.68232664859897 0 0 0 0 -8.197212400209537 -246.0254476346106 0 -246.0254476346106 -383.09642635062846 0 0 0 0 -172.43474863588926 -38.564339940106493 0 -38.564339940106493 -216.79327156258842 0 0 0 0 -2.9554498049411961 17.602193273380429 0 17.602193273380429 -18.000084768733707 0 0 0 0 370.32966884852794 -33.664487142650501 0 -33.664487142650501 -539.16089256427404 0 0 0 0 131.89653154689586 313.23454910270084 0 313.23454910270084 110.51887127559394 0 0 0 0 -82.537365406657045 -84.198397806879029 0 -84.198397806879029 139.41483865874602 0 0 0 0 215.23534723454213 95.794537808896393 0 95.794537808896393 -153.98675846642158 0 0 0 0 498.6173510929948 -91.217720150177726 0 -91.217720150177726 -254.30481567219141 0 0 0 0 110.53541760654844 230.49735953938463 0 230.49735953938463 -238.89658425565617 0 0 0 0 -29.132636629106855 367.03117355660095 0 367.03117355660095 237.00192906350276 0 0 0 0 46.706661422010569 -3.5201382303574196 0 -3.5201382303574196 0.16785888678610772 0 0 0 0 93.413151181746798 6.8309058770958018 0 6.8309058770958018 -445.16746762073149 0 0 0 0 180.7482606569065 455.68183469619311 0 455.68183469619311 1036.4721982367273 0 0 0 0 130.75335664443264 228.73879315510206 0 228.73879315510206 161.19568960114088 0 0 0 0 286.21297749836958 706.94307783408726 0 706.94307783408726 -137.82621647323964 0 0 0 0 -401.15875209367186 232.10240790163115 0 232.10240790163115 -465.22385216107102 0 0 0 0 11.148558694087797 3.2181640984013526 0 3.2181640984013526 -0.3937852323576827 0 0 0 0 -89.548898585169809 1086.9086589384115 0 1086.9086589384115 -898.74839544842018 0 0 0 0 1518.6523036602675 -1082.752411242164 0 -1082.752411242164 530.36348932057444 0 0 0 0 570.83754568494624 -336.44307570374883 0 -336.44307570374883 312.13695220285001 0 0 0 0 163.19078143426304 771.54135612407447 0 771.54135612407447 -1288.2577943844929 0 0 0 0 29.738078329995659 7.5341469509643133 0 7.5341469509643133 -3.3857473955392274 0 0 0 0 -108.76853975852282 202.02825026624106 0 202.02825026624106 -544.71100792664186 0 0 0 0 350.33988058040268 -97.277664084701541 0 -97.277664084701541 -631.24878956347652 0 0 0 0 591.77812709804857 -298.55728388422756 0 -298.55728388422756 -563.83966589996953 0 0 0 0 476.23653768271834 -222.91486290103813 0 -222.91486290103813 -243.33814927204588 0 0 0 0 151.04170913416783 190.9755359117936 0 190.9755359117936 -63.195234633819041 0 0 0 0 765.19268791880313 110.72788486649213 0 110.72788486649213 -724.07679963390729 0 0 0 0 940.48871757719098 364.08036217588693 0 364.08036217588693 423.47200121752473 0 0 0 0 1049.5815371866047 433.55527351192336 0 433.55527351192336 2.0776683650239534 0 0 0 0 18.959256879239973 -2.3660677355071442 0 -2.3660677355071442 1.3447406375363629 0 0 0 0 3182.122914393316 -814.24798332628302 0 -814.24798332628302 265.41027606261559 0 0 0 0 969.41636820819986 993.50249892142483 0 993.50249892142483 1360.8077643270069 0 0 0 0 2583.8914179781132 501.87677294383047 0 501.87677294383047 347.32271841850434 0 0 0 0 2565.1465018447047 -1392.7018869677941 0 -1392.7018869677941 1097.6266669360537 0 0 0 0 508.47795035367744 -429.22470136798188 0 -429.22470136798188 690.56248696581861 0 0 0 0 1687.8632056501556 -623.7051731310288 0 -623.7051731310288 84.53737620819129 0 0 0 0 628.66921890952653 -95.206187101032413 0 -95.206187101032413 -168.1349343412312 0 0 0 0 803.07917720815021 -631.37839923795968 0 -631.37839923795968 11.67839704892549 0 0 0 0 137.90569985496404 -339.83741086996986 0 -339.83741086996986 411.8954984439448 0 0 0 0 551.14669278758811 -545.68094998638492 0 -545.68094998638492 513.23437394209634 0 0 0 0 -79.435423913961131 -230.46542013075594 0 -230.46542013075594 1103.2495892105626 0 0 0 0 -220.64580007217592 -51.537217858615861 0 -51.537217858615861 259.63785887526285 0 0 0 0 -179.07412697983455 30.668627733963035 0 30.668627733963035 419.82278608759043 0 0 0 0 -30.725244453831692 -500.97531435325141 0 -500.97531435325141 125.80939284572503 0 0 0 0 -119.6384053356087 -246.63465022680023 0 -246.63465022680023 100.65383113128144 0 0 0 0 103.5377999597722 -513.33865244068318 0 -513.33865244068318 418.00364761548462 0 0 0 0 -286.57256816360314 -242.18504330438657 0 -242.18504330438657 -127.00490026768603 0 0 0 0 -56.731928287510527 -441.86989455620818 0 -441.86989455620818 -167.97888637884353 0 0 0 0 99.424107416685729 -320.35254662212623 0 -320.35254662212623 -291.81220533423084 0 0 0 0 282.59484580279968 -331.94232355171061 0 -331.94232355171061 -155.6639433635238 0 0 0 0 344.59810706519784 -383.01244180381752 0 -383.01244180381752 -247.64761013343139 0 0 0 0 374.34270289368578 -422.86327612113894 0 -422.86327612113894 -231.45236539232525 0 0 0 0 327.44666802910069 -325.06639288041538 0 -325.06639288041538 -431.57280174555876 0 0 0 0 165.40596059775271 -391.96658795021676 0 -391.96658795021676 -246.73701745799841 0 0 0 0 158.11742194683029 -228.98449690752113 0 -228.98449690752113 -370.18648209020807 0 0 0 0 235.45198738035106 -264.80283091973661 0 -264.80283091973661 -403.04343851495406 0 0 0 0 -15.833468315860955 -244.61744300648184 0 -244.61744300648184 -254.01078314496408 0 0 0 0 13.096927040329319 -307.33088613749749 0 -307.33088613749749 -292.6204669606467 0 0 0 0 -27.572527494347014 -163.36330237580148 0 -163.36330237580148 -233.43772679739482 0 0 0 0 -20.621508114938479 -142.9459552823941 0 -142.9459552823941 -206.08705544284294 0 0 0 0 78.840286879974883 -158.21298308122891 0 -158.21298308122891 -344.15725914473796 0 0 0 0 148.36458531003882 -90.774732523322598 0 -90.774732523322598 -330.1052601401625 0 0 0 0 51.171332530777363 -18.071259194538825 0 -18.071259194538825 -352.46621422810676 0 0 0 0 39.85789393633604 7.2885519091672748 0 7.2885519091672748 -5.1909479337372977 0 0 0 0 -23.820038857447798 133.25731809960166 0 133.25731809960166 -10.891331070659575 0 0 0 0 49.819269261427507 -14.278588825589424 0 -14.278588825589424 -138.91129807420157 0 0 0 0 23.214062706722814 -4.3938884980751283 0 -4.3938884980751283 -4.4360159368108896 0 0 0 0 26.612236215980374 -18.543173781273936 0 -18.543173781273936 -15.41345276059883 0 0 0 0 35.813013825209055 10.228662871827257 0 10.228662871827257 -7.2779264778659112 0 0 0 0 -34.356349679874256 52.551732985881245 0 52.551732985881245 21.474316298868871 0 0 0 0 20.525936741188019 -1.4226723432463189 0 -1.4226723432463189 -4.9436345220413607 0 0 0 0 3.8694959575130099 0.17211415203325942 0 0.17211415203325942 -1.3539466779777565 0 0 0 0 8.7963162291125627 -10.937847374255343 0 -10.937847374255343 -10.579715954935523 0 0 0 0 15.472880470450036 -11.62365916318821 0 -11.62365916318821 -10.561669446652473 0 0 0 0 -5.110652552866668 -12.351879108472966 0 -12.351879108472966 0.0093616964788868686 0 0 0 0 69.803414669760969 28.977962220512708 0 28.977962220512708 -7.154847099308995 0 0 0 0 -0.043274175547139748 -0.014364108486546456 0 -0.014364108486546456 0.30388376980111809 0 0 0 0 5.6417524994427311 2.036551366274665 0 2.036551366274665 -1.6751608892153331 0 0 0 0 -72.643585359779536 -46.187721915024426 0 -46.187721915024426 29.797289566842757 0 0 0 0 29.521754149958724 -10.681325595877491 0 -10.681325595877491 -21.120057215309501 0 0 0 0 -6.1187906722334446 78.856595192371117 0 78.856595192371117 96.327294665264688 0 0 0 0 -10.891706014775991 -27.692791499128997 0 -27.692791499128997 0.04060633777293015 0 0 0 0 468.66462436031725 -26.962835877974307 0 -26.962835877974307 -55.252119631255823 0 0 0 0 0.12795568123976864 -0.54374073906157605 0 -0.54374073906157605 0.41722923739085721 0 0 0 0 464.70473017642325 -31.151171687393767 0 -31.151171687393767 149.42275738575771 0 0 0 0 783.87400641769636 78.553487108712247 0 78.553487108712247 -87.088723670855444 0 0 0 0 533.50598164709663 -113.54374552671256 0 -113.54374552671256 52.230038355039767 0 0 0 0 26.237620566433179 -51.229383329277539 0 -51.229383329277539 130.19589734254339 0 0 0 0 119.89768100264337 -28.983618464231768 0 -28.983618464231768 -450.74271120329956 0 0 0 0 234.18744708351187 198.91424200817306 0 198.91424200817306 -901.48079513750986 0 0 0 0 387.56021564386901 108.1403422141388 0 108.1403422141388 -112.68111833136015 0 0 0 0 37.573125506075939 9.0415755615416558 0 9.0415755615416558 -4.6897754079327507 0 0 0 0 415.78457063213864 -118.24973248325495 0 -118.24973248325495 -0.30743368914023733 0 0 0 0 58.786580370688171 128.72119706305335 0 128.72119706305335 -93.967931691501832 0 0 0 0 581.43660337185429 -353.88224653460776 0 -353.88224653460776 109.42705909572101 0 0 0 0 389.58314406619184 -355.59645922970327 0 -355.59645922970327 123.76776868609431 0 0 0 0 658.48814485350977 -355.21034176360087 0 -355.21034176360087 18.24423841565681 0 0 0 0 13.561453955973036 5.1043496876929879 0 5.1043496876929879 -1.3425344708280125 0 0 0 0 637.82770569945569 -251.61876481797913 0 -251.61876481797913 146.25992165206043 0 0 0 0 1235.3401468809316 -781.78570550442907 0 -781.78570550442907 282.91289474015053 0 0 0 0 -189.17562384809571 139.45420553044903 0 139.45420553044903 -68.632823446092459 0 0 0 0 5.4519574972464397 1.3191533139415839 0 1.3191533139415839 -0.85504194484628038 0 0 0 0 417.73014979957316 -128.15273464852149 0 -128.15273464852149 -24.3802302394907 0 0 0 0 24.556179587147199 128.69087806985388 0 128.69087806985388 -213.68887088672216 0 0 0 0 -2.7649580448196502 150.20469990942968 0 150.20469990942968 -3.3753077979417299 0 0 0 0 -41.343433739690227 276.97599035346838 0 276.97599035346838 -149.05603456599044 0 0 0 0 511.09053626407695 -527.76177304786665 0 -527.76177304786665 47.307610171781789 0 0 0 0 14.39575103558019 9.1957936268587304 0 9.1957936268587304 -1.8646445734827304 0 0 0 0 3.1763992656653528 1.00843959963494 0 1.00843959963494 -4.9953932662801463 0 0 0 0 24.651315189345041 8.9956407582130851 0 8.9956407582130851 -197.74505393920901 0 0 0 0 180.07655086540763 52.412522647247897 0 52.412522647247897 60.691868733034028 0 0 0 0 197.02427188857746 -63.204636181587844 0 -63.204636181587844 306.20903647680655 0 0 0 0 327.66635131482326 -63.411184428838624 0 -63.411184428838624 3.457243974348728 0 0 0 0 112.80939834156743 -166.95924383588789 0 -166.95924383588789 94.223575803605854 0 0 0 0 -19.481676972471178 3.3333524874269642 0 3.3333524874269642 -33.881771408827532 0 0 0 0 28.566289524220338 -5.5182382961766905 0 -5.5182382961766905 -15.865475944072841 0 0 0 0 -7.3783217108721146 -14.488476547254209 0 -14.488476547254209 -1.6879749614012383 0 0 0 0 33.179504728876054 -0.31755266071745325 0 -0.31755266071745325 -9.731365662501247 0 0 0 0 -203.69101821099321 -61.903648024369232 0 -61.903648024369232 119.42625076188597 0 0 0 0 -11.286526627402054 18.671093861790268 0 18.671093861790268 -79.805389579762277 0 0 0 0 -0.31562741482375145 0.76344069984465079 0 0.76344069984465079 -2.4753975384279063 0 0 0 0 -159.77497042377945 8.7977281841654076 0 8.7977281841654076 69.289882889809405 0 0 0 0 24.867762155869968 -6.6517389802807116 0 -6.6517389802807116 -5.2801814809137113 0 0 0 0 -1.7198173647520463 2.5605099862898584 0 2.5605099862898584 -6.1224014985164423 0 0 0 0 -46.316749185985827 32.278996642688526 0 32.278996642688526 -19.577629188872379 0 0 0 0 -33.252924324186097 87.372145163212281 0 87.372145163212281 119.05009037720379 0 0 0 0 112.74783665221912 99.445266325101443 0 99.445266325101443 -17.086730035218238 0 0 0 0 4.9178372664646304 -61.038113463686159 0 -61.038113463686159 69.985182788446309 0 0 0 0 129.98546106732829 -56.334851881865688 0 -56.334851881865688 54.424157297246381 0 0 0 0 691.18492341566889 -342.54168217346364 0 -342.54168217346364 89.630335665547676 0 0 0 0 189.45461499298835 -10.332881765919751 0 -10.332881765919751 80.16687079703911 0 0 0 0 982.17840989608158 -179.24978445742332 0 -179.24978445742332 -54.898063796997235 0 0 0 0 664.73674082658545 -165.06616232315977 0 -165.06616232315977 -43.658334385205222 0 0 0 0 680.68852288067865 -51.91267268704653 0 -51.91267268704653 61.657526956274559 0 0 0 0 -237.26203511257336 11.828912342747486 0 11.828912342747486 115.99840647818496 0 0 0 0 -540.66533896479814 -359.62152308639219 0 -359.62152308639219 186.55582977756404 0 0 0 0 -1053.1612540702772 -149.76005018227283 0 -149.76005018227283 161.0494240801151 0 0 0 0 0.73218909658824316 -1.9556752458991298 0 -1.9556752458991298 3.1837779203840837 0 0 0 0 3.044075481807468 -6.5565436784884668 0 -6.5565436784884668 4.0566555532937016 0 0 0 0 -278.52727798833803 -393.80655912334646 0 -393.80655912334646 109.9008797054753 0 0 0 0 -406.71641843878024 -516.75918708503093 0 -516.75918708503093 -51.829859694353672 0 0 0 0 -284.91904770588735 -277.46489232728129 0 -277.46489232728129 -169.9494978362122 0 0 0 0 -195.34555509379425 -343.47630801871253 0 -343.47630801871253 -187.0829249993435 0 0 0 0 -218.53764189196227 -407.11924704816397 0 -407.11924704816397 -169.9079775311028 0 0 0 0 -858.99894668838533 -317.33541583882493 0 -317.33541583882493 -32.723971685220249 0 0 0 0 259.55644656042568 -16.77829992349254 0 -16.77829992349254 36.133404890432985 0 0 0 0 -19.17135654919548 55.191822600575165 0 55.191822600575165 18.205626980392083 0 0 0 0 -107.57042897120118 114.1837478044265 0 114.1837478044265 15.97451135767642 0 0 0 0 37.840468475871603 147.95423195633259 0 147.95423195633259 -114.21617082707189 0 0 0 0 155.8571870666201 42.998017322576061 0 42.998017322576061 -68.638721353821211 0 0 0 0 -337.04259932386049 -260.67351521136902 0 -260.67351521136902 -139.72700881608625 0 0 0 0 -369.18643971189886 -386.57261380584805 0 -386.57261380584805 -131.1041052171181 0 0 0 0 116.4697524565272 -40.381037899995817 0 -40.381037899995817 10.117855020846036 0 0 0 0 7.4434597866132322 -7.4473365108092224 0 -7.4473365108092224 0.52008903506136761 0 0 0 0 -182.96371130891202 -353.50788278370419 0 -353.50788278370419 -189.86728329754624 0 0 0 0 -104.75634739128873 -162.79434494587144 0 -162.79434494587144 123.18878389682243 0 0 0 0 128.01644999267592 -223.87593672567897 0 -223.87593672567897 139.11368873053823 0 0 0 0 3.5503902905404061 -2.8421394491085437 0 -2.8421394491085437 2.8976729574784232 0 0 0 0 764.04588689941374 352.28998953895689 0 352.28998953895689 157.09001814488835 0 0 0 0 886.6576033145775 33.621064499636596 0 33.621064499636596 -38.576460831850426 0 0 0 0 549.8048044150637 -289.22152395373388 0 -289.22152395373388 124.8126419689154 0 0 0 0 452.4739090666535 -68.250152101924471 0 -68.250152101924471 -53.961700043861853 0 0 0 0 395.83241689195711 -41.211174027731886 0 -41.211174027731886 -53.015697964717276 0 0 0 0 503.71704671765292 72.374465457071707 0 72.374465457071707 -44.363575970943231 0 0 0 0 278.02438367005379 147.66787992836748 0 147.66787992836748 72.139993400126258 0 0 0 0 380.29107932162879 16.993470726378817 0 16.993470726378817 -63.280956337321896 0 0 0 0 322.13163068541326 35.655750926607766 0 35.655750926607766 -51.736863143568954 0 0 0 0 322.43435315250827 37.798586943110649 0 37.798586943110649 -39.761671389477144 0 0 0 0 311.24428609933238 16.219883592265024 0 16.219883592265024 -43.775018899851702 0 0 0 0 308.67388915324409 5.3852099552539272 0 5.3852099552539272 -56.30594832546835 0 0 0 0 374.41843871854962 -58.161174632565157 0 -58.161174632565157 -64.231014123372816 0 0 0 0 -40.514537301409291 9.1219510481769248 0 9.1219510481769248 98.723092870772689 0 0 0 0 11.956741754857859 -7.671575759927606 0 -7.671575759927606 -0.73977353573544136 0 0 0 0 -212.42454144077783 -192.60354583736444 0 -192.60354583736444 -218.91286218555456 0 0 0 0 -2.385651706472288 -1.5443837179173698 0 -1.5443837179173698 1.6677073929873849 0 0 0 0 71.549188444740139 -185.92087853906014 0 -185.92087853906014 -76.94906853856871 0 0 0 0 8.7840945196479367 -7.8051233744759827 0 -7.8051233744759827 6.0433784630004475 0 0 0 0 271.27753414862036 74.218907647680467 0 74.218907647680467 26.294875645551613 0 0 0 0 221.21721191573306 93.013243096683098 0 93.013243096683098 21.028340896589569 0 0 0 0 78.793526181631023 46.71427647583976 0 46.71427647583976 30.282911050811716 0 0 0 0 245.90653955456219 41.993958448440139 0 41.993958448440139 -37.414609145347889 0 0 0 0 224.49037865098217 2.7011167539660974 0 2.7011167539660974 -18.675330469002461 0 0 0 0 2.0225282782329543 0.40638609137126025 0 0.40638609137126025 0.82645193308938225 0 0 0 0 12.724568358716652 -9.9055898786685788 0 -9.9055898786685788 7.0359853529326788 0 0 0 0 37.227092317851202 8.3016655531197898 0 8.3016655531197898 -6.8735614940492269 0 0 0 0 49.838247243395017 13.77494976887624 0 13.77494976887624 -102.64610344069933 0 0 0 0 65.318785526687861 -30.265145813192213 0 -30.265145813192213 23.211325401040373 0 0 0 0 27.15663984814455 -44.590932004095293 0 -44.590932004095293 43.369904282199968 0 0 0 0 38.821925990429008 18.209772141967782 0 18.209772141967782 0.71551146569550461 0 0 0 0 3.440056059969578 -1.8528953351597863 0 -1.8528953351597863 1.4949019745482732 0 0 0 0 14.265946102503221 -1.7643764202958927 0 -1.7643764202958927 -17.885152561784256 0 0 0 0 120.81274867296452 -79.720872195749678 0 -79.720872195749678 15.942121643882945 0 0 0 0 228.3925338698391 9.3193448635828737 0 9.3193448635828737 -18.384178051843278 0 0 0 0 260.27521878734842 -13.380005718751516 0 -13.380005718751516 -27.342259849628192 0 0 0 0 269.57721702860727 -8.6968843504490234 0 -8.6968843504490234 38.58014586381551 0 0 0 0 334.68012913192797 -0.3079552011716965 0 -0.3079552011716965 -35.611140642398176 0 0 0 0 103.30602203297167 -14.041129538967011 0 -14.041129538967011 -0.020153076498594394 0 0 0 0 310.66958951441848 3.2748588558474978 0 3.2748588558474978 -22.116746794944916 0 0 0 0 26.429878514667507 32.691431564183929 0 32.691431564183929 -39.097579464882187 0 0 0 0 270.95843808121572 -96.628779631120707 0 -96.628779631120707 14.131551377761904 0 0 0 0 0.46688249838138063 0.18197999927697595 0 0.18197999927697595 0.30038707512738777 0 0 0 0 -9.2458773489488522 -9.4874154208853234 0 -9.4874154208853234 -6.5947723215037115 0 0 0 0 26.387020335212583 12.490229389663408 0 12.490229389663408 5.0280492896206965 0 0 0 0 317.11678112396294 -34.94268408307142 0 -34.94268408307142 -41.053384116644111 0 0 0 0 299.80485009877157 -48.453074701106296 0 -48.453074701106296 -51.596319175517287 0 0 0 0 303.85732269467553 -4.2807108638780917 0 -4.2807108638780917 -45.624031273113452 0 0 0 0 277.30174622993218 16.543078638613498 0 16.543078638613498 -38.748515239903405 0 0 0 0 291.69413643641019 -2.501021398923136 0 -2.501021398923136 -14.484873348034505 0 0 0 0 275.80082458469406 -28.956665588736826 0 -28.956665588736826 -0.013634967237300285 0 0 0 0 269.73508895220584 -18.692596054540505 0 -18.692596054540505 -15.69411418464122 0 0 0 0 256.35784807967866 -53.585674524902686 0 -53.585674524902686 -30.923205972456437 0 0 0 0 250.98980733790086 -46.21741251491359 0 -46.21741251491359 -0.05743178964022963 0 0 0 0 178.72502593875834 -96.992958552932777 0 -96.992958552932777 -10.588779128151259 0 0 0 0 182.67618496560135 -82.726598239007231 0 -82.726598239007231 -12.099167759834046 0 0 0 0 300.66798595849832 -85.691438196302556 0 -85.691438196302556 -43.070876440766838 0 0 0 0 209.263192703409 -98.006696888930563 0 -98.006696888930563 -27.202022206521249 0 0 0 0 196.94880711883343 -141.01955128962285 0 -141.01955128962285 -34.931389925624529 0 0 0 0 138.63994834499317 -67.308022200059639 0 -67.308022200059639 -18.157400275857867 0 0 0 0 384.22700010469271 -145.34716228240012 0 -145.34716228240012 -39.871705284883731 0 0 0 0 207.66225074242539 -154.59095996753788 0 -154.59095996753788 37.04767586669702 0 0 0 0 -29.102641776888049 -30.102407342297823 0 -30.102407342297823 -20.338574812710348 0 0 0 0 -0.13278827917034874 0.17429203178474495 0 0.17429203178474495 -0.49512210322043237 0 0 0 0 2.7817023388561211 -134.10558838554073 0 -134.10558838554073 29.674574528311076 0 0 0 0 73.006601664981417 -46.530820905707593 0 -46.530820905707593 -3.9586068901722058 0 0 0 0 70.280710167586221 -101.70570594691026 0 -101.70570594691026 7.6217385744014905 0 0 0 0 67.773272385136806 -54.800768691662952 0 -54.800768691662952 -14.51491117553682 0 0 0 0 95.156233370675182 -71.072015577528433 0 -71.072015577528433 6.5762621146957372 0 0 0 0 113.69244146847632 -56.992890218610064 0 -56.992890218610064 0.026579596639446923 0 0 0 0 131.58166791193435 -4.5809556863249163 0 -4.5809556863249163 25.209928130874871 0 0 0 0 81.323655215463077 -53.628379950145941 0 -53.628379950145941 0.045636604207035948 0 0 0 0 174.84400641178217 -39.297181560958222 0 -39.297181560958222 0.031733664257982561 0 0 0 0 107.92670338566677 61.256094622659276 0 61.256094622659276 4.4599006098239045 0 0 0 0 47.501726498543576 -62.066249813333414 0 -62.066249813333414 2.020041826395655 0 0 0 0 318.7086181169725 -8.6056951869166625 0 -8.6056951869166625 14.231901335220797 0 0 0 0 388.37464965235995 -35.514459458500738 0 -35.514459458500738 -0.06139958323218575 0 0 0 0 311.5057852110258 38.148715520788706 0 38.148715520788706 -6.0468322750492547 0 0 0 0 292.11026150420366 -5.9621194444499963 0 -5.9621194444499963 -6.4275557573264024 0 0 0 0 372.64118366227194 45.82998845425324 0 45.82998845425324 -29.518154468635544 0 0 0 0 527.6967862708334 -60.881440775348558 0 -60.881440775348558 -9.7118047338477425 0 0 0 0 440.25502500291623 9.0646428549634237 0 9.0646428549634237 -19.400117711372744 0 0 0 0 398.53271832558676 -11.928969492479609 0 -11.928969492479609 16.060174900711417 0 0 0 0 511.99027167345048 6.5568937777672147 0 6.5568937777672147 -16.135685973325394 0 0 0 0 453.29245383169837 -77.30915149792007 0 -77.30915149792007 17.814986528647722 0 0 0 0 497.69621261532302 -109.56823252637776 0 -109.56823252637776 117.83135053333646 0 0 0 0 706.09141967969481 -181.7229640723333 0 -181.7229640723333 -13.766749017288021 0 0 0 0 702.18839853815734 -22.767181151623163 0 -22.767181151623163 92.678350502196736 0 0 0 0 501.35182249858917 -0.87168214376988828 0 -0.87168214376988828 89.167417629961164 0 0 0 0 0.024589001378359399 0.48585890300267387 0 0.48585890300267387 -0.066450294798836351 0 0 0 0 506.59257016264019 -96.388396683720941 0 -96.388396683720941 39.525512773887669 0 0 0 0 298.31681511263923 49.086262795418676 0 49.086262795418676 -114.75580186259265 0 0 0 0 432.24079882634396 3.166099464654792 0 3.166099464654792 -31.421052612271978 0 0 0 0 313.75912484629953 -32.567111850374204 0 -32.567111850374204 28.440193540706531 0 0 0 0 341.41837884032429 -96.124636850350385 0 -96.124636850350385 -121.47011200403509 0 0 0 0 340.65944946505624 -96.502629265866119 0 -96.502629265866119 -2.9639079784544151 0 0 0 0 560.76026509634539 30.760634474885194 0 30.760634474885194 -38.112867521945645 0 0 0 0 2.6479807129140056 1.4652123588132326 0 1.4652123588132326 -3.5045830518476944 0 0 0 0 639.2894469808416 -144.5486628287521 0 -144.5486628287521 -63.463235553144045 0 0 0 0 69.264089634037418 -16.913756219610747 0 -16.913756219610747 -78.990911772111247 0 0 0 0 89.866311359744941 -22.860229577990033 0 -22.860229577990033 62.376052837916632 0 0 0 0 0.16255906915564111 -0.58123839120234777 0 -0.58123839120234777 -2.2604682360894714 0 0 0 0 49.282630718094879 10.815025287373814 0 10.815025287373814 -37.637816330323545 0 0 0 0 28.760447381537233 -0.9078146574751802 0 -0.9078146574751802 0.79451762003071735 0 0 0 0 56.002292674071214 -16.426509162102917 0 -16.426509162102917 -12.909194402478576 0 0 0 0 109.68923195308162 8.7353443958453454 0 8.7353443958453454 -10.849049195534008 0 0 0 0 -0.83675320086917182 -1.1073219721915137 0 -1.1073219721915137 -7.5326362888636496 0 0 0 0 344.06851645594725 -93.882511977077002 0 -93.882511977077002 -55.866581399240886 0 0 0 0 0.44590304139046566 0.14286203507458595 0 0.14286203507458595 -1.4509658312104063 0 0 0 0 638.55351027855068 -198.10370091673644 0 -198.10370091673644 -17.004399501413346 0 0 0 0 428.05487174332302 55.409249450659786 0 55.409249450659786 -114.64341041529406 0 0 0 0 279.53597331195488 74.385019322910011 0 74.385019322910011 -114.16113127377639 0 0 0 0 577.62706715483955 -297.93264213301677 0 -297.93264213301677 -0.46841395124192786 0 0 0 0 519.08070121955097 211.61346538006865 0 211.61346538006865 -58.341120588460399 0 0 0 0 154.74991084184876 231.45304166524193 0 231.45304166524193 179.54456983478076 0 0 0 0 9.0540334076247575 1.0129068387662912 0 1.0129068387662912 0.81504674889865569 0 0 0 0 55.701741193116504 2.0086722533756358 0 2.0086722533756358 -23.92328173959686 0 0 0 0 55.90960232460202 -14.857844183698944 0 -14.857844183698944 21.011585408851147 0 0 0 0 47.658912160542968 -6.5937116431669551 0 -6.5937116431669551 -12.587036791388073 0 0 0 0 5.5438983872562098 -2.5443789003755484 0 -2.5443789003755484 -13.808201655537461 0 0 0 0 45.359010636660969 -7.7213986250714299 0 -7.7213986250714299 -11.149128179331285 0 0 0 0 270.31724553824097 78.334625792606346 0 78.334625792606346 -12.475783722520191 0 0 0 0 -12.600505401234841 3.1888701879533983 0 3.1888701879533983 12.367628188404524 0 0 0 0 11.843123635684606 -21.463900138424833 0 -21.463900138424833 28.917206128882526 0 0 0 0 0.15637828832126388 -1.3337711778451933 0 -1.3337711778451933 5.2988878363334644 0 0 0 0 20.223271313920122 23.650383134502817 0 23.650383134502817 34.780061217221373 0 0 0 0 -0.032517931392305854 -0.058059800840027265 0 -0.058059800840027265 1.1507586122423561 0 0 0 0 246.93031108066498 8.5831889441190015 0 8.5831889441190015 -32.479105589620417 0 0 0 0 0.17770116391317714 0.38605167313730249 0 0.38605167313730249 0.14281924284736025 0 0 0 0 74.509901404264383 138.71752898284421 0 138.71752898284421 107.1700500697475 0 0 0 0 83.380279637793137 -8.5562450406722519 0 -8.5562450406722519 58.876860731429133 0 0 0 0 -30.762701693674899 46.889284809511992 0 46.889284809511992 172.11601247304952 0 0 0 0 -1.5489419285433996 2.8532295649957646 0 2.8532295649957646 3.5667972184425096 0 0 0 0 -86.082520857627969 54.317176363450699 0 54.317176363450699 8.4826019389072371 0 0 0 0 -0.085970062876327802 3.0334484727473878 0 3.0334484727473878 2.6693984727461104 0 0 0 0 -173.49914317632647 -222.11525332082692 0 -222.11525332082692 382.95208602959997 0 0 0 0 -16.908827333201771 -30.482625133086458 0 -30.482625133086458 84.773083698335086 0 0 0 0 70.03480162514461 -89.506148520825263 0 -89.506148520825263 40.191886718028286 0 0 0 0 29.419085188281315 -40.02372589017989 0 -40.02372589017989 -20.057131242908781 0 0 0 0 -67.539579402080562 71.252782362061112 0 71.252782362061112 -68.095512260071246 0 0 0 0 104.7714674031231 -27.118094620936745 0 -27.118094620936745 -154.62145287855788 0 0 0 0 30.241971825744258 2.7876092405272175 0 2.7876092405272175 -22.946226499891964 0 0 0 0 30.150204784980815 -0.12960227195304874 0 -0.12960227195304874 -0.54036407391276953 0 0 0 0 0.56412698927445604 -1.1600663784035277 0 -1.1600663784035277 2.5750404127663149 0 0 0 0 68.514056727522984 -6.474158595509607 0 -6.474158595509607 -31.329651313296608 0 0 0 0 19.134315792180132 13.23784470638509 0 13.23784470638509 12.795046566603105 0 0 0 0 117.25385055824154 -0.28058400409122441 0 -0.28058400409122441 7.15599784638286 0 0 0 0 52.643431479380524 29.48909190848596 0 29.48909190848596 -12.001038366383909 0 0 0 0 14.815610355653916 -29.591558587948384 0 -29.591558587948384 -11.508596586123504 0 0 0 0 -6.8478522521108971 -7.2522886403752409 0 -7.2522886403752409 -33.845837904746759 0 0 0 0 0.32503488492734789 -0.46853699261836823 0 -0.46853699261836823 0.61622211164984986 0 0 0 0 61.304909894352022 -1.1858342730295135 0 -1.1858342730295135 -36.271754417618922 0 0 0 0 117.93416593233997 19.102739764180399 0 19.102739764180399 -26.039092391290524 0 0 0 0 117.00645393877494 -21.915779399800954 0 -21.915779399800954 -94.069746519034652 0 0 0 0 20.371302993153222 -17.855332536495098 0 -17.855332536495098 -92.773995391064886 0 0 0 0 -15.404546694961027 -12.255869032446981 0 -12.255869032446981 1.2011838876962884 0 0 0 0 14.204304088474942 -2.1495213184679702 0 -2.1495213184679702 -0.47983121455548694 0 0 0 0 4.7878468778944239 -2.1449326200941243 0 -2.1449326200941243 -0.14204070977131344 0 0 0 0 5.8922508132841358 -2.238058698027217 0 -2.238058698027217 0.84140783753425286 0 0 0 0 -23.427613609208493 3.8437317141077756 0 3.8437317141077756 -3.3004000404398539 0 0 0 0 8.0942286933313881 -48.205725239059916 0 -48.205725239059916 -53.346153139226089 0 0 0 0 -7.5640299678343581 -41.325408310393868 0 -41.325408310393868 -55.942820673251845 0 0 0 0 -7.2229481617396232 26.351669554841237 0 26.351669554841237 -24.028535699863738 0 0 0 0 -29.295562715611595 30.572273711244577 0 30.572273711244577 -13.662546358959048 0 0 0 0 5.422139013899141 28.434228857458493 0 28.434228857458493 -27.953199999876063 0 0 0 0 63.48603577936592 21.045664291017374 0 21.045664291017374 0.51648880328851021 0 0 0 0 12.847945738438284 29.267758046813015 0 29.267758046813015 -12.415941918167505 0 0 0 0 21.378461442942353 0.4220167630388687 0 0.4220167630388687 -1.4285486481512635 0 0 0 0 68.334051921017817 -18.654431719948548 0 -18.654431719948548 -3.8108213954769781 0 0 0 0 -17.36955453956034 15.589627738373679 0 15.589627738373679 -0.88355208507528005 0 0 0 0 13.148261065831321 38.835745814757047 0 38.835745814757047 -54.427603598655651 0 0 0 0 -1.4427270271262387 14.088403514547963 0 14.088403514547963 -28.199356850419122 0 0 0 0 12.35416888470985 -1.2757855282552626 0 -1.2757855282552626 -1.0367672627314704 0 0 0 0 11.527512984597706 -5.976096868338697 0 -5.976096868338697 -5.541007614155502 0 0 0 0 1.7284325084532597 -1.6739328052670572 0 -1.6739328052670572 0.55064564727653587 0 0 0 0 13.49229303978791 -10.544723576042294 0 -10.544723576042294 0.10648655228289172 0 0 0 0 40.025631626020186 -5.241343340963196 0 -5.241343340963196 -3.91267083617864 0 0 0 0 10.992594290533816 3.0820009472858509 0 3.0820009472858509 -5.5694763139599104 0 0 0 0 15.700830088404473 -9.0766594367468478 0 -9.0766594367468478 0.009353135209963323 0 0 0 0 12.744471015830641 -6.5833240064073797 0 -6.5833240064073797 0.11191611332730579 0 0 0 0 17.588663824186369 -14.376594810530108 0 -14.376594810530108 6.5997584963691098 0 0 0 0 30.130880423268536 1.1475551501187904 0 1.1475551501187904 7.2273953853812971 0 0 0 0 -3.3008679687918629 -7.7489366543416534 0 -7.7489366543416534 5.7250925964074 0 0 0 0 398.71999132195924 -36.507823122724879 0 -36.507823122724879 -8.6816286379913024 0 0 0 0 0.22037135786771955 -0.45378380865371071 0 -0.45378380865371071 0.12062159892101246 0 0 0 0 8.0077629327288378 -3.6921522770037276 0 -3.6921522770037276 -0.5038803878971847 0 0 0 0 18.997659183274664 -20.096811482169528 0 -20.096811482169528 -15.251543229384652 0 0 0 0 10.974103724119573 -0.87924897636371213 0 -0.87924897636371213 -0.28191965661830831 0 0 0 0 1.7275143041005663 -2.4943699666130215 0 -2.4943699666130215 -0.43241322163643803 0 0 0 0 28.680798368004616 8.4593608577375932 0 8.4593608577375932 -8.8393951201850562 0 0 0 0 33.879866645656875 7.8878192244463383 0 7.8878192244463383 -9.7310629991708026 0 0 0 0 2.3787871283968229 0.13392805197548796 0 0.13392805197548796 -0.764080748116713 0 0 0 0 7.9808263664162951 -4.3126018768558234 0 -4.3126018768558234 0.56643998942528118 0 0 0 0 32.323335117294846 -2.9044206516605318 0 -2.9044206516605318 -0.0054087355035644493 0 0 0 0 8.1717164682777366 -5.2112727974083928 0 -5.2112727974083928 1.1466432617809192 0 0 0 0 8.5370955324251554 -4.7823594964744327 0 -4.7823594964744327 -0.19879246872073342 0 0 0 0 -0.78970101927495762 -0.32503687584645036 0 -0.32503687584645036 -0.14374921446699135 0 0 0 0 4.0849071949196514 -1.4172951975715158 0 -1.4172951975715158 0.0080569346276032315 0 0 0 0 -142.66993491105677 -60.224159007753627 0 -60.224159007753627 8.1656092498125759 0 0 0 0 -3.5765873285417911 -12.155527599284895 0 -12.155527599284895 13.573443457562291 0 0 0 0 -24.657359847333282 -73.788662461905403 0 -73.788662461905403 -132.82990263476418 0 0 0 0 9.7207373200816392 -0.37601778495604599 0 -0.37601778495604599 -0.32386826035936023 0 0 0 0 73.918611695997242 -158.31405226140717 0 -158.31405226140717 -61.363369382437043 0 0 0 0 -71.741934224148281 -177.17831810333607 0 -177.17831810333607 0.21778057372246859 0 0 0 0 151.50640676465264 61.552170664172181 0 61.552170664172181 5.1575252511569261 0 0 0 0 725.96589347978443 -207.11996607796374 0 -207.11996607796374 0.047828329969886965 0 0 0 0 378.18931142775273 -34.013597631034536 0 -34.013597631034536 -26.061277264583396 0 0 0 0 1.295426363823367 -1.2548173906044298 0 -1.2548173906044298 1.8970103804364062 0 0 0 0 1113.6089459396608 -183.52381270370211 0 -183.52381270370211 -301.39706179112164 0 0 0 0 1103.2372974693717 -158.41954245744779 0 -158.41954245744779 185.9013419863777 0 0 0 0 1426.6597349506046 -179.08239451999992 0 -179.08239451999992 -230.02729141489124 0 0 0 0 767.00828070667194 220.47951859233405 0 220.47951859233405 -310.58555651638028 0 0 0 0 4.5138406439169785 -0.27202138116574837 0 -0.27202138116574837 -0.11810526289957801 0 0 0 0 624.6149467061914 -416.48471118867451 0 -416.48471118867451 276.20878994113053 0 0 0 0 492.3068612879124 -188.02742295906057 0 -188.02742295906057 -0.29260368258917424 0 0 0 0 830.71197628363734 -237.27836556618362 0 -237.27836556618362 -87.82328513912978 0 0 0 0 0.79951045626122408 -2.4266734254738367 0 -2.4266734254738367 4.3462921641534127 0 0 0 0 308.38350438358884 36.420876640086291 0 36.420876640086291 -34.326976782699717 0 0 0 0 447.43019281016313 134.00773982994249 0 134.00773982994249 34.159429454633937 0 0 0 0 561.52521994972631 -32.610691690383618 0 -32.610691690383618 82.299755247045255 0 0 0 0 122.28587742651143 39.419749477298581 0 39.419749477298581 29.505736449124356 0 0 0 0 -48.270842858115429 -92.90892289757295 0 -92.90892289757295 -71.764561493760539 0 0 0 0 2.7078722413036473 -2.8648526530359248 0 -2.8648526530359248 2.1425830051287478 0 0 0 0 69.617016816053365 -66.943762172514198 0 -66.943762172514198 19.754331938930051 0 0 0 0 -6.8337199564066395 39.155581473325739 0 39.155581473325739 43.145108696922762 0 0 0 0 -22.120454382049502 17.001453205750863 0 17.001453205750863 61.108791976034354 0 0 0 0 -23.386306039290503 5.1791628408490169 0 5.1791628408490169 39.025062763364303 0 0 0 0 -6.569454302363738 39.649732507593995 0 39.649732507593995 8.1504862618744482 0 0 0 0 -65.519435838556092 -97.931245199239186 0 -97.931245199239186 190.20712291405846 0 0 0 0 105.87935294231283 10.794727041547731 0 10.794727041547731 -68.878204807733596 0 0 0 0 83.463902385605252 55.562049825207879 0 55.562049825207879 37.558962523087345 0 0 0 0 188.89214476109919 57.092449098288128 0 57.092449098288128 33.742906701513533 0 0 0 0 0.397913293457691 0.031096937924573353 0 0.031096937924573353 -0.091111765388444857 0 0 0 0 141.91003603803983 15.706885895899392 0 15.706885895899392 0.14202138808036505 0 0 0 0 136.85607487483503 -46.219798990713855 0 -46.219798990713855 1.3803915740458308 0 0 0 0 216.13606972653361 -6.1683287904574371 0 -6.1683287904574371 13.156206588711452 0 0 0 0 208.36206692115229 -28.107168021911544 0 -28.107168021911544 14.472510202488866 0 0 0 0 266.51266672150814 3.4300599605747983 0 3.4300599605747983 0.0026941744464671477 0 0 0 0 255.06848184813862 -58.202884561510132 0 -58.202884561510132 -4.0069745737880282 0 0 0 0 206.9126207595109 -116.16028414753667 0 -116.16028414753667 -82.455151913829212 0 0 0 0 372.04441451242019 -7.0574334906608804 0 -7.0574334906608804 -30.482134190190017 0 0 0 0 462.12552364655585 -70.313804735803799 0 -70.313804735803799 -122.55255954404191 0 0 0 0 2.1046484280524567 -2.0141146158365366 0 -2.0141146158365366 0.36445967122339962 0 0 0 0 167.40406476338103 -162.73021086522439 0 -162.73021086522439 -144.12075032961886 0 0 0 0 122.01988536397039 -10.574029643335464 0 -10.574029643335464 -8.7179342411822986 0 0 0 0 61.996531396325736 -69.156664320633979 0 -69.156664320633979 -59.912264395127508 0 0 0 0 67.784794680639607 2.0799557543868445 0 2.0799557543868445 -171.98300106245489 0 0 0 0 -58.369765696450486 30.668901154897412 0 30.668901154897412 -84.94317161388804 0 0 0 0 -294.83547539183928 -186.11244005030048 0 -186.11244005030048 -57.721400931193472 0 0 0 0 53.807903294858988 38.642448882727209 0 38.642448882727209 -266.55790297974812 0 0 0 0 61.50619661447854 47.110018897640231 0 47.110018897640231 35.095687301225453 0 0 0 0 21.482246311250492 75.209365368983441 0 75.209365368983441 44.78268771265067 0 0 0 0 -37.781061289148056 42.950079113885636 0 42.950079113885636 44.146976958581575 0 0 0 0 72.321815336660819 42.68302791531849 0 42.68302791531849 -8.2103125535936687 0 0 0 0 31.906505351717897 134.94083103963973 0 134.94083103963973 68.264373007776157 0 0 0 0 60.883589436480179 37.801515161084581 0 37.801515161084581 -34.298056836005344 0 0 0 0 21.982308659138397 -5.0406720294931802 0 -5.0406720294931802 -6.3719247913866877 0 0 0 0 -261.97013457504363 -187.48974562455976 0 -187.48974562455976 -112.63156553342196 0 0 0 0 11.692410231269633 7.3215010430545959 0 7.3215010430545959 -0.11555242558978468 0 0 0 0 1.203116473989212 59.85664591901957 0 59.85664591901957 18.163956476765577 0 0 0 0 -15.599925612974403 49.678070057724753 0 49.678070057724753 54.673603737037354 0 0 0 0 -23.264924449875252 79.278735820157578 0 79.278735820157578 37.53303381373825 0 0 0 0 213.71702306089719 54.571104619002746 0 54.571104619002746 -31.884887457816035 0 0 0 0 42.397628476799582 20.947873241651166 0 20.947873241651166 45.538591732833638 0 0 0 0 185.4210494448198 164.57741847799858 0 164.57741847799858 169.82561950297367 0 0 0 0 433.67733038739607 18.132774838383 0 18.132774838383 -9.7098525028721596 0 0 0 0 178.84763086996099 14.791048101363517 0 14.791048101363517 -7.574898734234722 0 0 0 0 51.226993401636719 76.005135176359772 0 76.005135176359772 1.0504298806581716 0 0 0 0 188.31540232280531 23.962745590708543 0 23.962745590708543 -35.997643715774956 0 0 0 0 63.525646069183892 49.249492312856376 0 49.249492312856376 -8.0322355444231448 0 0 0 0 18.284704370671534 81.762455513457013 0 81.762455513457013 -6.3796704671669318 0 0 0 0 60.713562681966337 48.964581774229515 0 48.964581774229515 -7.9754792693984644 0 0 0 0 73.384254855853214 -46.922242502749668 0 -46.922242502749668 85.33723166661639 0 0 0 0 84.531358825275674 -11.519681579687358 0 -11.519681579687358 67.867278534977117 0 0 0 0 104.36664953138097 -45.935006370144492 0 -45.935006370144492 80.011841468683315 0 0 0 0 120.43900277969806 -62.428112692259674 0 -62.428112692259674 35.701325722532033 0 0 0 0 147.19902563186406 -25.604641795774114 0 -25.604641795774114 82.511916988728444 0 0 0 0 119.03979132450695 -63.166744987996481 0 -63.166744987996481 84.740273826904286 0 0 0 0 463.57040564748968 -129.91036645595852 0 -129.91036645595852 -30.680892482312174 0 0 0 0 268.71355065796524 -225.75892811941958 0 -225.75892811941958 73.872967391799094 0 0 0 0 64.046000876220205 -8.7806653557423147 0 -8.7806653557423147 -76.816881437110851 0 0 0 0 589.30921809476058 -62.683084158301483 0 -62.683084158301483 -33.432347831433617 0 0 0 0 -105.60586870684347 -133.78844161465838 0 -133.78844161465838 72.867611581541865 0 0 0 0 1.7115911298972435 -1.3341460645779364 0 -1.3341460645779364 0.79483206751296631 0 0 0 0 525.8090079779904 -176.07125526524868 0 -176.07125526524868 54.867336181687278 0 0 0 0 554.98511458417488 -161.89754036950666 0 -161.89754036950666 -30.943556240692089 0 0 0 0 233.27683109457575 -91.833214344752719 0 -91.833214344752719 100.24979041775806 0 0 0 0 0.24787826456799067 -3.8723244221740316 0 -3.8723244221740316 5.59382239089385 0 0 0 0 372.540927469905 -32.074199623474442 0 -32.074199623474442 90.330953261342756 0 0 0 0 300.47036770557315 -99.515162706676165 0 -99.515162706676165 28.290193929019097 0 0 0 0 385.22143292944384 -98.03295818324716 0 -98.03295818324716 -28.278210645218223 0 0 0 0 303.53491141500854 -22.03581101844533 0 -22.03581101844533 -26.62694065066205 0 0 0 0 0.025504510304603656 -4.2195229666301515 0 -4.2195229666301515 6.1333543762640348 0 0 0 0 171.60067151701514 15.389190309534861 0 15.389190309534861 23.407474095996861 0 0 0 0 285.40536748941668 8.4497081277783934 0 8.4497081277783934 -32.793805998941025 0 0 0 0 -0.5022578649670244 -3.8184570725204736 0 -3.8184570725204736 6.1151797113249762 0 0 0 0 111.57359396301672 -114.30305976793534 0 -114.30305976793534 79.219370745805008 0 0 0 0 212.11929275652801 -90.701421943078458 0 -90.701421943078458 -11.999294487851557 0 0 0 0 409.10854363242106 -123.46691256933832 0 -123.46691256933832 -30.953981515707937 0 0 0 0 353.95478461006496 -210.30632343043027 0 -210.30632343043027 58.956107564396461 0 0 0 0 303.16464067449124 -133.63179146687025 0 -133.63179146687025 -11.251835058171764 0 0 0 0 322.42088566427265 -153.3876873303002 0 -153.3876873303002 -33.375517319647315 0 0 0 0 73.933261446902179 -90.480075652300911 0 -90.480075652300911 40.867978569942807 0 0 0 0 301.33715716056759 -130.72238112294167 0 -130.72238112294167 5.4338594787423062 0 0 0 0 307.49150799162453 -120.95869232291398 0 -120.95869232291398 -7.5103047690924996 0 0 0 0 309.80837486007658 -123.43272083967395 0 -123.43272083967395 -21.827777597192608 0 0 0 0 595.37754236499677 -291.02102131443627 0 -291.02102131443627 113.99096547102999 0 0 0 0 531.70766355687829 192.40991596235347 0 192.40991596235347 -45.156309403843352 0 0 0 0 324.65518109404366 -80.247393242255612 0 -80.247393242255612 476.89215831432398 0 0 0 0 807.4036795431166 -62.732562712050424 0 -62.732562712050424 30.234886065469482 0 0 0 0 572.95190839857241 152.90099242524036 0 152.90099242524036 269.01960459422344 0 0 0 0 499.48577391113213 77.923939171596658 0 77.923939171596658 24.256003660476608 0 0 0 0 500.67931838397635 -111.72500442868659 0 -111.72500442868659 42.881284647620191 0 0 0 0 180.63225208550284 -32.562910074598449 0 -32.562910074598449 100.96046522518509 0 0 0 0 374.15654506516876 -29.806549252015884 0 -29.806549252015884 117.52733295004668 0 0 0 0 305.69958771942402 80.976999155810972 0 80.976999155810972 180.76720404596836 0 0 0 0 309.40425991162192 -155.95610772713326 0 -155.95610772713326 118.72921270635436 0 0 0 0 180.83617626161868 -104.50528536303875 0 -104.50528536303875 152.8414394744641 0 0 0 0 193.71331936019124 -89.808345113026007 0 -89.808345113026007 -1.808521210399249 0 0 0 0 187.26413184782723 -13.463540324576897 0 -13.463540324576897 3.0627561670218881 0 0 0 0 129.55016500241254 49.60490007955152 0 49.60490007955152 1.4851318707750636 0 0 0 0 208.78956157316861 -2.078852263747899 0 -2.078852263747899 -12.829763098543168 0 0 0 0 -47.435558797427802 18.90709990266555 0 18.90709990266555 112.20738777776148 0 0 0 0 2.3541205404889354 -3.1122610425605473 0 -3.1122610425605473 5.4951433051331664 0 0 0 0 -39.771309977768396 15.158617657264585 0 15.158617657264585 7.2945389488359069 0 0 0 0 168.91208228784672 23.185799406155184 0 23.185799406155184 -49.913195193474849 0 0 0 0 159.37378165098198 30.332890668008645 0 30.332890668008645 -20.853593923281096 0 0 0 0 117.44250870944234 75.085214149440787 0 75.085214149440787 13.176565144023471 0 0 0 0 32.034700805940943 -9.9811031078875203 0 -9.9811031078875203 -0.56473802109496751 0 0 0 0 -76.876305330486502 12.286381745168683 0 12.286381745168683 48.424919786832788 0 0 0 0 1.5986630849784547 1.6147441123805635 0 1.6147441123805635 0.17580488044798415 0 0 0 0 63.271538525688257 53.12500666697057 0 53.12500666697057 -7.5460932153625908 0 0 0 0 149.1611665974051 27.970474934179094 0 27.970474934179094 5.9147599666311166 0 0 0 0 188.99266729455121 57.777042066084221 0 57.777042066084221 -12.493882878096883 0 0 0 0 121.89845719329605 -9.0847237331501844 0 -9.0847237331501844 4.0912442187732836 0 0 0 0 63.272653664636891 12.830726861154631 0 12.830726861154631 -1.5215018188191607 0 0 0 0 52.131200017392985 41.660877976134842 0 41.660877976134842 46.050656655761259 0 0 0 0 11.92031831116471 14.274008351237725 0 14.274008351237725 4.5220246964433475 0 0 0 0 14.057737014721283 29.380777243963522 0 29.380777243963522 -1.9179017899240876 0 0 0 0 230.0944962274807 16.410039874493577 0 16.410039874493577 -13.773310554254977 0 0 0 0 236.89932192878041 28.017754633859795 0 28.017754633859795 -19.394874696781699 0 0 0 0 328.46809563951683 -19.415783010013115 0 -19.415783010013115 -36.639397277980891 0 0 0 0 276.37548003692064 -8.5061576725282748 0 -8.5061576725282748 -38.466245303634651 0 0 0 0 287.7967018136369 -62.089557002375919 0 -62.089557002375919 -36.303881857061668 0 0 0 0 343.28329336559545 -62.074070460036239 0 -62.074070460036239 -39.067219886408822 0 0 0 0 319.30727237623796 -46.388882451762356 0 -46.388882451762356 -34.91514923194859 0 0 0 0 399.55421086587012 -78.218996523452915 0 -78.218996523452915 -27.121650640526923 0 0 0 0 426.78323426155293 -50.218916165261675 0 -50.218916165261675 1.6631654443253865 0 0 0 0 333.63104600617953 2.0878908093142741 0 2.0878908093142741 8.4775278072362426 0 0 0 0 232.08325141252135 120.02670571743226 0 120.02670571743226 1.8290329169491315 0 0 0 0 384.50179233064591 30.103200277587277 0 30.103200277587277 -29.514287454927171 0 0 0 0 63.31797378218107 -45.344449113445648 0 -45.344449113445648 -154.67943200934326 0 0 0 0 121.38903134766952 -31.342263006606004 0 -31.342263006606004 19.394306438783588 0 0 0 0 59.539156902598734 68.522691832564419 0 68.522691832564419 -27.314671917477881 0 0 0 0 257.09707437147881 9.9944970781159554 0 9.9944970781159554 -179.06385555165434 0 0 0 0 222.59502803378382 -116.54539414544865 0 -116.54539414544865 61.251241609741328 0 0 0 0 24.868877876366241 -69.036500734249714 0 -69.036500734249714 81.251453641476473 0 0 0 0 271.17230994305646 -40.168156615889984 0 -40.168156615889984 -3.9015988507428574 0 0 0 0 64.790138752683902 50.168734639795282 0 50.168734639795282 -7.4257377288135951 0 0 0 0 200.10674032101815 50.698027194031795 0 50.698027194031795 -66.526102827241857 0 0 0 0 217.00845929644493 78.544132724468795 0 78.544132724468795 -22.572726572039528 0 0 0 0 226.64586163152853 46.163603818088859 0 46.163603818088859 -23.86239284370015 0 0 0 0 199.59901932621506 64.842987257236814 0 64.842987257236814 -36.700687056647553 0 0 0 0 0.032361151203652128 0.10813866140106398 0 0.10813866140106398 -2.439269493598422 0 0 0 0 -68.616411961005724 -92.200344513697956 0 -92.200344513697956 -82.89057528292733 0 0 0 0 -2.4361055372501141 -28.196507777622173 0 -28.196507777622173 -34.555077741146988 0 0 0 0 5.3583419625756505 -1.3058307037103987 0 -1.3058307037103987 -29.317064282719855 0 0 0 0 25.910947838767243 -47.97527511766134 0 -47.97527511766134 -120.33202870839841 0 0 0 0 1.2940442394883576 2.3405731560011418 0 2.3405731560011418 -22.612423221920835 0 0 0 0 7.189566513417958 -1.7787917552045656 0 -1.7787917552045656 -16.576559466224808 0 0 0 0 -7.3715536441814038 -1.7170681886859711 0 -1.7170681886859711 0.3068647853806894 0 0 0 0 1.7600085023744896 0.95623875660705693 0 0.95623875660705693 -1.5974791580570429 0 0 0 0 0.77980356997355216 4.2578506465858581 0 4.2578506465858581 -3.4323399227654603 0 0 0 0 -3.4575637621019268 23.381340644549709 0 23.381340644549709 -0.25369974447312416 0 0 0 0 2.2344464100751793 3.8520722264272536 0 3.8520722264272536 5.4501856575152487 0 0 0 0 -1.0416044209536892 1.20741506235521 0 1.20741506235521 2.9682003681232887 0 0 0 0 3.0432966583830421 3.4288076481754501 0 3.4288076481754501 -0.7357973481875888 0 0 0 0 2.528466278090491 1.1932244935624112 0 1.1932244935624112 -3.9751863530195806 0 0 0 0 2.6891952794515959 3.1500623765274938 0 3.1500623765274938 -4.3628830727834487 0 0 0 0 1.2162419215455884 5.8811930899425988 0 5.8811930899425988 1.8396735119204095 0 0 0 0 1.8098050993275479 0.79993816563120035 0 0.79993816563120035 -5.6924721618145107 0 0 0 0 5.3968100118581788 -0.085177733170326064 0 -0.085177733170326064 -22.656996042214359 0 0 0 0 0.80924328980481519 0.58277444482545349 0 0.58277444482545349 -7.0926928384127521 0 0 0 0 185.66969770366086 -58.514829398674976 0 -58.514829398674976 8.4574624203760322 0 0 0 0 3.4809779846800666 -3.1434523715129217 0 -3.1434523715129217 -21.605330090545976 0 0 0 0 267.21470511386906 60.059790849252465 0 60.059790849252465 -19.167439434489097 0 0 0 0 306.27530170463433 173.28037962018209 0 173.28037962018209 86.666125926684003 0 0 0 0 412.97675958366381 51.053787500048998 0 51.053787500048998 -19.109116187546533 0 0 0 0 0.79884814365328793 -0.82148505249193704 0 -0.82148505249193704 -1.7948970426772441 0 0 0 0 134.27763448436599 89.867155838364624 0 89.867155838364624 53.054883200728682 0 0 0 0 23.455439751851372 -1.0016380455623448 0 -1.0016380455623448 20.674882651675034 0 0 0 0 1.9947493986569107 1.7965099448110351 0 1.7965099448110351 -3.698999627889382 0 0 0 0 203.34358747987426 57.558693627213188 0 57.558693627213188 -18.443626834607699 0 0 0 0 0.47401645864098896 0.077075414543983811 0 0.077075414543983811 -0.99947519753537317 0 0 0 0 190.21323721116642 74.836912480193973 0 74.836912480193973 -18.234046294832751 0 0 0 0 301.35093628164759 49.995105763836818 0 49.995105763836818 -18.629426115025353 0 0 0 0 315.40441691564047 52.609758864711239 0 52.609758864711239 -34.37887490351676 0 0 0 0 300.89933756235405 111.75599985733743 0 111.75599985733743 -20.619907193497056 0 0 0 0 312.1704251543415 -8.6639564699452194 0 -8.6639564699452194 37.329853182878054 0 0 0 0 257.69595739117358 22.689459058866731 0 22.689459058866731 19.511688525471584 0 0 0 0 326.08383250911356 38.743463300314545 0 38.743463300314545 -49.159619840186679 0 0 0 0 225.39474507128034 72.659803116765602 0 72.659803116765602 48.687579670128684 0 0 0 0 217.45504620381689 51.246217944757575 0 51.246217944757575 -7.6231137086983836 0 0 0 0 189.85857423706148 83.067829556455251 0 83.067829556455251 -0.2727831815702757 0 0 0 0 187.62038589614167 42.813229265970051 0 42.813229265970051 4.565729818083355 0 0 0 0 236.47011852373907 65.827494648351006 0 65.827494648351006 -22.672709336823345 0 0 0 0 56.823469838436722 84.195623119134012 0 84.195623119134012 14.573848768573868 0 0 0 0 214.83390615720418 77.753807795066493 0 77.753807795066493 -16.848170987284647 0 0 0 0 228.37614518225018 53.981288309163105 0 53.981288309163105 -16.789942105421915 0 0 0 0 77.721196564114507 61.132951055851585 0 61.132951055851585 22.216320563063661 0 0 0 0 -6.2240987692906344 3.475210342395286 0 3.475210342395286 3.33987817042035 0 0 0 0 -190.37210208491888 126.28625925777237 0 126.28625925777237 -67.114174235433893 0 0 0 0 3.7484192410271753 -0.24910401526206982 0 -0.24910401526206982 -0.47287904959188443 0 0 0 0 -71.292246287826856 226.21682398292711 0 226.21682398292711 -77.512773626841749 0 0 0 0 356.66947514894127 236.14910348995122 0 236.14910348995122 -82.609236194934908 0 0 0 0 229.90300966034556 236.95305672280597 0 236.95305672280597 -30.036894985484651 0 0 0 0 269.12569211516711 104.4687672455695 0 104.4687672455695 -55.717227235898179 0 0 0 0 428.23869735952394 4.385012517465384 0 4.385012517465384 -11.471981917341509 0 0 0 0 350.91052478487836 68.150413184809537 0 68.150413184809537 -50.561080271560215 0 0 0 0 495.41910118883243 109.94650141701851 0 109.94650141701851 -89.681549825639195 0 0 0 0 378.52595243326505 72.53940483920627 0 72.53940483920627 69.391550136942186 0 0 0 0 417.046327756967 -19.634542233019644 0 -19.634542233019644 -12.916132154575621 0 0 0 0 287.1088252280897 6.5260633993479473 0 6.5260633993479473 -7.8189834391229738 0 0 0 0 362.43586174039683 -8.5743570766105179 0 -8.5743570766105179 -46.005228983923502 0 0 0 0 301.38688158207515 22.560920285164286 0 22.560920285164286 -57.695598228437603 0 0 0 0 306.11279918870423 24.21297299569963 0 24.21297299569963 -57.899064372317568 0 0 0 0 292.45922136071749 78.221115771232689 0 78.221115771232689 -65.01279741810437 0 0 0 0 372.34648784247838 72.519923298454927 0 72.519923298454927 -71.103967173767813 0 0 0 0 302.91003646848549 31.343400958683674 0 31.343400958683674 -51.136050112461305 0 0 0 0 320.7243312371138 33.013109168363684 0 33.013109168363684 -57.436735456523593 0 0 0 0 174.54317526801242 2.2460199676555046 0 2.2460199676555046 -13.334980531801733 0 0 0 0 132.07987106238579 51.791148982923417 0 51.791148982923417 16.859432525979372 0 0 0 0 280.53487500004121 34.514428779740967 0 34.514428779740967 -49.613599491931275 0 0 0 0 304.36588646081509 33.329814713581811 0 33.329814713581811 -50.639019976153804 0 0 0 0 258.11932356897159 53.303233496378937 0 53.303233496378937 -33.818948854701461 0 0 0 0 265.71967032861721 74.738577971003338 0 74.738577971003338 -18.990190839557968 0 0 0 0 200.94679193731281 52.222405367832778 0 52.222405367832778 -15.027959190919546 0 0 0 0 229.99437546160334 3.6819167344132993 0 3.6819167344132993 -35.228147321266945 0 0 0 0 235.75492638356809 20.623793194612212 0 20.623793194612212 -33.117817362685102 0 0 0 0 264.99218515221582 14.312181785254225 0 14.312181785254225 -38.775151960149714 0 0 0 0 278.70599115083314 -14.152852085587504 0 -14.152852085587504 -25.605554555108881 0 0 0 0 284.40197437064489 14.994437890149186 0 14.994437890149186 -32.050916596558054 0 0 0 0 310.02708959247684 19.939488016757764 0 19.939488016757764 30.220879212880391 0 0 0 0 147.99444722484623 -6.1204738333200339 0 -6.1204738333200339 23.145726871339292 0 0 0 0 220.54854224003793 12.148227906841953 0 12.148227906841953 -8.093477839760908 0 0 0 0 242.79860233320142 -34.195106227021185 0 -34.195106227021185 11.525516353535295 0 0 0 0 130.34654173944728 30.100478988206341 0 30.100478988206341 -5.292762181918711 0 0 0 0 -40.483075517840916 13.492758200970798 0 13.492758200970798 5.1940823515594161 0 0 0 0 -0.10304080218617173 0.50416102876365443 0 0.50416102876365443 0.0044528071008215209 0 0 0 0 20.814397442743939 -57.246408737153899 0 -57.246408737153899 -34.196215008840682 0 0 0 0 82.090932153660106 -23.296122530220913 0 -23.296122530220913 35.158420049882125 0 0 0 0 151.71434592374135 -45.06745501753386 0 -45.06745501753386 -13.578380592561416 0 0 0 0 -20.001475830889831 16.572014247229475 0 16.572014247229475 1.1639918903974831 0 0 0 0 0.070177730022443541 1.3008652220724812 0 1.3008652220724812 -0.30953167915609758 0 0 0 0 3.2238566352953058 1.4075034104761244 0 1.4075034104761244 2.6562773333582754 0 0 0 0 -10.459730190606933 2.4012551937377253 0 2.4012551937377253 9.0684448151880588 0 0 0 0 2.4333537500133389 0.295698386654351 0 0.295698386654351 2.8567587776651635 0 0 0 0 2.3753618473820097 7.1984386543724952 0 7.1984386543724952 3.4434797019083589 0 0 0 0 -0.52227908451823168 1.7801198279616131 0 1.7801198279616131 4.1689278572705462 0 0 0 0 175.93120626090968 -60.600165140392392 0 -60.600165140392392 33.313242742799872 0 0 0 0 249.69210494335857 -78.432524608447238 0 -78.432524608447238 9.0616705204829486 0 0 0 0 251.50494407251244 -69.625366809142065 0 -69.625366809142065 10.535678713938694 0 0 0 0 247.62464309667484 -55.362026480488531 0 -55.362026480488531 -13.767588783946621 0 0 0 0 278.12982807005756 -64.064288663766121 0 -64.064288663766121 -30.037292220497292 0 0 0 0 249.57265667313459 -42.330055007791017 0 -42.330055007791017 -10.382755641300719 0 0 0 0 198.62462099806908 -5.9733914148449809 0 -5.9733914148449809 -6.4246135708858105 0 0 0 0 200.06219552017865 -28.256863456285828 0 -28.256863456285828 -13.030993079716609 0 0 0 0 10.782518126564014 19.884069331760003 0 19.884069331760003 14.885945037164236 0 0 0 0 68.607255698159861 38.225232251814418 0 38.225232251814418 0.32167757064553371 0 0 0 0 13.758499764739913 22.845118265879478 0 22.845118265879478 -15.471617107069704 0 0 0 0 146.44095772262517 2.7356073419744433 0 2.7356073419744433 11.908783512612615 0 0 0 0 144.91458925307961 53.318955334986811 0 53.318955334986811 -10.554491763690578 0 0 0 0 97.126569687487063 29.213468103283844 0 29.213468103283844 -11.733416912876692 0 0 0 0 12.973444566657733 23.764396955684035 0 23.764396955684035 -11.807165287178268 0 0 0 0 -11.604775936166682 21.572081661155806 0 21.572081661155806 -8.1488478328633889 0 0 0 0 126.55272738946223 65.656195617804627 0 65.656195617804627 10.635751862867323 0 0 0 0 83.276036136590847 33.514485646625644 0 33.514485646625644 -22.44969271519517 0 0 0 0 11.089263109075546 90.500961658809956 0 90.500961658809956 -46.451950759897954 0 0 0 0 47.175816472146835 22.727645070399717 0 22.727645070399717 -9.8004916494969621 0 0 0 0 92.670126198609069 -13.328235227381356 0 -13.328235227381356 -43.023711077668651 0 0 0 0 0.82769067012344522 21.551415247395482 0 21.551415247395482 -15.699829818547048 0 0 0 0 45.87129370556795 21.261281825504625 0 21.261281825504625 -0.25814360090521404 0 0 0 0 53.151004430677858 25.937328712556337 0 25.937328712556337 -14.737305346724042 0 0 0 0 34.821898054957273 13.370026084080678 0 13.370026084080678 -12.386914532433991 0 0 0 0 39.060554815594514 29.287265855132546 0 29.287265855132546 -10.907031713057449 0 0 0 0 -4.9533364395201005 20.317352144532293 0 20.317352144532293 -5.9831309382434119 0 0 0 0 -10.842856207003933 -11.811903534534395 0 -11.811903534534395 -26.956416192468524 0 0 0 0 250.95210698096344 -92.763148388929494 0 -92.763148388929494 41.27533864228576 0 0 0 0 14.081743161672435 13.814497779289937 0 13.814497779289937 10.766154781344619 0 0 0 0 -33.980390888227703 122.64461701175651 0 122.64461701175651 -31.418694879375835 0 0 0 0 247.26069275700593 -64.760214252128549 0 -64.760214252128549 46.464444205269956 0 0 0 0 445.37995039721864 -128.31694621406587 0 -128.31694621406587 41.207728507174579 0 0 0 0 247.64155737705005 -86.503945166718722 0 -86.503945166718722 77.581498175511683 0 0 0 0 177.50090247855769 -50.749801407278028 0 -50.749801407278028 59.126233262492406 0 0 0 0 207.28772820346785 -6.7594304596630082 0 -6.7594304596630082 86.922687159034353 0 0 0 0 181.14618883588264 -44.434703036084443 0 -44.434703036084443 59.853743543438213 0 0 0 0 278.35038366644221 -71.169954469610957 0 -71.169954469610957 34.937536932980947 0 0 0 0 250.0743884586409 -51.836461548993839 0 -51.836461548993839 32.769587134097222 0 0 0 0 216.76630490442039 -73.777844664686086 0 -73.777844664686086 18.683192415491703 0 0 0 0 252.27862430654932 -64.630922810795028 0 -64.630922810795028 2.0499622027166424 0 0 0 0 173.44420024093415 -83.937056853711567 0 -83.937056853711567 18.804676104925306 0 0 0 0 217.25914718313652 -72.378390524354188 0 -72.378390524354188 21.822982892772416 0 0 0 0 219.45665813719097 -89.256413614254569 0 -89.256413614254569 -2.3661585024066052 0 0 0 0 221.78457249407074 -93.775357643183838 0 -93.775357643183838 -2.5278428698251219 0 0 0 0 277.78574615225079 -87.935093818202972 0 -87.935093818202972 -16.405588452666947 0 0 0 0 227.17387831156884 -81.494850795384565 0 -81.494850795384565 -8.1520627362858704 0 0 0 0 49.326293659818475 -20.952297799678433 0 -20.952297799678433 -12.041925674231273 0 0 0 0 82.293991635306156 -51.049816208889467 0 -51.049816208889467 48.681831844837234 0 0 0 0 91.746289086462639 -68.783993077897918 0 -68.783993077897918 -1.3038899164827171 0 0 0 0 135.91488586059131 -91.472691532738509 0 -91.472691532738509 16.351242397406757 0 0 0 0 99.757794088684022 -65.550061116418334 0 -65.550061116418334 15.398994917452711 0 0 0 0 170.74990343929494 -65.579547711437428 0 -65.579547711437428 32.264174624540829 0 0 0 0 140.92469231844007 -75.650412500067887 0 -75.650412500067887 38.704976914171311 0 0 0 0 130.75109599700227 -46.720145872883904 0 -46.720145872883904 69.870019069580394 0 0 0 0 76.606180811439117 -48.753196098569106 0 -48.753196098569106 91.819806045469704 0 0 0 0 120.8850906906664 -61.788531337468839 0 -61.788531337468839 49.563343041683765 0 0 0 0 121.62459189586934 -21.302718927983648 0 -21.302718927983648 101.84431417413634 0 0 0 0 116.22715798103945 -49.30650744677439 0 -49.30650744677439 73.623157699177227 0 0 0 0 155.34946265931649 -29.927160009817726 0 -29.927160009817726 81.784836746227484 0 0 0 0 151.8811494393085 -53.315521836494327 0 -53.315521836494327 65.89487202381099 0 0 0 0 192.24866067164112 -55.258259310583071 0 -55.258259310583071 59.967091444169455 0 0 0 0 159.20505578834855 -11.359137524184462 0 -11.359137524184462 58.421539076612817 0 0 0 0 170.40392876834812 27.660257747955256 0 27.660257747955256 108.5671767845015 0 0 0 0 153.29362706431857 61.93597338565769 0 61.93597338565769 40.74609468478593 0 0 0 0 142.08249416557373 84.967541171574339 0 84.967541171574339 145.64474950239992 0 0 0 0 -0.13800532660071951 0.42714937398028496 0 0.42714937398028496 2.2892394708183836 0 0 0 0 148.27914963350486 140.7002763184405 0 140.7002763184405 204.02793326286655 0 0 0 0 148.56551202247647 99.720485482763252 0 99.720485482763252 39.37555528631583 0 0 0 0 114.27877771447675 -32.783408424309869 0 -32.783408424309869 281.46558471483939 0 0 0 0 244.79809243321506 -24.034153558583398 0 -24.034153558583398 90.074861393086394 0 0 0 0 103.18242650445609 12.889685977924955 0 12.889685977924955 181.62088278422925 0 0 0 0 112.25429489973612 -7.5965114709086947 0 -7.5965114709086947 87.193084015078966 0 0 0 0 108.69601009430335 -2.3672997381136156 0 -2.3672997381136156 118.54701148501363 0 0 0 0 183.70018885846366 -61.654801961275552 0 -61.654801961275552 82.280646319127527 0 0 0 0 131.86181880476215 -135.48300778873602 0 -135.48300778873602 76.281640853195313 0 0 0 0 181.0421371813427 -63.610731190777187 0 -63.610731190777187 176.39745722195369 0 0 0 0 193.93414378398302 23.726868608993357 0 23.726868608993357 70.542826758632373 0 0 0 0 207.60290957301913 86.671441197355648 0 86.671441197355648 232.64916872140128 0 0 0 0 219.31708625575266 18.363559199931245 0 18.363559199931245 15.327250127250181 0 0 0 0 192.08982644680509 14.409008043601602 0 14.409008043601602 147.08970028903229 0 0 0 0 197.75771338698905 115.85454472910857 0 115.85454472910857 -2.2123148434571931 0 0 0 0 210.4932793135813 98.45121777210602 0 98.45121777210602 19.531636407190426 0 0 0 0 132.69210874944838 95.75097460196838 0 95.75097460196838 79.582914384278439 0 0 0 0 84.991183054517023 166.11362564744155 0 166.11362564744155 -67.99353049145644 0 0 0 0 275.39439932048117 162.8560753779982 0 162.8560753779982 0.23032464708921907 0 0 0 0 189.5376724023954 87.109338556410364 0 87.109338556410364 -8.61034721423826 0 0 0 0 106.97329473543869 -30.362908006503972 0 -30.362908006503972 55.987913529755815 0 0 0 0 86.580903328431305 -42.444151363963329 0 -42.444151363963329 131.13550009994924 0 0 0 0 163.93676864862209 14.496592680307486 0 14.496592680307486 35.820824203105076 0 0 0 0 115.43012065647054 27.099663681138509 0 27.099663681138509 82.087615585400272 0 0 0 0 51.761012761024176 56.565656731314505 0 56.565656731314505 20.078963419683816 0 0 0 0 -22.911536532657919 -2.0788420676637216 0 -2.0788420676637216 -21.610290152114004 0 0 0 0 53.686381422507111 -28.333766004656695 0 -28.333766004656695 55.995414345748657 0 0 0 0 79.617691426254169 -52.8755341389911 0 -52.8755341389911 -30.919614039886142 0 0 0 0 38.450034771078208 -51.971167328747271 0 -51.971167328747271 -45.211308162970539 0 0 0 0 3.4960393915243912 17.834710017491204 0 17.834710017491204 -43.859287287679855 0 0 0 0 35.890587915317155 -33.069151491980804 0 -33.069151491980804 -39.183711559695119 0 0 0 0 54.049331734422594 34.387152047702074 0 34.387152047702074 -174.18519017241903 0 0 0 0 2.498485209984068 -2.8536826746853379 0 -2.8536826746853379 -1.6619477097268867 0 0 0 0 152.61578845784243 -233.81561818905061 0 -233.81561818905061 -370.19016899192138 0 0 0 0 21.29424505794745 -0.91654173493555913 0 -0.91654173493555913 -0.75801597418748412 0 0 0 0 248.55317737781297 -67.477343904026469 0 -67.477343904026469 -624.78473864274019 0 0 0 0 -125.03771762520773 72.702675450247341 0 72.702675450247341 -187.59940660739676 0 0 0 0 189.78474319211091 111.18976708234142 0 111.18976708234142 55.869868491602197 0 0 0 0 383.56794293737676 133.2728978308225 0 133.2728978308225 28.015500845350928 0 0 0 0 0.34345166681632122 -0.094035601911912181 0 -0.094035601911912181 -0.32259461899406006 0 0 0 0 -20.955415225194884 -45.201067667440697 0 -45.201067667440697 72.981118343496945 0 0 0 0 5.2138287299603689 -298.69916326873306 0 -298.69916326873306 93.717890417826084 0 0 0 0 -95.106020861436264 76.736771271645125 0 76.736771271645125 -236.14600806792646 0 0 0 0 -88.939938222159981 -236.74021457455183 0 -236.74021457455183 105.33505443885724 0 0 0 0 8.4668622095265391 -2.4203926263608979 0 -2.4203926263608979 0.33205446083273604 0 0 0 0 164.90679585239559 -386.49695108553647 0 -386.49695108553647 141.92849144820156 0 0 0 0 211.89743560639909 -380.75097867246313 0 -380.75097867246313 83.732856937215104 0 0 0 0 165.0128549769579 -192.58820729763102 0 -192.58820729763102 47.106238912068875 0 0 0 0 303.75491402277839 -277.83934410757502 0 -277.83934410757502 -155.62753218103808 0 0 0 0 254.31434615163016 -209.65812017323015 0 -209.65812017323015 50.050268161075564 0 0 0 0 188.44880198102328 -274.88153924769131 0 -274.88153924769131 48.140300151149859 0 0 0 0 220.08163501777017 -261.5612129610289 0 -261.5612129610289 -23.109568873751414 0 0 0 0 327.14922381102224 -338.21467808463194 0 -338.21467808463194 -5.0764180983724145 0 0 0 0 187.37206720611721 -270.74764639632639 0 -270.74764639632639 107.42944300476938 0 0 0 0 166.82407349557616 -272.41278848734237 0 -272.41278848734237 122.33497179917777 0 0 0 0 172.02121826869552 -224.24656277191934 0 -224.24656277191934 126.28626230656027 0 0 0 0 151.96735726951738 -234.55468050812738 0 -234.55468050812738 151.1039114094383 0 0 0 0 151.16184363377397 -239.53145265664625 0 -239.53145265664625 240.74389834722933 0 0 0 0 147.06164789278409 -231.82971080455627 0 -231.82971080455627 227.16642470459192 0 0 0 0 90.202705768446322 -313.82080292183946 0 -313.82080292183946 122.55984830076295 0 0 0 0 48.276022572536021 -252.41653330945383 0 -252.41653330945383 24.863418268475925 0 0 0 0 170.44799625132873 -312.52837824668495 0 -312.52837824668495 37.044176302742926 0 0 0 0 66.554296264705044 -166.9369075980149 0 -166.9369075980149 91.375924250316984 0 0 0 0 163.19425217773824 -317.82804531689226 0 -317.82804531689226 224.38550713672021 0 0 0 0 25.611783804121046 4.9168119478077728 0 4.9168119478077728 -1.698236863928595 0 0 0 0 72.6680272326048 -238.79322782927557 0 -238.79322782927557 491.00667606671186 0 0 0 0 82.359920928760403 -198.77136118729629 0 -198.77136118729629 352.64461220931753 0 0 0 0 186.87173575013003 -268.4238824924646 0 -268.4238824924646 384.56781292720143 0 0 0 0 124.67383451692149 -251.41758321838029 0 -251.41758321838029 258.05790671287286 0 0 0 0 109.77002696401905 -182.25015044275733 0 -182.25015044275733 441.26993611143735 0 0 0 0 125.7476586366538 -86.282904193906688 0 -86.282904193906688 95.304788731782537 0 0 0 0 39.006350990453882 -1.759032984099214 0 -1.759032984099214 -8.4791059641818691 0 0 0 0 44.390486877324292 -5.5386070046794771 0 -5.5386070046794771 -12.642292375230682 0 0 0 0 -75.684127405180334 -180.65065186731829 0 -180.65065186731829 427.71999471365052 0 0 0 0 169.16841546364594 -173.01064660815064 0 -173.01064660815064 442.6880426198054 0 0 0 0 139.01520252728369 -154.04870185966138 0 -154.04870185966138 254.79029092618248 0 0 0 0 139.55608474727705 -153.01707407256083 0 -153.01707407256083 174.48618403781802 0 0 0 0 6.1411247458824825 -1.0478400017774874 0 -1.0478400017774874 0.25606720061904653 0 0 0 0 301.54670176800573 -220.20875636656456 0 -220.20875636656456 395.70374682558833 0 0 0 0 149.33673041290604 -239.6138680158565 0 -239.6138680158565 396.34776895066898 0 0 0 0 120.15087751706596 -31.892768921308516 0 -31.892768921308516 188.17378492334728 0 0 0 0 378.41873180711991 156.05268640199665 0 156.05268640199665 -176.86933990563443 0 0 0 0 92.580132746763411 -24.069284710318698 0 -24.069284710318698 -196.58726113707394 0 0 0 0 290.34144485075285 -299.5115285558154 0 -299.5115285558154 26.703080090376261 0 0 0 0 182.36180575849721 -241.77458409088854 0 -241.77458409088854 -27.132385514217276 0 0 0 0 162.98172859704937 -132.16507957111071 0 -132.16507957111071 157.33192208046125 0 0 0 0 432.60783547979372 -396.9547957839809 0 -396.9547957839809 337.15577817427038 0 0 0 0 575.48640433335095 -513.403791735396 0 -513.403791735396 730.41528831287246 0 0 0 0 145.76598334832852 -163.98532241990438 0 -163.98532241990438 512.34334465075563 0 0 0 0 0.90095314753443745 0.98264713273038495 0 0.98264713273038495 0.96443219055096474 0 0 0 0 924.30106232182879 486.81593328240797 0 486.81593328240797 -157.53498641729016 0 0 0 0 -55.796842918221955 -64.907505305900031 0 -64.907505305900031 805.26073912070819 0 0 0 0 695.93744066050022 373.07783541753264 0 373.07783541753264 435.92990986520999 0 0 0 0 -8.7977697429432737 104.74727746359514 0 104.74727746359514 50.464042591964699 0 0 0 0 34.303438825794728 -78.780010473164111 0 -78.780010473164111 492.344254241621 0 0 0 0 222.2520121902453 179.43625946006676 0 179.43625946006676 -133.14751231752689 0 0 0 0 -11.196124504422187 -31.001280813915173 0 -31.001280813915173 -266.23985630339052 0 0 0 0 -196.23736092321633 115.76432686316957 0 115.76432686316957 134.42911816861101 0 0 0 0 17.869356097451345 4.3539710620727021 0 4.3539710620727021 0.095136154005851292 0 0 0 0 -50.910490006193868 251.1391097357731 0 251.1391097357731 -292.74988288145914 0 0 0 0 -91.064596681593684 -37.526797192745562 0 -37.526797192745562 378.73115235932596 0 0 0 0 -90.315039569810324 -17.72165204872158 0 -17.72165204872158 8.8399562841757415 0 0 0 0 -27.546793091267318 72.525851944818953 0 72.525851944818953 89.131470608936979 0 0 0 0 -155.30774112444487 112.74387997996541 0 112.74387997996541 118.44007055808908 0 0 0 0 113.03797564149863 226.5941776923496 0 226.5941776923496 -4.8959058716187656 0 0 0 0 509.0793102543721 -370.08924193263385 0 -370.08924193263385 276.60296882552052 0 0 0 0 7.1770457552120774 1.3247837645038203 0 1.3247837645038203 0.20599969854467615 0 0 0 0 192.47928633136326 -205.34352295483757 0 -205.34352295483757 207.28665181987242 0 0 0 0 91.73034538666991 -35.303523318493163 0 -35.303523318493163 36.97061259609859 0 0 0 0 123.2137865578261 -101.97602315018287 0 -101.97602315018287 72.326759010962434 0 0 0 0 90.865682798659805 -113.77459069066251 0 -113.77459069066251 145.24305203910126 0 0 0 0 470.94062876455973 -203.43381959460393 0 -203.43381959460393 24.472805573378764 0 0 0 0 295.42936598336382 -167.33823368250506 0 -167.33823368250506 28.513113350787819 0 0 0 0 295.70508998363221 -120.69442281906305 0 -120.69442281906305 -9.3607479710171901 0 0 0 0 284.15494981920347 -106.28793681378249 0 -106.28793681378249 -16.66636356751923 0 0 0 0 233.61983606581634 -103.85738637154877 0 -103.85738637154877 -15.839111055434987 0 0 0 0 311.81356904986023 -127.26421514468343 0 -127.26421514468343 -13.922590839161934 0 0 0 0 202.37890343563049 -134.31926766079886 0 -134.31926766079886 19.388251936930885 0 0 0 0 158.11233587251763 -109.79805305309954 0 -109.79805305309954 17.476217707756859 0 0 0 0 195.21369623475766 -105.80600018319134 0 -105.80600018319134 6.2217353272170168 0 0 0 0 159.16116072908426 -87.489962525438116 0 -87.489962525438116 -2.3109368044293888 0 0 0 0 73.061639557345188 -68.757362164029246 0 -68.757362164029246 19.537953642464743 0 0 0 0 83.496887593719293 -49.101565603842687 0 -49.101565603842687 -19.116020780348322 0 0 0 0 105.72144559107255 -70.419583202025265 0 -70.419583202025265 -19.156802932833074 0 0 0 0 62.026711740851169 -7.0904272334040002 0 -7.0904272334040002 -132.39895367869576 0 0 0 0 45.050112657423597 -42.022535498641389 0 -42.022535498641389 0.78867316616083372 0 0 0 0 124.83141116735351 315.07176814794678 0 315.07176814794678 -566.79308744645414 0 0 0 0 0.076985995138613816 1.8053130566349331 0 1.8053130566349331 -0.38733777337530428 0 0 0 0 34.94630212346965 37.716642005300173 0 37.716642005300173 -22.153151792767574 0 0 0 0 24.211615854326539 3.5534466216055591 0 3.5534466216055591 -1.2795383740800956 0 0 0 0 98.023208078644529 -39.946204501714078 0 -39.946204501714078 11.809091796209259 0 0 0 0 49.910512467002263 -57.038895647883237 0 -57.038895647883237 28.187403234296085 0 0 0 0 114.77227235098871 -59.983306031006748 0 -59.983306031006748 -2.9431111790590876 0 0 0 0 -4.2564344130732934 5.9016737033644517 0 5.9016737033644517 -10.277607012428916 0 0 0 0 177.79975155791044 -214.10644993628568 0 -214.10644993628568 321.32367446371336 0 0 0 0 -169.09397165655537 38.47945497743757 0 38.47945497743757 419.6845873320201 0 0 0 0 130.53414084381802 264.08996457649334 0 264.08996457649334 806.86581173215029 0 0 0 0 2483.9226222598445 556.5616263929204 0 556.5616263929204 -13.476701354629686 0 0 0 0 2497.1820856179584 -1803.6802139592521 0 -1803.6802139592521 999.37331429156416 0 0 0 0 10.696606302397356 2.3894788831017095 0 2.3894788831017095 2.8036198364132092 0 0 0 0 26.743266611526735 5.7979618196888865 0 5.7979618196888865 4.3163539098933885 0 0 0 0 43.759349629981443 -81.584067977084487 0 -81.584067977084487 205.80431803308943 0 0 0 0 -7.8180189389677253 7.6155677708235316 0 7.6155677708235316 256.68460270341484 0 0 0 0 50.352327830000377 -7.3138333963035951 0 -7.3138333963035951 2.6315698297358643 0 0 0 0 81.709425499877398 4.5816546424421318 0 4.5816546424421318 164.40925331446874 0 0 0 0 -6.9622504931867297 118.17015245395552 0 118.17015245395552 -188.83005188671211 0 0 0 0 -39.172792792207474 19.835627420641174 0 19.835627420641174 162.99161047065033 0 0 0 0 4.425835308615035 0.40175274467264899 0 0.40175274467264899 -0.57042246464386859 0 0 0 0 13.682758187162108 -5.6035526123614545 0 -5.6035526123614545 -19.448439605983765 0 0 0 0 20.662171814408794 3.153310823234289 0 3.153310823234289 -11.329006259652068 0 0 0 0 -117.01047249446856 3.5496452534295813 0 3.5496452534295813 100.10683227488836 0 0 0 0 391.25844975202926 -194.77881469119768 0 -194.77881469119768 71.623683001921933 0 0 0 0 19.42799811278789 2.3896525874720993 0 2.3896525874720993 -2.5577552658789533 0 0 0 0 186.87440496306226 3.3550879945483416 0 3.3550879945483416 -50.319438637428618 0 0 0 0 2497.6094072503438 965.23718883428421 0 965.23718883428421 -132.94900535403627 0 0 0 0 742.78755467859446 756.08160864474598 0 756.08160864474598 506.89396205570517 0 0 0 0 11.297344906737408 2.4067528161866463 0 2.4067528161866463 -0.80256890953709237 0 0 0 0 718.48789668760219 -334.72396836674443 0 -334.72396836674443 -402.86479354455787 0 0 0 0 1661.7999991008983 1378.0087767275973 0 1378.0087767275973 840.60169946118947 0 0 0 0 2206.3692178787824 633.20553423786066 0 633.20553423786066 -187.9746714866927 0 0 0 0 1596.5272291678266 124.47569727648404 0 124.47569727648404 -0.31740061856914209 0 0 0 0 1855.8609119641014 -136.2694362746316 0 -136.2694362746316 -254.59767797967226 0 0 0 0 1981.7318169843406 779.67797831983876 0 779.67797831983876 223.00439723880382 0 0 0 0 2079.2311778378862 366.1731880391734 0 366.1731880391734 105.57356955358712 0 0 0 0 2497.0049671979236 386.11282275006062 0 386.11282275006062 -212.15996887754676 0 0 0 0 2074.0917565752688 327.48135575396935 0 327.48135575396935 9.2860460561023359 0 0 0 0 525.73724711098475 195.07468956820725 0 195.07468956820725 133.23591946548123 0 0 0 0 222.66502691829373 337.09252185696602 0 337.09252185696602 183.81097619273106 0 0 0 0 3.0497034341221863 1.5773572245048086 0 1.5773572245048086 -3.5030402786687618 0 0 0 0 288.7418585960404 -176.61651143990883 0 -176.61651143990883 129.48483757088852 0 0 0 0 29.624756878889457 14.345227748448565 0 14.345227748448565 -0.24251802237336051 0 0 0 0 5.6697805109681951 2.7493476447161527 0 2.7493476447161527 1.4600921349752549 0 0 0 0 186.13173454131174 644.66914283541553 0 644.66914283541553 594.30068880457179 0 0 0 0 31.827303805723204 58.140716998773428 0 58.140716998773428 272.81614847063059 0 0 0 0 40.637584916203195 116.01774052195368 0 116.01774052195368 -62.554811824826928 0 0 0 0 19.125222576503802 1.6463306820914498 0 1.6463306820914498 -8.8481857556144732 0 0 0 0 11.850958418575459 6.2806337843206776 0 6.2806337843206776 1.8768531055983306 0 0 0 0 11.885389248258434 8.795334137560296 0 8.795334137560296 -4.7511052445472259 0 0 0 0 13.263151144987205 2.8842168004672004 0 2.8842168004672004 -4.3204639056967409 0 0 0 0 13.072432585511422 4.1059866788217505 0 4.1059866788217505 -0.47820479055007548 0 0 0 0 11.441888684552396 2.9790409444665045 0 2.9790409444665045 -2.9109913139749111 0 0 0 0 14.347841456648894 8.3427132330859735 0 8.3427132330859735 -11.098188495507273 0 0 0 0 26.585817895233049 -2.2347775087470581 0 -2.2347775087470581 -4.1924995947010189 0 0 0 0 17.093148643551103 5.1168611229246679 0 5.1168611229246679 -3.4559925225945847 0 0 0 0 19.647699223831296 2.8489971799945693 0 2.8489971799945693 -2.7289587472755024 0 0 0 0 15.138764573108347 8.1195656781522985 0 8.1195656781522985 -2.2569439643583706 0 0 0 0 13.092266034514978 6.6114877344964054 0 6.6114877344964054 -2.6324033686361048 0 0 0 0 19.212925483341678 5.4908483379223902 0 5.4908483379223902 -2.9172197775104425 0 0 0 0 28.921972888674645 6.7166624819502196 0 6.7166624819502196 -4.4856494583149242 0 0 0 0 19.439311072778764 7.1691359151940244 0 7.1691359151940244 -2.2654462392035484 0 0 0 0 20.377238991422928 15.666469103860907 0 15.666469103860907 0.0064057756276055308 0 0 0 0 42.932613039003627 9.4210623127998492 0 9.4210623127998492 -6.4778455252702081 0 0 0 0 -1.0342800513462862 8.627759077487438 0 8.627759077487438 4.9340157975804235 0 0 0 0 -0.18482825969222461 0.42013041038701715 0 0.42013041038701715 -0.34129183881463038 0 0 0 0 155.7434376009187 -3.3513303504725869 0 -3.3513303504725869 -15.469828957056023 0 0 0 0 115.67987698872457 22.154393860847208 0 22.154393860847208 -0.0041819229926824217 0 0 0 0 40.716278935935406 -3.6791923201581582 0 -3.6791923201581582 -3.3563220925919524 0 0 0 0 41.361655973996676 -1.2494563813633306 0 -1.2494563813633306 -5.8320466492719056 0 0 0 0 237.0451770361833 8.5984329229818464 0 8.5984329229818464 -13.713697511169805 0 0 0 0 254.15208023357172 20.307049683394919 0 20.307049683394919 -9.8293513258058169 0 0 0 0 0.22156405534768808 -0.17742504049573427 0 -0.17742504049573427 -0.065777366905736268 0 0 0 0 281.34580487174389 -9.7506248369831852 0 -9.7506248369831852 11.866718051196059 0 0 0 0 27.688117373749265 10.493161534997014 0 10.493161534997014 -8.6617589140220446 0 0 0 0 347.37720722831 5.727621671221236 0 5.727621671221236 -24.05167629725841 0 0 0 0 0.16356162396615304 -0.89492601910109215 0 -0.89492601910109215 0.065411559352923365 0 0 0 0 34.136539704340976 4.528187237734528 0 4.528187237734528 -4.9147604897044488 0 0 0 0 31.700054382092276 -1.5570879808645524 0 -1.5570879808645524 -1.5115377446199716 0 0 0 0 24.723178851068951 -7.5477396321514618 0 -7.5477396321514618 -1.9191002391211356 0 0 0 0 27.565548317146749 -0.78722108158483195 0 -0.78722108158483195 -8.7060392303706635 0 0 0 0 48.199806644101045 -6.9286470855015665 0 -6.9286470855015665 -8.8936675096053222 0 0 0 0 329.29323916758585 14.784889330793668 0 14.784889330793668 -12.251613535364811 0 0 0 0 57.071688199404889 17.76658346835455 0 17.76658346835455 -18.29562361844205 0 0 0 0 427.8692297051166 -13.958061572431021 0 -13.958061572431021 -7.3229730646529845 0 0 0 0 1.6602925413507883 -1.3947031374209189 0 -1.3947031374209189 0.16907801790085664 0 0 0 0 -6.0506873980702949 -4.9759141984795114 0 -4.9759141984795114 14.979619274051998 0 0 0 0 400.13565635203122 -20.621333340211944 0 -20.621333340211944 12.683740706015428 0 0 0 0 15.510801887110574 -40.380639963186695 0 -40.380639963186695 60.421939379281696 0 0 0 0 10.606706048173805 5.6949284191781047 0 5.6949284191781047 3.547596863494304 0 0 0 0 34.621709361505054 16.559494080990923 0 16.559494080990923 -39.330960156038174 0 0 0 0 514.46950306340295 -128.4063557349798 0 -128.4063557349798 22.086116980471587 0 0 0 0 456.39822940956219 428.21498740288308 0 428.21498740288308 409.99440939013937 0 0 0 0 2.1812515595584934 -0.3248029882608563 0 -0.3248029882608563 1.4911748101489133 0 0 0 0 960.90417922651977 -219.05520836426061 0 -219.05520836426061 -19.456464762157523 0 0 0 0 1.9226153127744396 0.42204003301444715 0 0.42204003301444715 0.78511503405406291 0 0 0 0 -41.344884855970122 -88.710378338526169 0 -88.710378338526169 204.78835359777486 0 0 0 0 -4.7995455829659477 192.77104478720594 0 192.77104478720594 397.56294290077869 0 0 0 0 300.5122687943076 121.13452889894481 0 121.13452889894481 418.48680998484781 0 0 0 0 896.03180973483541 209.09536176067036 0 209.09536176067036 387.74172150183341 0 0 0 0 8.6174903979263036 99.155453818286048 0 99.155453818286048 125.0739506971392 0 0 0 0 -50.094409882458422 94.609452558721216 0 94.609452558721216 212.16769017289653 0 0 0 0 25.286878562765196 73.672311857713566 0 73.672311857713566 3.1957373482275671 0 0 0 0 -26.471031369634147 3.8945234335000691 0 3.8945234335000691 70.519276573019624 0 0 0 0 28.627919417107478 55.802312563423811 0 55.802312563423811 -79.095587625447251 0 0 0 0 6.7702478041974246 41.465113199610713 0 41.465113199610713 23.568752341776673 0 0 0 0 2.022303391425055 2.8356757309921079 0 2.8356757309921079 0.45278896769491422 0 0 0 0 65.849977019257494 -5.115420198608831 0 -5.115420198608831 -25.606185761332199 0 0 0 0 16.973897842141753 7.7898237570922859 0 7.7898237570922859 2.0513754387147882 0 0 0 0 -9.237373661948368 26.01751500717171 0 26.01751500717171 9.8728890823274469 0 0 0 0 11.864649083746485 0.98002470799227126 0 0.98002470799227126 -1.5185621379191978 0 0 0 0 12.516380842258513 6.0771120154885523 0 6.0771120154885523 -9.3347079379074387 0 0 0 0 16.053051003140922 5.6732232306656236 0 5.6732232306656236 -2.2688256218493059 0 0 0 0 70.624372839243733 -0.59697529248205683 0 -0.59697529248205683 -131.84244256641455 0 0 0 0 45.792484339923249 101.22029799922302 0 101.22029799922302 -34.525316961612162 0 0 0 0 7.6746544026354968 62.063417343023659 0 62.063417343023659 136.05003424854038 0 0 0 0 60.027655414975015 71.961832870175613 0 71.961832870175613 4.8163997196402661 0 0 0 0 -9.8977400276562548 64.236268829594223 0 64.236268829594223 137.68278556350674 0 0 0 0 86.930916191420692 140.40761025018992 0 140.40761025018992 167.20916090945809 0 0 0 0 111.49489804907353 27.982166717583823 0 27.982166717583823 146.02783724706279 0 0 0 0 25.087051335962315 56.740405172123474 0 56.740405172123474 101.04818430407909 0 0 0 0 67.603613556680642 -12.998816620119317 0 -12.998816620119317 2.4432168673408223 0 0 0 0 9.4306426735383866 51.917690096293654 0 51.917690096293654 335.04747975457121 0 0 0 0 87.056177474682755 -16.91851554519334 0 -16.91851554519334 3.1000346778547012 0 0 0 0 114.85986980909001 -228.35119511406765 0 -228.35119511406765 50.445497152865528 0 0 0 0 149.11594853604765 66.183989258074462 0 66.183989258074462 69.408052739147024 0 0 0 0 184.25791272434435 -102.45394122738799 0 -102.45394122738799 -194.37948983930073 0 0 0 0 520.01999205794709 125.24618960135695 0 125.24618960135695 -409.59479911522214 0 0 0 0 105.53627449635954 -20.565100884097117 0 -20.565100884097117 3.6866126608824277 0 0 0 0 79.073237909513409 37.875693693523772 0 37.875693693523772 36.780231034956159 0 0 0 0 507.80438219704956 271.87208531274189 0 271.87208531274189 82.581843113799096 0 0 0 0 12.322106174207875 149.08280629058743 0 149.08280629058743 251.54395876363242 0 0 0 0 30.906681705484516 138.67731519462586 0 138.67731519462586 202.41830828791541 0 0 0 0 124.11111045545476 -9.9455869405921931 0 -9.9455869405921931 -127.6176300770303 0 0 0 0 111.09661200172968 -28.042718983599961 0 -28.042718983599961 1.7540467602395071 0 0 0 0 38.661667589142098 -576.18356264193551 0 -576.18356264193551 -1.6905999861919554 0 0 0 0 100.05979012168245 659.31705259649721 0 659.31705259649721 161.15896800324106 0 0 0 0 110.97179326492096 24.296973036715258 0 24.296973036715258 -48.478206042022066 0 0 0 0 94.92817945592833 -14.543104498696266 0 -14.543104498696266 -75.73345922096712 0 0 0 0 -1.0532631357945164 -0.55592268775880882 0 -0.55592268775880882 -5.3169709152353697 0 0 0 0 95.676150491955923 -37.577965151124999 0 -37.577965151124999 20.191810900490736 0 0 0 0 185.7166648421553 -42.200611776363758 0 -42.200611776363758 9.4003920315639107 0 0 0 0 56.213736343543133 -8.9268492817580523 0 -8.9268492817580523 1.7102851720346735 0 0 0 0 96.232923450104863 -58.15740666059753 0 -58.15740666059753 -18.087491429570264 0 0 0 0 78.827629318089748 39.611539365841509 0 39.611539365841509 -91.864383109659343 0 0 0 0 19.396569066112257 -10.447630090474213 0 -10.447630090474213 -7.4006411225298443 0 0 0 0 48.778066569670045 -12.089493000861239 0 -12.089493000861239 -2.4615840563692473 0 0 0 0 59.148246564894279 -15.708781743949125 0 -15.708781743949125 2.7841298017286471 0 0 0 0 60.330327926043537 -22.202032877217562 0 -22.202032877217562 -6.6781488704918957 0 0 0 0 26.728411442138935 -12.960109510946701 0 -12.960109510946701 2.1887656999334149 0 0 0 0 28.431888534025688 -4.8038291093512893 0 -4.8038291093512893 2.6233670118681731 0 0 0 0 57.119977770766127 -39.70004027746154 0 -39.70004027746154 -16.054135665350259 0 0 0 0 66.473910568049178 -24.681591498802391 0 -24.681591498802391 -22.113079950342126 0 0 0 0 32.844939844577311 8.2002126421582489 0 8.2002126421582489 -23.193919166725209 0 0 0 0 61.899389656333369 -10.738667097804825 0 -10.738667097804825 -39.603252174291548 0 0 0 0 38.507593302113946 -8.7820798305536982 0 -8.7820798305536982 1.8474529535357123 0 0 0 0 21.473637684699497 7.7841464705329644 0 7.7841464705329644 -12.00536594469181 0 0 0 0 42.381878528147354 -7.4505000350379085 0 -7.4505000350379085 16.842496452147479 0 0 0 0 58.97214010724565 18.050535778371533 0 18.050535778371533 10.081626879220522 0 0 0 0 79.198244943429017 9.5980657397904849 0 9.5980657397904849 -7.0038649510652888 0 0 0 0 86.609742506654584 46.91399829372785 0 46.91399829372785 41.427989103410226 0 0 0 0 100.44328519596456 40.782711754773246 0 40.782711754773246 36.892781500099744 0 0 0 0 164.29513200091606 92.361085096215675 0 92.361085096215675 45.646560187207314 0 0 0 0 155.5998174395645 97.868504760062351 0 97.868504760062351 56.169947350016884 0 0 0 0 70.424354579707142 58.543744989092367 0 58.543744989092367 62.575314284161273 0 0 0 0 137.71078117110301 91.456250296978638 0 91.456250296978638 73.72630717290015 0 0 0 0 151.69555475138259 163.35552144478501 0 163.35552144478501 98.179728101823798 0 0 0 0 37.843796156754252 59.633442330608212 0 59.633442330608212 83.864084016991711 0 0 0 0 9.1474289553589188 61.902489471298594 0 61.902489471298594 103.39360428315752 0 0 0 0 25.573860023578163 77.685644702693423 0 77.685644702693423 99.942770780129081 0 0 0 0 99.723307397391181 133.7903168910691 0 133.7903168910691 116.48793227002739 0 0 0 0 36.082473812130047 109.49738707872943 0 109.49738707872943 107.2152781070365 0 0 0 0 80.04069379507564 73.431223975064341 0 73.431223975064341 84.817754180790189 0 0 0 0 64.645199345133733 5.750623720221796 0 5.750623720221796 26.957166643128417 0 0 0 0 78.635553258121945 52.33019485500445 0 52.33019485500445 64.353684994260988 0 0 0 0 37.455232670763507 8.8207141763384698 0 8.8207141763384698 30.123095912585654 0 0 0 0 -21.239899421692826 -9.5144103279621959 0 -9.5144103279621959 36.892535291745318 0 0 0 0 65.832849637197796 -4.7364520210704768 0 -4.7364520210704768 -14.782448037967015 0 0 0 0 21.890019285851707 -11.757217815247337 0 -11.757217815247337 0.95677765845552409 0 0 0 0 6.4887658727820963 -10.909626355220098 0 -10.909626355220098 -0.078007585167512161 0 0 0 0 0.35700714228889296 -5.8305165302463493 0 -5.8305165302463493 3.9020004384060138 0 0 0 0 149.02280747774057 -27.262800728290586 0 -27.262800728290586 47.54606878863575 0 0 0 0 9.7441626246342707 -11.952780598921521 0 -11.952780598921521 6.1923478836498393 0 0 0 0 -35.849193509784527 2.8534080320048361 0 2.8534080320048361 47.507198567651642 0 0 0 0 14.630463322799187 20.267048176960046 0 20.267048176960046 139.08188110813677 0 0 0 0 8.9461382903391495 74.16009043813483 0 74.16009043813483 -137.7056491249796 0 0 0 0 -0.015434920077950665 -2.7862265329900033 0 -2.7862265329900033 2.840525115102472 0 0 0 0 -71.262429639929906 75.58166538306341 0 75.58166538306341 63.962379897488859 0 0 0 0 0.28395514193226745 -1.0762860206454121 0 -1.0762860206454121 1.171967199299073 0 0 0 0 67.21660920541035 90.859128593708817 0 90.859128593708817 103.65255825333429 0 0 0 0 33.953823972638929 156.82422690660229 0 156.82422690660229 -22.317565804191759 0 0 0 0 -66.9076538158115 22.359882266137959 0 22.359882266137959 9.7876128394215129 0 0 0 0 28.466765930074558 -32.889490688997498 0 -32.889490688997498 -0.21359497164916519 0 0 0 0 514.01311913036625 5.0291758984269563 0 5.0291758984269563 416.7486188236835 0 0 0 0 297.73794636543607 -149.82818443323015 0 -149.82818443323015 428.49954412202146 0 0 0 0 312.23332293134808 -172.88895959474195 0 -172.88895959474195 169.37820304719025 0 0 0 0 270.00151798946899 86.167535363329904 0 86.167535363329904 122.41522280604735 0 0 0 0 132.181828079556 -11.138487719408204 0 -11.138487719408204 100.14074403413588 0 0 0 0 197.16720611107303 235.92908255071487 0 235.92908255071487 52.3014172516217 0 0 0 0 450.47129610824049 276.42356849123314 0 276.42356849123314 196.95799997240186 0 0 0 0 350.37303123989841 -35.101908866841484 0 -35.101908866841484 280.36189673174567 0 0 0 0 465.44806819554651 26.590389708768967 0 26.590389708768967 214.54009707203883 0 0 0 0 494.2895861112338 -73.960427794445565 0 -73.960427794445565 561.99906327241263 0 0 0 0 818.68615346230217 380.69813296933887 0 380.69813296933887 292.91447992119805 0 0 0 0 570.12788373213698 95.372408986501284 0 95.372408986501284 -32.54973709932159 0 0 0 0 570.89053668716224 117.36006935651369 0 117.36006935651369 44.703371052385677 0 0 0 0 442.30889832686807 118.83958070547577 0 118.83958070547577 9.6094301459509097 0 0 0 0 473.10290458286181 159.39629752267882 0 159.39629752267882 46.842481730032347 0 0 0 0 308.37623218176304 132.48173822341704 0 132.48173822341704 72.83654783395923 0 0 0 0 322.35739629180171 218.4369439538051 0 218.4369439538051 77.984283382632782 0 0 0 0 214.159374581679 124.62653838246135 0 124.62653838246135 62.074870205089852 0 0 0 0 250.51951832414488 156.49093606953264 0 156.49093606953264 62.476828903970116 0 0 0 0 332.87076542973227 103.39972698530534 0 103.39972698530534 9.2819783858101346 0 0 0 0 376.0476677933184 143.35879002001369 0 143.35879002001369 11.970997223214946 0 0 0 0 441.50034890935058 63.36707966989978 0 63.36707966989978 -29.96613074180523 0 0 0 0 356.86723799136234 74.035060273019781 0 74.035060273019781 -0.45468947193290887 0 0 0 0 373.81907362493803 80.90947339035398 0 80.90947339035398 -26.955720319347989 0 0 0 0 249.76129484860576 102.17709696269733 0 102.17709696269733 10.971345209036208 0 0 0 0 275.409065225831 76.669968631186066 0 76.669968631186066 0.85644089518322986 0 0 0 0 250.09751449148462 60.577424825681149 0 60.577424825681149 7.0701233919698154 0 0 0 0 345.1519722808298 47.105811812701909 0 47.105811812701909 -12.243284274685834 0 0 0 0 128.15985808191181 80.69795014747281 0 80.69795014747281 37.397029238419194 0 0 0 0 199.84748975055118 105.43291693529321 0 105.43291693529321 32.298503747534184 0 0 0 0 249.60197108371722 102.06725507119623 0 102.06725507119623 24.357472534837768 0 0 0 0 165.60614964179695 53.527573178651849 0 53.527573178651849 21.495663338474515 0 0 0 0 195.90766890144005 80.632038975463587 0 80.632038975463587 6.7572675159618711 0 0 0 0 146.37865935334412 47.287302453839914 0 47.287302453839914 12.733579163961195 0 0 0 0 259.09522428608034 49.428421404860828 0 49.428421404860828 -8.5677112775860351 0 0 0 0 198.11945758393267 56.070509155462737 0 56.070509155462737 12.355508544396912 0 0 0 0 242.95838739789906 36.837857790878417 0 36.837857790878417 -3.7401346913107716 0 0 0 0 262.11985667436966 37.81921958776384 0 37.81921958776384 1.6510512057517417 0 0 0 0 257.7971734032617 77.224579761162502 0 77.224579761162502 2.7046592897840895 0 0 0 0 210.73391175968572 54.804835385275943 0 54.804835385275943 -4.5775784002052715 0 0 0 0 132.95610663322441 54.224632850069497 0 54.224632850069497 16.32814992573978 0 0 0 0 173.25649971036 57.669224847221244 0 57.669224847221244 -1.3719388403528399 0 0 0 0 180.33964586510047 39.830699008993662 0 39.830699008993662 -1.7286676812752475 0 0 0 0 196.06962218690023 32.3637529593111 0 32.3637529593111 -0.040995663809126344 0 0 0 0 105.97575304084603 44.540775387189115 0 44.540775387189115 17.03348868950706 0 0 0 0 136.21485535069951 33.932231346516204 0 33.932231346516204 0.010995124917099579 0 0 0 0 126.71944161515785 64.382666505417305 0 64.382666505417305 12.851927334005822 0 0 0 0 102.09078652961762 36.799845917806685 0 36.799845917806685 14.951331093296586 0 0 0 0 74.443472727946755 51.125577841239306 0 51.125577841239306 18.960839820936059 0 0 0 0 93.050930127508764 46.961548985934222 0 46.961548985934222 -2.2331140443024253 0 0 0 0 53.810578930657357 38.503736839075238 0 38.503736839075238 18.963633380843465 0 0 0 0 87.073587359045632 53.527225894246989 0 53.527225894246989 29.420845770054598 0 0 0 0 142.03793240490631 58.986433216364894 0 58.986433216364894 6.4725208701750319 0 0 0 0 111.45316689636093 39.085766512815823 0 39.085766512815823 9.1346160380686712 0 0 0 0 86.893814601768099 49.184075196285889 0 49.184075196285889 15.036149126253179 0 0 0 0 61.503149041229335 15.53564308957252 0 15.53564308957252 -2.5300941417978748 0 0 0 0 47.377394073977484 32.49638490932135 0 32.49638490932135 -22.112746448524476 0 0 0 0 51.547583759023837 3.9929922706829117 0 3.9929922706829117 -52.806754618650643 0 0 0 0 22.609385485280654 14.892215486783407 0 14.892215486783407 -11.760181300749906 0 0 0 0 -10.180074209405575 32.353246534890161 0 32.353246534890161 -20.533992281637211 0 0 0 0 40.211447704205057 24.325171047568112 0 24.325171047568112 -96.524472152547588 0 0 0 0 36.775776046786632 5.2044656464531727 0 5.2044656464531727 22.553798223531235 0 0 0 0 37.176743398609688 -8.9150011149462784 0 -8.9150011149462784 -1.0383575870103989 0 0 0 0 53.77350547008389 19.341016029142512 0 19.341016029142512 -14.545469528995213 0 0 0 0 38.937613290167064 31.589170014857864 0 31.589170014857864 13.266891339168737 0 0 0 0 71.001702382392068 24.209349686925989 0 24.209349686925989 14.562889885496816 0 0 0 0 55.864076136844233 21.318737926459285 0 21.318737926459285 21.579401102045868 0 0 0 0 134.95019514259184 -13.117174271936854 0 -13.117174271936854 12.669880802334545 0 0 0 0 77.631727268668328 -17.851078726206008 0 -17.851078726206008 32.341017817752899 0 0 0 0 94.419344101808292 1.4584820963471377 0 1.4584820963471377 7.4442573413363036 0 0 0 0 93.126862095710749 23.616748680200676 0 23.616748680200676 0.04254621920520734 0 0 0 0 93.755715016304748 12.255568329389357 0 12.255568329389357 21.937091928381474 0 0 0 0 78.499140222906135 3.4126127927396945 0 3.4126127927396945 0.030473060823911033 0 0 0 0 118.36427192334668 8.8245327536967384 0 8.8245327536967384 -0.023872587205429233 0 0 0 0 94.116288681536389 19.565235698037821 0 19.565235698037821 7.7407148435211166 0 0 0 0 125.03218680530517 23.57095751504599 0 23.57095751504599 7.7091267788347393 0 0 0 0 264.78982461089618 27.240039550284571 0 27.240039550284571 -9.3282793662985846 0 0 0 0 152.15316531231656 -10.354041516392913 0 -10.354041516392913 -81.64047193474542 0 0 0 0 120.76574104767496 107.40758082247355 0 107.40758082247355 16.53173860513607 0 0 0 0 0.37594819132570478 0.0042834433962184448 0 0.0042834433962184448 -0.1200215303844599 0 0 0 0 579.06144640558341 43.448464420109786 0 43.448464420109786 -99.155419853591184 0 0 0 0 -20.200622672622558 111.08392548365535 0 111.08392548365535 16.526053076477496 0 0 0 0 97.919840155787824 -69.141804646787676 0 -69.141804646787676 9.9422589421711223 0 0 0 0 208.26515730107349 -145.36418555374576 0 -145.36418555374576 -98.639569400912052 0 0 0 0 -16.287805647330515 -40.977111775210787 0 -40.977111775210787 3.6204580968021673 0 0 0 0 227.04867332868162 359.91614684901811 0 359.91614684901811 266.33358290446915 0 0 0 0 8.8741196893100209 -1.1816336100551439 0 -1.1816336100551439 -0.13776616189700674 0 0 0 0 -53.615367078724375 281.79003373090922 0 281.79003373090922 377.25520932285662 0 0 0 0 294.60916965569777 400.71150101674993 0 400.71150101674993 145.06805615061958 0 0 0 0 767.23056727394942 141.43732679747504 0 141.43732679747504 -188.51551641968535 0 0 0 0 450.02939569861337 -388.77457247550888 0 -388.77457247550888 -261.11009096375881 0 0 0 0 186.22252371539071 -221.51477276247033 0 -221.51477276247033 -195.5135711215728 0 0 0 0 375.39719827070076 69.540374757150403 0 69.540374757150403 -499.66647446732895 0 0 0 0 124.35976722641865 -11.756070101515146 0 -11.756070101515146 -5.4677002806037489 0 0 0 0 -2.164705095528916 -24.240735905536837 0 -24.240735905536837 -100.55260050904235 0 0 0 0 427.59646134563081 355.40437708533022 0 355.40437708533022 -172.46443289376612 0 0 0 0 84.196035880275303 227.78785848019811 0 227.78785848019811 453.56853846992954 0 0 0 0 377.82169885830444 118.06158823791179 0 118.06158823791179 42.877776164019451 0 0 0 0 154.38099067179428 142.52522690988872 0 142.52522690988872 105.55625479457768 0 0 0 0 5.9529413022911513 1.2732785607126251 0 1.2732785607126251 0.37097570098181565 0 0 0 0 77.931619695034897 -413.56805904961891 0 -413.56805904961891 258.01936003663718 0 0 0 0 178.62522040525801 22.141680844124039 0 22.141680844124039 -339.3729493591145 0 0 0 0 -30.638822572853314 46.910743411535407 0 46.910743411535407 103.61024777878902 0 0 0 0 104.91021117581427 -17.140060625812694 0 -17.140060625812694 1.2677988382506022 0 0 0 0 298.2586028490332 30.646514655313467 0 30.646514655313467 -275.15280207532123 0 0 0 0 54.682828805380268 9.8859908158929102 0 9.8859908158929102 109.26180709766118 0 0 0 0 84.12732432816847 52.508466673430803 0 52.508466673430803 -8.7354297437059358 0 0 0 0 100.19949339008599 39.472457767343599 0 39.472457767343599 -2.7630703283898583 0 0 0 0 39.13013978881645 -35.72784744175479 0 -35.72784744175479 -115.52741391112369 0 0 0 0 122.58263944534701 26.032531421353724 0 26.032531421353724 -7.2758524792171784 0 0 0 0 23.6127858364963 -6.2147016229293612 0 -6.2147016229293612 1.1164315738734607 0 0 0 0 4.7542056256352225 -21.445101089734425 0 -21.445101089734425 -34.946756020122415 0 0 0 0 85.316260336236155 -20.376525762521624 0 -20.376525762521624 -54.541985646116245 0 0 0 0 47.291092883301545 -1.3987365563042875 0 -1.3987365563042875 0.82143480816223491 0 0 0 0 -9.9674260100728134 -23.483293465473025 0 -23.483293465473025 75.438488972277355 0 0 0 0 53.059778276386822 -5.9386564649760061 0 -5.9386564649760061 -1.2567229776416624 0 0 0 0 88.579010553160714 -3.0873985711902705 0 -3.0873985711902705 -0.66104798219148453 0 0 0 0 55.145462426997256 -227.80885174875493 0 -227.80885174875493 14.085344811548566 0 0 0 0 65.044961347404751 -10.179749879454903 0 -10.179749879454903 -77.764146450383635 0 0 0 0 105.90512634877814 42.642549482912727 0 42.642549482912727 -18.496378860128061 0 0 0 0 20.142430327509516 -8.6658470426487355 0 -8.6658470426487355 -1.0941742443407758 0 0 0 0 70.349477710115025 11.192028712101092 0 11.192028712101092 -51.435690592718402 0 0 0 0 15.249573540961137 -34.790655195664613 0 -34.790655195664613 -32.350470063779085 0 0 0 0 27.745420847692003 -5.9553427234061473 0 -5.9553427234061473 16.019321152905377 0 0 0 0 78.479023431624228 43.170522977871542 0 43.170522977871542 30.196104771134571 0 0 0 0 58.302096309242188 2.9545461369793884 0 2.9545461369793884 -9.8173581283986096 0 0 0 0 75.659624774016265 -1.2286543937502756 0 -1.2286543937502756 -9.7907078087812351 0 0 0 0 97.039451022312733 23.057309007368836 0 23.057309007368836 13.568871574495006 0 0 0 0 126.38209562439079 12.653858318362836 0 12.653858318362836 14.974950848799153 0 0 0 0 130.68224380817264 68.587385688092127 0 68.587385688092127 26.490066836222582 0 0 0 0 72.325603380042594 50.636324308574785 0 50.636324308574785 21.291179485106113 0 0 0 0 104.37084425073408 66.235572914042905 0 66.235572914042905 22.032868362486568 0 0 0 0 178.79614416506229 65.74964832030787 0 65.74964832030787 21.593521460304032 0 0 0 0 218.45673371823796 -1.3794664107342669 0 -1.3794664107342669 23.881825894845804 0 0 0 0 155.06051731037951 54.707936313962705 0 54.707936313962705 33.799659357030578 0 0 0 0 324.16176443081349 26.967831919023183 0 26.967831919023183 37.40492353382524 0 0 0 0 265.52519857313746 -187.43501910615487 0 -187.43501910615487 293.74585234324513 0 0 0 0 445.29638688546402 33.114943203232087 0 33.114943203232087 -7.9515333565495894 0 0 0 0 138.20349227294355 110.70636238427915 0 110.70636238427915 62.701916055689253 0 0 0 0 89.358749372719103 98.268012862732064 0 98.268012862732064 59.200284558489784 0 0 0 0 136.13854177001485 97.647659924392883 0 97.647659924392883 48.664043496916292 0 0 0 0 104.24395656835259 60.887636541218171 0 60.887636541218171 -52.546133518453644 0 0 0 0 119.55719398205838 49.698102011378296 0 49.698102011378296 -45.273856053645886 0 0 0 0 80.276442626760399 48.381153615671565 0 48.381153615671565 -29.011812438727702 0 0 0 0 105.25109039024755 21.529207908651415 0 21.529207908651415 -85.314074408271154 0 0 0 0 140.75997249879947 62.567466589669607 0 62.567466589669607 -6.6206351673763493 0 0 0 0 101.5471712935323 35.242503497588132 0 35.242503497588132 -22.392338560946428 0 0 0 0 87.142520241683087 11.799794274716987 0 11.799794274716987 26.396362523180699 0 0 0 0 124.95366520583411 80.280285836771213 0 80.280285836771213 8.045762950546532 0 0 0 0 99.026658269236577 64.544052844121836 0 64.544052844121836 12.916955739735386 0 0 0 0 122.42965412366175 -0.20840573088344172 0 -0.20840573088344172 -3.6758873159089944 0 0 0 0 339.60371829160977 -60.051128936767782 0 -60.051128936767782 0.092716736068723549 0 0 0 0 185.20060571564682 82.560020230941291 0 82.560020230941291 -73.090439348932023 0 0 0 0 109.28033601912102 -24.18946350873307 0 -24.18946350873307 -10.557419698827061 0 0 0 0 -54.836307719224351 76.713881419210907 0 76.713881419210907 88.497532817343654 0 0 0 0 73.195020704410126 161.3875110448522 0 161.3875110448522 64.675469211894779 0 0 0 0 89.137087973329471 110.56785081252383 0 110.56785081252383 -77.006179840416593 0 0 0 0 0.37163205596382909 0.18864469380942239 0 0.18864469380942239 -0.031744092971217164 0 0 0 0 -10.964101046964061 98.167986551634385 0 98.167986551634385 -73.794211852406079 0 0 0 0 45.588824310405471 22.907175867998262 0 22.907175867998262 -69.593278489417571 0 0 0 0 114.90009162294518 85.56869822080921 0 85.56869822080921 -73.6296597380001 0 0 0 0 67.354917584794748 13.731595270419803 0 13.731595270419803 -68.598229317256255 0 0 0 0 18.582503858699056 0.65440297203167574 0 0.65440297203167574 -69.015237688106367 0 0 0 0 0.99578109307054774 0.35700887218845168 0 0.35700887218845168 0.078610383714643461 0 0 0 0 2.8010667551134247 12.900965926904973 0 12.900965926904973 -73.833902867984307 0 0 0 0 41.984452695965956 -2.8668918733108626 0 -2.8668918733108626 -18.490780043727682 0 0 0 0 33.884308385408076 -18.592601800449302 0 -18.592601800449302 2.7804334074689905 0 0 0 0 35.031453974308533 7.7526757024853623 0 7.7526757024853623 -28.264126233942534 0 0 0 0 13.429943045074651 18.953861761082152 0 18.953861761082152 -26.796417948879025 0 0 0 0 10.655252371601819 3.4860645671910788 0 3.4860645671910788 -12.957679161514534 0 0 0 0 15.353563634787861 -3.3877020062518568 0 -3.3877020062518568 -3.0070959098666208 0 0 0 0 18.1343439307675 5.3598070341993207 0 5.3598070341993207 -12.578406683338017 0 0 0 0 8.7950480015279027 9.548608952836048 0 9.548608952836048 5.0185878275560754 0 0 0 0 7.4298026568893789 3.7683965591985107 0 3.7683965591985107 -3.2598951669083922 0 0 0 0 -0.53762655503207668 6.2602858291845465 0 6.2602858291845465 -0.70366147616379338 0 0 0 0 -12.746570447890917 27.209029886317129 0 27.209029886317129 -7.3299102723223655 0 0 0 0 -3.8809744610389316 19.960861432604556 0 19.960861432604556 -3.1112942262064962 0 0 0 0 8.2250754980472607 6.8386167371803452 0 6.8386167371803452 -3.3353417314646006 0 0 0 0 103.37900410909788 49.96377037973491 0 49.96377037973491 14.49398752561757 0 0 0 0 11.990663846805106 7.6353805665355452 0 7.6353805665355452 3.4817164883854739 0 0 0 0 59.668853151903022 -19.313142833152725 0 -19.313142833152725 -3.0847868611748908 0 0 0 0 14.891770837964941 20.772964363369521 0 20.772964363369521 4.4205347769164902 0 0 0 0 1.5987629757340329 1.3665982916226156 0 1.3665982916226156 1.354854085387627 0 0 0 0 1.2501111165983332 3.9774801370667845 0 3.9774801370667845 -4.2068349853293476 0 0 0 0 12.697446744741683 -7.0706496755656758 0 -7.0706496755656758 -116.45063458646769 0 0 0 0 28.6569481453771 17.401832292282052 0 17.401832292282052 -104.14566422761754 0 0 0 0 11.816474192218635 8.8323549993744379 0 8.8323549993744379 2.288281677397519 0 0 0 0 -25.297269309929106 30.08711933576717 0 30.08711933576717 -4.7817087051667784 0 0 0 0 2.4994434616019134 7.123937236529855 0 7.123937236529855 -81.572858339226514 0 0 0 0 9.2439366341977802 6.3987807862348802 0 6.3987807862348802 -108.55560006906944 0 0 0 0 348.78769471979831 -5.9297025120183875 0 -5.9297025120183875 -81.672192884964801 0 0 0 0 353.77755649608298 10.475440353192006 0 10.475440353192006 -43.983272467145738 0 0 0 0 318.48641039519862 -16.965894761188792 0 -16.965894761188792 -51.567733827997102 0 0 0 0 242.44736734343678 70.093642558588769 0 70.093642558588769 -6.7417075735021541 0 0 0 0 122.81877548538614 -59.745089295038724 0 -59.745089295038724 2.3102090859653686 0 0 0 0 182.32543933425768 41.826009506067521 0 41.826009506067521 11.506034965881668 0 0 0 0 239.29326093032796 -60.226506659771019 0 -60.226506659771019 -1.999368818424955 0 0 0 0 296.21005839156328 -121.90531545347575 0 -121.90531545347575 14.324353943506594 0 0 0 0 8.1945975121216179 35.866189696578431 0 35.866189696578431 -35.068034131084005 0 0 0 0 296.17844350171799 -123.13629675701611 0 -123.13629675701611 11.98607289475683 0 0 0 0 8.4711769135295043 4.9409942953281671 0 4.9409942953281671 2.3774558395732761 0 0 0 0 589.56329689861013 -325.35734610889813 0 -325.35734610889813 144.75965358849612 0 0 0 0 542.35798103379057 -78.571409776425867 0 -78.571409776425867 82.463921442458968 0 0 0 0 517.2360952109957 -166.02361040847404 0 -166.02361040847404 -79.135029300477072 0 0 0 0 382.52461719976418 -34.933641665920845 0 -34.933641665920845 -99.914504204461537 0 0 0 0 338.35893621026571 -61.556688308572703 0 -61.556688308572703 -99.208375732601439 0 0 0 0 438.55697500488532 -115.00629755761412 0 -115.00629755761412 -75.375814080864416 0 0 0 0 383.25173524564889 -18.324984323058061 0 -18.324984323058061 -124.71313581551112 0 0 0 0 448.04878566277512 -53.791769211566283 0 -53.791769211566283 -144.25786200764628 0 0 0 0 397.33670935751434 -33.768311724714607 0 -33.768311724714607 -87.398537723026266 0 0 0 0 403.68763889329421 -28.177749486176204 0 -28.177749486176204 -127.23654017279645 0 0 0 0 285.40527388080227 -81.529563169627366 0 -81.529563169627366 -96.495651295404997 0 0 0 0 288.82297426915466 -29.884275399124149 0 -29.884275399124149 -103.69769766496856 0 0 0 0 378.24258161094622 -33.08561607511038 0 -33.08561607511038 -148.58650760500768 0 0 0 0 248.01138516989158 -16.47654645408511 0 -16.47654645408511 -125.9849909681576 0 0 0 0 237.95632368590032 -56.764785852286764 0 -56.764785852286764 -181.08232371432177 0 0 0 0 140.78389457324738 -13.254648345889905 0 -13.254648345889905 -113.28066874849981 0 0 0 0 -10.043291213671182 -112.42062811479371 0 -112.42062811479371 -78.814222638476849 0 0 0 0 341.12808741532899 36.948807049983202 0 36.948807049983202 -116.33208283445492 0 0 0 0 115.3417951322117 17.2082118732759 0 17.2082118732759 -68.006526629787913 0 0 0 0 389.22741094979574 -29.418013273289716 0 -29.418013273289716 -174.18141147697065 0 0 0 0 1.710508466242544 -2.3966946607593016 0 -2.3966946607593016 2.9935962078003775 0 0 0 0 -49.241627798925037 -30.69835487185162 0 -30.69835487185162 218.18510900372576 0 0 0 0 189.60464216371838 -256.14864261201927 0 -256.14864261201927 255.88894458569985 0 0 0 0 499.03232567355735 -200.26532025602 0 -200.26532025602 -61.679834512892569 0 0 0 0 364.67730897687943 -177.10374419062327 0 -177.10374419062327 333.01155624604098 0 0 0 0 3.5762963762270914 1.5800727533598291 0 1.5800727533598291 0.6781974108286315 0 0 0 0 412.86404914325249 -6.4403103574294391 0 -6.4403103574294391 -135.98617345858247 0 0 0 0 196.92374614119399 -120.77125555662337 0 -120.77125555662337 350.44053545860868 0 0 0 0 0.78894585253085125 -0.031436603566433519 0 -0.031436603566433519 -1.9309385209847143 0 0 0 0 -196.06654176538723 250.36626246984997 0 250.36626246984997 -112.06762949260403 0 0 0 0 230.47336540473043 38.525451772053202 0 38.525451772053202 -167.59859158595236 0 0 0 0 -65.42929095395084 177.00648728970532 0 177.00648728970532 -139.18796842722213 0 0 0 0 169.95502077378478 -118.12299471766039 0 -118.12299471766039 8.5099918820033054 0 0 0 0 314.93683095103916 -311.54194034036686 0 -311.54194034036686 118.43529434583866 0 0 0 0 139.45113960560411 7.4925035310311614 0 7.4925035310311614 -81.358318685605354 0 0 0 0 396.43184574616134 -96.281601937268078 0 -96.281601937268078 -41.631328021781428 0 0 0 0 127.83921028585246 -102.38831621708709 0 -102.38831621708709 70.279385845311026 0 0 0 0 192.27613310451852 -100.71703303142999 0 -100.71703303142999 6.5066352477410874 0 0 0 0 254.76809023457827 -267.46746332123462 0 -267.46746332123462 97.91973722619332 0 0 0 0 -530.1562281853021 -50.59634643387227 0 -50.59634643387227 291.52510963525083 0 0 0 0 -0.015536906589844079 -0.80437601952309734 0 -0.80437601952309734 3.8350142862038687 0 0 0 0 294.71171953251906 -196.71169001680278 0 -196.71169001680278 59.467712457769721 0 0 0 0 496.03493148546113 -278.81747753429136 0 -278.81747753429136 71.656670721927185 0 0 0 0 188.84977402481854 -253.08466586024099 0 -253.08466586024099 296.28651203916797 0 0 0 0 -191.61511285152665 -124.44644873129232 0 -124.44644873129232 261.57871197621967 0 0 0 0 -11.351197613770637 90.767709565933046 0 90.767709565933046 184.69328324926346 0 0 0 0 -33.908967677250985 -36.856584179916098 0 -36.856584179916098 371.43303432175662 0 0 0 0 -212.05612864561772 101.31653564891604 0 101.31653564891604 16.637720249428526 0 0 0 0 -35.000648908775474 -56.841714596975862 0 -56.841714596975862 131.22809494327393 0 0 0 0 -65.124490390584469 -15.658907972305784 0 -15.658907972305784 16.546093369437699 0 0 0 0 -441.47154053787017 -219.7488783414104 0 -219.7488783414104 84.829893771865528 0 0 0 0 114.42386160831302 -264.74040678441793 0 -264.74040678441793 220.261197600587 0 0 0 0 171.26744143262113 -240.24858043910126 0 -240.24858043910126 75.080440794548224 0 0 0 0 191.10363271258393 -211.1787129544204 0 -211.1787129544204 -88.58140442742959 0 0 0 0 25.347558216475591 27.046852718647472 0 27.046852718647472 16.823244275248612 0 0 0 0 0.90880110969546735 -3.7229509678908101 0 -3.7229509678908101 7.2376185106581223 0 0 0 0 35.503897433196471 -44.996296672136168 0 -44.996296672136168 61.174721294936035 0 0 0 0 9.3209135580109432 -57.152277519220661 0 -57.152277519220661 81.030484060376409 0 0 0 0 78.341449392355571 -14.252707033908337 0 -14.252707033908337 -40.604241269922341 0 0 0 0 9.0112887663090078 -166.15241890247091 0 -166.15241890247091 -243.14679735701088 0 0 0 0 4.4678294649562957 -5.6966437922653341 0 -5.6966437922653341 6.2708328845847969 0 0 0 0 -0.34529997868958162 -45.937530130028819 0 -45.937530130028819 -36.289305154146795 0 0 0 0 12.950455384969246 8.2186083083021657 0 8.2186083083021657 -10.181471071111631 0 0 0 0 -8.6938602490185986 6.4264634970746926 0 6.4264634970746926 6.2656309678170885 0 0 0 0 23.304490057576913 -59.392196946042191 0 -59.392196946042191 -141.32288678245578 0 0 0 0 -176.70555798147689 -115.55991722576005 0 -115.55991722576005 -101.78331650613995 0 0 0 0 2.8845480078668402 -6.9703598220712664 0 -6.9703598220712664 8.4798511047412113 0 0 0 0 -211.74897494770266 -287.666101353773 0 -287.666101353773 -158.96631957235763 0 0 0 0 -11.869489914803125 -192.07900170764219 0 -192.07900170764219 -273.3260865411853 0 0 0 0 -66.740188031199068 -196.18886240333131 0 -196.18886240333131 -112.71900990216568 0 0 0 0 -44.594045255131277 -85.792212988322191 0 -85.792212988322191 -51.172085237022202 0 0 0 0 -97.842413213176769 -102.18054650368845 0 -102.18054650368845 -129.93556934557955 0 0 0 0 -62.219152042682254 -170.9519162248408 0 -170.9519162248408 -64.668006163794644 0 0 0 0 -67.505956867542409 -169.12880128445664 0 -169.12880128445664 131.82902036691803 0 0 0 0 -79.535145997506334 -97.282476074740714 0 -97.282476074740714 -16.254505156918356 0 0 0 0 20.528913802954776 -131.57691532520806 0 -131.57691532520806 -24.110971997314465 0 0 0 0 6.5176116693801305 -129.29634149396983 0 -129.29634149396983 46.962706494697727 0 0 0 0 102.60082345309638 -64.892540407015389 0 -64.892540407015389 -61.943007067056442 0 0 0 0 83.925957169221874 -122.89687779101834 0 -122.89687779101834 -85.115384822708165 0 0 0 0 -101.83339438040275 -132.84628506543959 0 -132.84628506543959 -137.61310232548931 0 0 0 0 4.2094288242741413 -5.1104555853530158 0 -5.1104555853530158 2.9345719585260466 0 0 0 0 1086.8137034624742 56.571247142561901 0 56.571247142561901 -77.004460714716743 0 0 0 0 -190.55397529079346 -409.62972347748223 0 -409.62972347748223 400.868718727751 0 0 0 0 31.594797127632773 -713.84168616359648 0 -713.84168616359648 576.79732031176945 0 0 0 0 -61.132137686799979 -337.62692359391951 0 -337.62692359391951 308.48680970023509 0 0 0 0 -232.64140810946992 -367.97508350310488 0 -367.97508350310488 350.45440400563677 0 0 0 0 -172.89372927361183 -114.84682881250089 0 -114.84682881250089 50.370654463841674 0 0 0 0 -180.4508655756581 -164.06644256786819 0 -164.06644256786819 192.09441219758799 0 0 0 0 -93.151892319743638 -139.63989831331719 0 -139.63989831331719 -260.58776339097676 0 0 0 0 -239.89716562761168 -22.120665565695617 0 -22.120665565695617 -176.70911456922931 0 0 0 0 -276.96887420717394 -63.812466981117268 0 -63.812466981117268 44.549017940517274 0 0 0 0 -114.32554792744486 -44.902236784817205 0 -44.902236784817205 -433.93040384988262 0 0 0 0 -312.54946075553016 -47.71629051379 0 -47.71629051379 -160.57469825209773 0 0 0 0 -432.34706738201203 -33.123562766947998 0 -33.123562766947998 2.4680230612320884 0 0 0 0 -429.5799984636833 -144.4441665109257 0 -144.4441665109257 228.45372476664375 0 0 0 0 -295.80230189234135 66.822409492657243 0 66.822409492657243 -626.34890817922042 0 0 0 0 -800.86046997469384 -736.4791376674475 0 -736.4791376674475 -855.12915368441145 0 0 0 0 -126.11343638562539 -311.53382662732361 0 -311.53382662732361 -331.97760506919531 0 0 0 0 -54.283606426146434 -155.16794202874709 0 -155.16794202874709 36.024980154059449 0 0 0 0 3.9303035699970863 -5.0638955590464008 0 -5.0638955590464008 -0.21456222950062864 0 0 0 0 1.7570458264274649 -2.085840405165257 0 -2.085840405165257 -1.4881240667581697 0 0 0 0 -267.55788388733345 -183.13883340658617 0 -183.13883340658617 -331.28025818157084 0 0 0 0 140.65241771253932 94.478092716412448 0 94.478092716412448 58.026590845071723 0 0 0 0 296.71662245530752 77.233847926061799 0 77.233847926061799 -59.212327878056783 0 0 0 0 419.92953759142983 -189.01344439125262 0 -189.01344439125262 -113.17217491322549 0 0 0 0 825.18511343132559 -12.504977612006314 0 -12.504977612006314 -171.87207722196501 0 0 0 0 603.8684018798449 -230.07076751055652 0 -230.07076751055652 -147.49188088053734 0 0 0 0 306.76713455072604 -122.30508875549106 0 -122.30508875549106 -78.885807483870281 0 0 0 0 261.20596010197551 -186.74056277520492 0 -186.74056277520492 -145.81672322857685 0 0 0 0 10.601586141172447 -20.38118089203963 0 -20.38118089203963 -15.703054282814065 0 0 0 0 -280.22254595486447 -221.03513308816002 0 -221.03513308816002 10.762650327050324 0 0 0 0 1.3394955017044978 -4.650589342759659 0 -4.650589342759659 5.5312710258873228 0 0 0 0 223.64550955805316 -58.592225578483692 0 -58.592225578483692 -128.63189643108532 0 0 0 0 247.53980271351747 -250.07238414017695 0 -250.07238414017695 -65.156463592110981 0 0 0 0 661.87327501476102 -193.04014804216649 0 -193.04014804216649 -109.98098476498862 0 0 0 0 580.53339723322279 -297.95187245583281 0 -297.95187245583281 -105.80318871087221 0 0 0 0 664.52630056877024 -291.68157164662358 0 -291.68157164662358 84.674683084611502 0 0 0 0 692.55532043743733 -292.15403966280576 0 -292.15403966280576 -137.66127967197792 0 0 0 0 565.40522376156332 -290.26765331650932 0 -290.26765331650932 -77.38759914724551 0 0 0 0 673.59513670934211 -369.78375645613153 0 -369.78375645613153 39.463825949788088 0 0 0 0 675.35496447062906 -355.06525733016338 0 -355.06525733016338 49.464468937596507 0 0 0 0 392.18088963757691 -174.51789305229224 0 -174.51789305229224 -34.838043774680855 0 0 0 0 706.95331728448946 -387.19552243906242 0 -387.19552243906242 3.9723421558900327 0 0 0 0 3.5534590268766095 0.602719049954338 0 0.602719049954338 -2.0953048692819234 0 0 0 0 119.35400472731271 -24.101660475036908 0 -24.101660475036908 53.342695308851638 0 0 0 0 1002.8008569326894 -613.04731814969989 0 -613.04731814969989 218.3064987619577 0 0 0 0 -409.82386056968244 374.02240988694359 0 374.02240988694359 67.086686145501545 0 0 0 0 3416.5143657698827 -54.591767045470348 0 -54.591767045470348 -139.74626982957557 0 0 0 0 4.1416461440182637 4.9165566811490038 0 4.9165566811490038 -0.20620359311499684 0 0 0 0 2501.2722894525177 102.22387223151095 0 102.22387223151095 292.28310975041148 0 0 0 0 2965.7503959801361 -392.26033251987963 0 -392.26033251987963 60.710980981507198 0 0 0 0 106.28392969199649 -90.453807510786675 0 -90.453807510786675 -81.878540075846246 0 0 0 0 125.72054778620077 22.320462971956609 0 22.320462971956609 -123.7995040909785 0 0 0 0 938.34848946874263 709.20715529005008 0 709.20715529005008 -158.23113518856104 0 0 0 0 408.7699659027603 -242.02268651476595 0 -242.02268651476595 147.72536560154083 0 0 0 0 3112.9803033621029 920.69804462904585 0 920.69804462904585 133.81322325334384 0 0 0 0 1723.1267413235037 268.46199363030297 0 268.46199363030297 -54.340569022216101 0 0 0 0 2499.1273676442688 411.92427947940996 0 411.92427947940996 -355.04938587807106 0 0 0 0 1863.4774928165425 670.15484457479408 0 670.15484457479408 83.998014139207015 0 0 0 0 1928.7356446860767 322.67374658039768 0 322.67374658039768 -83.015862395802969 0 0 0 0 458.80165122143444 -40.033115939895509 0 -40.033115939895509 -181.73482560455767 0 0 0 0 2.7981752014989354 0.30196015075303251 0 0.30196015075303251 -1.2687028640925102 0 0 0 0 1747.2652372945595 -239.25223819055464 0 -239.25223819055464 128.16421036357681 0 0 0 0 1325.3889433968361 -19.824610157151497 0 -19.824610157151497 -203.11602745520892 0 0 0 0 2162.1331140573348 86.063510806214907 0 86.063510806214907 -402.60587569351844 0 0 0 0 1940.6077199667925 55.942725536249782 0 55.942725536249782 -406.22114222025203 0 0 0 0 2499.4253579508695 -208.17328358216173 0 -208.17328358216173 -454.31322310216109 0 0 0 0 2057.0462658188044 -426.42476009505651 0 -426.42476009505651 -194.29783269676025 0 0 0 0 1855.9731275665472 -403.98241474800255 0 -403.98241474800255 -154.04542960986595 0 0 0 0 1482.566888809095 -720.79773059313266 0 -720.79773059313266 300.30605732360686 0 0 0 0 1537.1314395463705 -349.27491843272492 0 -349.27491843272492 -135.41202254718849 0 0 0 0 798.49082988054943 -395.08839467123101 0 -395.08839467123101 14.133971522469437 0 0 0 0 870.21215378820489 -215.07483607904555 0 -215.07483607904555 95.654026438176089 0 0 0 0 463.27789608330932 -216.8420310877334 0 -216.8420310877334 43.893733980165024 0 0 0 0 517.56508467459389 -379.15473838380893 0 -379.15473838380893 253.99709749384414 0 0 0 0 890.3231753560467 -440.19281909516656 0 -440.19281909516656 253.98762286162054 0 0 0 0 1122.6532500888206 -260.86834820545016 0 -260.86834820545016 79.230955536918714 0 0 0 0 812.92891066226002 -480.8006258946923 0 -480.8006258946923 650.78631367479181 0 0 0 0 326.0256696056822 -211.38085022390726 0 -211.38085022390726 509.84005502982416 0 0 0 0 338.77320422273624 -81.644649488490472 0 -81.644649488490472 139.21450973807015 0 0 0 0 98.735815773601644 167.83531959762672 0 167.83531959762672 237.53983175810549 0 0 0 0 165.64015422361081 -37.248043004098918 0 -37.248043004098918 -0.7431247243425787 0 0 0 0 256.20956268245936 -108.80847237983835 0 -108.80847237983835 686.35564177676372 0 0 0 0 6.2068754088922446 -3.5669310519574395 0 -3.5669310519574395 0.11868175205569287 0 0 0 0 6.4857141261259699 0.81320161109014677 0 0.81320161109014677 2.6254769249350112 0 0 0 0 1839.9853048810555 -947.11114898671372 0 -947.11114898671372 629.56420650776897 0 0 0 0 364.36522905633319 -985.23478485272756 0 -985.23478485272756 1451.7140614529703 0 0 0 0 1648.1143397242267 -220.46125411474645 0 -220.46125411474645 42.226609766823913 0 0 0 0 1796.6651472032027 -792.54716807699378 0 -792.54716807699378 837.55283574496116 0 0 0 0 1352.2049762315464 -1152.1634584127769 0 -1152.1634584127769 1064.1413267081255 0 0 0 0 2499.9390006065696 -876.60735351473215 0 -876.60735351473215 146.60256401139102 0 0 0 0 807.37010260544776 -517.2400347834448 0 -517.2400347834448 469.98403656100589 0 0 0 0 39.454188540166797 22.166449664330798 0 22.166449664330798 -0.21244008937901526 0 0 0 0 62.086009472179285 24.546089139270634 0 24.546089139270634 -1.6878308821201244 0 0 0 0 2488.6941944666669 165.06964860839528 0 165.06964860839528 -393.87977794235906 0 0 0 0 286.17878519186343 367.27315697266528 0 367.27315697266528 501.05203977611092 0 0 0 0 3.3502853131148811 2.4222090774709031 0 2.4222090774709031 -4.1205605966118855 0 0 0 0 4.6011013516596009 -0.93396345569941808 0 -0.93396345569941808 2.823558254057486 0 0 0 0 37.360682733786234 22.412022247518877 0 22.412022247518877 -16.192518840161057 0 0 0 0 37.224655665337195 13.879033517938183 0 13.879033517938183 -8.5727153083450958 0 0 0 0 58.258786974351096 5.3890166393284176 0 5.3890166393284176 -5.9934555126890245 0 0 0 0 33.482289018989832 15.716318377001983 0 15.716318377001983 -9.5457785558121344 0 0 0 0 69.971483318298851 -1.937793428411851 0 -1.937793428411851 -12.212876588048744 0 0 0 0 13.075900243771137 6.6386464595120955 0 6.6386464595120955 -4.2729682480032913 0 0 0 0 46.532852798358363 -3.0454887513514848 0 -3.0454887513514848 -5.4419681487027276 0 0 0 0 43.123684432910522 0.86914398638896273 0 0.86914398638896273 -3.8818142345594424 0 0 0 0 51.834788704000857 -2.9179444989175636 0 -2.9179444989175636 -2.5969550721038104 0 0 0 0 42.610259849014255 -8.0039947251500507 0 -8.0039947251500507 0.36528771311873243 0 0 0 0 39.453003049645233 -5.1761868300424965 0 -5.1761868300424965 -0.60791909352968077 0 0 0 0 14.20796386600205 -5.6873106076127158 0 -5.6873106076127158 -4.6468331807757668 0 0 0 0 35.556721803512119 2.4421423442020114 0 2.4421423442020114 -5.3955550581877105 0 0 0 0 36.00338995541685 0.049729934556681954 0 0.049729934556681954 -3.5842631537178562 0 0 0 0 62.358886364017962 12.762313927865875 0 12.762313927865875 -5.8196604526592637 0 0 0 0 106.15576685458655 -18.109138825682749 0 -18.109138825682749 8.0175155547240138 0 0 0 0 1.7974235046852698 11.210967035968768 0 11.210967035968768 -2.0312121161560217 0 0 0 0 66.300800165568944 4.7657293921415658 0 4.7657293921415658 -14.863376348031125 0 0 0 0 21.348112333204874 26.939040794565983 0 26.939040794565983 -8.3137782123305222 0 0 0 0 69.3445724322155 1.1772968638110797 0 1.1772968638110797 -15.222836848610314 0 0 0 0 73.630292690289934 24.091405246636668 0 24.091405246636668 -1.2301456473375652 0 0 0 0 22.545546847963124 -39.074445986770115 0 -39.074445986770115 -18.026307404996714 0 0 0 0 7.8587270951004768 1.082250330314551 0 1.082250330314551 -0.97370881453088387 0 0 0 0 62.462269211990133 5.2962572692999856 0 5.2962572692999856 -16.180430981007703 0 0 0 0 117.8179218307414 -12.684792972314654 0 -12.684792972314654 -79.376322012678884 0 0 0 0 22.154842121151887 -3.626128656482706 0 -3.626128656482706 -12.732462513425844 0 0 0 0 103.65352450244245 15.825717135622199 0 15.825717135622199 -18.378939523254758 0 0 0 0 20.784808234361151 0.83257751218950204 0 0.83257751218950204 -3.9406272867114129 0 0 0 0 140.25117903405044 37.401010835231318 0 37.401010835231318 -29.998840666399701 0 0 0 0 124.8772500531195 23.270520288229363 0 23.270520288229363 -36.666926729510578 0 0 0 0 91.753830840232695 30.856874884190177 0 30.856874884190177 -20.424750116477128 0 0 0 0 109.18331268844486 10.53135800147993 0 10.53135800147993 -13.179013889651742 0 0 0 0 99.010823648502992 -8.8056953036007144 0 -8.8056953036007144 -25.924064932288502 0 0 0 0 24.827440279078431 29.072827601056872 0 29.072827601056872 -16.525035381546186 0 0 0 0 131.25488651753403 -0.74707106963205661 0 -0.74707106963205661 -22.736572755333327 0 0 0 0 123.96375560266824 17.00533081575486 0 17.00533081575486 -46.691057172489309 0 0 0 0 189.31618036946929 -25.331085196449067 0 -25.331085196449067 -34.030094304522436 0 0 0 0 11.542504099346338 5.384324013389076 0 5.384324013389076 -8.0618253925987311 0 0 0 0 68.130736949136917 9.2970228399467487 0 9.2970228399467487 8.6811215276566145 0 0 0 0 349.69344199877014 -10.100697533933726 0 -10.100697533933726 0.80499140445260764 0 0 0 0 138.10780888236332 54.591990161987411 0 54.591990161987411 -11.114876532369294 0 0 0 0 -1.6809026772752986 -122.45948538779214 0 -122.45948538779214 127.15840375817049 0 0 0 0 239.72761076491224 -242.46469958117689 0 -242.46469958117689 172.74094848671839 0 0 0 0 4.2594783796268985 -2.8762799287696126 0 -2.8762799287696126 2.0444792721225209 0 0 0 0 -104.14818789616402 -53.112160187024983 0 -53.112160187024983 95.952853335133341 0 0 0 0 2499.9524467148531 722.2979914979428 0 722.2979914979428 203.17026888230095 0 0 0 0 83.848422215240134 -14.534229985261845 0 -14.534229985261845 -32.997615876473105 0 0 0 0 55.595867505602655 -44.662869389212119 0 -44.662869389212119 -54.365637916604328 0 0 0 0 68.907997555877955 14.924032198036969 0 14.924032198036969 -80.944259158281511 0 0 0 0 8.1818232701042639 -9.1922147204679376 0 -9.1922147204679376 5.5006565594876937 0 0 0 0 27.863987784308847 -51.511438756606594 0 -51.511438756606594 -9.9047787894883186 0 0 0 0 2332.3032290064693 556.61131005767515 0 556.61131005767515 77.374276864907742 0 0 0 0 14.166631422564723 11.892195429192249 0 11.892195429192249 -6.4823122271270464 0 0 0 0 78.923689720482798 29.142461873684852 0 29.142461873684852 -11.834972981481314 0 0 0 0 40.740267936445889 -2.8861349697286869 0 -2.8861349697286869 -2.0953538276539803 0 0 0 0 12.427524996478802 17.041332384701462 0 17.041332384701462 -9.5593722889134067 0 0 0 0 82.737773608561838 -11.149381756024923 0 -11.149381756024923 -9.8549298846282909 0 0 0 0 42.622164680093192 6.0751658956378236 0 6.0751658956378236 -1.479569628289255 0 0 0 0 88.974336254825175 18.070613463244172 0 18.070613463244172 -15.856975361022705 0 0 0 0 -3.6588473742617325 22.333051812851167 0 22.333051812851167 -9.9653346916686765 0 0 0 0 33.963111626841055 -34.028393447451663 0 -34.028393447451663 4.7095050407933741 0 0 0 0 64.766772581217992 -7.1822260948636369 0 -7.1822260948636369 12.000549295078599 0 0 0 0 88.111779664948699 30.878876970573117 0 30.878876970573117 -18.384337279238935 0 0 0 0 4.4061377429826756 14.308429411056494 0 14.308429411056494 -4.4323506490359721 0 0 0 0 9.8994511928904103 33.857684377241753 0 33.857684377241753 10.958885302266935 0 0 0 0 47.284417754228343 6.1790628505424934 0 6.1790628505424934 -6.9756107070213602 0 0 0 0 66.437397658984992 13.550897368101232 0 13.550897368101232 -18.908429444340513 0 0 0 0 22.435105026185898 4.9224835909413471 0 4.9224835909413471 -2.6854603867441287 0 0 0 0 2191.9968916716698 277.16590680672789 0 277.16590680672789 -51.291264182761942 0 0 0 0 1761.3098421230025 117.2752127078767 0 117.2752127078767 -89.452384774144107 0 0 0 0 2499.5015460777868 517.69163545975982 0 517.69163545975982 -6.1388484517574762 0 0 0 0 14.85163749695608 -14.018720722988363 0 -14.018720722988363 6.854018495328793 0 0 0 0 2262.5491955501493 108.65770775323159 0 108.65770775323159 -99.992262101856696 0 0 0 0 7.1435187021250144 1.6627309263674874 0 1.6627309263674874 -1.1049206585069569 0 0 0 0 -85.032637115211401 23.405852403197628 0 23.405852403197628 15.313057587761392 0 0 0 0 54.923050760313345 27.400693265326709 0 27.400693265326709 -20.892297825689297 0 0 0 0 14.145944495572621 79.531438834798479 0 79.531438834798479 -141.7843125867816 0 0 0 0 14.432782265459537 127.74534301732115 0 127.74534301732115 -90.155664230114098 0 0 0 0 143.7942846511869 51.791779715245411 0 51.791779715245411 -192.12071492503162 0 0 0 0 10.138595966534467 -61.570885068160315 0 -61.570885068160315 -66.326091595791354 0 0 0 0 4.9715831196890576 76.86696894643751 0 76.86696894643751 -142.140525595621 0 0 0 0 6.2622084232390947 13.048051752351789 0 13.048051752351789 -1.2223339888949831 0 0 0 0 1917.5636353212976 -29.320610535061903 0 -29.320610535061903 83.093808574598626 0 0 0 0 2499.4053989267222 -113.6541183208373 0 -113.6541183208373 -163.70714054996702 0 0 0 0 2155.9646981400365 -355.26006711937629 0 -355.26006711937629 59.135562672496377 0 0 0 0 1.9944590648839267 0.19658490594741806 0 0.19658490594741806 -1.1899607919148929 0 0 0 0 854.63995517232979 -202.65809373493124 0 -202.65809373493124 562.76244191700516 0 0 0 0 249.99493915699713 -37.537335628512594 0 -37.537335628512594 -67.030657625912625 0 0 0 0 206.51116160590027 20.545607023553202 0 20.545607023553202 1.7693942379365808 0 0 0 0 45.358298971084878 60.681040644672009 0 60.681040644672009 -17.972366679201059 0 0 0 0 188.80634809147523 -23.988603022339987 0 -23.988603022339987 -107.35483462065667 0 0 0 0 167.5578976507677 16.616661045569003 0 16.616661045569003 -15.161653511347595 0 0 0 0 172.47895033357781 78.689054717600811 0 78.689054717600811 -6.9347868104841837 0 0 0 0 55.131629778451043 39.116030198669328 0 39.116030198669328 7.1396240444123578 0 0 0 0 286.18641087260039 110.05411432909796 0 110.05411432909796 -13.580813063348359 0 0 0 0 212.38110554747982 24.125983975533472 0 24.125983975533472 -25.936365808755909 0 0 0 0 518.55415547214216 44.877764474126252 0 44.877764474126252 -55.359609654099359 0 0 0 0 631.50901936279115 -190.61502506559935 0 -190.61502506559935 -58.234090685927185 0 0 0 0 351.97546436397897 -100.79564025422872 0 -100.79564025422872 -28.038304998925923 0 0 0 0 243.27387200226804 -71.18491111254707 0 -71.18491111254707 -36.047435275170756 0 0 0 0 281.33337345203108 21.962796783923011 0 21.962796783923011 -38.85306483487966 0 0 0 0 206.00353247831663 15.798197452185377 0 15.798197452185377 -27.19531210224909 0 0 0 0 216.45334474788297 -66.005586436637415 0 -66.005586436637415 -12.362758318235137 0 0 0 0 148.6464386585867 53.851398412644812 0 53.851398412644812 -8.1330838174660585 0 0 0 0 166.44047012928786 17.10631782652581 0 17.10631782652581 -20.704938829758476 0 0 0 0 107.22683761300868 50.202997113486617 0 50.202997113486617 -13.838779356593477 0 0 0 0 70.468787611461266 39.860752488217486 0 39.860752488217486 1.2090837879677565 0 0 0 0 96.672477758373134 33.628910182894742 0 33.628910182894742 -17.497127543776969 0 0 0 0 136.6636819841442 13.141837312164284 0 13.141837312164284 -9.1135563949969765 0 0 0 0 85.903518532690214 35.904856994344186 0 35.904856994344186 -17.867586712793127 0 0 0 0 109.46105821599485 36.778627895276713 0 36.778627895276713 -19.096203574571064 0 0 0 0 115.30509189363511 33.457373228933193 0 33.457373228933193 -34.665493714545846 0 0 0 0 154.83487770660031 -43.466193107282152 0 -43.466193107282152 -0.77405442964618487 0 0 0 0 192.18583747433149 -51.623785122758818 0 -51.623785122758818 -18.762541710146252 0 0 0 0 196.67259902519436 -194.92068033209625 0 -194.92068033209625 70.240750293595909 0 0 0 0 89.385656707127055 -109.54572700310837 0 -109.54572700310837 42.753253200808444 0 0 0 0 136.89953884558781 -122.05058890758812 0 -122.05058890758812 13.357248331005394 0 0 0 0 147.51749480135732 -221.48855723604322 0 -221.48855723604322 65.465541260531154 0 0 0 0 161.52191096829301 -266.23215579981712 0 -266.23215579981712 146.61881071529297 0 0 0 0 268.54416256107652 -290.59900322868839 0 -290.59900322868839 103.08618423946291 0 0 0 0 282.81896419895202 -180.77455352603238 0 -180.77455352603238 34.52548957182637 0 0 0 0 249.94840242786449 -210.83911989328624 0 -210.83911989328624 7.123759699760285 0 0 0 0 392.85677145867567 -273.36508656850458 0 -273.36508656850458 34.195615187165913 0 0 0 0 380.91637585296121 -124.64806413089286 0 -124.64806413089286 -71.456009563384214 0 0 0 0 448.18490009482775 -288.39802673207441 0 -288.39802673207441 5.0754753992364954 0 0 0 0 176.40058851639333 -326.04230315220843 0 -326.04230315220843 93.74473797935093 0 0 0 0 166.77747256562907 -334.48468730948275 0 -334.48468730948275 170.14827244932007 0 0 0 0 53.301205420062615 -320.48274760232493 0 -320.48274760232493 192.38488340116623 0 0 0 0 371.92830139637954 -427.8179926958295 0 -427.8179926958295 135.25926296582156 0 0 0 0 298.54352753924468 -480.3841488546837 0 -480.3841488546837 211.94036089565157 0 0 0 0 148.74805332500182 -436.53993417173729 0 -436.53993417173729 202.21429052790791 0 0 0 0 162.29871079366421 -408.8919130635511 0 -408.8919130635511 222.60100982976121 0 0 0 0 -77.888243514978967 -329.93390194409108 0 -329.93390194409108 275.89766790676072 0 0 0 0 4.1118227150145685 -289.85419528224463 0 -289.85419528224463 187.19985764940378 0 0 0 0 30.479965968577744 -516.44806705621295 0 -516.44806705621295 413.56007707106977 0 0 0 0 571.38902299168694 -881.2904115654452 0 -881.2904115654452 361.30779237818109 0 0 0 0 1199.9560787180599 -356.09837743338596 0 -356.09837743338596 -54.625674054556157 0 0 0 0 480.13331100701907 -288.99454149194656 0 -288.99454149194656 -43.864691930373169 0 0 0 0 87.889564659628377 -134.342682182479 0 -134.342682182479 51.888187003892313 0 0 0 0 196.19692410853895 -135.63955011245446 0 -135.63955011245446 -9.2025147845811404 0 0 0 0 101.39598389422463 -146.58819514018765 0 -146.58819514018765 47.200543172553409 0 0 0 0 2.4864893191188457 -232.03778846252564 0 -232.03778846252564 178.08557672698498 0 0 0 0 -54.008427040316747 -175.13441382948815 0 -175.13441382948815 127.23094358642919 0 0 0 0 103.47197980221245 -269.60517869114983 0 -269.60517869114983 156.83396808258919 0 0 0 0 115.79913332935394 -279.23509654025531 0 -279.23509654025531 164.34621573840263 0 0 0 0 139.53117266238405 -284.57383071701338 0 -284.57383071701338 156.82594119650264 0 0 0 0 215.04063145713008 -197.86284713589734 0 -197.86284713589734 79.266304440564454 0 0 0 0 116.62134347554382 -207.79968763489504 0 -207.79968763489504 103.01526322935069 0 0 0 0 228.69533793677692 -261.66679152734139 0 -261.66679152734139 128.78548452762413 0 0 0 0 155.26934934587916 -266.31712208534327 0 -266.31712208534327 158.82643373373025 0 0 0 0 242.65445520504727 -299.34519904639001 0 -299.34519904639001 167.53950492417312 0 0 0 0 131.3626154993035 -302.25563238473433 0 -302.25563238473433 145.67502254319697 0 0 0 0 139.90954371933913 -279.62844862854263 0 -279.62844862854263 146.48434333776174 0 0 0 0 156.89697019573578 -288.35650224600255 0 -288.35650224600255 153.63348717663166 0 0 0 0 139.47298462758044 -284.36770097008434 0 -284.36770097008434 182.61720899186184 0 0 0 0 104.25880572813912 -220.32053105161231 0 -220.32053105161231 213.99328263087409 0 0 0 0 139.50551940518199 -251.29623659897061 0 -251.29623659897061 168.9559878877526 0 0 0 0 140.78702266573237 -238.10253974161583 0 -238.10253974161583 117.78774910383027 0 0 0 0 135.00959271188913 -253.17767611333966 0 -253.17767611333966 179.47919292228801 0 0 0 0 78.62296478816279 -178.82569424545591 0 -178.82569424545591 149.21212353244209 0 0 0 0 225.21605469288261 -349.60193450243128 0 -349.60193450243128 299.46604162333324 0 0 0 0 135.678688131542 -266.66986171068197 0 -266.66986171068197 227.41826930861407 0 0 0 0 91.371846324520448 -178.84027354429372 0 -178.84027354429372 365.19052198569034 0 0 0 0 113.98824685296859 -191.99238660305082 0 -191.99238660305082 220.15658953178354 0 0 0 0 24.553007666989615 -5.3347297308578323 0 -5.3347297308578323 0.89445250919213204 0 0 0 0 85.580849811576627 -144.62295543680034 0 -144.62295543680034 317.00125988506079 0 0 0 0 16.895146443494014 -53.016892593428111 0 -53.016892593428111 232.568167265581 0 0 0 0 34.655344439209443 -7.2321812547739395 0 -7.2321812547739395 0.82621389390563582 0 0 0 0 71.005048163453466 -35.293202189609701 0 -35.293202189609701 50.216353686907496 0 0 0 0 53.073707275427296 -30.360246315093718 0 -30.360246315093718 55.555999614815846 0 0 0 0 65.076591460259806 -123.25440674711331 0 -123.25440674711331 160.00541561399859 0 0 0 0 70.17725937654177 -126.73826899392134 0 -126.73826899392134 151.83191408070707 0 0 0 0 49.825989795710484 -58.499497236436582 0 -58.499497236436582 58.903738941716256 0 0 0 0 51.937571451730037 -54.196595512119984 0 -54.196595512119984 47.744855519624252 0 0 0 0 119.20661371793904 -149.62944232554344 0 -149.62944232554344 88.547942149969913 0 0 0 0 67.994686326797819 -68.557333282868512 0 -68.557333282868512 44.606269863379111 0 0 0 0 60.362705325787829 -1.9956260657550047 0 -1.9956260657550047 -31.625192147146748 0 0 0 0 148.16787015424416 -88.582549110700484 0 -88.582549110700484 -28.262982584169094 0 0 0 0 48.158728075504769 11.590797702953751 0 11.590797702953751 -16.436110899673622 0 0 0 0 88.747045476142375 -28.375645974243525 0 -28.375645974243525 -8.5932344348357219 0 0 0 0 31.039469459879911 -11.772405130753214 0 -11.772405130753214 -7.4237339490395016 0 0 0 0 60.683022069977596 -22.150701875660616 0 -22.150701875660616 -24.362892586080307 0 0 0 0 31.044944555499626 -4.803403989963261 0 -4.803403989963261 2.0927397069137599 0 0 0 0 61.966128546981054 -53.360317707764807 0 -53.360317707764807 15.780664128748867 0 0 0 0 7.3567182050901465 -25.267680997924799 0 -25.267680997924799 21.086861470662143 0 0 0 0 11.045872203989532 -1.9261506306037077 0 -1.9261506306037077 -1.0965135660213292 0 0 0 0 -6.3476401094121684 -39.891160766122709 0 -39.891160766122709 -0.88035319336177054 0 0 0 0 34.734779350423196 -2.0970066885627148 0 -2.0970066885627148 2.677681739562189 0 0 0 0 8.8125006760579883 -7.2544054234978432 0 -7.2544054234978432 5.3484310263274528 0 0 0 0 35.696884728269652 -1.1638824971808504 0 -1.1638824971808504 3.3136146899164487 0 0 0 0 43.103170270478586 0.42710529024475363 0 0.42710529024475363 3.6447319767289628 0 0 0 0 -14.901899846925517 -46.985670370297385 0 -46.985670370297385 14.656890500034024 0 0 0 0 -24.422258827195037 -6.1411770375081005 0 -6.1411770375081005 23.426645302948828 0 0 0 0 -8.157436486788356 -29.960164046231512 0 -29.960164046231512 32.87699628280734 0 0 0 0 83.064508378487517 -14.111590072133708 0 -14.111590072133708 22.915672713766526 0 0 0 0 22.500033908523619 -56.802912137037993 0 -56.802912137037993 55.401412673687901 0 0 0 0 0.66618240289244568 -29.445868418646654 0 -29.445868418646654 30.256965811913688 0 0 0 0 -9.447164405303738 -73.96382339374972 0 -73.96382339374972 4.4657284551649354 0 0 0 0 6.9276055142836412 -61.145730787803814 0 -61.145730787803814 -59.886124395219184 0 0 0 0 -9.9105724181245023 8.0834700445718681 0 8.0834700445718681 97.967732780768131 0 0 0 0 75.968134761449619 -116.20578559515616 0 -116.20578559515616 -182.16337121154697 0 0 0 0 393.08276372409819 122.3910622935291 0 122.3910622935291 54.134000586629554 0 0 0 0 98.387572071689647 -49.35822901378117 0 -49.35822901378117 103.07019368249462 0 0 0 0 533.24349032075406 -69.936704612706308 0 -69.936704612706308 3.3808748589293032 0 0 0 0 539.96356791187281 -114.47544326019465 0 -114.47544326019465 29.606886456078428 0 0 0 0 923.33528633171591 -290.53738698263965 0 -290.53738698263965 -17.838529134917536 0 0 0 0 710.8180525228745 -201.91438440617469 0 -201.91438440617469 -25.931560216204161 0 0 0 0 613.60616977180689 -188.20101860667495 0 -188.20101860667495 52.828769517167075 0 0 0 0 811.8364544711003 -239.83836976140788 0 -239.83836976140788 30.652316549697531 0 0 0 0 796.18667257867492 -269.61859240788044 0 -269.61859240788044 -25.715963478085087 0 0 0 0 564.01586232348927 -178.37396055118302 0 -178.37396055118302 276.35168609138759 0 0 0 0 723.7711636547665 -346.07211826989715 0 -346.07211826989715 275.28738507218236 0 0 0 0 1324.721178737047 -363.73380899064273 0 -363.73380899064273 2.7677977142028567 0 0 0 0 714.4936716651755 -72.865931486424302 0 -72.865931486424302 -70.468193934672172 0 0 0 0 653.94890646517888 -409.37683921845417 0 -409.37683921845417 827.08367283601774 0 0 0 0 551.79099482148376 -136.53535058347359 0 -136.53535058347359 279.9456904482854 0 0 0 0 553.10390165601257 -2.2397626109694837 0 -2.2397626109694837 165.58060862243042 0 0 0 0 907.88717309004642 116.96635728415981 0 116.96635728415981 452.50225894101789 0 0 0 0 1212.9888287739614 -453.59746390378552 0 -453.59746390378552 288.869456968137 0 0 0 0 668.82447102151855 -491.3369582390709 0 -491.3369582390709 285.56176940380089 0 0 0 0 660.35253429859222 -210.10765098432466 0 -210.10765098432466 184.33821495463326 0 0 0 0 530.34364725339037 -710.3327255173042 0 -710.3327255173042 1121.8444315094357 0 0 0 0 9.4803626376367731 -2.2580133325245644 0 -2.2580133325245644 0.87092731558168168 0 0 0 0 650.53940256720307 275.36317310554489 0 275.36317310554489 -139.45937740793852 0 0 0 0 112.86520469832249 -256.39448718923074 0 -256.39448718923074 635.76438054692903 0 0 0 0 147.47411116357398 -150.79615969829615 0 -150.79615969829615 266.90838591283591 0 0 0 0 324.8570064064188 -293.70982192742861 0 -293.70982192742861 181.20074153826408 0 0 0 0 327.04097769618238 -299.97800561548695 0 -299.97800561548695 180.26789163604121 0 0 0 0 486.77159680523982 -154.74870294416638 0 -154.74870294416638 47.935662931615752 0 0 0 0 549.60541872456452 -297.07920332779025 0 -297.07920332779025 77.094309936259833 0 0 0 0 370.67408212843293 -199.29011741852094 0 -199.29011741852094 27.512666047014932 0 0 0 0 241.92930862105402 -275.30750798687268 0 -275.30750798687268 174.39186559477685 0 0 0 0 351.39858569500939 -284.93018766655155 0 -284.93018766655155 116.52966404043048 0 0 0 0 219.26307995724801 -214.44005654538563 0 -214.44005654538563 78.993496247318262 0 0 0 0 195.13460533910984 -137.92655412787317 0 -137.92655412787317 25.532843729641023 0 0 0 0 332.90748397164862 -187.78625208378173 0 -187.78625208378173 41.607721285201308 0 0 0 0 450.46511523163645 -146.11368764942483 0 -146.11368764942483 -39.151888608761709 0 0 0 0 329.79852962464429 -182.2347698780784 0 -182.2347698780784 31.708644163338022 0 0 0 0 396.90654688364157 -54.684107298424465 0 -54.684107298424465 -99.634997921430241 0 0 0 0 306.17039334113906 -76.988194821595812 0 -76.988194821595812 -71.901884434575891 0 0 0 0 191.14707957453356 -69.639050149796162 0 -69.639050149796162 -49.711921802322379 0 0 0 0 313.46048893312764 -131.41544525557075 0 -131.41544525557075 -18.512447489249226 0 0 0 0 406.33592253312781 32.575458699651534 0 32.575458699651534 -155.20578075778673 0 0 0 0 391.12158404479487 -49.189711642182687 0 -49.189711642182687 -92.564672453759272 0 0 0 0 442.75023948556554 -6.3186068823603136 0 -6.3186068823603136 -117.58777064071677 0 0 0 0 448.92921766181098 -79.278777316573724 0 -79.278777316573724 -55.960713783359324 0 0 0 0 449.23600567064892 -53.69890355273121 0 -53.69890355273121 -100.10990455544379 0 0 0 0 500.79038219459835 -24.616626414360795 0 -24.616626414360795 -184.25393244492363 0 0 0 0 505.91656850583831 4.1993953038335619 0 4.1993953038335619 -9.9077317416094957 0 0 0 0 614.69260951558681 -99.471671233804273 0 -99.471671233804273 -66.834962221885291 0 0 0 0 722.1831401327654 -245.03932204053694 0 -245.03932204053694 80.479091282262743 0 0 0 0 688.24763381149432 -13.848458652782824 0 -13.848458652782824 93.837471466605166 0 0 0 0 488.24443980260912 -109.13169747185748 0 -109.13169747185748 48.443724006287766 0 0 0 0 287.86601018978399 -74.592598057524356 0 -74.592598057524356 146.9568629558953 0 0 0 0 305.25211157488593 34.040426385493561 0 34.040426385493561 78.148588562252712 0 0 0 0 150.98423189286405 -45.87376344359302 0 -45.87376344359302 39.102077905737815 0 0 0 0 244.46976884300238 79.865499340686824 0 79.865499340686824 -107.33447324772362 0 0 0 0 270.50979574306984 -85.548469493390769 0 -85.548469493390769 -44.107370858146851 0 0 0 0 -64.544990343107202 -193.54350945270767 0 -193.54350945270767 -248.40318307218467 0 0 0 0 222.51242254564204 -50.472780310620692 0 -50.472780310620692 -290.67639874384804 0 0 0 0 -0.52099802272918794 0.6031196630140343 0 0.6031196630140343 -1.5650659239906854 0 0 0 0 388.24168446075112 136.32424726951993 0 136.32424726951993 0.9512928729086525 0 0 0 0 383.58713528812586 53.098201125430357 0 53.098201125430357 -82.432364139281418 0 0 0 0 33.783682756861609 7.9541856244411342 0 7.9541856244411342 -133.55467746796512 0 0 0 0 58.542994212686608 22.09867937175477 0 22.09867937175477 -142.82823359460394 0 0 0 0 16.724250838922671 36.817345195843131 0 36.817345195843131 -122.18977903354289 0 0 0 0 19.978883173676877 46.327852388778183 0 46.327852388778183 -103.62318654345836 0 0 0 0 33.734647315613984 23.633899299569975 0 23.633899299569975 -140.48510679819992 0 0 0 0 79.662930549478915 -18.924630870665169 0 -18.924630870665169 -137.97363620293572 0 0 0 0 21.416874592673594 -2.8909475248102581 0 -2.8909475248102581 -122.26972460236334 0 0 0 0 57.315559137874516 -9.6722215391623649 0 -9.6722215391623649 -121.6484636334817 0 0 0 0 73.382847129614674 -6.3777305283792884 0 -6.3777305283792884 -145.64016568346585 0 0 0 0 72.439210939272016 79.476283389491869 0 79.476283389491869 -115.11229486791422 0 0 0 0 120.51078691683506 21.671921263708214 0 21.671921263708214 -166.55009744219365 0 0 0 0 60.008748176020163 11.070517133080216 0 11.070517133080216 -165.89328699077373 0 0 0 0 184.11624693121485 53.856274953693514 0 53.856274953693514 -46.510094871021664 0 0 0 0 53.667994391173124 3.3887472013867068 0 3.3887472013867068 -56.652296843790509 0 0 0 0 94.886655180929665 -13.833506574112391 0 -13.833506574112391 106.54370266553303 0 0 0 0 122.03933034121746 62.274321098031777 0 62.274321098031777 19.366624748828826 0 0 0 0 101.53195986395804 1.8043351926653486 0 1.8043351926653486 261.61942480546651 0 0 0 0 85.669200828207977 12.481587345185659 0 12.481587345185659 261.50641251229513 0 0 0 0 156.90976309530015 52.339418387085288 0 52.339418387085288 156.62855504453228 0 0 0 0 161.70314357825555 -20.75721171450175 0 -20.75721171450175 195.85321301143881 0 0 0 0 321.74247646207732 -2.9980505826573562 0 -2.9980505826573562 195.78826315336357 0 0 0 0 166.97267333796572 -36.053546933790535 0 -36.053546933790535 195.34201458408938 0 0 0 0 308.94951251244856 -34.540978248560805 0 -34.540978248560805 357.39032285601456 0 0 0 0 532.96918364982957 -210.23414357864232 0 -210.23414357864232 316.8394187584463 0 0 0 0 167.03755792603806 9.1786641391778403 0 9.1786641391778403 263.12121224509679 0 0 0 0 327.63039886479601 -59.7374121072055 0 -59.7374121072055 251.04309553078167 0 0 0 0 355.13451474796602 -36.132777790178011 0 -36.132777790178011 213.82252672912387 0 0 0 0 335.77731174520159 -52.598412411948857 0 -52.598412411948857 209.00049624414623 0 0 0 0 593.76442868456434 -171.25080389313825 0 -171.25080389313825 209.47814215148099 0 0 0 0 406.80657758754751 -0.58245909797750528 0 -0.58245909797750528 89.018561289650961 0 0 0 0 590.62578949551244 -33.867833298999813 0 -33.867833298999813 93.476432495725049 0 0 0 0 168.95558881993202 32.419376558335102 0 32.419376558335102 161.89263948683711 0 0 0 0 204.48215398254979 70.720473952859493 0 70.720473952859493 166.40174676137212 0 0 0 0 81.620961142620217 67.138911286250391 0 67.138911286250391 190.28685610184289 0 0 0 0 179.04926059047284 3.3494143967393484 0 3.3494143967393484 241.73832827064916 0 0 0 0 168.63812050737397 33.796159140030795 0 33.796159140030795 238.45024769327279 0 0 0 0 140.35455779799304 11.337692295668035 0 11.337692295668035 241.84207189687436 0 0 0 0 130.12623033192449 405.82700004115134 0 405.82700004115134 -90.464987634425597 0 0 0 0 -25.486466479633236 -79.820528969312022 0 -79.820528969312022 -150.43838696656255 0 0 0 0 33.397861410952032 99.750348217415365 0 99.750348217415365 77.17544573331179 0 0 0 0 177.81554056936147 35.437014383986138 0 35.437014383986138 105.39115589027278 0 0 0 0 307.78777143519073 168.15097798222547 0 168.15097798222547 60.121944007813454 0 0 0 0 665.2442946941228 153.15524323298746 0 153.15524323298746 -11.968677892638709 0 0 0 0 743.1127295341646 -157.90294695038162 0 -157.90294695038162 -64.093233396117057 0 0 0 0 749.88859833215247 -40.8373076261081 0 -40.8373076261081 -40.43388994955103 0 0 0 0 711.29095003662223 -32.459702215604693 0 -32.459702215604693 -42.041448913587089 0 0 0 0 872.29246733053697 -11.518126370787314 0 -11.518126370787314 -158.07852616272089 0 0 0 0 1028.5194307594793 -201.01206885244022 0 -201.01206885244022 -91.197220501325774 0 0 0 0 1190.1458426467871 -73.20524768845587 0 -73.20524768845587 -147.47694260343451 0 0 0 0 1159.2508312503924 -108.61979887832763 0 -108.61979887832763 -185.1653875309741 0 0 0 0 393.46373650124588 170.38451088092853 0 170.38451088092853 2.641219389037019 0 0 0 0 931.73016899488175 331.75242617283129 0 331.75242617283129 -132.43666986049948 0 0 0 0 526.98927299702336 161.9413321038796 0 161.9413321038796 -46.25687975793393 0 0 0 0 536.60248689358559 166.81263250852311 0 166.81263250852311 -245.75893916481382 0 0 0 0 1310.9172798270993 -909.91305539973882 0 -909.91305539973882 720.254114354271 0 0 0 0 447.49166012479691 332.91757799002005 0 332.91757799002005 58.607203241374236 0 0 0 0 16.713434833404548 2.6132792823043118 0 2.6132792823043118 1.0771157976252983 0 0 0 0 1498.4524726379459 393.60193625017536 0 393.60193625017536 -150.66237503704843 0 0 0 0 1265.2830798468458 -588.2712592083758 0 -588.2712592083758 1269.8118492356109 0 0 0 0 2189.1025870797821 -552.76807054216181 0 -552.76807054216181 -15.676634736305459 0 0 0 0 2390.2282650329525 -387.84130344283892 0 -387.84130344283892 344.14993688653044 0 0 0 0 2116.1891197784353 -747.58878553617808 0 -747.58878553617808 436.87611299727109 0 0 0 0 2185.6841023318266 163.69039817722555 0 163.69039817722555 736.08252482384023 0 0 0 0 1776.1386843541186 -177.70509433361951 0 -177.70509433361951 465.51770995771881 0 0 0 0 1649.9106138623829 -347.00281158484972 0 -347.00281158484972 343.77630948290545 0 0 0 0 1907.8400908040931 -253.41282246275784 0 -253.41282246275784 90.608921828326402 0 0 0 0 763.63335967858438 -915.62779839661073 0 -915.62779839661073 721.26730947616386 0 0 0 0 1577.3885654508003 -754.37593123497118 0 -754.37593123497118 437.21796571717914 0 0 0 0 1241.6447848643547 -469.04762051465707 0 -469.04762051465707 263.03287941791336 0 0 0 0 103.34886561903113 143.47940769219838 0 143.47940769219838 -10.517295903129309 0 0 0 0 82.524690909023775 -459.70405081762374 0 -459.70405081762374 506.40033407561032 0 0 0 0 -80.517714054466524 -141.11442815124889 0 -141.11442815124889 24.059560003048318 0 0 0 0 -110.61825398970541 -48.653223398270711 0 -48.653223398270711 84.972599586141428 0 0 0 0 -2.6767537863716839 -1.7487446474546502 0 -1.7487446474546502 -0.96463343915889987 0 0 0 0 -92.537808676741406 213.79825734248442 0 213.79825734248442 -219.59081091457625 0 0 0 0 29.193171117325619 40.879519203873656 0 40.879519203873656 -155.19712858082607 0 0 0 0 1.8070599893496038 1.0829553846342055 0 1.0829553846342055 -1.7397024699860877 0 0 0 0 -16.530786552684731 14.53654574409893 0 14.53654574409893 45.448631929745659 0 0 0 0 39.942492788445186 10.638813406667856 0 10.638813406667856 0.52386290387623924 0 0 0 0 5.5998879486473356 -6.7824610936826062 0 -6.7824610936826062 -7.6192905859343085 0 0 0 0 -14.588120654574595 91.700920662554608 0 91.700920662554608 -129.16332056282874 0 0 0 0 99.145436650378542 -4.105094536320621 0 -4.105094536320621 -123.72987723921324 0 0 0 0 13.497589764127042 -100.91951551836493 0 -100.91951551836493 121.21842445871044 0 0 0 0 285.70668511660915 -216.72891325935271 0 -216.72891325935271 145.21669680727331 0 0 0 0 719.46689295820397 -420.86284622823337 0 -420.86284622823337 93.575393062688363 0 0 0 0 478.37263783145227 -301.72607064670387 0 -301.72607064670387 116.24061896246849 0 0 0 0 525.61680939784128 -232.10684465933173 0 -232.10684465933173 22.78291303704782 0 0 0 0 457.24597854199237 -272.41417931521278 0 -272.41417931521278 39.633159851346818 0 0 0 0 517.63364834864115 -252.07660151950245 0 -252.07660151950245 -21.362569507897206 0 0 0 0 714.83512049537603 -340.6442316751727 0 -340.6442316751727 -73.422074447739533 0 0 0 0 192.20518499366335 -124.61760341379068 0 -124.61760341379068 -0.69020376101548209 0 0 0 0 410.50400033197729 -141.39864230944386 0 -141.39864230944386 -41.602138789619175 0 0 0 0 602.14283812918893 -187.93059636921112 0 -187.93059636921112 -80.965806745190548 0 0 0 0 555.0188581459654 -111.75641953687057 0 -111.75641953687057 -123.33882808804083 0 0 0 0 732.01909601098123 -277.32839653110364 0 -277.32839653110364 -142.59180128958269 0 0 0 0 613.41558231286399 -307.86130857223088 0 -307.86130857223088 -71.104158638810077 0 0 0 0 699.03013278869821 -118.97117729235879 0 -118.97117729235879 -109.16707027179837 0 0 0 0 922.95232806654531 -311.29397632140717 0 -311.29397632140717 -141.0501574108157 0 0 0 0 382.83979237561289 -202.20817466133485 0 -202.20817466133485 101.04209183362309 0 0 0 0 701.69467000395161 -237.73468346924597 0 -237.73468346924597 -19.319153009479123 0 0 0 0 784.58147436595027 -392.69835542210285 0 -392.69835542210285 -14.806377672129599 0 0 0 0 730.67702243835447 -370.22361435786752 0 -370.22361435786752 -13.537097077536657 0 0 0 0 828.49909386768559 -304.60026789710014 0 -304.60026789710014 -100.25528961093096 0 0 0 0 669.27963794026073 -296.6485904495587 0 -296.6485904495587 -76.522174898090725 0 0 0 0 811.54879975641597 -334.45702808689293 0 -334.45702808689293 -122.39873242577914 0 0 0 0 751.48596260766135 -90.426513942624979 0 -90.426513942624979 -115.16621470198697 0 0 0 0 837.15213775331085 -300.63608919490503 0 -300.63608919490503 -107.66914949264356 0 0 0 0 1151.7430547078475 -106.38611047305562 0 -106.38611047305562 -114.82539973541529 0 0 0 0 922.66501503447216 -390.97813754369565 0 -390.97813754369565 -77.682705826458005 0 0 0 0 907.6913452179906 -261.7463257510376 0 -261.7463257510376 -86.463115013982815 0 0 0 0 735.50820635353921 -306.65059635927526 0 -306.65059635927526 -97.111267451331514 0 0 0 0 910.9763633709008 -557.74909340381373 0 -557.74909340381373 250.91147003256282 0 0 0 0 925.89315736012577 -609.23108010572651 0 -609.23108010572651 322.53353611604086 0 0 0 0 1378.7330075316731 -294.1150213769522 0 -294.1150213769522 -54.439001886948745 0 0 0 0 982.05532029264577 -311.90430994657481 0 -311.90430994657481 -55.042157620320722 0 0 0 0 1353.0378403436007 -312.51728827090301 0 -312.51728827090301 88.820058931281352 0 0 0 0 1516.439100584711 229.3840132194965 0 229.3840132194965 -37.612801504307299 0 0 0 0 37.226316078114905 97.93413105142838 0 97.93413105142838 -82.356503107800677 0 0 0 0 861.62216432806417 172.52087149039966 0 172.52087149039966 -31.599243856726616 0 0 0 0 -13.362527590878017 -232.91338714890742 0 -232.91338714890742 -407.15190902740181 0 0 0 0 -0.01393687674030275 -0.75617770439638399 0 -0.75617770439638399 0.10774158330427464 0 0 0 0 208.08170443835479 21.649937514990029 0 21.649937514990029 -153.36905667790001 0 0 0 0 118.15053309543873 119.18028334740791 0 119.18028334740791 99.99376622420823 0 0 0 0 91.834944956079198 6.2983670844105859 0 6.2983670844105859 -5.8177337058618832 0 0 0 0 82.881259724148549 -9.7418632608283815 0 -9.7418632608283815 -34.545602686763573 0 0 0 0 1.5554487161091721 -4.0427247927789551 0 -4.0427247927789551 -3.1875209502952329 0 0 0 0 655.91192369141572 -17.879251234553067 0 -17.879251234553067 -9.6560594799852879 0 0 0 0 796.89602108766303 -31.589486136259893 0 -31.589486136259893 -68.133227732409978 0 0 0 0 253.26841831034972 -73.750759306176576 0 -73.750759306176576 70.413179546803804 0 0 0 0 420.7422414371249 -21.753986673194959 0 -21.753986673194959 -56.277771107797093 0 0 0 0 101.27220870517704 29.252706863867814 0 29.252706863867814 -10.037227539292189 0 0 0 0 17.114174438696324 -1.4627415370350718 0 -1.4627415370350718 -8.6672134071400055 0 0 0 0 30.113683535075452 20.426534339891031 0 20.426534339891031 -0.61219812651135541 0 0 0 0 29.054007676827496 22.253401566144476 0 22.253401566144476 -9.796950958042089 0 0 0 0 258.64234210291943 -45.199509781825782 0 -45.199509781825782 29.855287143487658 0 0 0 0 -70.092733845584007 99.403106268180636 0 99.403106268180636 -31.70631834532378 0 0 0 0 95.600198100267946 19.825397374303726 0 19.825397374303726 -8.2597337913620557 0 0 0 0 64.754075880435295 10.537919956276586 0 10.537919956276586 -10.790425849542178 0 0 0 0 40.632569397618383 19.087969480404741 0 19.087969480404741 -16.008028327244091 0 0 0 0 34.072764291377098 3.2569236189910953 0 3.2569236189910953 -12.850238772851299 0 0 0 0 237.03229785631993 -52.886950500797411 0 -52.886950500797411 4.8038420462535214 0 0 0 0 322.60820478597452 -29.993638343513339 0 -29.993638343513339 4.8273107035765861 0 0 0 0 -114.79383325063259 207.9244498585478 0 207.9244498585478 -74.554097652615383 0 0 0 0 -9.8782818520949149 211.61282013500261 0 211.61282013500261 -321.61238027542186 0 0 0 0 62.598440051546277 8.1471300539535605 0 8.1471300539535605 -27.542327304611945 0 0 0 0 -148.62199722487867 -41.817235030053098 0 -41.817235030053098 38.103141894765486 0 0 0 0 41.288158352076593 15.37286123283519 0 15.37286123283519 -0.80070747039621004 0 0 0 0 29.132440802326528 18.226390129066772 0 18.226390129066772 25.092371577223503 0 0 0 0 49.263891971035264 32.035379976693662 0 32.035379976693662 -32.401078021371177 0 0 0 0 41.998765163225194 11.336514983410467 0 11.336514983410467 0.69883296781229465 0 0 0 0 63.271443906696732 -8.6987192075000621 0 -8.6987192075000621 2.1006675374081851 0 0 0 0 51.475865343814576 22.850777670460616 0 22.850777670460616 20.506518826918636 0 0 0 0 26.30439703716214 21.937339586168697 0 21.937339586168697 3.1859054559099116 0 0 0 0 25.616689778412365 41.818448100472679 0 41.818448100472679 9.910928794201709 0 0 0 0 25.875182003182999 37.352541927586799 0 37.352541927586799 12.927961351948397 0 0 0 0 2.1155730776296906 7.847267345545303 0 7.847267345545303 0.22297712030174408 0 0 0 0 31.045940047508338 38.755230448095602 0 38.755230448095602 5.6252397376777026 0 0 0 0 474.15420816736878 -232.82734700848204 0 -232.82734700848204 -550.0053338492188 0 0 0 0 32.917420863777807 32.683703988212301 0 32.683703988212301 12.260572685770526 0 0 0 0 -215.7638246343995 123.12417021510464 0 123.12417021510464 49.198051781582535 0 0 0 0 -358.85413192125634 328.6134830050492 0 328.6134830050492 196.91162079961191 0 0 0 0 115.04744831881908 0.88770240234553555 0 0.88770240234553555 -24.703862453612544 0 0 0 0 6.7458927952505405 -0.76357121421099805 0 -0.76357121421099805 -2.131474690438298 0 0 0 0 -108.54879694321426 3.1242178552492987 0 3.1242178552492987 -137.96217368686848 0 0 0 0 178.23161036330202 47.491528467415606 0 47.491528467415606 -125.53047453567535 0 0 0 0 3.8100161991338553 3.0366085765612709 0 3.0366085765612709 1.8424981323385756 0 0 0 0 239.16885635159269 114.67466895824873 0 114.67466895824873 -63.05039088459398 0 0 0 0 178.94136088291634 51.11188053843955 0 51.11188053843955 -88.525491163830907 0 0 0 0 45.963954396182089 -32.509846153160254 0 -32.509846153160254 -107.82517743948267 0 0 0 0 132.53029454367061 17.871067730471282 0 17.871067730471282 -80.305781526176702 0 0 0 0 11.687037375813816 -4.0297855546898518 0 -4.0297855546898518 9.3560090505920925 0 0 0 0 162.10897625465077 13.842764909917946 0 13.842764909917946 24.979464920247437 0 0 0 0 146.48951562148613 58.163054351803368 0 58.163054351803368 -3.7742830237559701 0 0 0 0 106.72439380765718 -20.012905886645513 0 -20.012905886645513 20.550326678399699 0 0 0 0 36.474128485213441 7.1487139259553487 0 7.1487139259553487 57.563985365007852 0 0 0 0 105.58524743142561 14.226789937699655 0 14.226789937699655 -0.30267838436452621 0 0 0 0 168.56932591509758 -41.902095091074727 0 -41.902095091074727 121.43656456305956 0 0 0 0 214.26089973691523 -73.594145099727825 0 -73.594145099727825 142.43104321505371 0 0 0 0 176.29563735617558 30.06580454356515 0 30.06580454356515 15.498541026171665 0 0 0 0 184.95935252946219 79.629869740617437 0 79.629869740617437 36.106827910002039 0 0 0 0 71.52056425317096 25.806565356724221 0 25.806565356724221 124.8773974671584 0 0 0 0 57.752249379300338 155.8280731875808 0 155.8280731875808 -10.210147548042528 0 0 0 0 156.41206794137543 115.49494020533911 0 115.49494020533911 4.8985334869942108 0 0 0 0 207.78815653654601 197.12641788192741 0 197.12641788192741 -10.38045332767922 0 0 0 0 -83.942818417594026 -42.550400308422439 0 -42.550400308422439 18.552195689313976 0 0 0 0 169.89451279189234 55.873341152084549 0 55.873341152084549 -211.18325467946391 0 0 0 0 91.675036485044984 33.308460720772359 0 33.308460720772359 -7.9113825079678008 0 0 0 0 124.71513865263114 37.39696175706672 0 37.39696175706672 -8.2634939372788949 0 0 0 0 89.94369784466835 -65.478654134140328 0 -65.478654134140328 207.03610808571079 0 0 0 0 177.87023287852207 -128.67886008120132 0 -128.67886008120132 116.33547334073666 0 0 0 0 147.47571774153039 23.071671247547499 0 23.071671247547499 37.11158753561881 0 0 0 0 1880.7294628432737 0.46200958337431075 0 0.46200958337431075 75.10945056282003 0 0 0 0 2.4703448193544908 -1.5254982382496962 0 -1.5254982382496962 -0.27472710673757694 0 0 0 0 -131.78578970990566 -124.20133645597576 0 -124.20133645597576 195.21830441721727 0 0 0 0 17.548428964102641 -82.444148493298329 0 -82.444148493298329 195.18076252645341 0 0 0 0 143.28500426719256 -381.94894729303303 0 -381.94894729303303 384.12289019221646 0 0 0 0 691.75624916936067 -742.5857843427118 0 -742.5857843427118 563.67316272655216 0 0 0 0 407.53787872494286 -309.07341588091128 0 -309.07341588091128 287.35387037936863 0 0 0 0 233.69148956026766 -337.41628231758347 0 -337.41628231758347 473.60926403552708 0 0 0 0 166.22566261075917 -85.094699372786025 0 -85.094699372786025 197.05030063405457 0 0 0 0 485.51064468043842 -285.40097635366834 0 -285.40097635366834 240.01169735662447 0 0 0 0 559.99882487724244 -530.48690165663106 0 -530.48690165663106 472.98507676119357 0 0 0 0 1271.6918812357617 -556.12177693777164 0 -556.12177693777164 199.96707922812229 0 0 0 0 819.20621639929232 -384.36793786075469 0 -384.36793786075469 272.61872185441956 0 0 0 0 228.86729264115274 -102.16917566208411 0 -102.16917566208411 139.78695735630731 0 0 0 0 250.95892154754983 -265.68191424851625 0 -265.68191424851625 407.01435654384863 0 0 0 0 315.17264547049854 -234.49974598549488 0 -234.49974598549488 285.4799673306502 0 0 0 0 240.45502302394016 -61.245601508583434 0 -61.245601508583434 142.40768248571288 0 0 0 0 350.89427648989658 -225.47624850433522 0 -225.47624850433522 238.15433334092387 0 0 0 0 480.24571457819548 -255.6236904401502 0 -255.6236904401502 101.73506106331365 0 0 0 0 480.42223515687118 -190.08544861341073 0 -190.08544861341073 87.075669906100984 0 0 0 0 788.48800029017002 -313.91287321927655 0 -313.91287321927655 -10.577037332111786 0 0 0 0 1279.152918569479 -606.09536024199747 0 -606.09536024199747 151.80535614424966 0 0 0 0 720.89819650157733 -444.41188574499733 0 -444.41188574499733 234.43723264418543 0 0 0 0 887.90389423926536 -328.48120888984067 0 -328.48120888984067 -14.966151762621962 0 0 0 0 775.08620851996966 -256.25013610805053 0 -256.25013610805053 -24.707274504190991 0 0 0 0 440.41171221061086 -198.77692098686322 0 -198.77692098686322 104.97826466004767 0 0 0 0 560.81949970345886 -185.84669148653785 0 -185.84669148653785 13.065719123785129 0 0 0 0 692.54535393080732 -323.52502071102242 0 -323.52502071102242 78.307911598086321 0 0 0 0 642.31925917560147 -227.29883553918444 0 -227.29883553918444 22.097227446658053 0 0 0 0 410.24018351513223 -83.138433153423989 0 -83.138433153423989 55.364209865446469 0 0 0 0 317.94220928352297 -88.993523806186403 0 -88.993523806186403 80.597579138265246 0 0 0 0 319.96066566220543 -84.273634874455183 0 -84.273634874455183 81.862209421159719 0 0 0 0 201.01668484719266 30.325965677173826 0 30.325965677173826 86.395523672649333 0 0 0 0 69.573886298570869 -32.786823117984909 0 -32.786823117984909 109.11601737289948 0 0 0 0 185.25257331794637 -47.3128340292497 0 -47.3128340292497 77.837746874957702 0 0 0 0 219.52021873378544 -15.12920745207839 0 -15.12920745207839 68.740267958169881 0 0 0 0 128.25336587983475 23.320633022225365 0 23.320633022225365 88.247556775703288 0 0 0 0 51.578645868350577 -2.5398501228464738 0 -2.5398501228464738 104.81927914517291 0 0 0 0 110.62175814584589 17.227213365604868 0 17.227213365604868 40.129355955596111 0 0 0 0 104.99930276157011 -7.0933752028289661 0 -7.0933752028289661 111.49513753076872 0 0 0 0 254.29734741020002 -34.696772029420345 0 -34.696772029420345 72.462015571945926 0 0 0 0 291.89672166878881 -172.68843940333602 0 -172.68843940333602 221.62293939412541 0 0 0 0 279.76970447604799 -119.63885449659162 0 -119.63885449659162 130.85359454906165 0 0 0 0 -24.499100064460436 33.917947193433406 0 33.917947193433406 56.752549408845198 0 0 0 0 -44.293298360469635 38.938069890068732 0 38.938069890068732 29.205376735033269 0 0 0 0 -22.712068364780862 34.999712333315358 0 34.999712333315358 20.637675583167038 0 0 0 0 -4.4226549833038007 47.908341018321153 0 47.908341018321153 15.479790333603887 0 0 0 0 -5.5655761058587814 17.462000327287171 0 17.462000327287171 69.096680244996037 0 0 0 0 53.462228485230298 16.060319564662905 0 16.060319564662905 45.926232054480693 0 0 0 0 8.4676123074241332 8.0356019762963342 0 8.0356019762963342 35.767957023607778 0 0 0 0 6.133698820398422 -5.427934531516712 0 -5.427934531516712 84.742013614248322 0 0 0 0 5.478547445989534 6.3031204337868019 0 6.3031204337868019 95.704989353063638 0 0 0 0 69.892508334582089 -17.206802335707721 0 -17.206802335707721 57.232524504079493 0 0 0 0 -50.829241265990277 -4.1299103373485195 0 -4.1299103373485195 47.872946165445683 0 0 0 0 -11.156867327525106 -31.283685437803683 0 -31.283685437803683 51.408837352005321 0 0 0 0 -22.599760648532538 7.2733280979465462 0 7.2733280979465462 72.672290744194925 0 0 0 0 -25.021580030697805 -5.2538260095283249 0 -5.2538260095283249 7.879333663279283 0 0 0 0 -39.302677186564324 5.7926896905633782 0 5.7926896905633782 5.6052815284233475 0 0 0 0 2.3708747095844913 -6.1704692360530231 0 -6.1704692360530231 4.2639411726632659 0 0 0 0 32.452974422758416 3.1772560081707297 0 3.1772560081707297 3.8867606576463913 0 0 0 0 42.65711573702356 6.6632154183724879 0 6.6632154183724879 4.2248826470990934 0 0 0 0 23.007154014353134 5.0687836844895644 0 5.0687836844895644 0.30730021227756898 0 0 0 0 13.779427645091737 8.1107259671048411 0 8.1107259671048411 3.7502248155014049 0 0 0 0 13.505886506032311 8.3337094457803005 0 8.3337094457803005 -2.188404898995941 0 0 0 0 -45.815005742014364 6.8952282077220595 0 6.8952282077220595 31.808775225441877 0 0 0 0 -0.42038762783707284 -1.347113627401499 0 -1.347113627401499 2.2711975493100884 0 0 0 0 11.326003972209509 5.2548381749059061 0 5.2548381749059061 4.3916271504088673 0 0 0 0 11.407194844938203 14.609524986569454 0 14.609524986569454 10.952649803808413 0 0 0 0 21.379945369926645 -4.8336442189308286 0 -4.8336442189308286 -79.883580832095049 0 0 0 0 -24.52456807055205 37.303628430763808 0 37.303628430763808 -1.9110838748730998 0 0 0 0 18.045041886647219 11.668306629647715 0 11.668306629647715 5.9124960522086489 0 0 0 0 65.460268234346586 28.632193804807685 0 28.632193804807685 -20.17015840766544 0 0 0 0 5.8355437822257983 1.0507215378562869 0 1.0507215378562869 -1.0161660762191023 0 0 0 0 -47.718937706087672 39.904157469474313 0 39.904157469474313 13.960979430577481 0 0 0 0 109.44598705336375 -66.78253605436646 0 -66.78253605436646 -27.526010970660536 0 0 0 0 17.19720066876107 3.2547031749498387 0 3.2547031749498387 0.26630076971184735 0 0 0 0 7.1484244503459742 7.3907505421169226 0 7.3907505421169226 -1.8729211996798689 0 0 0 0 66.779302822630143 -133.61215760598947 0 -133.61215760598947 -119.76338569604013 0 0 0 0 72.062625556567582 29.240167377922262 0 29.240167377922262 -103.0309353047362 0 0 0 0 167.53807810023136 42.164888247767834 0 42.164888247767834 9.1266022110260074 0 0 0 0 -16.599008704753032 75.964804427579793 0 75.964804427579793 14.029399957690885 0 0 0 0 -10.416939391307096 58.657190039832813 0 58.657190039832813 -5.5158000623347903 0 0 0 0 32.481210752339393 35.121680724063623 0 35.121680724063623 -2.2316683170514922 0 0 0 0 -29.716074427535204 34.055980841671754 0 34.055980841671754 20.691711410901888 0 0 0 0 -16.396835901887243 24.081381623650174 0 24.081381623650174 -4.1077140278857769 0 0 0 0 -44.66490947958664 118.52843559954232 0 118.52843559954232 -66.481566752365438 0 0 0 0 1.3636291838556645 70.492614353009628 0 70.492614353009628 -68.806357421170844 0 0 0 0 43.191550359654684 36.190360722256997 0 36.190360722256997 18.040580697249197 0 0 0 0 -34.195756684486696 26.706675681951083 0 26.706675681951083 26.539910563352123 0 0 0 0 29.767836743973021 40.552411230420233 0 40.552411230420233 -17.79577632822884 0 0 0 0 29.380713937805922 83.248450152031637 0 83.248450152031637 -61.509066803846054 0 0 0 0 12.0934803877212 7.2891557336188324 0 7.2891557336188324 4.053905857743632 0 0 0 0 -111.06789515800483 23.751646988363746 0 23.751646988363746 -11.797598388452741 0 0 0 0 52.096155045510386 47.147805920235214 0 47.147805920235214 -40.013842152616576 0 0 0 0 36.601951320233638 49.093314768522703 0 49.093314768522703 -38.059158962163977 0 0 0 0 79.416681375267217 45.741779850168378 0 45.741779850168378 -57.384067837629082 0 0 0 0 25.065066745992226 89.382924894038638 0 89.382924894038638 -82.286995148105689 0 0 0 0 41.646219297311916 4.4811173409598588 0 4.4811173409598588 -4.5449062750708205 0 0 0 0 57.938048406180314 15.886866563113017 0 15.886866563113017 -0.64367671266677462 0 0 0 0 45.805115130639024 29.088947928539994 0 29.088947928539994 -2.654676730255062 0 0 0 0 30.406891811941023 33.317074639707243 0 33.317074639707243 -1.3184333070471439 0 0 0 0 19.117499300782583 20.967379739888997 0 20.967379739888997 33.863412882110197 0 0 0 0 37.484637435602053 3.1944434712241474 0 3.1944434712241474 48.559046358661618 0 0 0 0 10.101335161229144 45.397121743781653 0 45.397121743781653 10.276257872002063 0 0 0 0 32.74048317074994 17.983583742630799 0 17.983583742630799 16.905766873544252 0 0 0 0 44.426047615900643 30.3508019233293 0 30.3508019233293 -20.250092121788839 0 0 0 0 32.990837104700923 8.0893007580916212 0 8.0893007580916212 -2.6089896350813371 0 0 0 0 20.54316490650308 19.472367033758474 0 19.472367033758474 1.5347628403046656 0 0 0 0 39.61564735551292 10.117010886648359 0 10.117010886648359 28.139150253832554 0 0 0 0 27.778869716461486 5.6021229560737993 0 5.6021229560737993 8.2570015586074987 0 0 0 0 -29.550255061700227 257.68258248013922 0 257.68258248013922 -331.6166621642808 0 0 0 0 84.338175443447426 195.93653828172484 0 195.93653828172484 -534.8183558790879 0 0 0 0 41.067098902751042 10.687147692491083 0 10.687147692491083 0.50122817213278292 0 0 0 0 53.805685048375381 146.85936883506497 0 146.85936883506497 -265.84169830923975 0 0 0 0 3.00833608201674 262.50021929880847 0 262.50021929880847 -268.60299962901377 0 0 0 0 -9.9867796154480857 300.3241470675016 0 300.3241470675016 -242.33642149598199 0 0 0 0 -70.15965636880992 186.53176458962957 0 186.53176458962957 -257.8300432089145 0 0 0 0 -62.852994116219861 262.84085379537339 0 262.84085379537339 -269.3958387942007 0 0 0 0 355.79060304718007 335.76030240661407 0 335.76030240661407 -334.86856901805049 0 0 0 0 62.084305052797845 110.05947082965633 0 110.05947082965633 175.87576661030357 0 0 0 0 -191.42348454504418 302.39255165123325 0 302.39255165123325 -189.68641035965382 0 0 0 0 88.245516112815039 207.49234606544064 0 207.49234606544064 -210.22888696118338 0 0 0 0 -37.327868728701333 406.46889378004505 0 406.46889378004505 -532.624055296194 0 0 0 0 -30.237218198899882 368.14079869088869 0 368.14079869088869 -335.12276736201602 0 0 0 0 81.546960845866352 219.88222200286077 0 219.88222200286077 -654.36494989208722 0 0 0 0 199.03345140328042 99.348676727874306 0 99.348676727874306 -689.055081308539 0 0 0 0 -12.971352008962185 275.60442520481445 0 275.60442520481445 -638.75617226463169 0 0 0 0 11.508569022251628 -1.6878338667265944 0 -1.6878338667265944 -5.81532763195339 0 0 0 0 -248.58744497534053 338.2390691913273 0 338.2390691913273 -357.08238565708245 0 0 0 0 85.978186893403517 -47.787552795601755 0 -47.787552795601755 -71.860730677118227 0 0 0 0 121.30214901111412 -40.051227245444124 0 -40.051227245444124 -279.70308095041855 0 0 0 0 52.423521673231733 0.29946425523774245 0 0.29946425523774245 -5.8912946347106461 0 0 0 0 56.282815874040864 28.763242942175797 0 28.763242942175797 4.4795554302596035 0 0 0 0 85.269724166755623 37.237512899198464 0 37.237512899198464 -11.10812491166007 0 0 0 0 50.26103846404294 -0.17140950472617078 0 -0.17140950472617078 34.729588745336514 0 0 0 0 48.472293164028088 3.6778377074104753 0 3.6778377074104753 34.954947933075459 0 0 0 0 140.62501194018296 3.643621735114948 0 3.643621735114948 0.70968560547407833 0 0 0 0 82.34315914621402 -37.27078877867811 0 -37.27078877867811 84.453803470909804 0 0 0 0 23.081337336901925 31.338964860390561 0 31.338964860390561 126.17807128754188 0 0 0 0 22.170816706293408 55.396558248662444 0 55.396558248662444 38.073841778998656 0 0 0 0 22.806026061378361 7.4529609487327093 0 7.4529609487327093 -9.2266192808613141 0 0 0 0 32.239028507257629 5.3703705216955218 0 5.3703705216955218 -1.8385437723486004 0 0 0 0 -47.141716775284294 22.522755259284281 0 22.522755259284281 -46.286532158341856 0 0 0 0 40.02978879575349 10.425155018408944 0 10.425155018408944 0.17281611214943604 0 0 0 0 27.009422712175365 -12.009915752660518 0 -12.009915752660518 175.83254412945175 0 0 0 0 5.158243549490571 8.4983565821432236 0 8.4983565821432236 -2.341473677165927 0 0 0 0 38.563034898888873 66.892507448525706 0 66.892507448525706 41.229195621182498 0 0 0 0 15.658503251595882 7.7839335153478206 0 7.7839335153478206 0.027525232720203185 0 0 0 0 19.785357043610929 2.7509203897199654 0 2.7509203897199654 -1.9532793811966087 0 0 0 0 40.721285513145631 -55.609971255862433 0 -55.609971255862433 -58.27979606261141 0 0 0 0 41.15510075490112 -5.9192844408412979 0 -5.9192844408412979 -0.023826497567998928 0 0 0 0 17.067113029530447 -0.73540235231450879 0 -0.73540235231450879 2.33398794124696 0 0 0 0 2.7500606803813916 -6.714647850916494 0 -6.714647850916494 -0.17269785446996211 0 0 0 0 -23.034895157199571 -80.790865770166306 0 -80.790865770166306 46.660741766926492 0 0 0 0 117.22305670139554 278.24320429239549 0 278.24320429239549 -480.01827504025061 0 0 0 0 147.27579119426878 114.55239548560093 0 114.55239548560093 -647.50376569075252 0 0 0 0 -29.96335503361064 136.01254501848555 0 136.01254501848555 -373.9824860286102 0 0 0 0 -15.364022218591082 238.95074757801265 0 238.95074757801265 -425.32927544471119 0 0 0 0 338.20849583491008 -233.65361215401475 0 -233.65361215401475 -328.10997379326534 0 0 0 0 153.66333329446661 219.96319256306421 0 219.96319256306421 -580.97050510748954 0 0 0 0 237.35301285269861 -48.530999997286813 0 -48.530999997286813 -166.75326495435965 0 0 0 0 427.30412501147964 -43.54512952462045 0 -43.54512952462045 -261.10938692470177 0 0 0 0 1061.3358358268235 -114.12457204141919 0 -114.12457204141919 -109.73850472233909 0 0 0 0 243.85062302034129 -240.95774907243896 0 -240.95774907243896 -21.268172067130195 0 0 0 0 0.49011925657908562 0.65049310249030068 0 0.65049310249030068 -2.2046561862839589 0 0 0 0 2499.4895186356057 -659.18087012460364 0 -659.18087012460364 -673.30178728761041 0 0 0 0 913.80894681399718 -543.87633124897025 0 -543.87633124897025 -185.48751988901614 0 0 0 0 1418.3415428747496 -544.77413876461276 0 -544.77413876461276 -272.5293951416657 0 0 0 0 851.5779809648335 -767.65151631368553 0 -767.65151631368553 164.80550808005725 0 0 0 0 1691.3472562441755 -1096.9126715689388 0 -1096.9126715689388 -267.04832266977246 0 0 0 0 2784.0442194954999 -713.35070423192053 0 -713.35070423192053 -488.94946686362175 0 0 0 0 2025.4453080347307 -659.81255362079492 0 -659.81255362079492 -401.58077874607147 0 0 0 0 2500.6902784419835 -431.06605431859879 0 -431.06605431859879 1773.8848272469245 0 0 0 0 2451.3605278073765 -1075.2776007926968 0 -1075.2776007926968 -323.59366605964999 0 0 0 0 3334.5505777115886 42.826207014777658 0 42.826207014777658 58.113304644828894 0 0 0 0 17.693600561984862 -3.5200875877866968 0 -3.5200875877866968 0.97934676831551781 0 0 0 0 -108.26546026465354 -203.81837276918918 0 -203.81837276918918 -5.1976824671891109 0 0 0 0 967.52209543171284 -1131.9271469018151 0 -1131.9271469018151 264.2093092953175 0 0 0 0 1797.5540019780929 702.83742676247493 0 702.83742676247493 355.70116593844898 0 0 0 0 -55.695005014388698 152.99686318517129 0 152.99686318517129 284.79305438561175 0 0 0 0 1344.9497881707011 790.16304382795965 0 790.16304382795965 381.30436349866625 0 0 0 0 1771.1958077527415 43.16252879716621 0 43.16252879716621 58.60143793148093 0 0 0 0 2500.7048888629724 188.7872937502203 0 188.7872937502203 -463.4402805753125 0 0 0 0 1608.0176702065855 -254.05749111252001 0 -254.05749111252001 -451.40993698857926 0 0 0 0 1270.9933447345411 -206.45407876680878 0 -206.45407876680878 -447.69550437074616 0 0 0 0 2495.3889815747189 -763.87284540672135 0 -763.87284540672135 -356.65932920496124 0 0 0 0 459.29901688383325 -33.825293333606567 0 -33.825293333606567 -100.72852515783663 0 0 0 0 1154.8946069578492 -312.90709672847987 0 -312.90709672847987 -194.0738657296547 0 0 0 0 1324.3563088863061 317.40740357321624 0 317.40740357321624 -103.65316051974298 0 0 0 0 42.773041512073178 -22.764361618851012 0 -22.764361618851012 -54.009444364597414 0 0 0 0 37.128747507253138 46.255150741750356 0 46.255150741750356 7.7339110509626039 0 0 0 0 -1.8861447237515705 0.14119724443761417 0 0.14119724443761417 1.0363008593292986 0 0 0 0 5.227298113730285 16.833445464825388 0 16.833445464825388 51.93101558631281 0 0 0 0 4.7296578658679209 0.32841660509518533 0 0.32841660509518533 4.0183315230513585 0 0 0 0 14.95201620773696 7.2058336788522297 0 7.2058336788522297 7.5169263511651252 0 0 0 0 45.330845187447267 5.4609233223868046 0 5.4609233223868046 -21.780191574642004 0 0 0 0 36.01430784767399 16.006044063854119 0 16.006044063854119 -2.612778246137907 0 0 0 0 36.365800926447719 21.11636773619113 0 21.11636773619113 -36.757017165359684 0 0 0 0 27.31606534657476 -0.0316143898406267 0 -0.0316143898406267 -22.305642510712488 0 0 0 0 -254.16771081247953 -61.125364025243286 0 -61.125364025243286 288.22775482801944 0 0 0 0 1.7227095105389605 2.0217318434651155 0 2.0217318434651155 -2.2017823240315408 0 0 0 0 35.991845389038644 13.236982669869803 0 13.236982669869803 -2.6129251406410958 0 0 0 0 15.127916655794252 9.1056655471434169 0 9.1056655471434169 -17.675429006314175 0 0 0 0 22.262531928918499 7.2104356899664861 0 7.2104356899664861 -7.4073616245169847 0 0 0 0 23.241259487505587 12.3468728806975 0 12.3468728806975 -10.679616520938209 0 0 0 0 15.972511423870401 -1.2182165443042834 0 -1.2182165443042834 1.4756083861882416 0 0 0 0 13.084261072168513 4.7367774245818381 0 4.7367774245818381 -10.151736535232736 0 0 0 0 11.58892293697707 4.5631064185453809 0 4.5631064185453809 -4.792667518898293 0 0 0 0 49.226809277581197 4.4003665323039058 0 4.4003665323039058 -2.1136278253763976 0 0 0 0 16.681611070852782 8.3550804601705266 0 8.3550804601705266 -3.0290505559401284 0 0 0 0 49.932783242668847 10.2476912243268 0 10.2476912243268 -16.015534080931445 0 0 0 0 29.464331532761207 0.59853035132698551 0 0.59853035132698551 -3.8776451117832949 0 0 0 0 40.211852555440629 9.7852703555973868 0 9.7852703555973868 -6.6002393783545052 0 0 0 0 -64.608351469145418 83.611739671430541 0 83.611739671430541 -14.365185408185425 0 0 0 0 18.218708887514975 -2.2650409197555561 0 -2.2650409197555561 -6.2822851125196282 0 0 0 0 -72.894223425081464 13.679744415737659 0 13.679744415737659 60.507912984671293 0 0 0 0 32.336341090447029 1.4978933415269324 0 1.4978933415269324 -4.0455520624882508 0 0 0 0 167.51470859944675 180.23164688270253 0 180.23164688270253 -175.24976474015193 0 0 0 0 7.329633425514988 -4.1709538149658485 0 -4.1709538149658485 6.8684109361288623 0 0 0 0 -27.814467403508388 -53.477307630429898 0 -53.477307630429898 311.77440200328607 0 0 0 0 2494.1904209145614 -2.4224743769455284 0 -2.4224743769455284 4.0517785927609706 0 0 0 0 487.15955306689921 -712.36480268668436 0 -712.36480268668436 906.24021015826213 0 0 0 0 639.1476361783225 -1189.7830569691905 0 -1189.7830569691905 636.16505315786958 0 0 0 0 364.82039411722508 -263.89039029835283 0 -263.89039029835283 278.87173154638083 0 0 0 0 -1.1459604799689842 -0.48262013869875647 0 -0.48262013869875647 0.1041512631912842 0 0 0 0 1361.9850193401599 -323.32473702848159 0 -323.32473702848159 -41.946958160296532 0 0 0 0 105.24659192578838 -11.268146667063405 0 -11.268146667063405 30.911486207978683 0 0 0 0 -23.012431798235411 23.015461939367754 0 23.015461939367754 30.264012476493761 0 0 0 0 0.019300313151735082 -1.2296225365338955 0 -1.2296225365338955 2.9047958901951247 0 0 0 0 -214.54345368289978 202.11372914820953 0 202.11372914820953 78.807465548946311 0 0 0 0 1086.677648318313 159.61039440474497 0 159.61039440474497 -171.43521343558359 0 0 0 0 416.92124501640501 283.71738904076756 0 283.71738904076756 232.36103350843973 0 0 0 0 401.87488355691312 8.7875597738475335 0 8.7875597738475335 -257.50938965203659 0 0 0 0 -48.630491508170962 12.939547393144494 0 12.939547393144494 23.878497449589304 0 0 0 0 531.16576565737341 87.717134641325174 0 87.717134641325174 -75.410336833674592 0 0 0 0 85.54936664129491 -3.4349485250668295 0 -3.4349485250668295 47.275099417101956 0 0 0 0 515.38078676304576 105.62018009035273 0 105.62018009035273 -85.653599801982637 0 0 0 0 298.94269147338491 214.36523907755645 0 214.36523907755645 161.58199215331933 0 0 0 0 6.300629633695749 2.441067740865293 0 2.441067740865293 6.4883671180751818 0 0 0 0 557.91823859482247 181.09637075568469 0 181.09637075568469 -46.641153133860826 0 0 0 0 -9.2642709772262606 54.783195528066244 0 54.783195528066244 -62.146628959468217 0 0 0 0 38.853326637137798 64.594942771615024 0 64.594942771615024 -63.94373472100915 0 0 0 0 78.210868371257675 33.705426858742385 0 33.705426858742385 -86.00355037432746 0 0 0 0 32.721432727492356 5.0829766642209506 0 5.0829766642209506 -80.845521808064404 0 0 0 0 66.018915456901595 -34.348523641953761 0 -34.348523641953761 -38.252915249283433 0 0 0 0 171.0689872445364 19.577768966180201 0 19.577768966180201 -83.504389867564726 0 0 0 0 36.475860575184925 52.206555207926613 0 52.206555207926613 -57.625112546434821 0 0 0 0 222.41697903098975 104.02624797558047 0 104.02624797558047 -7.9933829837441124 0 0 0 0 235.07216204073484 346.29215155871043 0 346.29215155871043 123.49267317477126 0 0 0 0 93.029921668348834 111.79532498061974 0 111.79532498061974 2.9013018074292631 0 0 0 0 640.12891022802796 50.369605459294689 0 50.369605459294689 35.065448234491896 0 0 0 0 269.91323974875195 -5.3369752644989035 0 -5.3369752644989035 -34.145191862587581 0 0 0 0 188.2000974629118 110.01586367476948 0 110.01586367476948 27.296010339735403 0 0 0 0 182.99307573001715 0.63547674264066245 0 0.63547674264066245 97.034408282440495 0 0 0 0 232.7090617540307 -124.8575658446249 0 -124.8575658446249 413.1971941683214 0 0 0 0 302.52067069623445 261.72506508808192 0 261.72506508808192 413.6943553497324 0 0 0 0 178.43229438060735 94.558038229919134 0 94.558038229919134 194.08748046110577 0 0 0 0 274.36997466277899 295.64898927543061 0 295.64898927543061 103.24176139586552 0 0 0 0 6.2215651776707546 3.9010712416777054 0 3.9010712416777054 1.0590634648169588 0 0 0 0 119.95056091985316 -177.02292198707528 0 -177.02292198707528 239.98648779346081 0 0 0 0 102.37453783909586 -96.309084638170361 0 -96.309084638170361 -19.215496226179852 0 0 0 0 467.14192269017803 237.31130900445382 0 237.31130900445382 49.421030619796113 0 0 0 0 60.501387771968439 146.51213105592808 0 146.51213105592808 49.592710751875359 0 0 0 0 256.62989554931119 -44.20192947333345 0 -44.20192947333345 25.708072843611632 0 0 0 0 -15.806467094815162 -122.65067507976684 0 -122.65067507976684 76.227365057960469 0 0 0 0 200.32755073634326 0.87457863387813717 0 0.87457863387813717 9.9677551402790669 0 0 0 0 20.29101411895266 -2.0072184367864558 0 -2.0072184367864558 -0.8974079162679125 0 0 0 0 64.604516078739834 -27.270472864218164 0 -27.270472864218164 -111.99692351053591 0 0 0 0 22.355361546746785 -16.712919676261265 0 -16.712919676261265 -9.5213301862617463 0 0 0 0 46.851882214541547 -18.543871814534839 0 -18.543871814534839 -20.06555042045656 0 0 0 0 35.173415921453852 -2.5195728971248172 0 -2.5195728971248172 -5.4191407856258138 0 0 0 0 48.356386464220122 -8.5354822812639668 0 -8.5354822812639668 -31.788777918765618 0 0 0 0 41.851626682504502 -23.170788660067018 0 -23.170788660067018 -4.7115623804086226 0 0 0 0 33.638388612606349 -2.5174883231219951 0 -2.5174883231219951 -20.413120353144762 0 0 0 0 -11.18232289091975 5.4092954240959443 0 5.4092954240959443 -38.123390343445976 0 0 0 0 13.83051798442466 -57.555218094785801 0 -57.555218094785801 16.398248044851925 0 0 0 0 -37.253461812900241 -9.9394567251913841 0 -9.9394567251913841 -13.155401841593402 0 0 0 0 84.980090158584062 13.362411609422452 0 13.362411609422452 -53.41551012999912 0 0 0 0 63.69830553115753 11.382265261354405 0 11.382265261354405 -53.55941849197643 0 0 0 0 45.17388428706181 -9.8375402895985644 0 -9.8375402895985644 -28.662005512402629 0 0 0 0 39.980061627977506 -5.8536175423882071 0 -5.8536175423882071 -14.244753449167646 0 0 0 0 41.67398535227403 15.809816370506951 0 15.809816370506951 -44.20942612791805 0 0 0 0 31.708392793691019 31.936756469840475 0 31.936756469840475 -52.380916237694692 0 0 0 0 14.102686572368839 3.0764037167182323 0 3.0764037167182323 -51.964358724583747 0 0 0 0 75.825872088396864 4.7914581864038155 0 4.7914581864038155 -49.478546832582651 0 0 0 0 86.27891204851403 19.824968228178932 0 19.824968228178932 -28.72544375655707 0 0 0 0 149.24517047528934 -3.5795361800919636 0 -3.5795361800919636 -34.566444662692334 0 0 0 0 46.698486739594955 39.082497626810436 0 39.082497626810436 -23.304058245086708 0 0 0 0 16.583486285933759 22.56196367053235 0 22.56196367053235 -14.525572508252026 0 0 0 0 2.740792055032216 43.514492405082819 0 43.514492405082819 -12.348728158831364 0 0 0 0 98.278574301781191 54.620440151219555 0 54.620440151219555 -21.930005527014146 0 0 0 0 22.01529455956188 56.33496473869991 0 56.33496473869991 -9.2775376556146512 0 0 0 0 23.517170120569062 41.500083012645973 0 41.500083012645973 0.40635182706409978 0 0 0 0 -33.193572407151805 26.737770960110538 0 26.737770960110538 6.0674409622897656 0 0 0 0 25.136719352492946 31.173018976992353 0 31.173018976992353 27.503451195526395 0 0 0 0 50.294699660313199 17.140415681453305 0 17.140415681453305 -23.672859444180176 0 0 0 0 106.00499121952453 2.3186331039787547 0 2.3186331039787547 -2.2717589112744463 0 0 0 0 220.23808622804063 3.9708684717538745 0 3.9708684717538745 -23.429409480216236 0 0 0 0 1.7562089835504935 -2.8599187527943144 0 -2.8599187527943144 -2.5741953835719218 0 0 0 0 12.295737587759504 -12.349607505746235 0 -12.349607505746235 -11.931947784068143 0 0 0 0 7.0243095266196178 -39.677284453948232 0 -39.677284453948232 -141.61787148381109 0 0 0 0 71.526175690392847 -129.09996008818507 0 -129.09996008818507 -72.505500686888354 0 0 0 0 -15.495530425665493 17.74318034214275 0 17.74318034214275 -6.8588556490867632 0 0 0 0 5.8868650581950277 -0.092862720327360648 0 -0.092862720327360648 -16.815571952881776 0 0 0 0 0.19362341408850625 31.042517864471847 0 31.042517864471847 -34.012188447747747 0 0 0 0 1.708443358137572 1.6636170104368233 0 1.6636170104368233 -1.0717967823167385 0 0 0 0 -23.445068475208245 17.912786428028994 0 17.912786428028994 -3.1278778069190594 0 0 0 0 -9.2887470098648919 -7.4562375012460507 0 -7.4562375012460507 -13.031095778081863 0 0 0 0 -66.00397332857392 29.659843275559524 0 29.659843275559524 -20.748766844091733 0 0 0 0 -1.1171682970119932 -2.5318905418231594 0 -2.5318905418231594 -4.8417266539723656 0 0 0 0 -1.3784936120683398 -0.32229660703301022 0 -0.32229660703301022 -0.13501611934689706 0 0 0 0 -13.487089716014452 25.172754311337485 0 25.172754311337485 -18.459870923485596 0 0 0 0 -100.0472553578802 21.908248197815738 0 21.908248197815738 -2.8068894156313036 0 0 0 0 -22.704298781463876 40.557389811691792 0 40.557389811691792 -30.751809048091673 0 0 0 0 -41.305381458529155 5.0764211492514733 0 5.0764211492514733 -16.819151485494785 0 0 0 0 -74.388928942818893 26.576744924821469 0 26.576744924821469 -0.49752673711100215 0 0 0 0 -0.6365272351989546 -1.0459815875434515 0 -1.0459815875434515 -0.77783101341258387 0 0 0 0 -196.1977335940428 -1.9612253605507703 0 -1.9612253605507703 63.533336326745484 0 0 0 0 -166.6137836905873 -173.46684942784333 0 -173.46684942784333 16.291074157208641 0 0 0 0 94.898461312637664 -69.77433038290701 0 -69.77433038290701 -187.88243031788579 0 0 0 0 -1.1539796304686476 0.28485324144075719 0 0.28485324144075719 -1.4846124642734004 0 0 0 0 -502.35735584181384 -188.56748460613971 0 -188.56748460613971 283.8877915415369 0 0 0 0 -35.09430790389888 -23.626145434453974 0 -23.626145434453974 -46.888582531009888 0 0 0 0 -12.671082950153504 -14.33301899821754 0 -14.33301899821754 -147.16413379116693 0 0 0 0 -2.0311993918056004 -2.705614900773412 0 -2.705614900773412 4.2677757082656171 0 0 0 0 -2.3476897300611625 0.70894616979748548 0 0.70894616979748548 1.1149190162654321 0 0 0 0 -9.6725706111210457 2.0167883670054607 0 2.0167883670054607 0.35903386224981659 0 0 0 0 -150.82347078323073 -27.625278823441022 0 -27.625278823441022 43.734816111358214 0 0 0 0 -57.883374151060707 -4.601334839788251 0 -4.601334839788251 -12.886902824751814 0 0 0 0 -99.396404205981526 45.664293802406746 0 45.664293802406746 41.548202511345153 0 0 0 0 -18.5064235424652 -4.7042105679140604 0 -4.7042105679140604 16.291090312573488 0 0 0 0 -0.49311008081853913 0.26356568195750185 0 0.26356568195750185 1.6172549336182804 0 0 0 0 -1.1266952245552915 0.28129839394703993 0 0.28129839394703993 5.3431796051197349 0 0 0 0 -457.29553068538007 262.92835881132328 0 262.92835881132328 308.49871769435958 0 0 0 0 -0.72592188304624727 -0.17498196035288061 0 -0.17498196035288061 0.18352973293328745 0 0 0 0 -12.99421583621006 -9.5961766243644888 0 -9.5961766243644888 6.7832780834105506 0 0 0 0 150.43394136282586 51.341012822045286 0 51.341012822045286 -156.65413345181514 0 0 0 0 174.04082567880687 -37.997136734401465 0 -37.997136734401465 17.62220028373622 0 0 0 0 436.06773373897886 -27.063385159032805 0 -27.063385159032805 6.6313938206201328 0 0 0 0 28.379747719314764 27.04345750973016 0 27.04345750973016 90.589796645565002 0 0 0 0 146.98133933180361 78.096579335725664 0 78.096579335725664 36.503638742845396 0 0 0 0 -65.385578567527773 26.331968393725447 0 26.331968393725447 42.373936971820513 0 0 0 0 27.231662740799948 15.050922891500704 0 15.050922891500704 17.129640197579192 0 0 0 0 32.23222941540007 31.498465361163198 0 31.498465361163198 -5.0232433264500287 0 0 0 0 -92.449603250453947 -122.97421608312243 0 -122.97421608312243 68.422535005159943 0 0 0 0 94.666100142159848 -37.610335484514962 0 -37.610335484514962 36.039773484265197 0 0 0 0 315.1183390314327 -213.94772362832282 0 -213.94772362832282 110.68150976184211 0 0 0 0 133.58163233760934 50.845759833039892 0 50.845759833039892 229.26968619983654 0 0 0 0 110.95038754487541 -5.4039055800823235 0 -5.4039055800823235 -25.725283481308907 0 0 0 0 207.53485933172487 -135.2378894907597 0 -135.2378894907597 -23.147988157456897 0 0 0 0 23.088573423319758 46.528537239783191 0 46.528537239783191 8.7396287741180458 0 0 0 0 -0.20423234111555644 0.16092769117602757 0 0.16092769117602757 0.88440995565355607 0 0 0 0 239.99079393073043 -18.264215146718016 0 -18.264215146718016 21.08787697524258 0 0 0 0 288.22929331307751 -65.248018722454276 0 -65.248018722454276 -1.1124315880019822 0 0 0 0 20.098403232397686 -7.3014403284701075 0 -7.3014403284701075 -9.2605491889971745 0 0 0 0 101.83704616851355 239.4508165985153 0 239.4508165985153 -33.401117963966499 0 0 0 0 0.27639690026634867 0.90828432790556235 0 0.90828432790556235 0.18212988474405734 0 0 0 0 280.46657130795938 118.4770279984632 0 118.4770279984632 5.4019866702686841 0 0 0 0 4.7332342251684167 22.749600042688826 0 22.749600042688826 -8.7871263168490259 0 0 0 0 -0.2173226456328905 0.11360339041593193 0 0.11360339041593193 4.7502349295146065 0 0 0 0 8.5008078804094112 40.1352983043314 0 40.1352983043314 93.834333342064383 0 0 0 0 -40.120465218220488 -14.331480800728286 0 -14.331480800728286 31.078443867969327 0 0 0 0 165.62757045587932 58.044255767752929 0 58.044255767752929 8.8145208782916598 0 0 0 0 163.12367831995925 69.099193819584173 0 69.099193819584173 35.486017115108552 0 0 0 0 270.46501387321041 6.3154942758251309 0 6.3154942758251309 2.9570757359704203 0 0 0 0 226.06225671204083 49.280918019476076 0 49.280918019476076 -12.021347032856283 0 0 0 0 238.2119500789413 85.174237163635098 0 85.174237163635098 11.269446997815066 0 0 0 0 187.84088828955282 -23.210915243683303 0 -23.210915243683303 13.113303197028472 0 0 0 0 276.93830441553837 -90.924504128371439 0 -90.924504128371439 -26.654424967191517 0 0 0 0 448.37510431093688 -60.660372901138544 0 -60.660372901138544 -59.120461692406025 0 0 0 0 318.453301922229 -170.0858172051378 0 -170.0858172051378 25.491954800508211 0 0 0 0 261.72622249204323 -28.102660613851981 0 -28.102660613851981 -64.346359487180962 0 0 0 0 385.85021493607928 60.850011986897243 0 60.850011986897243 -145.48194221613085 0 0 0 0 274.88904320118309 81.178951174916619 0 81.178951174916619 -24.190893707093664 0 0 0 0 443.98901988605212 477.03265076935349 0 477.03265076935349 151.54812570102877 0 0 0 0 833.55091071135394 -30.093696399008422 0 -30.093696399008422 -150.52567832693012 0 0 0 0 341.23973389478488 -275.02287360829223 0 -275.02287360829223 193.16723578389337 0 0 0 0 72.66926661706384 -29.100090991619709 0 -29.100090991619709 64.742771940472267 0 0 0 0 9.5508891757063452 -1.0967799675587031 0 -1.0967799675587031 -0.93553812640801048 0 0 0 0 545.07899542323867 420.8277745616524 0 420.8277745616524 330.26933601043902 0 0 0 0 885.91415094660624 303.43541541245077 0 303.43541541245077 -2.8752931760736828 0 0 0 0 837.47575595469971 -213.65014703097359 0 -213.65014703097359 -50.651268127732692 0 0 0 0 0.18143891371619247 -121.42211022887972 0 -121.42211022887972 699.03469005201623 0 0 0 0 192.10664766513219 -201.10934656648669 0 -201.10934656648669 -90.349281987268114 0 0 0 0 36.154148415851523 189.33158566146767 0 189.33158566146767 98.55807079648639 0 0 0 0 203.99429302150384 -124.41109667308228 0 -124.41109667308228 -269.99612489449805 0 0 0 0 40.074875454207358 33.398026778344047 0 33.398026778344047 -83.529736658299953 0 0 0 0 33.193060940864825 7.1747056014586725 0 7.1747056014586725 -8.3817009342098157 0 0 0 0 -369.89551443015807 19.351148934457569 0 19.351148934457569 123.97071482746287 0 0 0 0 8.3835229055403033 -326.56783347878263 0 -326.56783347878263 279.00688488022024 0 0 0 0 6.4764104581054482 -2.6203256947177067 0 -2.6203256947177067 -11.054654519408858 0 0 0 0 625.10884048043226 401.11374200379896 0 401.11374200379896 -231.71328763345696 0 0 0 0 409.52254183734476 291.61910239998815 0 291.61910239998815 -279.92508877862201 0 0 0 0 323.81366665570386 146.06448407012272 0 146.06448407012272 109.10062769959131 0 0 0 0 -11.584858796413755 72.227027169694338 0 72.227027169694338 185.70338679198358 0 0 0 0 -7.7170445411591118 7.7744984230072163 0 7.7744984230072163 3.0364710796291696 0 0 0 0 -32.510322213580366 32.761253836873948 0 32.761253836873948 -13.455360032463432 0 0 0 0 141.37897887905274 -6.2221390552874709 0 -6.2221390552874709 -5.5537508222678298 0 0 0 0 -196.65900677713216 441.95691063729009 0 441.95691063729009 -96.00824429140971 0 0 0 0 318.61255686276854 -358.38219344670472 0 -358.38219344670472 88.564657996329515 0 0 0 0 926.53798793280112 -390.94033688479743 0 -390.94033688479743 -195.40077932086297 0 0 0 0 -281.26558487997681 216.47748687101557 0 216.47748687101557 61.02032751169827 0 0 0 0 3.1268199206641185 2.8986612788641537 0 2.8986612788641537 2.2848175782952111 0 0 0 0 -0.78175323603906222 -0.80230537722967199 0 -0.80230537722967199 -2.033056638675415 0 0 0 0 219.45046303705021 -94.549816231150089 0 -94.549816231150089 4.4755845693125593 0 0 0 0 -285.95934752417816 149.78276297332286 0 149.78276297332286 163.79683823363575 0 0 0 0 139.63566469703801 -51.503427423257563 0 -51.503427423257563 80.99233030784228 0 0 0 0 151.32602558929648 -106.72631022056839 0 -106.72631022056839 -0.75182210835373553 0 0 0 0 276.02768686584022 21.096163496588133 0 21.096163496588133 62.935564743535906 0 0 0 0 9.0695089604261057 9.1747692691831446 0 9.1747692691831446 5.9968602360155483 0 0 0 0 -14.27543125898228 -10.475937489855369 0 -10.475937489855369 -181.31792962588179 0 0 0 0 -136.15775714926713 192.526706502553 0 192.526706502553 -92.125816693458546 0 0 0 0 -75.720265754440334 -60.060638028709946 0 -60.060638028709946 67.227493544608251 0 0 0 0 -184.86022098286048 -49.656286759367049 0 -49.656286759367049 28.222720981680141 0 0 0 0 62.597959677325846 22.560186230562195 0 22.560186230562195 -8.3424283473464307 0 0 0 0 75.249696147075156 128.10782892288626 0 128.10782892288626 22.194363886934298 0 0 0 0 91.076045478603191 -10.155129784508659 0 -10.155129784508659 -37.962113909248558 0 0 0 0 65.793416221308178 20.144746171284655 0 20.144746171284655 -9.667260149142173 0 0 0 0 58.91316448397265 105.28943740935256 0 105.28943740935256 -5.366974543293054 0 0 0 0 78.515206296549422 -63.134004507923891 0 -63.134004507923891 2.3284286549051103 0 0 0 0 39.599477712905355 10.394369984726254 0 10.394369984726254 -12.954354401291766 0 0 0 0 142.12422793242877 45.27956415655035 0 45.27956415655035 -63.769961309406426 0 0 0 0 17.381895637108126 19.52828966704007 0 19.52828966704007 -14.921773063304087 0 0 0 0 29.341716732437789 13.071285926180046 0 13.071285926180046 -3.2257161916889903 0 0 0 0 -43.314944566547638 105.16471754080408 0 105.16471754080408 -87.289687835099983 0 0 0 0 -45.436444451661373 110.53812408143943 0 110.53812408143943 -70.436946287039973 0 0 0 0 -6.1332529331284604 88.64717424183182 0 88.64717424183182 -206.01951811469758 0 0 0 0 -66.786418213880097 153.65019121060104 0 153.65019121060104 -146.20734452354077 0 0 0 0 30.137094324935447 12.23931208671571 0 12.23931208671571 -3.423144727779607 0 0 0 0 15.510787659628082 -1.5660559029195085 0 -1.5660559029195085 -1.5971735768013613 0 0 0 0 -151.31128552126029 134.31764888334254 0 134.31764888334254 -57.667609366214151 0 0 0 0 16.420480302731448 114.45885959626588 0 114.45885959626588 -151.60074965566841 0 0 0 0 27.198340273884241 18.150110864127257 0 18.150110864127257 -92.245498125270998 0 0 0 0 0.22210530763004499 77.508273987930806 0 77.508273987930806 -32.559573322671298 0 0 0 0 2.9480004654469667 -11.547866419586697 0 -11.547866419586697 31.140342313086904 0 0 0 0 172.8350821003296 2.7322349564948922 0 2.7322349564948922 9.1895307792973995 0 0 0 0 38.275753875735973 63.684134559064944 0 63.684134559064944 36.387989782618774 0 0 0 0 -73.789080815713533 71.759054743198291 0 71.759054743198291 35.969843407613084 0 0 0 0 45.663074431686255 89.857958871194 0 89.857958871194 27.751372536658952 0 0 0 0 44.292443666337931 101.2062815175494 0 101.2062815175494 26.253872453326085 0 0 0 0 -26.976864782219579 35.407879636998217 0 35.407879636998217 -2.67573491324604 0 0 0 0 45.953517949397792 172.02002851918633 0 172.02002851918633 -17.102383554268272 0 0 0 0 104.69679857329902 74.846449447144266 0 74.846449447144266 -139.14017294898764 0 0 0 0 95.138465252286551 94.291397039797076 0 94.291397039797076 -56.97723919052271 0 0 0 0 84.435695384330756 55.203375014873728 0 55.203375014873728 -33.664520939388069 0 0 0 0 -5.2683210312970914 73.13411897115202 0 73.13411897115202 80.700280452530478 0 0 0 0 -19.401598912601088 37.602697130943433 0 37.602697130943433 -13.205150135502851 0 0 0 0 10.533821340974669 -1.2921861288939169 0 -1.2921861288939169 -3.3367855770295698 0 0 0 0 84.799302639010421 60.626365797378156 0 60.626365797378156 -136.5415182557087 0 0 0 0 4.1531904473358736 154.34302201626903 0 154.34302201626903 -72.213229074174706 0 0 0 0 24.374188938796578 43.698107728629338 0 43.698107728629338 -140.37941579314929 0 0 0 0 48.132541925419901 100.03995617979405 0 100.03995617979405 -270.52665830724254 0 0 0 0 44.472992139755661 72.171043175058685 0 72.171043175058685 -178.417320759625 0 0 0 0 138.75348302520433 29.006685406118891 0 29.006685406118891 -10.199265276886678 0 0 0 0 -44.478862490986103 179.13213092804779 0 179.13213092804779 -206.45704119758238 0 0 0 0 -40.227811907519936 95.745051492618813 0 95.745051492618813 -140.73056536490594 0 0 0 0 -30.812749110409641 45.339262986006361 0 45.339262986006361 -60.441457559550599 0 0 0 0 -7.435467920236988 74.398973600385943 0 74.398973600385943 -131.5398170549779 0 0 0 0 -77.563122286672296 87.41673054923217 0 87.41673054923217 -100.93648113189693 0 0 0 0 -62.083816891448805 66.039051393237514 0 66.039051393237514 -73.18195518210814 0 0 0 0 10.496041209196108 5.992804249123914 0 5.992804249123914 2.1404465296389343 0 0 0 0 181.24498746976315 57.444586918584264 0 57.444586918584264 -0.19470021166893048 0 0 0 0 165.21280665215454 -25.339431882638337 0 -25.339431882638337 -29.781021878349293 0 0 0 0 261.66611744152033 -40.972215485481797 0 -40.972215485481797 49.373653667305689 0 0 0 0 174.84771148552682 51.002019557760036 0 51.002019557760036 48.500395154954965 0 0 0 0 237.38878301167642 -61.506224998837496 0 -61.506224998837496 70.156578170201101 0 0 0 0 -28.93373283944311 28.264662093066136 0 28.264662093066136 -124.98714798708829 0 0 0 0 553.70350707259422 -157.35281921106326 0 -157.35281921106326 -13.059300416858491 0 0 0 0 875.34319615854474 -308.1514360952383 0 -308.1514360952383 -39.149710584027304 0 0 0 0 4.6056038407540996 2.4093479504082467 0 2.4093479504082467 0.71747327227059188 0 0 0 0 905.93693629638437 -68.370317734128037 0 -68.370317734128037 -135.42918246431373 0 0 0 0 510.12176030576666 -56.796959289638721 0 -56.796959289638721 -9.99330392713523 0 0 0 0 586.11325583598227 127.16667740074138 0 127.16667740074138 8.8960698313193802 0 0 0 0 1.3666388455900247 2.0872975901862176 0 2.0872975901862176 1.5208472894321645 0 0 0 0 -106.67365227150731 151.61529234402022 0 151.61529234402022 -129.4923991736309 0 0 0 0 -96.215454936809692 124.61077257906395 0 124.61077257906395 -59.772280250296717 0 0 0 0 83.462704742556525 15.464982496152089 0 15.464982496152089 -51.348744204258438 0 0 0 0 -86.550863102602307 87.514505388977824 0 87.514505388977824 -15.149764394122769 0 0 0 0 1.8448784747642755 4.0387964626666246 0 4.0387964626666246 4.5917514068938967 0 0 0 0 306.2206855580007 213.12001661887643 0 213.12001661887643 324.95873171508856 0 0 0 0 225.31939579590471 -11.200583314434425 0 -11.200583314434425 -82.113605170282199 0 0 0 0 1.3268326157425854 3.6185750471398919 0 3.6185750471398919 5.893667123116006 0 0 0 0 327.28663257499647 26.010180250149233 0 26.010180250149233 -211.11785129912778 0 0 0 0 355.8794580850963 105.53241715672002 0 105.53241715672002 -10.245471196199787 0 0 0 0 359.91438673684388 263.14256555993916 0 263.14256555993916 -79.964213794800798 0 0 0 0 723.08078679798928 61.585274511314992 0 61.585274511314992 -218.59491262325167 0 0 0 0 -89.133074633766228 337.27967378088573 0 337.27967378088573 -91.733317332508932 0 0 0 0 96.389609345133067 214.57610149476386 0 214.57610149476386 -27.810572620384164 0 0 0 0 157.16108789029295 26.974621067815121 0 26.974621067815121 21.202019335509931 0 0 0 0 65.732216503667587 59.07868775133602 0 59.07868775133602 125.29930613889695 0 0 0 0 25.535964478138339 106.98452729937179 0 106.98452729937179 -24.823281043072711 0 0 0 0 92.050452517760277 -1.8448527751056645 0 -1.8448527751056645 -46.823915302440014 0 0 0 0 134.91509629535358 -11.329373540535016 0 -11.329373540535016 250.47795699336575 0 0 0 0 102.68804065611039 31.989171410940116 0 31.989171410940116 212.67555082346553 0 0 0 0 152.6720556335531 -7.6337180178718427 0 -7.6337180178718427 146.15959080851934 0 0 0 0 336.74064375800663 13.105835395946997 0 13.105835395946997 -24.906214876836842 0 0 0 0 153.85062859775098 -25.950567438717911 0 -25.950567438717911 233.45164841810924 0 0 0 0 141.80275586840617 9.8332092394614818 0 9.8332092394614818 233.53829073723716 0 0 0 0 219.83905097785828 -60.190197989609345 0 -60.190197989609345 295.67647067469619 0 0 0 0 274.19640415416507 60.57502461965538 0 60.57502461965538 474.69374427730577 0 0 0 0 730.76105499866571 -13.746570563502985 0 -13.746570563502985 228.4995465456542 0 0 0 0 312.12713002476448 45.605014119763098 0 45.605014119763098 -48.061645152866049 0 0 0 0 533.74195390300156 -257.31915806179717 0 -257.31915806179717 171.72660086690726 0 0 0 0 524.08423817485186 104.93115241619928 0 104.93115241619928 -219.48914208963379 0 0 0 0 19.198090138223051 284.96960936604012 0 284.96960936604012 -111.21886782427805 0 0 0 0 -498.68235187380924 132.43164798911698 0 132.43164798911698 378.49722597474135 0 0 0 0 4.1132765615398341 3.1230086678105167 0 3.1230086678105167 3.4413685104984562 0 0 0 0 -317.62775539130962 46.089268999106935 0 46.089268999106935 131.84485233655141 0 0 0 0 571.01276077013972 -320.83870329885724 0 -320.83870329885724 241.14541982551776 0 0 0 0 492.7729753085714 -121.25933578541959 0 -121.25933578541959 181.74793355251609 0 0 0 0 346.00247820949153 -303.20513460487291 0 -303.20513460487291 260.6914668736905 0 0 0 0 339.60522206125461 -239.10744349374801 0 -239.10744349374801 192.0807546912223 0 0 0 0 426.50851462190622 -286.13114929831022 0 -286.13114929831022 210.59380469576774 0 0 0 0 294.85067801584228 -238.05108988843534 0 -238.05108988843534 185.60796872243054 0 0 0 0 302.84602080453624 -245.49193685115139 0 -245.49193685115139 192.13422956507793 0 0 0 0 255.8101807003768 -224.73763276026108 0 -224.73763276026108 191.85650700885742 0 0 0 0 274.29361081757452 -215.22556248210532 0 -215.22556248210532 172.5447595367699 0 0 0 0 221.7439720381517 -179.22424486071895 0 -179.22424486071895 180.4201845703646 0 0 0 0 268.02364176040282 -102.94734062256578 0 -102.94734062256578 150.44606716406258 0 0 0 0 292.28675483104598 -139.68695013149437 0 -139.68695013149437 184.47238767834619 0 0 0 0 355.35312364769561 -174.93565529795686 0 -174.93565529795686 171.93427041081509 0 0 0 0 177.18350847724287 -64.119809297255699 0 -64.119809297255699 172.96016014938687 0 0 0 0 311.37527764404513 -131.57092155914182 0 -131.57092155914182 163.6895229346236 0 0 0 0 162.65109371451581 -122.88151048784914 0 -122.88151048784914 159.0831269961069 0 0 0 0 205.09492017429875 -25.697622006182144 0 -25.697622006182144 118.25640534767228 0 0 0 0 228.21281533587171 -24.773417807212013 0 -24.773417807212013 200.65076411778489 0 0 0 0 324.09889357540669 -78.717231174005008 0 -78.717231174005008 223.84597772330619 0 0 0 0 354.20373132894019 -57.096676623447848 0 -57.096676623447848 207.5446814561459 0 0 0 0 192.92400261295552 56.377017279103029 0 56.377017279103029 312.34792413804303 0 0 0 0 115.10066220920271 -15.396883919805077 0 -15.396883919805077 249.89838964338219 0 0 0 0 159.79092084112926 40.041518873180962 0 40.041518873180962 194.70832436466065 0 0 0 0 77.23445093307862 -6.9938303618900211 0 -6.9938303618900211 205.86166562683195 0 0 0 0 96.828346839322876 8.0970763507007746 0 8.0970763507007746 279.844379983164 0 0 0 0 99.687875832652935 35.687220286861873 0 35.687220286861873 252.7972422565494 0 0 0 0 -84.339739199294854 -68.355940896710194 0 -68.355940896710194 -9.0070527243685774 0 0 0 0 -9.8836311771873042 19.221669821628076 0 19.221669821628076 -14.624806002405116 0 0 0 0 25.406466133077629 69.997842562454025 0 69.997842562454025 -72.454910265192552 0 0 0 0 31.084394587571296 9.1672807390027629 0 9.1672807390027629 -91.298034683821243 0 0 0 0 38.882053047370761 14.027680844390481 0 14.027680844390481 -10.933469912379186 0 0 0 0 64.945529821627133 -37.153867818549656 0 -37.153867818549656 -131.97995597943554 0 0 0 0 -5.5127227529374068 83.777041533918506 0 83.777041533918506 99.946539745022051 0 0 0 0 4.0296082878513602 8.311960408578221 0 8.311960408578221 -3.0096753020295552 0 0 0 0 65.469416165909934 92.948593307460413 0 92.948593307460413 63.117321380861881 0 0 0 0 18.069690497279225 108.35575932530787 0 108.35575932530787 114.56949728337247 0 0 0 0 54.557047192179198 57.41664065192515 0 57.41664065192515 36.068811652653608 0 0 0 0 300.99963636048778 -56.674116468891725 0 -56.674116468891725 -22.339735172606765 0 0 0 0 0.12407978181632018 0.77275537488771562 0 0.77275537488771562 3.2315395233346176 0 0 0 0 456.04265586485417 16.839841435967173 0 16.839841435967173 -73.726314533299728 0 0 0 0 73.667073976983374 20.433888705262916 0 20.433888705262916 51.491124298231853 0 0 0 0 347.88009626805797 165.18087412989337 0 165.18087412989337 44.353906473763345 0 0 0 0 43.894962355624557 122.92566381963947 0 122.92566381963947 40.584587392084586 0 0 0 0 -35.295748044390166 -27.345666057139937 0 -27.345666057139937 59.791933813040259 0 0 0 0 -5.5165341382040509 15.818550751447155 0 15.818550751447155 -7.4454989383828902 0 0 0 0 101.63067494041024 18.789428912824476 0 18.789428912824476 -2.6665832448368292 0 0 0 0 40.774219254704803 121.44626612132197 0 121.44626612132197 -32.897557260723744 0 0 0 0 431.94352188278572 -249.07368464493356 0 -249.07368464493356 -9.6784206456677566 0 0 0 0 66.723137125954963 142.22512414267817 0 142.22512414267817 207.29072038630238 0 0 0 0 269.44180388479435 -276.37726509339342 0 -276.37726509339342 254.05905003287864 0 0 0 0 251.94999475420263 -237.50465117792439 0 -237.50465117792439 218.40291970578244 0 0 0 0 8.1609665509399605 9.9561726216233168 0 9.9561726216233168 7.3655609872217873 0 0 0 0 298.74284992085632 -179.77939840800497 0 -179.77939840800497 148.90843792335329 0 0 0 0 290.30241379996005 -243.67523485317304 0 -243.67523485317304 188.06617101344534 0 0 0 0 539.83869661366771 -257.78802806867759 0 -257.78802806867759 108.87365841475032 0 0 0 0 316.69847569290141 -308.16834042343498 0 -308.16834042343498 306.16021795129859 0 0 0 0 285.94182928781811 -254.80060132034691 0 -254.80060132034691 219.37914306833716 0 0 0 0 303.62105837258423 -248.73283815135426 0 -248.73283815135426 189.91049747699475 0 0 0 0 -71.396738138872024 81.941203846889948 0 81.941203846889948 -8.8611190405854359 0 0 0 0 -123.5146521186216 23.308201231491239 0 23.308201231491239 12.962363077611798 0 0 0 0 9.8447751458826573 2.3444530667628669 0 2.3444530667628669 1.1892079708475634 0 0 0 0 -148.11764962439338 87.204548642415375 0 87.204548642415375 19.563029835607722 0 0 0 0 -121.19091374420532 -4.8231098686073892 0 -4.8231098686073892 105.00010185958809 0 0 0 0 4.1531320872454671 -34.198980701269079 0 -34.198980701269079 -36.894816878760366 0 0 0 0 -84.155384756537387 25.993769420983199 0 25.993769420983199 15.0571082995084 0 0 0 0 -124.09669189716078 24.040746675251398 0 24.040746675251398 89.814402708516354 0 0 0 0 39.023003782756859 -58.857397888206734 0 -58.857397888206734 122.2942759331045 0 0 0 0 37.286809556928347 -74.667669690930637 0 -74.667669690930637 8.558952969512859 0 0 0 0 -56.540164205111068 -41.524227841296671 0 -41.524227841296671 135.7381212163271 0 0 0 0 -2.5736138580250554 -29.313459195811674 0 -29.313459195811674 239.79824396325921 0 0 0 0 -15.692203859012807 32.313580440743408 0 32.313580440743408 84.670328886002721 0 0 0 0 156.43791951405001 145.12226021673678 0 145.12226021673678 119.08700918481145 0 0 0 0 219.04961650165205 77.514916050611191 0 77.514916050611191 -2.3654229506064439 0 0 0 0 -27.0383353481011 126.74230497924191 0 126.74230497924191 193.5676412305429 0 0 0 0 -379.70999119750195 257.21715621675003 0 257.21715621675003 102.72815438968655 0 0 0 0 -8.8139376483477463 178.4185666997445 0 178.4185666997445 -88.888288374701915 0 0 0 0 5.4981337667340995 212.22061465546676 0 212.22061465546676 58.904707702173255 0 0 0 0 -63.518797211676429 61.001936335250775 0 61.001936335250775 -101.1787701664116 0 0 0 0 -37.569955142142135 280.26993896820522 0 280.26993896820522 -191.46043748599573 0 0 0 0 31.827711704740793 19.45310095268411 0 19.45310095268411 5.0575333006160665 0 0 0 0 236.57770057649395 -130.05511241520907 0 -130.05511241520907 91.372650915394161 0 0 0 0 298.45459233132715 -126.78344323690999 0 -126.78344323690999 91.425535969423919 0 0 0 0 40.97531420087688 30.614042700535556 0 30.614042700535556 15.925175711402629 0 0 0 0 212.74597787034872 45.889304883503428 0 45.889304883503428 -72.053486950765091 0 0 0 0 14.066141740299194 -0.57021858201835585 0 -0.57021858201835585 -1.7483342687560839 0 0 0 0 -74.797881918819712 138.73294524845062 0 138.73294524845062 28.207445670898778 0 0 0 0 190.25215954612213 -139.64080898368326 0 -139.64080898368326 180.88291108914115 0 0 0 0 34.163149981318661 24.739501288009883 0 24.739501288009883 8.2647226371562361 0 0 0 0 155.38702500423096 -293.88670136261089 0 -293.88670136261089 461.67548575746639 0 0 0 0 441.93934325571536 -177.20207038720099 0 -177.20207038720099 113.37629539953809 0 0 0 0 298.77944588965329 -188.45185196555315 0 -188.45185196555315 115.11735439449716 0 0 0 0 259.97453601469169 -191.80262671124319 0 -191.80262671124319 185.37915071039541 0 0 0 0 229.60825217030651 -195.47159406414266 0 -195.47159406414266 247.43194975252999 0 0 0 0 297.84506749095817 -174.40978326096601 0 -174.40978326096601 141.94212889304322 0 0 0 0 298.46278671513573 -130.79917225325073 0 -130.79917225325073 351.64143739245537 0 0 0 0 224.22579568043147 -166.15419120355045 0 -166.15419120355045 151.06518826435638 0 0 0 0 225.40423754390213 -161.59126964147094 0 -161.59126964147094 -7.0764668269382582 0 0 0 0 338.67965358565198 -182.08653764497387 0 -182.08653764497387 19.109296284490028 0 0 0 0 270.23540745043283 -131.11468423216678 0 -131.11468423216678 11.308708044287414 0 0 0 0 317.92394790684557 -198.99747326571872 0 -198.99747326571872 53.1573697644817 0 0 0 0 322.29057792394815 -169.7614464651399 0 -169.7614464651399 -11.079036997362209 0 0 0 0 302.11074468127481 -163.02968489552279 0 -163.02968489552279 64.31208674615084 0 0 0 0 291.65981323372398 -147.23148765801147 0 -147.23148765801147 40.822416948349883 0 0 0 0 317.29668463621783 -113.79685021132946 0 -113.79685021132946 35.875211155716556 0 0 0 0 286.64535021874326 -121.12825264991716 0 -121.12825264991716 8.0577577340893072 0 0 0 0 319.25081306959839 -119.6318316864794 0 -119.6318316864794 -29.981437481756529 0 0 0 0 316.69985252664628 -79.811647542582705 0 -79.811647542582705 19.871509994366988 0 0 0 0 319.60673513843062 -106.32246922919823 0 -106.32246922919823 47.510327681839044 0 0 0 0 288.30520801108651 -125.37782390838595 0 -125.37782390838595 -95.165458640704628 0 0 0 0 172.45352709211147 -54.475260078208748 0 -54.475260078208748 -28.586708751812239 0 0 0 0 108.81265445582176 -70.396298569566625 0 -70.396298569566625 15.550374231589558 0 0 0 0 297.34143840235629 -98.961093142876962 0 -98.961093142876962 -45.009481473761298 0 0 0 0 307.80142989684828 -54.170482445915013 0 -54.170482445915013 72.959098371953132 0 0 0 0 309.90406231198358 -45.524748324780262 0 -45.524748324780262 64.793000109078093 0 0 0 0 321.99864768306725 -39.866734687180269 0 -39.866734687180269 2.6206262682130728 0 0 0 0 307.14808096831985 -56.308283757832214 0 -56.308283757832214 65.968550693814919 0 0 0 0 323.65112808917183 -67.536492845743851 0 -67.536492845743851 66.11909250639259 0 0 0 0 334.54249509087094 -41.810007205004013 0 -41.810007205004013 123.43149171996265 0 0 0 0 341.30083773359365 -90.503895765705465 0 -90.503895765705465 55.631935460214663 0 0 0 0 75.298975414982749 6.6221153245285667 0 6.6221153245285667 2.0610876319747673 0 0 0 0 259.32802948107019 -99.928356158384418 0 -99.928356158384418 74.966067906924764 0 0 0 0 184.77473254243455 -32.409566655786421 0 -32.409566655786421 14.042635135778255 0 0 0 0 -8.4309005469021692 -22.015140202564549 0 -22.015140202564549 30.196181086599154 0 0 0 0 282.7271438488533 -128.95106602384328 0 -128.95106602384328 72.569222072437697 0 0 0 0 476.20635051182762 -169.10176133038522 0 -169.10176133038522 58.652383595028368 0 0 0 0 3.5144590019653776 -9.3386947651945924 0 -9.3386947651945924 7.0255923624095322 0 0 0 0 30.753899321926248 10.221673174778601 0 10.221673174778601 20.419660184202144 0 0 0 0 49.199345982277009 13.069742036853995 0 13.069742036853995 12.714997014110395 0 0 0 0 64.254142183188378 0.84909650558392968 0 0.84909650558392968 12.862517526535157 0 0 0 0 266.52041776681654 -32.78232735289555 0 -32.78232735289555 61.921912333282307 0 0 0 0 481.31909544098016 -2.8074613348671846 0 -2.8074613348671846 -22.789422786525392 0 0 0 0 307.78005394510183 -108.83242659749453 0 -108.83242659749453 62.628384161132999 0 0 0 0 314.38473283180792 -109.15178344596507 0 -109.15178344596507 56.038302808760818 0 0 0 0 324.42595474256086 -101.68432277145303 0 -101.68432277145303 51.780880094521763 0 0 0 0 316.76430813826482 -77.493550254418778 0 -77.493550254418778 93.979562412362611 0 0 0 0 321.13913779473296 -115.90760228486192 0 -115.90760228486192 135.90951701685572 0 0 0 0 94.072637369947188 61.580588179173731 0 61.580588179173731 -116.6177315919445 0 0 0 0 85.839463145595801 52.123181169195817 0 52.123181169195817 125.86247743075626 0 0 0 0 45.252775744022642 -49.368606068317973 0 -49.368606068317973 12.679745923236851 0 0 0 0 71.959487773064211 -24.523948955322936 0 -24.523948955322936 148.45724566156662 0 0 0 0 147.97343994438052 1.2906068931477535 0 1.2906068931477535 3.8586508410746774 0 0 0 0 53.170268644727912 13.785485842309981 0 13.785485842309981 10.82701499891138 0 0 0 0 113.13169858174297 3.04591940827288 0 3.04591940827288 -132.30792698873745 0 0 0 0 66.353397016062445 63.004405682082478 0 63.004405682082478 -167.40456919766984 0 0 0 0 -79.219214885786641 -88.797670977373741 0 -88.797670977373741 16.454892936343754 0 0 0 0 77.55977538127263 -34.713246043784068 0 -34.713246043784068 128.50409234457925 0 0 0 0 138.74065736084776 -116.34788401013191 0 -116.34788401013191 71.024439342116466 0 0 0 0 167.58977401365701 -76.11057105725007 0 -76.11057105725007 117.74308786240329 0 0 0 0 182.040771823471 -185.34685683487402 0 -185.34685683487402 147.72321862239113 0 0 0 0 240.19657858585651 -157.94706459343587 0 -157.94706459343587 157.52421981712973 0 0 0 0 237.47111872147889 -120.29565491320065 0 -120.29565491320065 67.647728879178203 0 0 0 0 205.9740405752118 -79.13168953113734 0 -79.13168953113734 -63.124578572155315 0 0 0 0 104.94962456994836 -193.41370284028642 0 -193.41370284028642 28.275794972149697 0 0 0 0 117.72920602695376 -37.326386021008034 0 -37.326386021008034 18.251580955277291 0 0 0 0 91.622062939670286 61.740331163375629 0 61.740331163375629 -195.45328030536189 0 0 0 0 131.16340654576561 -186.62431680487674 0 -186.62431680487674 -213.66819311315271 0 0 0 0 181.34889975974875 -38.536280537089738 0 -38.536280537089738 -84.749101018321198 0 0 0 0 46.434149642576813 39.042330153370813 0 39.042330153370813 -17.516497794549196 0 0 0 0 -38.621444618693204 50.709044915687855 0 50.709044915687855 -36.730352174203063 0 0 0 0 68.460637515432609 17.518793184140122 0 17.518793184140122 1.8719130056047106 0 0 0 0 0.19246208504186768 1.1322141246076001 0 1.1322141246076001 -0.55239075640719926 0 0 0 0 37.006416170857847 -11.985258577201762 0 -11.985258577201762 -7.6649150740749974 0 0 0 0 1.7963559781911229 0.84113537459001719 0 0.84113537459001719 -2.8877151130917191 0 0 0 0 -68.852539266361418 -71.528078604282882 0 -71.528078604282882 -78.450526139382191 0 0 0 0 10.606224548222414 3.7525273961210237 0 3.7525273961210237 -0.90332184129162596 0 0 0 0 -29.619830597875989 -19.141677549494659 0 -19.141677549494659 -11.245049812564957 0 0 0 0 45.247840873642417 -73.169730871849652 0 -73.169730871849652 -245.95413304857368 0 0 0 0 84.711786090487294 -4.2250580761058814 0 -4.2250580761058814 -131.25025760389735 0 0 0 0 71.807943274265199 11.719830970782283 0 11.719830970782283 -133.97248267356315 0 0 0 0 34.38132254408265 9.1992729175027534 0 9.1992729175027534 -74.975296695114594 0 0 0 0 13.267846874330601 6.0974264753148244 0 6.0974264753148244 -0.01270899398135994 0 0 0 0 39.860932342882734 -30.841980293926554 0 -30.841980293926554 -140.28370398681523 0 0 0 0 53.892146299578599 -4.3732048138422215 0 -4.3732048138422215 -95.209654198871931 0 0 0 0 50.17204126415163 11.921499254626838 0 11.921499254626838 -127.80146930133242 0 0 0 0 48.50233850802033 23.108349760434749 0 23.108349760434749 -94.326961433637734 0 0 0 0 25.06893028387276 22.63039985604803 0 22.63039985604803 -94.308789037519546 0 0 0 0 5.5919956047443549 16.543925520048361 0 16.543925520048361 -1.3873931221215114 0 0 0 0 13.792449556378415 18.025025132164956 0 18.025025132164956 -35.433069090028312 0 0 0 0 19.978645121633988 6.5661252813800015 0 6.5661252813800015 -5.2477975215510257 0 0 0 0 13.849906493836897 20.050808087522682 0 20.050808087522682 -60.815690682077502 0 0 0 0 43.817467864908963 2.0434323376211978 0 2.0434323376211978 -11.491885638371929 0 0 0 0 25.573979835491627 51.886307281905601 0 51.886307281905601 -128.01422378990748 0 0 0 0 -10.424530296154899 46.844837198366818 0 46.844837198366818 -80.630963514308405 0 0 0 0 66.309923211148998 35.231451318069048 0 35.231451318069048 -136.09443023516835 0 0 0 0 26.775621162803873 41.542705341621257 0 41.542705341621257 -117.60165684220033 0 0 0 0 69.078850117875845 13.055117109294542 0 13.055117109294542 -128.22161491020415 0 0 0 0 222.9222212531331 -67.986083135264835 0 -67.986083135264835 -82.014035608060226 0 0 0 0 13.155498837724735 15.867996826422313 0 15.867996826422313 -17.867767623392098 0 0 0 0 -52.610338274940204 134.09633208628131 0 134.09633208628131 -54.40245274585277 0 0 0 0 17.828790135773911 8.2938421638399582 0 8.2938421638399582 -7.884005495622123 0 0 0 0 11.269788958641584 7.2572757647199069 0 7.2572757647199069 -21.701250403467043 0 0 0 0 13.687002207451016 2.2957151562700977 0 2.2957151562700977 -1.3349966379522638 0 0 0 0 11.736521763676137 14.001098919019569 0 14.001098919019569 -14.893033307625956 0 0 0 0 11.870353867187077 10.462253515512657 0 10.462253515512657 -8.1902421317095104 0 0 0 0 18.614317635451627 11.228261970915678 0 11.228261970915678 -2.9397811297027214 0 0 0 0 10.865561215530761 18.146612976155666 0 18.146612976155666 -4.7643279152421201 0 0 0 0 -48.304495822602803 127.50885581134696 0 127.50885581134696 -33.302699656605455 0 0 0 0 24.636807377435616 12.862332446632536 0 12.862332446632536 -5.5195415708758446 0 0 0 0 16.438606169649574 17.30426196565486 0 17.30426196565486 1.5567408112210614 0 0 0 0 14.545065794288348 15.201497001039797 0 15.201497001039797 -2.8619220111268078 0 0 0 0 11.202882851859613 6.8789557702925777 0 6.8789557702925777 -6.4729157054931648 0 0 0 0 13.925315430665762 7.5442111411031201 0 7.5442111411031201 1.0019384647364573 0 0 0 0 10.225290966991452 8.4318932384830987 0 8.4318932384830987 -7.6229511340052341 0 0 0 0 5.4009909839453245 6.0123233463290475 0 6.0123233463290475 -0.89866389904874033 0 0 0 0 -2.7293642854011892 4.1624610478225978 0 4.1624610478225978 1.7468627175173395 0 0 0 0 61.666275125608081 -3.4547191332903822 0 -3.4547191332903822 -7.1321951159925447 0 0 0 0 3.8519752516840526 53.369096335333552 0 53.369096335333552 48.014761914512746 0 0 0 0 9.6194674261205364 10.187838520871281 0 10.187838520871281 9.6581314172190105 0 0 0 0 51.600723772229685 28.403513446737179 0 28.403513446737179 4.4931942202536845 0 0 0 0 59.640845877414904 10.047046726010876 0 10.047046726010876 -4.3539481944644649 0 0 0 0 71.221726728625072 20.38112986554961 0 20.38112986554961 -7.3573570574694713 0 0 0 0 34.00616533128732 18.943482503018828 0 18.943482503018828 -20.026472742794795 0 0 0 0 74.420771588442221 12.645909960953077 0 12.645909960953077 -54.505158220908015 0 0 0 0 3.5698340246941616 13.624987494151839 0 13.624987494151839 0.60310299473487206 0 0 0 0 36.083274689508471 -17.106484178145138 0 -17.106484178145138 -33.69545704126449 0 0 0 0 60.76886581411236 56.659018626361103 0 56.659018626361103 31.641767976271694 0 0 0 0 4.5594949134486455 -0.067128768767354074 0 -0.067128768767354074 1.5869086714934824 0 0 0 0 81.191027667438902 23.397672499388136 0 23.397672499388136 25.034569034435663 0 0 0 0 105.78645750894793 49.99320175550838 0 49.99320175550838 8.2430603672737561 0 0 0 0 0.6165670998539392 14.219924904424524 0 14.219924904424524 -1.302408034249197 0 0 0 0 21.469048299892165 3.9361031464131884 0 3.9361031464131884 6.6793002886347494 0 0 0 0 4.433009087061154 9.2256057865341106 0 9.2256057865341106 2.0187121082948387 0 0 0 0 49.266240087170445 39.475233446989932 0 39.475233446989932 17.056562705593933 0 0 0 0 113.72720964841574 27.771337184854929 0 27.771337184854929 -10.809217398830697 0 0 0 0 8.5182654214454487 11.541145232245015 0 11.541145232245015 -0.28320570473442785 0 0 0 0 17.705359148426204 12.206972331509277 0 12.206972331509277 -2.1773042925789241 0 0 0 0 -1.0614325651132575 18.436242414918066 0 18.436242414918066 4.6049237613703902 0 0 0 0 21.497991224106499 17.250741517159923 0 17.250741517159923 -5.6525300592511485 0 0 0 0 17.334223543024642 14.654853721669083 0 14.654853721669083 -0.67005159913175127 0 0 0 0 16.846296804729718 19.299490116484662 0 19.299490116484662 -3.6205197621738989 0 0 0 0 15.663572034671233 15.697577574008619 0 15.697577574008619 -1.8250298197817756 0 0 0 0 14.195363945245845 13.188242191021345 0 13.188242191021345 -5.1679470752660563 0 0 0 0 104.03615949934465 -26.745369692536542 0 -26.745369692536542 -31.81960531714094 0 0 0 0 -102.35361752903646 137.18420068411388 0 137.18420068411388 27.415825378186582 0 0 0 0 -237.39213215872405 -20.770340880033473 0 -20.770340880033473 51.556129581639766 0 0 0 0 336.31172475376661 138.91497355280876 0 138.91497355280876 -29.786820766291157 0 0 0 0 314.48876445680071 -11.831158027629499 0 -11.831158027629499 43.459067906449945 0 0 0 0 260.17695868450392 -91.830904771946166 0 -91.830904771946166 37.636048598753405 0 0 0 0 236.49038605992246 -55.287195104423063 0 -55.287195104423063 33.875027475588467 0 0 0 0 268.26055532909231 -75.147551282138465 0 -75.147551282138465 46.095068096166187 0 0 0 0 258.3255480371954 -93.103038886237528 0 -93.103038886237528 45.014062684399164 0 0 0 0 284.5854815879502 -92.781501306857081 0 -92.781501306857081 48.586577037455754 0 0 0 0 280.52784338917263 -96.984135686069294 0 -96.984135686069294 45.540104345799818 0 0 0 0 273.64620061571623 -89.816778885749613 0 -89.816778885749613 54.39618649744807 0 0 0 0 283.41195540482613 -82.0992589384837 0 -82.0992589384837 60.234140784822557 0 0 0 0 292.49436531318861 -61.596840144094472 0 -61.596840144094472 52.930652299304711 0 0 0 0 345.88497958288644 -46.702810929752559 0 -46.702810929752559 37.379122828361233 0 0 0 0 296.19471864208754 -69.566075640420877 0 -69.566075640420877 67.016318893941161 0 0 0 0 -0.39678565958060119 -0.52164262155027075 0 -0.52164262155027075 1.314680643590485 0 0 0 0 -17.556871848391893 -52.445636028939361 0 -52.445636028939361 24.357919885833553 0 0 0 0 338.29544329929922 67.537522820942968 0 67.537522820942968 27.002373419341893 0 0 0 0 88.022979057044722 61.680503730517557 0 61.680503730517557 53.818261688766142 0 0 0 0 163.15013748323327 90.137191134115938 0 90.137191134115938 24.092512007336154 0 0 0 0 233.44497987553768 33.946396522175746 0 33.946396522175746 10.979384359004143 0 0 0 0 267.68286024096597 -14.971785258789623 0 -14.971785258789623 27.89442716725307 0 0 0 0 217.90294727310538 -18.727777958483784 0 -18.727777958483784 36.973088550454122 0 0 0 0 201.40145106035925 -1.6815876657774425 0 -1.6815876657774425 20.170060571149406 0 0 0 0 218.50630559665206 -57.354750165047676 0 -57.354750165047676 45.100152790306311 0 0 0 0 173.16541456324671 -6.48083580599274 0 -6.48083580599274 38.962549831479919 0 0 0 0 171.48806178226914 28.133375356567058 0 28.133375356567058 19.290610913345517 0 0 0 0 147.18839160763309 23.687883243724173 0 23.687883243724173 31.24812717633904 0 0 0 0 135.45145064899407 10.65033809977831 0 10.65033809977831 33.971233881582521 0 0 0 0 146.56846523122294 -36.4401470950761 0 -36.4401470950761 41.581522966451303 0 0 0 0 162.33393086263095 -12.816599173589566 0 -12.816599173589566 34.744267594855046 0 0 0 0 142.37467410250247 39.324190962306602 0 39.324190962306602 23.273709898774086 0 0 0 0 138.1090282237692 32.255927372352517 0 32.255927372352517 22.394214970427129 0 0 0 0 131.63637267372542 29.271293540698935 0 29.271293540698935 32.54794143682102 0 0 0 0 132.63937501391592 47.013748525406044 0 47.013748525406044 16.120598856274228 0 0 0 0 116.83964902647858 51.365748001389875 0 51.365748001389875 27.779870537900933 0 0 0 0 114.52304864164034 43.704732442465229 0 43.704732442465229 3.0037381718830147 0 0 0 0 121.25777913562342 49.426182585111746 0 49.426182585111746 27.216503791858486 0 0 0 0 83.892508586955955 59.062369357921398 0 59.062369357921398 29.549720801122021 0 0 0 0 92.317010816739639 49.129167729097389 0 49.129167729097389 41.157073633414257 0 0 0 0 55.866472489091393 40.979101335269661 0 40.979101335269661 39.397704137094479 0 0 0 0 121.54376216120363 90.418150104435426 0 90.418150104435426 36.019653486540847 0 0 0 0 152.92066580271785 69.945606366054562 0 69.945606366054562 4.5364925765680368 0 0 0 0 121.51868155956618 -13.929507823612767 0 -13.929507823612767 34.908008955815603 0 0 0 0 105.28326770440617 -7.0855175821025114 0 -7.0855175821025114 37.890116326537736 0 0 0 0 101.86396146494371 28.615206633578964 0 28.615206633578964 36.4498629127188 0 0 0 0 121.02480392342113 19.781214620796163 0 19.781214620796163 36.767838579100498 0 0 0 0 69.960510758523014 17.010516448202907 0 17.010516448202907 38.792740772137222 0 0 0 0 92.256747395309503 8.2431856120028897 0 8.2431856120028897 35.701796956111139 0 0 0 0 74.9619599083926 -17.600561624698457 0 -17.600561624698457 37.81644307665556 0 0 0 0 93.804957705353445 -17.878742542360669 0 -17.878742542360669 23.667083449627171 0 0 0 0 137.56506574310333 -39.78164995374118 0 -39.78164995374118 27.363188103896391 0 0 0 0 92.537982707151968 -45.653518288409032 0 -45.653518288409032 29.698456942471239 0 0 0 0 134.3231646334898 -63.046955678755694 0 -63.046955678755694 44.880903906780077 0 0 0 0 160.18878232876159 -90.746332099378378 0 -90.746332099378378 38.172413856436833 0 0 0 0 153.07946132908546 -55.720985582349385 0 -55.720985582349385 19.116953846472825 0 0 0 0 160.95539654591994 -37.390717719427812 0 -37.390717719427812 37.740671840505456 0 0 0 0 116.20425620714377 -38.724087244637076 0 -38.724087244637076 43.994753373110143 0 0 0 0 180.54289864805469 -75.767974962680455 0 -75.767974962680455 38.076668446858548 0 0 0 0 201.36695309961215 -40.485677847752868 0 -40.485677847752868 30.75127914609584 0 0 0 0 201.55141481058547 -87.989670178423864 0 -87.989670178423864 55.652062197111263 0 0 0 0 190.17795443524119 -67.041155265637371 0 -67.041155265637371 42.017530876504679 0 0 0 0 276.16828733325201 -121.00586850609977 0 -121.00586850609977 50.491002725381804 0 0 0 0 246.37770911325242 -83.016085318967498 0 -83.016085318967498 58.957394862322872 0 0 0 0 230.15136510129378 -104.93626361510314 0 -104.93626361510314 43.820145281087207 0 0 0 0 197.47279037536646 -73.315598908724496 0 -73.315598908724496 34.805559759759944 0 0 0 0 240.21895158890402 -122.89509630463817 0 -122.89509630463817 45.813567527944542 0 0 0 0 245.02474886237178 -102.79455306815407 0 -102.79455306815407 21.725815879191941 0 0 0 0 317.88163355331199 -95.44897534699362 0 -95.44897534699362 22.42342784631137 0 0 0 0 334.12234609804455 -151.94447436950122 0 -151.94447436950122 28.965187611383953 0 0 0 0 -13.397273696899351 -25.014899681519083 0 -25.014899681519083 18.05678721731412 0 0 0 0 532.24494869354749 -83.278055992255418 0 -83.278055992255418 10.829953927601537 0 0 0 0 483.42733317925376 -86.115966942987086 0 -86.115966942987086 30.826668152523553 0 0 0 0 -50.291386841150768 -31.032097611971576 0 -31.032097611971576 -34.387627693184086 0 0 0 0 -69.03204406044415 -151.8691765538814 0 -151.8691765538814 6.3427458364317317 0 0 0 0 -1.6038780566744428 0.78168856349721505 0 0.78168856349721505 -0.6597443291499081 0 0 0 0 509.61688527418983 -94.103189022078936 0 -94.103189022078936 18.716672686431139 0 0 0 0 160.55124585473186 18.059148111340619 0 18.059148111340619 31.530061194918289 0 0 0 0 278.76390274000732 -6.9944693542821597 0 -6.9944693542821597 17.798310149007193 0 0 0 0 103.23201489086046 -5.4661111489365339 0 -5.4661111489365339 -96.23057612665707 0 0 0 0 85.918000378327534 20.840900519371949 0 20.840900519371949 -104.34458342762076 0 0 0 0 93.191532096012537 11.359413862502414 0 11.359413862502414 -69.098761971892486 0 0 0 0 70.616668477902749 -16.81757582748952 0 -16.81757582748952 -75.53877486242817 0 0 0 0 100.63058359513479 -36.783932969326997 0 -36.783932969326997 -47.776384849640408 0 0 0 0 70.427877885888392 -9.1615052264718315 0 -9.1615052264718315 -72.438419004878341 0 0 0 0 71.454111857151474 -84.923336031547706 0 -84.923336031547706 -38.704988398984142 0 0 0 0 58.313006793196109 10.308095053392265 0 10.308095053392265 -59.058313201374517 0 0 0 0 36.510473228202954 -0.90848380162316289 0 -0.90848380162316289 -57.60953107787509 0 0 0 0 53.495565313098268 20.455993362127629 0 20.455993362127629 -29.25832082722377 0 0 0 0 14.440800908815163 44.8420334530594 0 44.8420334530594 -70.778050148225077 0 0 0 0 66.629479848797928 -9.5518870119856274 0 -9.5518870119856274 -18.357761261739142 0 0 0 0 79.838593050504642 -26.057279143684013 0 -26.057279143684013 8.045907640218843 0 0 0 0 33.786174474568483 3.6851090081551425 0 3.6851090081551425 -5.3911803012991069 0 0 0 0 71.812378981800066 3.069080851774288 0 3.069080851774288 -28.813778994171116 0 0 0 0 30.204788927774938 7.1075802420100693 0 7.1075802420100693 -7.6500309964385469 0 0 0 0 55.544182679794176 -3.324887320117341 0 -3.324887320117341 -5.6371606729621817 0 0 0 0 47.705141467980411 -4.2794402523736608 0 -4.2794402523736608 -29.651825538809589 0 0 0 0 44.899314106307884 -6.4151088840616239 0 -6.4151088840616239 -0.34264203005932359 0 0 0 0 42.586158208381676 7.9894465743427645 0 7.9894465743427645 -4.7024998819533721 0 0 0 0 41.92923316959741 -6.3897940167120169 0 -6.3897940167120169 11.176151331766505 0 0 0 0 40.395673667379015 0.27277958079366726 0 0.27277958079366726 -11.427817763447365 0 0 0 0 44.979522608816296 -4.364270403595583 0 -4.364270403595583 -16.312808118806743 0 0 0 0 9.0140760104908093 -2.6146936894875732 0 -2.6146936894875732 -2.7271238491852703 0 0 0 0 36.08293347456187 12.130060415819795 0 12.130060415819795 -7.2480171451262194 0 0 0 0 17.01722839262068 -0.20848526007437762 0 -0.20848526007437762 -3.233460682351641 0 0 0 0 99.780644245367512 9.9182266199977676 0 9.9182266199977676 28.411511299429549 0 0 0 0 71.827315446824286 -5.6466753204308588 0 -5.6466753204308588 -0.39449312021656624 0 0 0 0 84.291588742924432 -22.863387151496454 0 -22.863387151496454 7.742782981235905 0 0 0 0 111.15973315013071 31.934942155283693 0 31.934942155283693 6.5797155175612261 0 0 0 0 28.257942655564122 0.63914934562568249 0 0.63914934562568249 -1.6927438730793156 0 0 0 0 56.896569938050838 9.2452950302199852 0 9.2452950302199852 -5.8875054342110822 0 0 0 0 30.854037919758689 -6.6989093023227433 0 -6.6989093023227433 -3.996760741374306 0 0 0 0 27.534330296253618 10.804484994098608 0 10.804484994098608 -6.0409490842665114 0 0 0 0 29.27347048107352 4.0601628013736217 0 4.0601628013736217 -8.5028306889546137 0 0 0 0 83.162256973518652 -18.583612538321312 0 -18.583612538321312 7.0721033307580683 0 0 0 0 55.537414280905068 -13.440818073480045 0 -13.440818073480045 1.9636010642448127 0 0 0 0 -13.823873190082617 -23.218459214387224 0 -23.218459214387224 23.215854942189473 0 0 0 0 232.62285851622255 -77.900624590365169 0 -77.900624590365169 39.081867044899809 0 0 0 0 341.42202909963271 -74.489904837599283 0 -74.489904837599283 -21.861383119549828 0 0 0 0 129.91005847097949 -28.032183099781832 0 -28.032183099781832 33.446879552934661 0 0 0 0 150.1452707348908 -5.4587978155609562 0 -5.4587978155609562 27.445165330153941 0 0 0 0 8.978415427862009 2.3787300602654309 0 2.3787300602654309 -4.4173312196151135 0 0 0 0 145.47203329416698 -3.5457716919136146 0 -3.5457716919136146 -25.597808788028487 0 0 0 0 66.305346575765725 69.039476431658841 0 69.039476431658841 -24.374710803309426 0 0 0 0 126.2414373085594 46.101437721301409 0 46.101437721301409 -54.620240330009892 0 0 0 0 118.83502026799579 16.568318263423862 0 16.568318263423862 5.8640669246083235 0 0 0 0 80.360337943842751 7.1869872971324185 0 7.1869872971324185 -0.92524401416721958 0 0 0 0 -2.4652217060115618 28.772478707175424 0 28.772478707175424 -14.436162392332335 0 0 0 0 107.33185448884433 65.359970346744376 0 65.359970346744376 -5.2626459825937673 0 0 0 0 49.49050866254688 24.198468605907905 0 24.198468605907905 -3.700300363384569 0 0 0 0 93.661596379170078 -10.022572746674996 0 -10.022572746674996 34.511193133000859 0 0 0 0 157.3181394143121 7.0478322704084349 0 7.0478322704084349 -3.980816613375282 0 0 0 0 67.467560084674503 14.769962121353785 0 14.769962121353785 -5.8575862963602496 0 0 0 0 57.527105084132479 16.694931781674512 0 16.694931781674512 4.3022064612290745 0 0 0 0 25.530390808205993 108.55387912736705 0 108.55387912736705 -105.03796248027265 0 0 0 0 274.32613481293811 -23.902338345952558 0 -23.902338345952558 -132.92562878893045 0 0 0 0 216.35887861858646 -7.6916768317241804 0 -7.6916768317241804 -84.679117011966355 0 0 0 0 252.54166992432147 -1.5323253961064438 0 -1.5323253961064438 -92.651049341963699 0 0 0 0 63.876868741390354 16.504547474631408 0 16.504547474631408 -4.0064144365924221 0 0 0 0 118.91944380334462 17.168036898635364 0 17.168036898635364 -94.691836509428867 0 0 0 0 78.078236119806036 13.854631393701556 0 13.854631393701556 0.21332829346183457 0 0 0 0 76.053394251473946 10.73454300751564 0 10.73454300751564 -1.3227663571021822 0 0 0 0 66.296172621859426 -3.8876141572099137 0 -3.8876141572099137 -10.516664220767804 0 0 0 0 67.005955679589917 -0.26423087110574528 0 -0.26423087110574528 -7.8873263059384122 0 0 0 0 78.398597480492754 -16.804092341109708 0 -16.804092341109708 3.6619591517774097 0 0 0 0 55.715341353744293 -8.3788835097078085 0 -8.3788835097078085 -13.53360144424574 0 0 0 0 61.88037114234298 -3.7451240883056087 0 -3.7451240883056087 3.513129195185801 0 0 0 0 61.486651941213495 -9.8482509861296421 0 -9.8482509861296421 -11.634752451862369 0 0 0 0 114.49347666426183 1.6436500216168497 0 1.6436500216168497 -9.3379743664299895 0 0 0 0 49.537339847909607 -10.324491214918368 0 -10.324491214918368 -14.125636970671167 0 0 0 0 56.963694207213848 -6.6039588928915123 0 -6.6039588928915123 -12.708166036677767 0 0 0 0 63.856796637763523 -7.351701282320505 0 -7.351701282320505 -12.59738595106816 0 0 0 0 78.31432696817501 -3.5496447423784048 0 -3.5496447423784048 106.13232504939515 0 0 0 0 57.88263677397439 -9.6543880839052889 0 -9.6543880839052889 -8.9017621228811787 0 0 0 0 110.82146696698328 -36.239182336422346 0 -36.239182336422346 24.440625891039417 0 0 0 0 108.88640709659376 -8.4765528118505244 0 -8.4765528118505244 -94.279360881610046 0 0 0 0 23.127157697630452 -1.7289975212809168 0 -1.7289975212809168 -5.7340348811302313 0 0 0 0 62.000547133207874 -22.812250477936686 0 -22.812250477936686 1.3467506976462573 0 0 0 0 68.131379091928466 -26.038035818584888 0 -26.038035818584888 -8.1367816884639979 0 0 0 0 42.111651070120445 -4.2854768777189589 0 -4.2854768777189589 -8.6135969247681565 0 0 0 0 55.255503132211743 -13.017896702544931 0 -13.017896702544931 -12.799864175346556 0 0 0 0 43.381629923949433 -12.738588204146289 0 -12.738588204146289 -19.648730961620231 0 0 0 0 81.803284422239813 6.7255676315214714 0 6.7255676315214714 -73.037117905679224 0 0 0 0 213.60648082502303 45.992911791066945 0 45.992911791066945 12.258307710606459 0 0 0 0 14.937242919778235 -16.165802429792222 0 -16.165802429792222 -17.357166163435846 0 0 0 0 66.461631569851306 -22.094231195042823 0 -22.094231195042823 -14.191819467316279 0 0 0 0 8.6102340101697337 0.21202941960524413 0 0.21202941960524413 -3.922286954845692 0 0 0 0 159.81019732224377 -108.12385587576068 0 -108.12385587576068 -4.5035085004833491 0 0 0 0 147.06124183630163 -118.83023125129603 0 -118.83023125129603 4.1775023385803252 0 0 0 0 36.472883623493544 37.553863141727334 0 37.553863141727334 -31.443691234232574 0 0 0 0 34.510960302737658 30.185454281256398 0 30.185454281256398 -59.084254737307674 0 0 0 0 11.281747523393364 1.922037231589286 0 1.922037231589286 0.071254045629462581 0 0 0 0 32.714341725297345 1.9251102105315567 0 1.9251102105315567 -93.867469172269921 0 0 0 0 34.449313912209618 14.399598946690276 0 14.399598946690276 -8.5091505031432462 0 0 0 0 38.736439361567818 -44.506961739291569 0 -44.506961739291569 -38.87668421273429 0 0 0 0 38.619508225108802 -49.853080373866511 0 -49.853080373866511 -111.5762188192648 0 0 0 0 0.26144186313772622 -0.8378755868933041 0 -0.8378755868933041 -0.65010539969776815 0 0 0 0 14.005533756055229 -55.68045431116002 0 -55.68045431116002 -24.956708505204006 0 0 0 0 129.54732789256377 96.215979740243711 0 96.215979740243711 15.125137694509249 0 0 0 0 23.50237902722688 -19.980467251986155 0 -19.980467251986155 -3.7367828239401355 0 0 0 0 129.02748718994553 -56.449723061486111 0 -56.449723061486111 -36.771379347452239 0 0 0 0 39.202582247009559 -29.161383464708024 0 -29.161383464708024 41.205232888754949 0 0 0 0 33.2287520924624 -61.179012701579879 0 -61.179012701579879 -23.404068811066736 0 0 0 0 29.288861637394803 -18.114648604382182 0 -18.114648604382182 46.453604548174098 0 0 0 0 -0.31259205535752699 268.62893939590754 0 268.62893939590754 -140.58320395332953 0 0 0 0 856.43020211864496 114.94476781512003 0 114.94476781512003 -269.22215253024478 0 0 0 0 -0.61438864457994669 0.14533772551600066 0 0.14533772551600066 0.65686795705913426 0 0 0 0 643.81764332984312 153.66038441043384 0 153.66038441043384 -109.39372808843018 0 0 0 0 271.74976415913261 258.17240596515603 0 258.17240596515603 193.31337866705246 0 0 0 0 -33.739683584008276 140.15478048982624 0 140.15478048982624 -42.765368441459032 0 0 0 0 656.28490744878923 -301.28157487128965 0 -301.28157487128965 -18.89267521081274 0 0 0 0 278.84948170401185 -52.168537385654872 0 -52.168537385654872 -17.10577885355633 0 0 0 0 -8.5404907787669799 -88.772490928364732 0 -88.772490928364732 -39.289479183158619 0 0 0 0 172.59096447990305 -26.045834957118814 0 -26.045834957118814 146.77383102041586 0 0 0 0 68.365586294461536 -11.024842869183431 0 -11.024842869183431 -8.499973963866978 0 0 0 0 49.303291823565814 -11.47669590852945 0 -11.47669590852945 14.998691244223664 0 0 0 0 43.650356387246546 -5.3132092191905596 0 -5.3132092191905596 -8.2684977450957557 0 0 0 0 52.044593762513614 -14.256542840572848 0 -14.256542840572848 -2.0462322521790384 0 0 0 0 45.609846243800604 -15.273419272542064 0 -15.273419272542064 -4.8494041152411249 0 0 0 0 50.386115710269223 -21.694230947633457 0 -21.694230947633457 17.812661084206312 0 0 0 0 73.533982674180152 1.7081724125205255 0 1.7081724125205255 6.3372166666407566 0 0 0 0 34.911370335945321 -34.095402403113496 0 -34.095402403113496 11.066425591949837 0 0 0 0 46.792420755940839 -13.066942713596632 0 -13.066942713596632 -2.0468669140031421 0 0 0 0 52.462675454957207 -17.828588711199131 0 -17.828588711199131 -18.179273732279171 0 0 0 0 53.647029405830835 -1.3028338078639763 0 -1.3028338078639763 -58.5085794751501 0 0 0 0 23.771285153212375 17.905705940174585 0 17.905705940174585 -29.414290639282626 0 0 0 0 9.9690287502248296 -1.6889267559645802 0 -1.6889267559645802 -0.91893408310246816 0 0 0 0 35.339579200157459 1.3963590326644635 0 1.3963590326644635 -14.817849968742848 0 0 0 0 46.238582227197185 -0.74547676297379439 0 -0.74547676297379439 -28.390428795513799 0 0 0 0 40.38195071184964 -10.772214411269715 0 -10.772214411269715 -15.482489717566068 0 0 0 0 56.139669129443064 -14.080163388672531 0 -14.080163388672531 -16.957765943150434 0 0 0 0 41.926471434340783 -20.982956208101996 0 -20.982956208101996 -13.835412307311799 0 0 0 0 51.888364585280215 -23.313582257293319 0 -23.313582257293319 -15.515274152478014 0 0 0 0 43.922238768012903 -16.343964015297615 0 -16.343964015297615 -8.0249425326765049 0 0 0 0 25.521920173836406 -3.1979591766601061 0 -3.1979591766601061 -10.170744636326276 0 0 0 0 16.794724917199346 -10.821235766502923 0 -10.821235766502923 -14.679428551885849 0 0 0 0 40.028967852160349 -17.382540466145883 0 -17.382540466145883 -16.850365941000177 0 0 0 0 43.24958938699865 -19.016579342030667 0 -19.016579342030667 -5.5132867626512052 0 0 0 0 24.915688824721329 -4.9272341257803554 0 -4.9272341257803554 0.86686046880022127 0 0 0 0 30.690869370848873 -7.3887243236952269 0 -7.3887243236952269 -0.72208975547303611 0 0 0 0 25.095775847328696 0.22773463616192657 0 0.22773463616192657 3.5903272051264139 0 0 0 0 46.289731101162033 -0.85630269672151371 0 -0.85630269672151371 1.9569251441323559 0 0 0 0 24.963421713987664 -4.5130398537087277 0 -4.5130398537087277 1.6720410255925611 0 0 0 0 22.343226165227385 -7.9040880179996833 0 -7.9040880179996833 1.8399299085696637 0 0 0 0 31.472430290715238 -15.091543381461634 0 -15.091543381461634 0.93070182433382342 0 0 0 0 24.374046149876449 -15.389919948827014 0 -15.389919948827014 -22.802188337361486 0 0 0 0 27.951165546502434 -7.6199936667511432 0 -7.6199936667511432 1.6500525879641534 0 0 0 0 27.07072727294144 -0.41128501147409224 0 -0.41128501147409224 7.5107021525675464 0 0 0 0 52.142774768884919 -2.8144722075944628 0 -2.8144722075944628 -1.0264555422818376 0 0 0 0 55.543621267295748 -14.847680030854519 0 -14.847680030854519 11.138713450628074 0 0 0 0 17.791814966731234 0.29707706555323199 0 0.29707706555323199 -5.3330721484667984 0 0 0 0 49.254215066619508 -9.1128128880400254 0 -9.1128128880400254 -9.2004216855953018 0 0 0 0 35.653336029428488 -2.7875460950444704 0 -2.7875460950444704 -3.3228136062217857 0 0 0 0 18.747026127774408 4.0219628050832199 0 4.0219628050832199 2.0109566189016341 0 0 0 0 71.911767539844732 -3.5616660511136615 0 -3.5616660511136615 1.8911680656874523 0 0 0 0 68.656418392198248 -24.729236278346889 0 -24.729236278346889 14.058805840886635 0 0 0 0 34.726091321932472 -15.48521925467594 0 -15.48521925467594 -5.5657094854946081 0 0 0 0 46.122838582236398 -9.2391463680253132 0 -9.2391463680253132 0.1816486106889732 0 0 0 0 34.654213042828772 -6.4254433514575453 0 -6.4254433514575453 3.7468793424577451 0 0 0 0 55.467885177124117 -16.189294565690489 0 -16.189294565690489 -1.8160273579280215 0 0 0 0 69.020272303991078 -24.195551991150751 0 -24.195551991150751 9.3529652374404009 0 0 0 0 24.106791455617525 8.2143191882926665 0 8.2143191882926665 -6.2915504061418241 0 0 0 0 60.982698814729702 -10.457822484471649 0 -10.457822484471649 16.752610365296277 0 0 0 0 55.360509723934229 -14.38579298271361 0 -14.38579298271361 18.310179130752658 0 0 0 0 1.0628150232746094 1.3474306192243368 0 1.3474306192243368 0.80050741210794563 0 0 0 0 68.427803920445058 -19.431037815970456 0 -19.431037815970456 1.1634659144089028 0 0 0 0 49.34366759222506 -1.9111161889646033 0 -1.9111161889646033 -8.2223234662513214 0 0 0 0 116.88087808175442 -27.251068343186574 0 -27.251068343186574 -40.946568735636873 0 0 0 0 10.189492391455515 -2.9020449891028872 0 -2.9020449891028872 -0.54725962244041448 0 0 0 0 51.279745431413176 -9.1679784422558441 0 -9.1679784422558441 17.442873004993089 0 0 0 0 32.448499246731217 -9.0570212636781662 0 -9.0570212636781662 8.6423150891741898 0 0 0 0 50.466401225803338 -3.5482448826434165 0 -3.5482448826434165 -0.97415832112324097 0 0 0 0 15.870693607032194 34.084250151841857 0 34.084250151841857 -45.0274487842022 0 0 0 0 42.864640444530266 10.422894918990607 0 10.422894918990607 -31.522715631186429 0 0 0 0 34.546405617402577 -9.9470154175169245 0 -9.9470154175169245 5.7191834988795867 0 0 0 0 27.352415192690387 -11.311712262265246 0 -11.311712262265246 25.809040665638349 0 0 0 0 39.800218885149661 -4.5240324815831627 0 -4.5240324815831627 -4.6455888513210084 0 0 0 0 42.959661966967104 -10.012160425220872 0 -10.012160425220872 -1.9914192495686898 0 0 0 0 39.213505608320702 -7.7559184281844864 0 -7.7559184281844864 -1.5690583330688241 0 0 0 0 32.088399193083433 -4.518035014111641 0 -4.518035014111641 -3.9011872297932091 0 0 0 0 20.285909379175624 -15.272362772304348 0 -15.272362772304348 6.0080232691828659 0 0 0 0 26.548970151583489 -11.432302301504023 0 -11.432302301504023 5.051062694868051 0 0 0 0 20.633288720427139 -5.3147378323481984 0 -5.3147378323481984 3.9549888028450746 0 0 0 0 6.576727514306949 -3.1871882846952539 0 -3.1871882846952539 1.4612548351912134 0 0 0 0 -21.631526471356324 48.780441865898126 0 48.780441865898126 -66.750954427336865 0 0 0 0 10.762898351697345 38.187616072403102 0 38.187616072403102 -79.567252811190883 0 0 0 0 57.269228937541172 13.182938357601074 0 13.182938357601074 -68.805579327982855 0 0 0 0 39.955836264683057 37.449376180109198 0 37.449376180109198 -83.457720692558325 0 0 0 0 68.97820114850623 25.556389881203195 0 25.556389881203195 -97.961078450210437 0 0 0 0 31.171042530269233 -6.5799567957784859 0 -6.5799567957784859 12.159528625917574 0 0 0 0 28.279734444913714 -2.888742687369418 0 -2.888742687369418 -4.0427421743251051 0 0 0 0 35.410439839561697 -2.7765825546610614 0 -2.7765825546610614 -2.9286167628885122 0 0 0 0 71.617969608744033 -54.76045690125045 0 -54.76045690125045 -10.58615260476742 0 0 0 0 5.09868666642073 -2.7567048118816291 0 -2.7567048118816291 -2.2391852686679172 0 0 0 0 12.317823558241685 53.45957379461629 0 53.45957379461629 -89.824698416806541 0 0 0 0 67.737127924007382 6.5008577369143268 0 6.5008577369143268 -74.938512354306795 0 0 0 0 41.014953207244901 10.313715666752813 0 10.313715666752813 1.3085189813452871 0 0 0 0 95.478525138212945 -30.711842127071989 0 -30.711842127071989 -21.608018795460794 0 0 0 0 0.21919267281749377 0.27592875604453893 0 0.27592875604453893 -1.7257767361593856 0 0 0 0 87.490969596360856 -86.865373992883974 0 -86.865373992883974 43.649192667219495 0 0 0 0 -90.473785852360038 139.1667326252155 0 139.1667326252155 -93.406196581702034 0 0 0 0 -8.2970662088728488 23.859502294403853 0 23.859502294403853 -86.93993291550305 0 0 0 0 39.912224458965284 79.90493723541681 0 79.90493723541681 -128.31718806708898 0 0 0 0 112.40807698967433 16.63425643152101 0 16.63425643152101 -75.918080930092572 0 0 0 0 60.187165451960382 16.336029471621501 0 16.336029471621501 -69.32535121103524 0 0 0 0 54.888083968553047 9.96639240555794 0 9.96639240555794 -42.363951603400437 0 0 0 0 8.4345988669192593 47.512733933422737 0 47.512733933422737 -68.782184528000244 0 0 0 0 77.167805260617001 36.212763664733075 0 36.212763664733075 -94.703146710269721 0 0 0 0 58.675770703584959 43.725206762216338 0 43.725206762216338 -93.808624458438999 0 0 0 0 44.646754478231628 -7.7057843136233259 0 -7.7057843136233259 -52.11393039377117 0 0 0 0 53.171070149528191 12.272240495930646 0 12.272240495930646 -18.189159554468461 0 0 0 0 99.551344220335977 -20.988785477954934 0 -20.988785477954934 0.079570383894406405 0 0 0 0 127.02184324278699 -2.0891057591052231 0 -2.0891057591052231 -57.037656744792912 0 0 0 0 196.96695600786825 -38.113957020240832 0 -38.113957020240832 4.5554161314551038 0 0 0 0 103.96988220457536 -38.369804781958351 0 -38.369804781958351 16.293171283783067 0 0 0 0 163.28324847881277 -30.885888389263528 0 -30.885888389263528 -14.523431333111603 0 0 0 0 68.739658257176302 -15.21988078768959 0 -15.21988078768959 14.778980546893081 0 0 0 0 134.03173855866413 -0.9963994052394014 0 -0.9963994052394014 -25.45030807549665 0 0 0 0 112.99604984555936 -4.4849129945669119 0 -4.4849129945669119 42.142610030407923 0 0 0 0 152.84919903391005 13.707622692984216 0 13.707622692984216 21.44735759915875 0 0 0 0 224.84247522459418 -31.236445863083645 0 -31.236445863083645 28.136048218567339 0 0 0 0 139.24256258674023 -34.408505245996025 0 -34.408505245996025 30.497087165777884 0 0 0 0 6.3726272321637794 51.668857240231603 0 51.668857240231603 18.425101304944747 0 0 0 0 27.836724263262795 6.540480991845925 0 6.540480991845925 -39.996131346938682 0 0 0 0 55.003325614204357 53.965296674528815 0 53.965296674528815 17.892450427614222 0 0 0 0 63.86488791466536 18.871755534564272 0 18.871755534564272 34.803968409976733 0 0 0 0 87.514628911323143 45.006276148468487 0 45.006276148468487 63.329108180580988 0 0 0 0 27.203305399749979 51.802929569034404 0 51.802929569034404 61.84323643273774 0 0 0 0 47.344696811752556 19.789480059574998 0 19.789480059574998 60.508806303160782 0 0 0 0 36.382778655527204 19.454777610659562 0 19.454777610659562 120.19686626764633 0 0 0 0 19.507240780184247 -12.084217516549188 0 -12.084217516549188 68.476910036727077 0 0 0 0 18.003251205101378 29.302142186541232 0 29.302142186541232 79.402090179796915 0 0 0 0 75.548317346999966 1.2884319084269009 0 1.2884319084269009 102.65384412610553 0 0 0 0 123.11863062599753 24.001385903167375 0 24.001385903167375 62.499208627464469 0 0 0 0 60.489942602718827 44.331394318230764 0 44.331394318230764 105.84095563385927 0 0 0 0 181.3190126784072 -28.369171752102048 0 -28.369171752102048 51.13009917342788 0 0 0 0 178.07111556675329 26.530202120290596 0 26.530202120290596 52.011391089401968 0 0 0 0 120.93988536365362 15.183781394065591 0 15.183781394065591 88.286721434670199 0 0 0 0 269.76495519150939 -21.593481084976247 0 -21.593481084976247 52.634262676405228 0 0 0 0 249.55930140656844 -15.726852297334517 0 -15.726852297334517 28.713776353621142 0 0 0 0 211.19553817473377 -11.700142357134609 0 -11.700142357134609 53.508184394188902 0 0 0 0 305.73250047696433 8.7880728573959459 0 8.7880728573959459 75.309476461717168 0 0 0 0 255.84832131792854 76.884163379937945 0 76.884163379937945 166.98529261909607 0 0 0 0 368.59445843630255 -11.534276779074389 0 -11.534276779074389 78.154982874588313 0 0 0 0 403.12052314625601 24.028546211578941 0 24.028546211578941 113.76642782927875 0 0 0 0 186.23009904907474 10.985630417733319 0 10.985630417733319 113.18873117277963 0 0 0 0 106.45426933854947 48.45483171558476 0 48.45483171558476 160.90331944614081 0 0 0 0 196.85676860167496 50.705816259915537 0 50.705816259915537 100.57283260987879 0 0 0 0 127.13310886190925 -6.9449892177769925 0 -6.9449892177769925 135.77001055413621 0 0 0 0 181.9649627477088 -53.471016237007007 0 -53.471016237007007 201.49927309441659 0 0 0 0 170.53608886027712 52.848901415457703 0 52.848901415457703 210.25607390649293 0 0 0 0 502.66280676560768 19.070331403469481 0 19.070331403469481 113.59979887573991 0 0 0 0 319.53196582602459 107.90964480932917 0 107.90964480932917 291.68497468746136 0 0 0 0 253.46000521620726 17.049518467076268 0 17.049518467076268 172.86109303828385 0 0 0 0 363.27225402424904 57.654364712703114 0 57.654364712703114 512.0539731851004 0 0 0 0 349.40517724594793 -12.542311434282965 0 -12.542311434282965 242.68934578417293 0 0 0 0 218.59829417456035 21.2396047209877 0 21.2396047209877 280.76478626526477 0 0 0 0 202.61433520401033 -17.382830422137886 0 -17.382830422137886 121.21676234767619 0 0 0 0 419.1958468593358 -99.393786208551234 0 -99.393786208551234 152.02468983232029 0 0 0 0 402.21626999279778 110.5461822557676 0 110.5461822557676 94.830801906669876 0 0 0 0 125.05820122332921 4.6374859060451854 0 4.6374859060451854 143.39607521185007 0 0 0 0 92.930922812189465 -86.618550529296954 0 -86.618550529296954 150.08048549829545 0 0 0 0 82.299890678259374 -46.989357625189541 0 -46.989357625189541 51.54011100968728 0 0 0 0 21.56992089319715 -45.833199823392988 0 -45.833199823392988 121.0037252239963 0 0 0 0 53.653488810758063 -95.663249415410974 0 -95.663249415410974 60.855955577280838 0 0 0 0 17.340689191653155 -76.809579961347026 0 -76.809579961347026 46.975429930913378 0 0 0 0 13.733446316023219 -27.856345960269664 0 -27.856345960269664 94.052066497188207 0 0 0 0 23.428386800443263 -43.758310997422768 0 -43.758310997422768 117.59956318905915 0 0 0 0 62.841122353147739 -28.513724580040616 0 -28.513724580040616 94.512037057965699 0 0 0 0 59.622399831963435 -33.226787062456879 0 -33.226787062456879 190.74409330261005 0 0 0 0 32.445315214326911 45.736883338699045 0 45.736883338699045 -95.078777092412565 0 0 0 0 83.052199453980847 29.493910215441247 0 29.493910215441247 -124.07540914409492 0 0 0 0 49.722696445466681 4.1899270806325148 0 4.1899270806325148 -94.678116358629723 0 0 0 0 120.71769281442766 -27.585948439534604 0 -27.585948439534604 -47.438396076160643 0 0 0 0 149.89376283478168 -3.0813357851848195 0 -3.0813357851848195 -77.019988764634036 0 0 0 0 72.719595614809009 9.1902857130545499 0 9.1902857130545499 -75.607934666933943 0 0 0 0 123.16972767873949 -14.129988949182462 0 -14.129988949182462 -77.780147192714139 0 0 0 0 115.9721711606976 -23.587889293978151 0 -23.587889293978151 -88.875875406614568 0 0 0 0 90.439841412628994 15.530867263763867 0 15.530867263763867 -93.03961429744686 0 0 0 0 44.775614026493713 -27.43374753892067 0 -27.43374753892067 -50.257800373968621 0 0 0 0 0.96386281662122775 0.89476947280719887 0 0.89476947280719887 -1.5695986975258993 0 0 0 0 32.66068707730301 35.850428736708182 0 35.850428736708182 -89.509198435576309 0 0 0 0 283.00862433844384 284.63768968536954 0 284.63768968536954 208.69776785994691 0 0 0 0 316.04293634331907 240.71335532336684 0 240.71335532336684 154.15871340114336 0 0 0 0 359.80360300520283 75.472692370050027 0 75.472692370050027 76.511711453484168 0 0 0 0 462.99920685166614 406.6073605863794 0 406.6073605863794 38.797402638621861 0 0 0 0 815.4435505061881 -75.547488928491475 0 -75.547488928491475 174.8261133556598 0 0 0 0 9.9703992417395106 -3.4866440818249789 0 -3.4866440818249789 3.7194658402567731 0 0 0 0 581.81591149420262 -236.91769099219533 0 -236.91769099219533 141.98130190447682 0 0 0 0 125.8515868999134 118.07837558119263 0 118.07837558119263 39.665935555444371 0 0 0 0 675.12862182519859 144.93502801538352 0 144.93502801538352 197.50232077936289 0 0 0 0 -84.284384694221899 40.960339489112812 0 40.960339489112812 -85.783488384142856 0 0 0 0 60.596731867715221 14.53844029069819 0 14.53844029069819 -178.01028078749005 0 0 0 0 -2.936555240333746 -47.066778723179596 0 -47.066778723179596 -148.86276424745574 0 0 0 0 14.000510422446201 -4.2513920692515486 0 -4.2513920692515486 0.81750144324602658 0 0 0 0 -51.001765220662037 116.83781747538796 0 116.83781747538796 -155.65993304065819 0 0 0 0 209.00352171184682 -184.16805417082833 0 -184.16805417082833 138.14210259269203 0 0 0 0 -8.7341344223535184 -27.079071449667747 0 -27.079071449667747 21.154858639701605 0 0 0 0 156.74676727570977 -113.13046385529583 0 -113.13046385529583 103.21693881061765 0 0 0 0 316.33224391307203 -219.32746918243447 0 -219.32746918243447 142.08489620160537 0 0 0 0 540.96849183590041 -121.22871985821575 0 -121.22871985821575 47.180444710756092 0 0 0 0 351.30017354816778 -138.17210324405255 0 -138.17210324405255 45.063532292305354 0 0 0 0 360.66017403670605 -101.41012662820208 0 -101.41012662820208 28.233095936490827 0 0 0 0 330.49776335906085 -108.42408138629889 0 -108.42408138629889 46.623369417987988 0 0 0 0 308.11846374626714 -86.574256961211177 0 -86.574256961211177 25.214956186496693 0 0 0 0 250.83413758279104 -96.565185089788343 0 -96.565185089788343 31.154128717100775 0 0 0 0 266.25285269288622 -137.30919637006514 0 -137.30919637006514 45.270162160322798 0 0 0 0 254.85155736228228 -119.64020393853639 0 -119.64020393853639 31.705096316813979 0 0 0 0 296.41385885974523 -131.17732583683937 0 -131.17732583683937 -72.502582071829238 0 0 0 0 160.72568207999575 -54.282834331241247 0 -54.282834331241247 -80.45091155064074 0 0 0 0 97.335447432554247 -81.860696004543115 0 -81.860696004543115 -49.033536541097419 0 0 0 0 47.765105705406313 80.745831706979516 0 80.745831706979516 -101.56501140822388 0 0 0 0 69.963701148283661 7.5357114453093281 0 7.5357114453093281 -8.0321348731968776 0 0 0 0 9.440755860034642 58.624530597413923 0 58.624530597413923 9.4122992890411297 0 0 0 0 304.39873541579777 -105.34270946557808 0 -105.34270946557808 -73.52837078398079 0 0 0 0 372.45105209882604 133.40822862402729 0 133.40822862402729 16.475814243010063 0 0 0 0 4.1892137801078206 -6.9919354162111631 0 -6.9919354162111631 -36.08130369297578 0 0 0 0 131.79215585492784 -133.98963109262149 0 -133.98963109262149 75.331321658873094 0 0 0 0 2.2706757851915853 -1.8433644123599109 0 -1.8433644123599109 0.57847402220951949 0 0 0 0 326.33135435389158 -166.72301464497968 0 -166.72301464497968 -16.853204751776502 0 0 0 0 113.88732034662462 166.74250224620573 0 166.74250224620573 202.28828373019496 0 0 0 0 305.30815408905426 -155.82623076796676 0 -155.82623076796676 43.200486815314434 0 0 0 0 201.09895031762244 40.817622196123466 0 40.817622196123466 269.45421336664731 0 0 0 0 -15.335655705994057 -25.810308230171628 0 -25.810308230171628 19.424815065641717 0 0 0 0 275.63443187744451 -66.994078413866646 0 -66.994078413866646 75.681952238056567 0 0 0 0 197.41890863485605 -99.282993983620145 0 -99.282993983620145 -34.176449904338369 0 0 0 0 246.70440515193332 -117.79760844433986 0 -117.79760844433986 -30.664524489533505 0 0 0 0 202.42216843229471 -54.347510595927361 0 -54.347510595927361 -41.402947404276347 0 0 0 0 239.78262482961009 -83.832014726767966 0 -83.832014726767966 21.165144309730749 0 0 0 0 239.60874173932939 -133.22615003455121 0 -133.22615003455121 53.389644255504663 0 0 0 0 276.67738682822869 -121.40983362807356 0 -121.40983362807356 31.794701643596227 0 0 0 0 251.16860274144483 -140.78750152313273 0 -140.78750152313273 100.52582622904265 0 0 0 0 201.27279872452891 -112.66536874333883 0 -112.66536874333883 62.971846328733136 0 0 0 0 241.84884203635556 -104.34792345753118 0 -104.34792345753118 34.781592935803019 0 0 0 0 173.68280097325419 -86.677263995506792 0 -86.677263995506792 42.126421597368335 0 0 0 0 199.54915797114322 -67.704396161499801 0 -67.704396161499801 15.199489413570063 0 0 0 0 143.47387290520533 -64.79239864466922 0 -64.79239864466922 34.664233324472434 0 0 0 0 151.69194535393945 -22.792033690176595 0 -22.792033690176595 -39.333863568303968 0 0 0 0 188.0658362984841 -60.201168234528723 0 -60.201168234528723 3.9514873873190481 0 0 0 0 122.87469244290878 -38.183778543161225 0 -38.183778543161225 18.18910213706306 0 0 0 0 178.75882659000217 -62.365536960094914 0 -62.365536960094914 39.932845057428267 0 0 0 0 231.736517238852 -117.66845550094092 0 -117.66845550094092 38.94473887126469 0 0 0 0 149.83643798540834 -69.919767397864689 0 -69.919767397864689 37.441067319832285 0 0 0 0 214.57163895006624 -94.591542585783827 0 -94.591542585783827 -2.0883121984120407 0 0 0 0 112.24713461693318 -70.576518558826592 0 -70.576518558826592 -33.874424008649612 0 0 0 0 108.79890879053437 -85.380714518901243 0 -85.380714518901243 2.5172879015685794 0 0 0 0 133.81895012926748 -31.135525435796069 0 -31.135525435796069 -46.820894141236977 0 0 0 0 108.68489275921775 -34.91200769227396 0 -34.91200769227396 -12.757747875200067 0 0 0 0 173.18274935360148 -54.760872576876864 0 -54.760872576876864 -15.945902523935729 0 0 0 0 85.551899382867987 -5.5860807717364196 0 -5.5860807717364196 -28.373596647599072 0 0 0 0 132.7177829890893 -16.490917809285037 0 -16.490917809285037 -62.433375269296903 0 0 0 0 340.89257108222955 -92.90813028925777 0 -92.90813028925777 -40.984803851912147 0 0 0 0 302.16802779200225 -123.03330860399547 0 -123.03330860399547 -49.058257586129912 0 0 0 0 296.58705336733692 -63.705301819603847 0 -63.705301819603847 -5.6575479658022232 0 0 0 0 232.68347636044928 -59.053728391408185 0 -59.053728391408185 18.592554467573791 0 0 0 0 268.79042008570832 -84.788761468924349 0 -84.788761468924349 -21.157944283733741 0 0 0 0 239.09304324852201 -83.906543667079859 0 -83.906543667079859 -42.650461485174674 0 0 0 0 256.25759207889496 -62.841765650982779 0 -62.841765650982779 -24.394018376171516 0 0 0 0 401.82518708291809 -130.32235400994182 0 -130.32235400994182 3.167297609862544 0 0 0 0 -13.798508156897052 -25.902646998867471 0 -25.902646998867471 17.030848373053264 0 0 0 0 426.05238298321353 -243.80380614688227 0 -243.80380614688227 -7.5631495200061636 0 0 0 0 190.65612122947368 -161.35566266523529 0 -161.35566266523529 39.313907372623135 0 0 0 0 223.93862150322957 -250.91522879231582 0 -250.91522879231582 138.38420957618064 0 0 0 0 511.75753821251374 -28.160602100125459 0 -28.160602100125459 34.548349538933053 0 0 0 0 286.27702780524123 -182.70204952012699 0 -182.70204952012699 -14.350611114381309 0 0 0 0 90.17887596728383 -211.55964228214111 0 -211.55964228214111 -11.755022183167057 0 0 0 0 302.36966399796438 -44.562344675151962 0 -44.562344675151962 49.275283733710239 0 0 0 0 258.07538533546176 -80.587324136135067 0 -80.587324136135067 126.60614653120501 0 0 0 0 251.4931661887822 -74.407578921502136 0 -74.407578921502136 6.6616914952792285 0 0 0 0 251.65695672071888 -67.709147144463714 0 -67.709147144463714 67.966446148286195 0 0 0 0 257.13675280634197 -96.533652316004009 0 -96.533652316004009 41.30826550099664 0 0 0 0 278.74546339730659 -136.37282554129843 0 -136.37282554129843 40.446579666724574 0 0 0 0 241.02474584038282 -100.04050719476254 0 -100.04050719476254 88.541796883811912 0 0 0 0 266.44763333422452 -146.7107741828404 0 -146.7107741828404 101.5776244075314 0 0 0 0 263.62717828687892 -110.31599289769156 0 -110.31599289769156 29.811449420640201 0 0 0 0 219.1378642530326 -93.110160138688116 0 -93.110160138688116 17.167114431242226 0 0 0 0 215.7244800396511 -101.80741733087598 0 -101.80741733087598 53.137156877628513 0 0 0 0 245.95961614274711 -102.79710252245241 0 -102.79710252245241 29.199005742411828 0 0 0 0 184.26006213813434 -74.041257999431195 0 -74.041257999431195 11.093726355007675 0 0 0 0 179.49217911415326 -94.182271570864032 0 -94.182271570864032 40.331700876332434 0 0 0 0 162.19070759587339 -57.490326097417892 0 -57.490326097417892 1.8318082980695181 0 0 0 0 181.28364072886325 -80.806102666802872 0 -80.806102666802872 -1.6826234951186052 0 0 0 0 150.70557567037758 -62.451155386097525 0 -62.451155386097525 7.9439325139392167 0 0 0 0 153.29722443125684 -51.414970158605684 0 -51.414970158605684 -21.076228268426348 0 0 0 0 215.69669972230622 -81.009796207850741 0 -81.009796207850741 47.099926717681228 0 0 0 0 179.20242273337863 -76.432588751290496 0 -76.432588751290496 28.842684537012246 0 0 0 0 219.62207293915708 -81.609145186706883 0 -81.609145186706883 3.3865236585206731 0 0 0 0 228.39004345817011 -72.346545449614041 0 -72.346545449614041 -19.554771419378085 0 0 0 0 180.74812270131952 -63.355091540301146 0 -63.355091540301146 15.011977662164099 0 0 0 0 184.70070187918827 -61.25368535968164 0 -61.25368535968164 -22.397513935393363 0 0 0 0 143.0414617869834 -33.191231623492911 0 -33.191231623492911 -45.519284432048153 0 0 0 0 143.28776228542847 -55.029137612791601 0 -55.029137612791601 -9.1149269009129057 0 0 0 0 130.297766965552 -48.397153558443279 0 -48.397153558443279 -28.783133791748696 0 0 0 0 181.64478307466197 -43.376787861522644 0 -43.376787861522644 -46.109460752699306 0 0 0 0 176.70101698120561 -56.034328805390032 0 -56.034328805390032 -9.2064616152338203 0 0 0 0 85.203549080106313 -20.712537348492333 0 -20.712537348492333 -78.489423065883784 0 0 0 0 36.172456174417675 11.534115865321837 0 11.534115865321837 -69.285852850174706 0 0 0 0 41.601390476324013 17.892572507345449 0 17.892572507345449 -98.68524796489146 0 0 0 0 91.860181250107416 -11.371430698113727 0 -11.371430698113727 -76.31510442983199 0 0 0 0 96.414210889663082 -0.11919410888913262 0 -0.11919410888913262 -54.152480551198096 0 0 0 0 116.04135468616732 -42.792199543122479 0 -42.792199543122479 -42.665102833263518 0 0 0 0 88.340654491425084 -9.9680524776294988 0 -9.9680524776294988 -53.334527811795851 0 0 0 0 122.13853832401219 -55.901966091199938 0 -55.901966091199938 -14.731059299654589 0 0 0 0 118.61675596679743 -31.015800668459178 0 -31.015800668459178 -34.743429813166586 0 0 0 0 94.867899927368853 -46.521546441721512 0 -46.521546441721512 -42.85170816704931 0 0 0 0 88.185064036515541 -14.909694227117143 0 -14.909694227117143 -70.561766661183356 0 0 0 0 42.830772683104442 -11.530358401074409 0 -11.530358401074409 -56.021193814229264 0 0 0 0 57.37117992234198 5.9517907046792971 0 5.9517907046792971 -112.48532787879958 0 0 0 0 59.600040021219684 -13.196554323554892 0 -13.196554323554892 -48.107342950926977 0 0 0 0 72.165951262062663 -47.856218040003114 0 -47.856218040003114 -39.819488501248998 0 0 0 0 98.761836034871521 -31.554893910544706 0 -31.554893910544706 -29.950599081566907 0 0 0 0 95.766647258948069 -60.039833011769588 0 -60.039833011769588 -13.03063400443898 0 0 0 0 80.753102272821707 -30.665025144394349 0 -30.665025144394349 -13.24297573547301 0 0 0 0 106.53235780246905 -62.151455236431502 0 -62.151455236431502 -20.826236871560468 0 0 0 0 128.98222506868478 -47.442919987684945 0 -47.442919987684945 -12.152773054967838 0 0 0 0 132.79010511480737 -68.581707835810448 0 -68.581707835810448 0.24932972729402536 0 0 0 0 136.47451168364205 -72.362163851755213 0 -72.362163851755213 20.130780997802503 0 0 0 0 140.0726630542631 -73.619274247715111 0 -73.619274247715111 -5.8858204383852808 0 0 0 0 116.58123225182862 -43.912803119680575 0 -43.912803119680575 -0.79882419171917718 0 0 0 0 115.43994567462505 -70.180355781222715 0 -70.180355781222715 20.582250773357373 0 0 0 0 108.02644278609478 -36.808954286225116 0 -36.808954286225116 8.8683500021506916 0 0 0 0 74.105505701256334 -51.655768015754802 0 -51.655768015754802 4.3430343570398691 0 0 0 0 77.882052884708173 -28.212392666875417 0 -28.212392666875417 -10.07778076977047 0 0 0 0 57.41596639015188 -33.936366496740447 0 -33.936366496740447 17.901684981077779 0 0 0 0 58.013026100620664 -1.2644182947717013 0 -1.2644182947717013 14.735823509356123 0 0 0 0 37.481538611391443 -4.2737581436322216 0 -4.2737581436322216 32.952757487971212 0 0 0 0 50.682682730459419 42.481585299216022 0 42.481585299216022 40.947495484357205 0 0 0 0 31.257007310297922 9.878847635854072 0 9.878847635854072 -9.1267937863121915 0 0 0 0 17.575769089686219 -24.575445631629918 0 -24.575445631629918 3.8889997483502157 0 0 0 0 31.755916179099586 -4.2229504986717075 0 -4.2229504986717075 -20.007283377683052 0 0 0 0 -28.040194958171924 -21.390158319327384 0 -21.390158319327384 -8.7112094204640016 0 0 0 0 18.27878977121145 -15.102061974448588 0 -15.102061974448588 -95.966873154025961 0 0 0 0 7.1909410406879033 -19.439264528887179 0 -19.439264528887179 -28.60958319738711 0 0 0 0 24.725598839198938 -39.425661031078562 0 -39.425661031078562 -51.266918563062063 0 0 0 0 37.794350333031616 1.2137504565707786 0 1.2137504565707786 -100.62498948148641 0 0 0 0 40.445560877153184 -29.604677518933386 0 -29.604677518933386 -8.5545599381412103 0 0 0 0 70.861855622984876 -47.437035604372795 0 -47.437035604372795 -38.826895641879673 0 0 0 0 49.759616322975489 -24.640396875306578 0 -24.640396875306578 -43.655994055821793 0 0 0 0 127.00965874919348 178.23796873924289 0 178.23796873924289 104.18512724974426 0 0 0 0 89.296132313298585 87.689941094894493 0 87.689941094894493 36.899326105571163 0 0 0 0 -11.497446394336293 13.69111170017095 0 13.69111170017095 40.369595830670022 0 0 0 0 62.453373407341132 87.263035057975685 0 87.263035057975685 43.493144233383191 0 0 0 0 -31.416280294706667 74.923614350956541 0 74.923614350956541 106.09143315821711 0 0 0 0 7.9253404771297937 10.37722477283296 0 10.37722477283296 -1.2436054584777594 0 0 0 0 -121.56752983157639 -61.101690755556774 0 -61.101690755556774 -32.051954342318822 0 0 0 0 -16.112356505936987 24.649228222593592 0 24.649228222593592 -9.3430054351956642 0 0 0 0 58.781381394648633 37.767977901004997 0 37.767977901004997 -27.643635950396856 0 0 0 0 53.460961440074243 26.108760341598099 0 26.108760341598099 171.10157027362402 0 0 0 0 109.46166280087346 -59.17450771510812 0 -59.17450771510812 -256.74526070694446 0 0 0 0 114.23998864101304 -7.3021104697577357 0 -7.3021104697577357 -79.005334228175343 0 0 0 0 85.378076591419813 -16.634303695740527 0 -16.634303695740527 -330.81490136993853 0 0 0 0 -86.906097572384169 55.274696518348719 0 55.274696518348719 1.6193780330086156 0 0 0 0 -425.14302998629864 151.26699778450711 0 151.26699778450711 -155.94183317824354 0 0 0 0 -22.775576049090887 3.2913155009046022 0 3.2913155009046022 -101.85820437395159 0 0 0 0 91.907459641486639 -145.22100875459728 0 -145.22100875459728 -146.99850927787247 0 0 0 0 26.581533313641557 -58.200706368377723 0 -58.200706368377723 -159.24962216175118 0 0 0 0 -146.87213282535231 -273.24386895811313 0 -273.24386895811313 -31.354685721235001 0 0 0 0 297.16536345321583 131.22864807474889 0 131.22864807474889 -402.94593214779707 0 0 0 0 144.79511153241037 -19.750093802940683 0 -19.750093802940683 -166.70504711452486 0 0 0 0 -74.280578318226617 189.99757302058424 0 189.99757302058424 -197.88730092836704 0 0 0 0 1.8628023618991065 1.7900346150090947 0 1.7900346150090947 -0.93253452180111651 0 0 0 0 31.248480412497884 28.534573400595036 0 28.534573400595036 -154.07002230310536 0 0 0 0 11.665451790351653 39.129376609960673 0 39.129376609960673 -133.67262475425014 0 0 0 0 52.650663161839475 -33.626334100737949 0 -33.626334100737949 -85.513217336298112 0 0 0 0 18.791674026942928 8.208499364227464 0 8.208499364227464 -81.865531367773656 0 0 0 0 24.820365413506806 -2.7963156733958385 0 -2.7963156733958385 -101.49685508327093 0 0 0 0 38.256662392337603 4.9557936090600379 0 4.9557936090600379 -198.49397155853148 0 0 0 0 62.747258918614534 68.562071818854747 0 68.562071818854747 -347.13109325732603 0 0 0 0 24.102947518823385 -36.495709906016145 0 -36.495709906016145 -203.7821608568629 0 0 0 0 -6.3925716462981654 -21.63298797366042 0 -21.63298797366042 -97.277428093578237 0 0 0 0 53.430844641392468 -86.123239874497813 0 -86.123239874497813 -237.21433878417884 0 0 0 0 0.76627754456421826 70.042982755874618 0 70.042982755874618 -171.26683298390162 0 0 0 0 11.997021699520701 76.958807344048182 0 76.958807344048182 -173.32361954364023 0 0 0 0 -20.599919430620503 38.457922377516297 0 38.457922377516297 -86.286181099863825 0 0 0 0 201.35096380591585 -119.09510442223973 0 -119.09510442223973 -7.8767964291873795 0 0 0 0 -93.448463611857733 59.195358307818424 0 59.195358307818424 -64.68561950251933 0 0 0 0 -121.54939971893327 127.16812285245851 0 127.16812285245851 -89.637797353157112 0 0 0 0 86.820448652244522 -78.998536363229505 0 -78.998536363229505 84.320248977153824 0 0 0 0 20.917692961629655 -0.31575923345735646 0 -0.31575923345735646 56.530411428968364 0 0 0 0 70.141981950217087 -23.748046255338522 0 -23.748046255338522 7.3195352983639168 0 0 0 0 -58.765520169121544 -33.088928972232637 0 -33.088928972232637 -33.308433437625354 0 0 0 0 63.263736268396315 45.394554449636416 0 45.394554449636416 -30.889331640133378 0 0 0 0 -59.227376993792859 -137.49521418263703 0 -137.49521418263703 -95.523174903632025 0 0 0 0 4.6329515628052995 1.8640520021880604 0 1.8640520021880604 -4.4021845376620163 0 0 0 0 79.305725764262206 -9.5081454388331395 0 -9.5081454388331395 -21.137965438651008 0 0 0 0 35.803570575132881 -0.49319981444039929 0 -0.49319981444039929 -8.7252252538851121 0 0 0 0 46.863480280479962 -11.111613679540824 0 -11.111613679540824 -7.7069137160806349 0 0 0 0 46.494399563380284 -5.0001115125796787 0 -5.0001115125796787 -17.32997550766504 0 0 0 0 39.56128246467415 -16.243597040515169 0 -16.243597040515169 8.9574608610710129 0 0 0 0 32.121482300608477 -3.5745925217379408 0 -3.5745925217379408 2.7063429084050767 0 0 0 0 101.32715557271877 -25.573676121700373 0 -25.573676121700373 -28.0364924101832 0 0 0 0 39.690945794869123 -6.4751589513922543 0 -6.4751589513922543 -6.4108641221317093 0 0 0 0 44.734795009019081 -4.6005778160587845 0 -4.6005778160587845 -2.2163366281522627 0 0 0 0 42.18521935696117 -13.204245554164117 0 -13.204245554164117 -22.030396602714063 0 0 0 0 -6.7206886536368984 47.403160284826299 0 47.403160284826299 -48.288487422187245 0 0 0 0 9.8396064191312718 0.82956743061208726 0 0.82956743061208726 1.7184890543827294 0 0 0 0 80.992996819404652 -45.480506692978452 0 -45.480506692978452 18.839964713715744 0 0 0 0 37.559063909118564 9.2879725543289169 0 9.2879725543289169 -10.138889122666928 0 0 0 0 21.345245371223427 20.667903499157546 0 20.667903499157546 -49.873135173828814 0 0 0 0 -8.1327842525736287 21.807729836918611 0 21.807729836918611 -47.900905617356329 0 0 0 0 7.9877256421913785 2.2752373453226298 0 2.2752373453226298 -1.8489568710048161 0 0 0 0 39.340330061735585 10.291097733917923 0 10.291097733917923 -64.891925154903674 0 0 0 0 63.873268872423068 15.476171226008773 0 15.476171226008773 -66.41882426754546 0 0 0 0 -22.67614710428461 8.4548100650918059 0 8.4548100650918059 -3.9811000546374089 0 0 0 0 -14.538774465901952 -59.860816550873551 0 -59.860816550873551 59.405528777702784 0 0 0 0 42.484613345339312 38.26274582729684 0 38.26274582729684 -35.942738688438112 0 0 0 0 206.35804096700849 -83.278810492708999 0 -83.278810492708999 -34.280051201745664 0 0 0 0 147.69928039996375 -84.278480754443081 0 -84.278480754443081 -29.306388675287963 0 0 0 0 97.343764051584003 -4.6730728586053374 0 -4.6730728586053374 -45.027547245290407 0 0 0 0 14.587878751262906 34.264792920046602 0 34.264792920046602 -62.512388998070492 0 0 0 0 94.446123063342384 -7.9731641928924546 0 -7.9731641928924546 -48.341340239790952 0 0 0 0 -4.514397566425032 7.9846121109703745 0 7.9846121109703745 -61.071704696329107 0 0 0 0 4.809668100795534 48.034564268615213 0 48.034564268615213 -54.052582758624339 0 0 0 0 27.923889586600126 27.472159908149479 0 27.472159908149479 -69.860891027392427 0 0 0 0 13.730807572283084 21.922223516696249 0 21.922223516696249 -24.644008873952771 0 0 0 0 -427.73130446540745 -217.59324922739006 0 -217.59324922739006 284.8317523861615 0 0 0 0 383.17419296186927 214.53840954041448 0 214.53840954041448 -2.570638361435158 0 0 0 0 705.76475811890668 -21.265096629657364 0 -21.265096629657364 -73.219584161797684 0 0 0 0 -7.3032662532277755 246.76101359995982 0 246.76101359995982 99.670258958819431 0 0 0 0 -1.486483769002831 -1.1011194359899577 0 -1.1011194359899577 2.6310659916638457 0 0 0 0 33.285153176458152 21.678859934953266 0 21.678859934953266 1.7351320322563879 0 0 0 0 22.774074599106825 19.582106249762546 0 19.582106249762546 -9.341533360626272 0 0 0 0 23.40141226529704 14.877734677359285 0 14.877734677359285 16.906521418234661 0 0 0 0 -0.29700355402704304 7.7823927434367839 0 7.7823927434367839 -4.1135027705027447 0 0 0 0 28.888067230722299 18.718754088191872 0 18.718754088191872 1.6824937888195564 0 0 0 0 26.51857957620814 30.669439601167596 0 30.669439601167596 6.4450564754442894 0 0 0 0 16.069292941852837 24.528013567677135 0 24.528013567677135 13.347002777475609 0 0 0 0 4.5843830341411733 17.346084137245356 0 17.346084137245356 1.3863900555636874 0 0 0 0 100.5360417457523 125.72263561812952 0 125.72263561812952 100.17096967303496 0 0 0 0 -6.1156028857890874 2.4079893988322318 0 2.4079893988322318 2.1096875126491099 0 0 0 0 296.6148116410186 45.416488898662465 0 45.416488898662465 -9.7246350660451526 0 0 0 0 247.87355433280698 81.407820386358267 0 81.407820386358267 -33.094807158426192 0 0 0 0 246.40858927537192 -2.3817808133053404 0 -2.3817808133053404 -118.84550894593849 0 0 0 0 308.19173106198286 -17.615094086670979 0 -17.615094086670979 -147.71109120145411 0 0 0 0 112.90553099740646 -11.821119926715255 0 -11.821119926715255 -47.103599197944277 0 0 0 0 215.90713353994943 -32.458920048688015 0 -32.458920048688015 -44.319391022960644 0 0 0 0 81.915216071691248 -46.209747581322517 0 -46.209747581322517 -98.96260859701033 0 0 0 0 94.519544966155081 -98.661749830996996 0 -98.661749830996996 -153.34029274812656 0 0 0 0 150.89563371897384 -42.121314424833145 0 -42.121314424833145 -87.689399701848743 0 0 0 0 196.31755330841406 9.2581776532251752 0 9.2581776532251752 -119.33590709873533 0 0 0 0 0.58135927565906842 16.0719956903948 0 16.0719956903948 -6.8072659254217172 0 0 0 0 302.74171709788789 -39.64101079799093 0 -39.64101079799093 -105.04751010797918 0 0 0 0 31.419017157477356 42.252717141227549 0 42.252717141227549 -71.184840197138328 0 0 0 0 223.07271496308022 60.007691184186115 0 60.007691184186115 -102.1615816602698 0 0 0 0 286.76529664928239 28.525465107511081 0 28.525465107511081 17.464361392110732 0 0 0 0 4.1535017943439811 -3.0830952499116577 0 -3.0830952499116577 -1.6901898968373654 0 0 0 0 23.684560725677315 -15.175226251396587 0 -15.175226251396587 1.6113465878304964 0 0 0 0 13.455962415521439 13.824110185001409 0 13.824110185001409 -14.190598889286932 0 0 0 0 156.13132204420253 6.8403918196198674 0 6.8403918196198674 -23.988360825271229 0 0 0 0 114.93209081717941 -63.073917575279665 0 -63.073917575279665 14.848578100891757 0 0 0 0 23.56329196628576 3.5926554801036445 0 3.5926554801036445 -6.7786254855509469 0 0 0 0 12.631229084328879 13.044749598734143 0 13.044749598734143 4.1691454794201945 0 0 0 0 23.293613183910566 8.3116116999235601 0 8.3116116999235601 -11.230144298678397 0 0 0 0 22.901293881266042 10.628193512504879 0 10.628193512504879 9.8740318348377514 0 0 0 0 22.377702278314246 2.3564803908921022 0 2.3564803908921022 -2.4531936751861281 0 0 0 0 25.930291773882345 1.722874311189571 0 1.722874311189571 -2.4472176415670219 0 0 0 0 4.2848896220064887 -3.0407099972574656 0 -3.0407099972574656 2.0829204310489171 0 0 0 0 27.157718273926093 7.3142438384269042 0 7.3142438384269042 -0.34499017979010205 0 0 0 0 178.79818868988696 -611.40782072720413 0 -611.40782072720413 -80.678493531868384 0 0 0 0 609.63298202756414 258.73289801899091 0 258.73289801899091 -300.34130445850315 0 0 0 0 749.44138162045033 -694.28350147571643 0 -694.28350147571643 258.47041312882834 0 0 0 0 1071.6958995520217 -645.83115357504039 0 -645.83115357504039 203.97839845001161 0 0 0 0 667.0691428069731 -229.31784205597785 0 -229.31784205597785 637.12542754958486 0 0 0 0 733.66209339669558 -736.12448052464651 0 -736.12448052464651 1138.5243911718471 0 0 0 0 1043.349197047075 -103.19158058418907 0 -103.19158058418907 -241.75673741849042 0 0 0 0 2.377024015358046 -2.9415121262697213 0 -2.9415121262697213 1.2042755756783938 0 0 0 0 791.50854674553511 -1010.7259813774078 0 -1010.7259813774078 639.40768167933675 0 0 0 0 232.84504518176982 -7.809188012434916 0 -7.809188012434916 235.38157177516302 0 0 0 0 8.3057125582650659 -4.6812974908788156 0 -4.6812974908788156 0.57107383028320047 0 0 0 0 24.948458417387883 0.56849068053429619 0 0.56849068053429619 -7.1178764804242292 0 0 0 0 16.909353837007075 1.382459417738005 0 1.382459417738005 2.3257168225591158 0 0 0 0 116.58828492376961 -721.10527456066359 0 -721.10527456066359 528.50096217168038 0 0 0 0 16.882442419299423 -5.6701149362450849 0 -5.6701149362450849 -13.034141228491833 0 0 0 0 366.36519554312508 -415.18367468026355 0 -415.18367468026355 -67.684835338533333 0 0 0 0 0.23767690619752457 2.6766107157595442 0 2.6766107157595442 -0.49415576574823922 0 0 0 0 168.0026881495105 -49.005529319791435 0 -49.005529319791435 14.823204278240951 0 0 0 0 10.434318007880677 1.3132963435228344 0 1.3132963435228344 -2.2812254499912492 0 0 0 0 15.717058299731434 -7.6929973885616505 0 -7.6929973885616505 -9.3540523703465794 0 0 0 0 19.389783311096117 -1.34982808177183 0 -1.34982808177183 -0.35451207317961364 0 0 0 0 -0.58695815363663417 -3.6213208299450903 0 -3.6213208299450903 2.5596722694975003 0 0 0 0 17.054106024109842 -20.881206096746439 0 -20.881206096746439 4.4471040230199126 0 0 0 0 20.740880106308779 -8.1384152498336437 0 -8.1384152498336437 0.8657155646532092 0 0 0 0 25.679100867298985 -20.86800165089187 0 -20.86800165089187 -14.360447879992535 0 0 0 0 48.655005260037797 -8.4074963632109814 0 -8.4074963632109814 -18.539470576491169 0 0 0 0 31.45915061194961 -9.4722945009703796 0 -9.4722945009703796 -3.1265162265202049 0 0 0 0 58.771709175602155 -14.203853069844627 0 -14.203853069844627 -27.30285283108865 0 0 0 0 28.250775696756175 -0.94169593670016583 0 -0.94169593670016583 -2.9640662881782771 0 0 0 0 25.283474333939921 0.39882221562504583 0 0.39882221562504583 -13.175651108815714 0 0 0 0 19.882358246275999 0.55239650664611162 0 0.55239650664611162 -16.599442160707326 0 0 0 0 30.532702513253753 -5.7884302279462077 0 -5.7884302279462077 -17.850379594258868 0 0 0 0 37.276357667535194 -2.0576499784025657 0 -2.0576499784025657 -24.540191843925044 0 0 0 0 51.269313766671985 -8.1258913472962604 0 -8.1258913472962604 -24.238903608449327 0 0 0 0 60.979498228072771 -10.08583754574363 0 -10.08583754574363 -23.253949484444433 0 0 0 0 66.062341234355245 -27.091910729804617 0 -27.091910729804617 -8.1365603526727455 0 0 0 0 32.424536263526534 -9.9805493160823744 0 -9.9805493160823744 -11.274781410286693 0 0 0 0 28.904993560771366 1.0235788734380549 0 1.0235788734380549 -9.692641137855734 0 0 0 0 6.8324434441710764 14.497620304653566 0 14.497620304653566 -35.181534060864522 0 0 0 0 36.268473882892792 -4.8196453809400559 0 -4.8196453809400559 -10.54670161186659 0 0 0 0 2.4368028941046731 0.67283213484213444 0 0.67283213484213444 -4.1986897722405221 0 0 0 0 42.268857381777707 -0.83119654012944011 0 -0.83119654012944011 -8.9429071933191153 0 0 0 0 51.945464143612554 -6.4480332074773354 0 -6.4480332074773354 -16.660171419704707 0 0 0 0 47.151573670259495 -14.262982078672394 0 -14.262982078672394 -15.925092675519409 0 0 0 0 29.715053413766206 -7.1683680326911059 0 -7.1683680326911059 -8.7968345572951616 0 0 0 0 41.978492454336504 -10.472164846522354 0 -10.472164846522354 -10.845128168048177 0 0 0 0 44.038731882526463 -17.969143556132394 0 -17.969143556132394 -7.8806663969826332 0 0 0 0 42.074990902536229 -4.9222408716377686 0 -4.9222408716377686 -21.545053641704726 0 0 0 0 30.179818414663998 -7.1220838682196801 0 -7.1220838682196801 -16.729771002327368 0 0 0 0 23.731092629832361 -2.0757754810996722 0 -2.0757754810996722 -22.292036244778664 0 0 0 0 25.909372195394099 -8.6711828221195901 0 -8.6711828221195901 -20.005229951857473 0 0 0 0 28.408691666885716 -4.9904583656325485 0 -4.9904583656325485 -17.282472837587193 0 0 0 0 35.912555145789256 -10.205339578856195 0 -10.205339578856195 -9.7347290729496727 0 0 0 0 27.765085111321241 -8.1800725361897548 0 -8.1800725361897548 -10.26479499380676 0 0 0 0 7.6377779232516101 -2.0572211204884523 0 -2.0572211204884523 -3.4007026609051021 0 0 0 0 10.705699914347861 -7.2091998450459869 0 -7.2091998450459869 0.59476127992260786 0 0 0 0 6.6165934137352602 -0.32904844425855995 0 -0.32904844425855995 -21.160802671553711 0 0 0 0 58.963446496318284 11.700286245597852 0 11.700286245597852 -47.399426273974314 0 0 0 0 123.25939097275671 -33.610557042616989 0 -33.610557042616989 -46.226534656726471 0 0 0 0 81.00969042867564 -74.445543783999483 0 -74.445543783999483 -67.425751643461354 0 0 0 0 22.08052645888165 17.808380676454817 0 17.808380676454817 -0.0042908413179247873 0 0 0 0 -31.895442741164516 -53.417085173767191 0 -53.417085173767191 -25.522990478393922 0 0 0 0 -0.75371450032282461 0.53155400759067284 0 0.53155400759067284 -7.3190893435387139 0 0 0 0 -96.569528420639472 -125.57703117777714 0 -125.57703117777714 -103.08553931526512 0 0 0 0 94.934756652010947 70.039570344348476 0 70.039570344348476 37.347936992134692 0 0 0 0 259.91049371183249 -28.050660393930883 0 -28.050660393930883 -70.714915134002297 0 0 0 0 -165.34281364025674 -42.692892120852591 0 -42.692892120852591 26.17880882839512 0 0 0 0 30.62131889975376 -330.51772951169824 0 -330.51772951169824 -123.42158413026917 0 0 0 0 22.594672997208249 -38.872660804554869 0 -38.872660804554869 11.867812191608778 0 0 0 0 29.951615611611032 -37.359160008507729 0 -37.359160008507729 -10.132475396261725 0 0 0 0 22.089981767130382 -26.481749201529951 0 -26.481749201529951 -0.50107882863335362 0 0 0 0 879.27045803556302 -827.34447980558025 0 -827.34447980558025 267.91345732871036 0 0 0 0 0.78898458278736694 -0.87382721825599907 0 -0.87382721825599907 -1.9503242085669683 0 0 0 0 141.17546655335036 -13.128383276942259 0 -13.128383276942259 -365.82145760601088 0 0 0 0 25.172612036776805 8.4431692960612654 0 8.4431692960612654 0.4478734223335854 0 0 0 0 -320.06058869093113 665.55367972058593 0 665.55367972058593 -144.02589079776646 0 0 0 0 150.97688951389455 70.228154611395155 0 70.228154611395155 346.53637904852474 0 0 0 0 565.30473380464537 111.33959108533257 0 111.33959108533257 -735.51329755344273 0 0 0 0 713.71541834712298 -756.74829592916353 0 -756.74829592916353 185.25208045000392 0 0 0 0 472.7695020972169 -410.24827666002523 0 -410.24827666002523 251.40853985434831 0 0 0 0 672.62846208165411 -355.95986219077872 0 -355.95986219077872 -240.63129905304527 0 0 0 0 173.91893453830016 86.532816041314618 0 86.532816041314618 5.7726340303506731 0 0 0 0 9.4014928311961086 -1.7610133819508835 0 -1.7610133819508835 0.50079296400477125 0 0 0 0 313.08275138992667 89.624066484549985 0 89.624066484549985 -77.658172226865531 0 0 0 0 387.39278849670427 9.6683690987238151 0 9.6683690987238151 -141.70846589694179 0 0 0 0 -359.13975283173295 127.89957395495094 0 127.89957395495094 -27.515484297688545 0 0 0 0 0.20726926017609237 -0.076355430756686715 0 -0.076355430756686715 1.1294379356974815 0 0 0 0 -7.1089897445349379 -676.94651686078578 0 -676.94651686078578 -34.466957568332873 0 0 0 0 71.035541301185035 14.051225177992894 0 14.051225177992894 -8.3993287083604056 0 0 0 0 19.688555995823044 -7.9311907758239979 0 -7.9311907758239979 -1.6030495704656609 0 0 0 0 518.63516225516423 757.97943514176905 0 757.97943514176905 -119.50670462427206 0 0 0 0 128.71201089641363 25.72566430252482 0 25.72566430252482 -53.847640773932767 0 0 0 0 112.66753968657213 154.76310450350684 0 154.76310450350684 -34.422832953645411 0 0 0 0 34.513419233433524 17.787258056900555 0 17.787258056900555 -36.269614929153249 0 0 0 0 30.618424425978446 9.2853795017163065 0 9.2853795017163065 -21.520444033108106 0 0 0 0 48.702592434731059 1.2612472728964459 0 1.2612472728964459 -7.4122512433623484 0 0 0 0 63.271357373558807 -6.7587840903915897 0 -6.7587840903915897 -5.3551377229160941 0 0 0 0 -15.514415223552987 -72.572856664126448 0 -72.572856664126448 163.16956500630704 0 0 0 0 21.851953526948847 -197.14079620119799 0 -197.14079620119799 12.288567872440581 0 0 0 0 77.013104494245113 -6.8864853099553329 0 -6.8864853099553329 -146.87022021254415 0 0 0 0 49.165557598546911 -4.6598151684538607 0 -4.6598151684538607 0.55909263406647369 0 0 0 0 80.962850576590625 -32.934151567679351 0 -32.934151567679351 -29.151433324422214 0 0 0 0 36.777058610477638 -13.978793028018572 0 -13.978793028018572 3.4821873207793033 0 0 0 0 35.259416929051895 -19.531753904078414 0 -19.531753904078414 -1.6485112620066502 0 0 0 0 42.249396936236735 -19.064943294961267 0 -19.064943294961267 -8.5481348125051682 0 0 0 0 36.977877616369561 -13.791732352676673 0 -13.791732352676673 2.0989990390470825 0 0 0 0 23.874581944761303 17.914014976000999 0 17.914014976000999 -50.900104264183028 0 0 0 0 27.850939660365434 -1.6207204859609234 0 -1.6207204859609234 -2.381120621627494 0 0 0 0 38.127619339170906 -45.414769475768935 0 -45.414769475768935 -26.723892997717869 0 0 0 0 2.6860708662123738 -3.9297290914439422 0 -3.9297290914439422 -3.8782747360339673 0 0 0 0 6.8624029335010164 36.722036168603609 0 36.722036168603609 14.837161076246502 0 0 0 0 -3.3944092932488275 -29.906379653526528 0 -29.906379653526528 -76.682977679978421 0 0 0 0 44.320787687579923 -32.814689146580577 0 -32.814689146580577 -94.023645030000353 0 0 0 0 19.512380802286771 -81.324741489063854 0 -81.324741489063854 -180.9241759952256 0 0 0 0 22.057820246369374 105.07417060970079 0 105.07417060970079 -270.60135076957613 0 0 0 0 -1.2613656847705066 -0.44238892402629126 0 -0.44238892402629126 -0.74570862950158379 0 0 0 0 136.26829957532345 -4.6188630712572376 0 -4.6188630712572376 7.7202751897043527 0 0 0 0 188.55261134627244 -103.80014888710457 0 -103.80014888710457 1.1267425724818168 0 0 0 0 214.14563665438709 -84.516130578330831 0 -84.516130578330831 -170.81847491800613 0 0 0 0 193.07237238495873 18.484490251417355 0 18.484490251417355 -81.24087278570147 0 0 0 0 118.01357826446792 -29.352300833081699 0 -29.352300833081699 -50.255649138953231 0 0 0 0 109.88219341788681 22.658480911931292 0 22.658480911931292 -69.808937057477578 0 0 0 0 58.274677402416273 -20.195743234450219 0 -20.195743234450219 -51.465948641854993 0 0 0 0 124.47163925367522 -13.556827985856216 0 -13.556827985856216 -81.058795319057253 0 0 0 0 171.52092744841588 -31.323678880112766 0 -31.323678880112766 -87.835771537377695 0 0 0 0 187.98631901553858 139.15179176980632 0 139.15179176980632 55.609111650307113 0 0 0 0 111.49717325243643 121.69132790920492 0 121.69132790920492 54.218041917053597 0 0 0 0 143.87024988583698 32.487559093642403 0 32.487559093642403 -129.20779224810337 0 0 0 0 192.78303055980211 -42.044081880245244 0 -42.044081880245244 -227.06048511219842 0 0 0 0 154.45226396370845 43.830506625842872 0 43.830506625842872 -16.067363403789386 0 0 0 0 183.98617493103939 -94.419273440216784 0 -94.419273440216784 -229.89924490162548 0 0 0 0 74.212180942224222 -79.359959904989864 0 -79.359959904989864 -185.3541418242221 0 0 0 0 230.11570278092313 -294.23811488497336 0 -294.23811488497336 -290.9333467273384 0 0 0 0 108.57017948445446 -131.46719913795255 0 -131.46719913795255 -151.20882696815534 0 0 0 0 431.39324176473656 -51.62025172818403 0 -51.62025172818403 14.381495691505734 0 0 0 0 558.00001934599959 23.282779315040671 0 23.282779315040671 29.412769338106955 0 0 0 0 545.8264297697051 105.04384812011602 0 105.04384812011602 -5.2002327122363567 0 0 0 0 37.266469328233143 -706.61181119228695 0 -706.61181119228695 407.16231040138155 0 0 0 0 1.5281225320755869 -0.51220320640178074 0 -0.51220320640178074 -2.1374374247029699 0 0 0 0 250.96698599680076 124.62189664933658 0 124.62189664933658 -5.8603975270107185 0 0 0 0 565.15557815583793 36.263862552790556 0 36.263862552790556 -75.265187055700153 0 0 0 0 201.61387231204571 -39.610534520213605 0 -39.610534520213605 -18.770214900710926 0 0 0 0 622.84437079456939 82.42596580368604 0 82.42596580368604 -63.107565687462284 0 0 0 0 566.65727563553332 34.320126202657491 0 34.320126202657491 -99.954786189630795 0 0 0 0 1.5278474585113671 0.64366613304733189 0 0.64366613304733189 -1.4540432924623161 0 0 0 0 574.77479306761825 291.01386413666239 0 291.01386413666239 175.65171154738664 0 0 0 0 128.59729536235864 144.21721133603592 0 144.21721133603592 52.943804661143531 0 0 0 0 163.55919204841484 -24.33465086873548 0 -24.33465086873548 -135.97163945352531 0 0 0 0 123.95242069145195 132.73481809623019 0 132.73481809623019 40.532617381733871 0 0 0 0 1.932217363966874 1.3747706367463395 0 1.3747706367463395 -3.0332175188252037 0 0 0 0 188.21571821267275 163.84297903360721 0 163.84297903360721 152.47321317358137 0 0 0 0 -37.845815361727546 30.937940469385865 0 30.937940469385865 -20.183380786028465 0 0 0 0 -9.7905015755289924 -47.667042031043252 0 -47.667042031043252 -91.937188518591938 0 0 0 0 52.069819984028527 -22.469415385387947 0 -22.469415385387947 -89.999209730503026 0 0 0 0 -74.67293008900424 -133.02802477754312 0 -133.02802477754312 -184.1470284402285 0 0 0 0 28.386352019906553 166.6437452018522 0 166.6437452018522 -193.77564148498004 0 0 0 0 -166.42302311316666 -31.43158945665607 0 -31.43158945665607 -46.974542124379695 0 0 0 0 12.255095605376596 2.5928210571484787 0 2.5928210571484787 -0.30685943571901131 0 0 0 0 37.262276935981845 17.337408791042208 0 17.337408791042208 -28.992155168061572 0 0 0 0 72.445039574578914 102.76632889598432 0 102.76632889598432 -417.33836469892526 0 0 0 0 16.146471322524476 1.1512925828882157 0 1.1512925828882157 -0.8915152342457211 0 0 0 0 208.88563052577229 142.48167121586948 0 142.48167121586948 -45.539901723070216 0 0 0 0 888.20395490557894 -302.62700318317889 0 -302.62700318317889 -88.186172262844593 0 0 0 0 243.69653860925979 -188.00889994660818 0 -188.00889994660818 -29.09517496400349 0 0 0 0 527.00584556252215 -714.81304578835034 0 -714.81304578835034 320.49951969618269 0 0 0 0 428.81114861769038 32.257427026074311 0 32.257427026074311 -149.04771427786227 0 0 0 0 1065.2881690766544 -438.2812605561553 0 -438.2812605561553 -120.9212038070807 0 0 0 0 350.80356470588868 -753.97400963711971 0 -753.97400963711971 53.973062250572411 0 0 0 0 629.31098665530953 407.86883510941425 0 407.86883510941425 31.833688171015638 0 0 0 0 30.318925022917483 -172.19374639445334 0 -172.19374639445334 -244.36447930870418 0 0 0 0 85.235272569468179 -89.436636745226679 0 -89.436636745226679 -226.59241535094134 0 0 0 0 -230.31918879937575 -239.60758601283487 0 -239.60758601283487 52.51589202028299 0 0 0 0 188.64499271250452 -480.75039736191752 0 -480.75039736191752 409.36819453992484 0 0 0 0 267.80175453763513 -558.80608142247775 0 -558.80608142247775 74.82823985429593 0 0 0 0 5.7813594620475879 0.31227114197321448 0 0.31227114197321448 -0.1121211506529507 0 0 0 0 -303.34833435678615 177.62415673379155 0 177.62415673379155 -385.65939164503379 0 0 0 0 2.5234097920747107 3.1084731830903394 0 3.1084731830903394 -5.5738447393611601 0 0 0 0 27.686308658405324 6.2840362252845239 0 6.2840362252845239 -356.17611503157769 0 0 0 0 -13.898031905592461 -36.115674848344838 0 -36.115674848344838 26.34899330186181 0 0 0 0 4.5579064986486628 120.90144697937149 0 120.90144697937149 -431.24136634784259 0 0 0 0 -25.320477370921253 -7.8220685187784511 0 -7.8220685187784511 101.65783778957211 0 0 0 0 199.51047775790721 -44.621063413298543 0 -44.621063413298543 60.466344945526544 0 0 0 0 36.864408958724198 -62.755802768777869 0 -62.755802768777869 -230.68949171512946 0 0 0 0 -12.540405956376617 65.125262138927525 0 65.125262138927525 -234.76541790983583 0 0 0 0 -11.920729353820207 127.01335308152966 0 127.01335308152966 -381.63716839206631 0 0 0 0 -48.004544092880678 88.888729471804709 0 88.888729471804709 -381.73061549986096 0 0 0 0 68.90167920460226 111.37582834863179 0 111.37582834863179 -378.06008266695414 0 0 0 0 42.860082008519385 104.51236262566545 0 104.51236262566545 -175.04020083906698 0 0 0 0 9.7886179571978573 130.93168733122184 0 130.93168733122184 -164.27242015593583 0 0 0 0 -40.537763407169223 -20.007973185634114 0 -20.007973185634114 24.59824133511222 0 0 0 0 8.9707757052052592 0.24556937401457191 0 0.24556937401457191 -9.0833019301109257 0 0 0 0 133.37958368692671 -37.102188380908331 0 -37.102188380908331 -38.235203497044495 0 0 0 0 102.81974230207015 -3.4646660229284407 0 -3.4646660229284407 -132.17802524833917 0 0 0 0 148.71144707890926 0.94107365463531778 0 0.94107365463531778 -85.848118983652739 0 0 0 0 3.67041539690576 -9.2780062515638555 0 -9.2780062515638555 -7.685245855672024 0 0 0 0 101.67021886837847 33.87756003876126 0 33.87756003876126 -109.25344343008692 0 0 0 0 70.623893294450681 -37.76048244157937 0 -37.76048244157937 -73.784556697560674 0 0 0 0 3.0223839503726779 9.6144068601730517 0 9.6144068601730517 2.9479828649041382 0 0 0 0 76.626430364329281 33.235783882772296 0 33.235783882772296 83.380181536168266 0 0 0 0 -1.874428140296553 -2.1694938160185018 0 -2.1694938160185018 -0.70167401587134215 0 0 0 0 152.25467450003453 -157.28098084616317 0 -157.28098084616317 -84.314082540522577 0 0 0 0 -225.03167533645683 351.71374452887835 0 351.71374452887835 -453.19080555924211 0 0 0 0 10.361282093387672 154.47364703291623 0 154.47364703291623 -447.37214038410548 0 0 0 0 -145.12843854944003 150.13060631306121 0 150.13060631306121 -39.640492856136689 0 0 0 0 58.756211403035195 86.661726115832835 0 86.661726115832835 -436.11940498243484 0 0 0 0 62.433906429784088 183.48112235476128 0 183.48112235476128 -735.19336828440282 0 0 0 0 -0.69112367839011313 6.2228708156321417 0 6.2228708156321417 2.5871808598347852 0 0 0 0 -77.387307694283663 97.339251291729397 0 97.339251291729397 -77.839398783013166 0 0 0 0 -27.286636729917518 181.63880810986484 0 181.63880810986484 52.530125232568025 0 0 0 0 -19.18412110277859 140.17484716940453 0 140.17484716940453 -40.148794867063771 0 0 0 0 -0.79986943737458205 71.606966709637163 0 71.606966709637163 97.859870356173815 0 0 0 0 27.686082721123967 41.883531869301351 0 41.883531869301351 -23.194539855514449 0 0 0 0 28.988004018327047 48.779931693141862 0 48.779931693141862 7.3437506037626008 0 0 0 0 87.040311256925634 21.119758586928128 0 21.119758586928128 35.242006682191459 0 0 0 0 46.663985397717816 27.410539738149367 0 27.410539738149367 2.5543148774310263 0 0 0 0 30.012530686963146 35.868690909373981 0 35.868690909373981 35.366537810114096 0 0 0 0 16.196825524329142 17.159082365660424 0 17.159082365660424 4.5885015717340139 0 0 0 0 15.310554170321709 13.297601029766824 0 13.297601029766824 3.4503115362286181 0 0 0 0 16.47128117194552 14.826069346833719 0 14.826069346833719 0.59287211115497485 0 0 0 0 18.679542713309431 15.796239681454185 0 15.796239681454185 12.842220810742585 0 0 0 0 7.2901359637198766 9.4582109595805832 0 9.4582109595805832 6.9608693462214433 0 0 0 0 11.226775213374992 11.973995579124352 0 11.973995579124352 6.2726912811291253 0 0 0 0 12.994309709340513 3.569085642831757 0 3.569085642831757 1.5495219220484842 0 0 0 0 3.6456639271570417 4.3541176194064874 0 4.3541176194064874 8.287578138824724 0 0 0 0 -6.6495416487960028 18.754339874224115 0 18.754339874224115 8.9960211874185916 0 0 0 0 -1.8891351563270291 -74.131951707287953 0 -74.131951707287953 -17.713414051427662 0 0 0 0 122.71568848621428 90.885906375265222 0 90.885906375265222 51.467437022108243 0 0 0 0 23.461131056848892 5.5953082316834823 0 5.5953082316834823 0.19314762893398041 0 0 0 0 130.18247740297375 136.40991785952019 0 136.40991785952019 111.35973638759151 0 0 0 0 33.241916491125721 33.342745208781253 0 33.342745208781253 -41.525574093681371 0 0 0 0 1.3616087973775635 9.9510964388691718 0 9.9510964388691718 2.5316098900803041 0 0 0 0 -30.693072843767368 84.231703691657458 0 84.231703691657458 -70.565643635467723 0 0 0 0 3.0528549453318305 1.7430309214840314 0 1.7430309214840314 -0.63945624927435274 0 0 0 0 -28.295916051472886 42.779844379795577 0 42.779844379795577 -55.591800768196663 0 0 0 0 -109.50001810693175 81.287303188469195 0 81.287303188469195 105.26471002163544 0 0 0 0 -101.79123637676821 39.565558419186345 0 39.565558419186345 39.736540027699448 0 0 0 0 -8.750164135926525 -55.183256263043063 0 -55.183256263043063 98.711920293066214 0 0 0 0 -27.836563899469184 51.160609325654605 0 51.160609325654605 216.8366785076314 0 0 0 0 -19.803652893393973 151.59034715656477 0 151.59034715656477 642.25842104842559 0 0 0 0 94.749214579380805 263.3319839273359 0 263.3319839273359 253.01755301386584 0 0 0 0 60.347815722781888 313.01839347589009 0 313.01839347589009 285.78812209191437 0 0 0 0 78.328254360800202 240.54936857889379 0 240.54936857889379 347.76189750021831 0 0 0 0 41.254544266445009 316.35813101254291 0 316.35813101254291 211.38430719102007 0 0 0 0 178.45795475168052 169.48744234347589 0 169.48744234347589 -378.15826530609638 0 0 0 0 136.77741152156159 76.330828399058532 0 76.330828399058532 357.65333762979259 0 0 0 0 168.01679938486996 382.86501624341145 0 382.86501624341145 197.93751418551631 0 0 0 0 318.70052590347041 299.80083333973766 0 299.80083333973766 157.77140419947318 0 0 0 0 373.48174366915737 97.553959005152819 0 97.553959005152819 52.929658035923239 0 0 0 0 73.757163423933889 171.26867805138349 0 171.26867805138349 90.33837978459178 0 0 0 0 -1.0171701744521755 0.15847053192490179 0 0.15847053192490179 6.5077083923329546 0 0 0 0 7.8315521229706064 -16.992568237454009 0 -16.992568237454009 140.5371028488446 0 0 0 0 4.1924469199568648 1.8726927040769006 0 1.8726927040769006 -3.1080665432816801 0 0 0 0 -62.772399202844099 237.61322456749747 0 237.61322456749747 259.11409994221958 0 0 0 0 -161.91810998960682 66.754347028660504 0 66.754347028660504 124.35989459751909 0 0 0 0 -180.02464061000705 71.167900783936545 0 71.167900783936545 111.43761469755736 0 0 0 0 -176.73563729132002 -11.185566060633619 0 -11.185566060633619 9.5667988042657832 0 0 0 0 0.43221284883384214 -5.1397714419581462 0 -5.1397714419581462 311.83862057881061 0 0 0 0 27.449087460805345 -74.793939976488161 0 -74.793939976488161 25.6298052623697 0 0 0 0 80.186703530742534 79.77096434681107 0 79.77096434681107 88.668970292692848 0 0 0 0 223.2035320964942 51.482640264887323 0 51.482640264887323 358.13253422119215 0 0 0 0 174.86845902564801 159.56137276163281 0 159.56137276163281 140.15575572077387 0 0 0 0 628.87420888036377 275.87232557216385 0 275.87232557216385 -31.461860658351952 0 0 0 0 616.03367589832851 86.511708005376477 0 86.511708005376477 16.181532841168519 0 0 0 0 761.67435235780249 78.388285435296893 0 78.388285435296893 -100.29623812196377 0 0 0 0 1143.853648517721 317.84268075391174 0 317.84268075391174 155.58297638697491 0 0 0 0 791.40343667957859 253.02863656725367 0 253.02863656725367 171.05369097377479 0 0 0 0 459.72355390627126 -202.69103267431319 0 -202.69103267431319 65.467757557902587 0 0 0 0 15.420665251306445 -112.57325354385523 0 -112.57325354385523 26.90499214058309 0 0 0 0 1.5057820857849329 -0.28588071628989198 0 -0.28588071628989198 -0.016202350154500778 0 0 0 0 70.487509835264063 -156.11935796968919 0 -156.11935796968919 89.092738394720072 0 0 0 0 513.81928936457371 -82.390414750894479 0 -82.390414750894479 -27.869675556910806 0 0 0 0 507.73473135300264 -68.169815755977652 0 -68.169815755977652 -60.644444388004558 0 0 0 0 918.03648601723216 -35.023289946774639 0 -35.023289946774639 -64.447549308381895 0 0 0 0 8.7595119352846353 2.6872749341022519 0 2.6872749341022519 0.75392263591776809 0 0 0 0 204.40385565019733 432.85800966394208 0 432.85800966394208 939.51289438610411 0 0 0 0 755.10321241457495 -33.809171280807277 0 -33.809171280807277 -49.629395384116833 0 0 0 0 871.7306892578199 571.08845354770756 0 571.08845354770756 524.52950031001433 0 0 0 0 548.09626770745763 263.73506835485159 0 263.73506835485159 408.6785477970061 0 0 0 0 598.27536588461953 31.064160299985815 0 31.064160299985815 1320.1561645804113 0 0 0 0 576.1225128822407 218.79098813788141 0 218.79098813788141 305.47194544410831 0 0 0 0 1343.8356389706159 8.1640205658225113 0 8.1640205658225113 306.34243346070434 0 0 0 0 699.17067882733681 -248.24558623145617 0 -248.24558623145617 330.57977576597091 0 0 0 0 265.53991025948744 -5.1210095418924766 0 -5.1210095418924766 208.05342303339012 0 0 0 0 529.91567466675542 -128.87291881817424 0 -128.87291881817424 -53.175061226206026 0 0 0 0 740.12780292153184 200.96738113384913 0 200.96738113384913 108.12176325567998 0 0 0 0 345.49827970543993 186.06578878281891 0 186.06578878281891 126.79531843357586 0 0 0 0 284.25494460583104 416.67346635807871 0 416.67346635807871 369.82723799879477 0 0 0 0 275.57174166754703 304.35976697788306 0 304.35976697788306 442.61253745874853 0 0 0 0 249.66021390914466 20.480688977359037 0 20.480688977359037 -134.29505426214894 0 0 0 0 207.06105180537361 10.790517724816766 0 10.790517724816766 -110.80022831336731 0 0 0 0 51.08509495066528 -255.34033691380773 0 -255.34033691380773 -324.74101743185395 0 0 0 0 233.60180573253228 -1.198308417314621 0 -1.198308417314621 -263.28997841327339 0 0 0 0 1.5826407804138398 -150.25297508794424 0 -150.25297508794424 38.068661227988486 0 0 0 0 296.96481958300456 -143.56148396334979 0 -143.56148396334979 -5.0360220901852699 0 0 0 0 77.717028470429156 -18.154692004800165 0 -18.154692004800165 -18.93346885598757 0 0 0 0 -42.125936163909273 -180.10001993245294 0 -180.10001993245294 -203.4114833810138 0 0 0 0 -89.984645607002449 -68.791818665390565 0 -68.791818665390565 88.500160418654104 0 0 0 0 60.138436806897516 -31.151469576672753 0 -31.151469576672753 -40.427498555915918 0 0 0 0 41.30711932410486 -47.53237349601568 0 -47.53237349601568 -54.051955314844236 0 0 0 0 79.247582903019577 -20.646931769278577 0 -20.646931769278577 -15.885046002433096 0 0 0 0 -13.648912460623364 -33.785333351778263 0 -33.785333351778263 24.10750202132931 0 0 0 0 22.073796422892997 -11.197156623226476 0 -11.197156623226476 -34.811616322551799 0 0 0 0 72.392845544066404 95.803350863907781 0 95.803350863907781 55.880501171765673 0 0 0 0 26.478630643033057 -121.24950415724697 0 -121.24950415724697 -173.30094800549068 0 0 0 0 43.685135337716929 -50.033219100759197 0 -50.033219100759197 -26.74791695438671 0 0 0 0 1.6520007079432162 -74.315724483719009 0 -74.315724483719009 -61.140348158685356 0 0 0 0 80.330131226134469 -21.856501683874132 0 -21.856501683874132 -14.266530617315507 0 0 0 0 88.300589869311807 -18.584238696648754 0 -18.584238696648754 -24.965218946121837 0 0 0 0 60.163190208355445 -31.725891346542085 0 -31.725891346542085 -27.307305421727506 0 0 0 0 103.19840115221086 -4.3127060988176709 0 -4.3127060988176709 -23.576336581925716 0 0 0 0 121.11443965362196 9.6452642442732213 0 9.6452642442732213 -17.005288813912102 0 0 0 0 88.530863240370309 -17.291558581132449 0 -17.291558581132449 -30.387835003048167 0 0 0 0 120.40921730041737 12.357853379189692 0 12.357853379189692 -16.152994192945698 0 0 0 0 142.08130992402221 15.159944343936331 0 15.159944343936331 -34.797177752901007 0 0 0 0 136.60669599932044 25.453631520436829 0 25.453631520436829 -1.3176886359478885 0 0 0 0 142.73062050087538 4.1930890608605296 0 4.1930890608605296 -40.804110650589791 0 0 0 0 162.76784615233237 -69.85769789317726 0 -69.85769789317726 -39.199164754572848 0 0 0 0 172.5097443441955 20.67823992113108 0 20.67823992113108 -31.686197119201552 0 0 0 0 169.46485939587728 -16.54561087597267 0 -16.54561087597267 -1.1125404160734504 0 0 0 0 -7.7609931470287847 -23.307425041845818 0 -23.307425041845818 1.413038583445541 0 0 0 0 303.23795129966675 25.097713885799294 0 25.097713885799294 -15.816369070191286 0 0 0 0 2.6443813248054795 -0.71567760879735687 0 -0.71567760879735687 0.18872370372631408 0 0 0 0 2.0077922788404123 1.6819372006905624 0 1.6819372006905624 -0.26269773746996261 0 0 0 0 265.86851150090843 -55.272063016470156 0 -55.272063016470156 11.562107117497362 0 0 0 0 141.05840052659914 62.505625836738545 0 62.505625836738545 32.424504233596963 0 0 0 0 73.010635428163368 -11.830864659032159 0 -11.830864659032159 0.3909325294316659 0 0 0 0 63.275793429991609 46.469161048335536 0 46.469161048335536 64.362003203319546 0 0 0 0 79.404047268277409 -23.342639225673803 0 -23.342639225673803 -13.272270858231181 0 0 0 0 27.92451591805002 -56.569999406578518 0 -56.569999406578518 -31.092616704206648 0 0 0 0 55.063465036261391 -131.86597347325517 0 -131.86597347325517 -229.84031421865984 0 0 0 0 -99.245882068059473 -122.2696121800891 0 -122.2696121800891 -97.932973164618488 0 0 0 0 6.3029553921278421 -241.34024309307256 0 -241.34024309307256 -98.462535785080036 0 0 0 0 84.028818144101166 -18.184922244446756 0 -18.184922244446756 -11.555284326502516 0 0 0 0 -7.156040495078293 -8.8470875743646644 0 -8.8470875743646644 -1.0162484682982464 0 0 0 0 57.932676123112174 -211.75218876670374 0 -211.75218876670374 -356.70949055652636 0 0 0 0 2.9717141837190866 -191.19493864568585 0 -191.19493864568585 -193.26645593881494 0 0 0 0 18.711796810147007 -147.99431518684196 0 -147.99431518684196 -194.39868500189732 0 0 0 0 51.982851203413702 -75.690316695892761 0 -75.690316695892761 -184.66177667873376 0 0 0 0 31.531128044221532 -98.516612413395706 0 -98.516612413395706 -313.46677030292994 0 0 0 0 68.797559709168581 -85.021248543405818 0 -85.021248543405818 -171.27626757623148 0 0 0 0 126.40843328118513 -98.060873375201481 0 -98.060873375201481 -175.51580243939588 0 0 0 0 65.658330503632897 -107.21447073463059 0 -107.21447073463059 -96.708248468435613 0 0 0 0 78.838165206702115 -93.929792897663901 0 -93.929792897663901 -128.83889236691266 0 0 0 0 106.85145806349792 -32.842027296265201 0 -32.842027296265201 -78.454814587307737 0 0 0 0 62.402832913088787 -192.97201306340321 0 -192.97201306340321 0.94660760923682119 0 0 0 0 98.177014098931977 140.56864547199166 0 140.56864547199166 191.0708363786016 0 0 0 0 336.12341256064974 105.76439238010425 0 105.76439238010425 -109.59880007297579 0 0 0 0 -49.593496688539744 -84.078334281557545 0 -84.078334281557545 -204.04092399182628 0 0 0 0 13.008148860583837 7.8665557189868878 0 7.8665557189868878 -1.6558825792149694 0 0 0 0 -75.747802052884253 -246.90289408787021 0 -246.90289408787021 -288.68549157160032 0 0 0 0 82.446167316935799 -13.701741540723882 0 -13.701741540723882 -11.96761293340437 0 0 0 0 161.28647934993751 -51.607192254793517 0 -51.607192254793517 -208.13046882803974 0 0 0 0 158.92441909351692 -65.520947001625245 0 -65.520947001625245 -208.84670325205025 0 0 0 0 8.6729942667720934 -91.617487754518606 0 -91.617487754518606 -77.444046611449266 0 0 0 0 19.196098992071256 -76.47222957127542 0 -76.47222957127542 -203.59631311323062 0 0 0 0 5.6428580755510893 -112.67888177521434 0 -112.67888177521434 -104.79605287781305 0 0 0 0 31.122484513803556 -112.69785680843142 0 -112.69785680843142 -140.0564191907506 0 0 0 0 45.827250493436168 -118.61929699189022 0 -118.61929699189022 -139.0949130650506 0 0 0 0 23.621578386308329 -151.37855634583775 0 -151.37855634583775 -142.71989850917339 0 0 0 0 15.366768184800776 -133.17756858825351 0 -133.17756858825351 -68.512516683145805 0 0 0 0 46.673000321604377 -99.693554155987158 0 -99.693554155987158 -172.48997660167697 0 0 0 0 1.847831797986828 -89.635781391463297 0 -89.635781391463297 -32.486124621558702 0 0 0 0 37.162553778260303 -70.230615322962876 0 -70.230615322962876 60.191092055986701 0 0 0 0 20.808786894196601 -71.044297167413788 0 -71.044297167413788 48.158987162862104 0 0 0 0 27.634333339350178 -89.877461707623297 0 -89.877461707623297 -41.207119710077677 0 0 0 0 26.062043634990346 -121.24020510763887 0 -121.24020510763887 -13.05332908829223 0 0 0 0 3.3642595662709027 -67.14871731924768 0 -67.14871731924768 40.368371942776776 0 0 0 0 4.7247806880620828 -119.26233577613857 0 -119.26233577613857 -30.018895638812864 0 0 0 0 21.802026171053249 -100.25290008904841 0 -100.25290008904841 -28.385917052071818 0 0 0 0 201.89710637904113 -39.733442485029173 0 -39.733442485029173 -87.458698740165801 0 0 0 0 140.3442159320519 5.005138814749948 0 5.005138814749948 -16.184164042546399 0 0 0 0 55.205409626463506 -109.25088193222018 0 -109.25088193222018 -101.70964538213775 0 0 0 0 -8.2312407221884314 -135.17538573471302 0 -135.17538573471302 -143.77511281467923 0 0 0 0 71.171318992780471 -105.60017533942755 0 -105.60017533942755 -142.32848239380891 0 0 0 0 61.13871845904896 -42.098654537185212 0 -42.098654537185212 -83.395231978680386 0 0 0 0 138.77978253844822 -97.431053966469335 0 -97.431053966469335 -44.412671282649171 0 0 0 0 99.099729373246873 -30.139107839966925 0 -30.139107839966925 0.83766720936182537 0 0 0 0 81.85403252321521 -114.46840035312789 0 -114.46840035312789 -24.80437445467669 0 0 0 0 219.49789673668147 -31.389057689609217 0 -31.389057689609217 54.831601759888144 0 0 0 0 168.19282289844637 -82.333266706164977 0 -82.333266706164977 40.258585883761043 0 0 0 0 184.87565902762339 8.2756114797921327 0 8.2756114797921327 37.224064281004758 0 0 0 0 268.56740903082914 -8.5327184169705106 0 -8.5327184169705106 -17.921810767194984 0 0 0 0 306.11766911873224 -43.227672906262342 0 -43.227672906262342 57.804600834158919 0 0 0 0 328.30599787373194 95.964810237245501 0 95.964810237245501 63.332151819139654 0 0 0 0 295.10063728618366 109.11087256174324 0 109.11087256174324 15.23002480973264 0 0 0 0 360.24492570398326 222.27219059134364 0 222.27219059134364 159.09641924358039 0 0 0 0 196.30531981244667 45.959933846543208 0 45.959933846543208 53.02070702835772 0 0 0 0 165.61596648505133 71.72650022883181 0 71.72650022883181 24.196910252186171 0 0 0 0 159.75836521089923 12.702926590689003 0 12.702926590689003 -50.890845158498905 0 0 0 0 227.75133685828018 109.82306086505423 0 109.82306086505423 76.627962005266454 0 0 0 0 182.68069351134346 201.82103706221767 0 201.82103706221767 225.71567207074349 0 0 0 0 201.30350460747604 173.64404958445925 0 173.64404958445925 112.38325250518074 0 0 0 0 1.3671953212664016 1.6483865785593221 0 1.6483865785593221 -3.0964282785102508 0 0 0 0 107.54579394509415 79.74324282059024 0 79.74324282059024 54.95871746245507 0 0 0 0 120.3398073625317 123.67945293755611 0 123.67945293755611 119.14654800618933 0 0 0 0 140.75261639743258 37.425114151724301 0 37.425114151724301 -58.628926489698586 0 0 0 0 128.04487908841293 73.61117134998176 0 73.61117134998176 28.051305661506603 0 0 0 0 121.82862181504493 89.442138983160703 0 89.442138983160703 8.3266944257213709 0 0 0 0 61.800995685736666 15.079828679506136 0 15.079828679506136 -16.469307300862056 0 0 0 0 122.801059837087 -41.870298938615178 0 -41.870298938615178 -128.56851235457543 0 0 0 0 125.72883088822869 28.75390526241074 0 28.75390526241074 -58.189461289784958 0 0 0 0 203.84883737877135 105.73021559837889 0 105.73021559837889 -14.070470884194947 0 0 0 0 2414.05543326316 505.24450215453032 0 505.24450215453032 161.58634303878654 0 0 0 0 17.995695535471487 -11.289084738904375 0 -11.289084738904375 -15.614422361371037 0 0 0 0 97.04866815800051 27.456232024047495 0 27.456232024047495 -6.8101297903126579 0 0 0 0 3358.1138847869734 415.67468301809907 0 415.67468301809907 -296.9363732896561 0 0 0 0 2424.7931204497891 697.58950744131664 0 697.58950744131664 210.99346877249036 0 0 0 0 2471.6218558128803 690.00305695060808 0 690.00305695060808 201.85534412542918 0 0 0 0 2499.9745939979184 691.50133993572604 0 691.50133993572604 197.2655005248312 0 0 0 0 2545.5412168472285 803.96235890073581 0 803.96235890073581 377.42321045330601 0 0 0 0 2469.6497742979545 682.47991965991332 0 682.47991965991332 268.2894014176274 0 0 0 0 2467.6701167549254 728.64136546061002 0 728.64136546061002 162.6559397686471 0 0 0 0 74.425573826862092 28.136975405330759 0 28.136975405330759 0.5070363971842653 0 0 0 0 70.95594130597965 22.123257767781524 0 22.123257767781524 1.2404995055886161 0 0 0 0 37.198540244418837 13.127020420168037 0 13.127020420168037 2.7414647254282158 0 0 0 0 53.091491300474445 33.755668392355005 0 33.755668392355005 3.7533481630175629 0 0 0 0 56.825488020735065 23.080025321978383 0 23.080025321978383 5.2829238764161346 0 0 0 0 56.242120292337859 22.727850203791604 0 22.727850203791604 10.302523606523209 0 0 0 0 61.797033805079991 25.757142377627588 0 25.757142377627588 2.2440853312803029 0 0 0 0 75.350732918399444 12.169638540935694 0 12.169638540935694 -6.5222480197344339 0 0 0 0 58.372468096101116 9.4951958862379406 0 9.4951958862379406 -4.9883929263720352 0 0 0 0 76.762069868090748 21.596094865699662 0 21.596094865699662 -79.726412445736173 0 0 0 0 101.2376470231311 -12.038887502059513 0 -12.038887502059513 -40.836657868515687 0 0 0 0 11.878103910889624 0.069265123781372395 0 0.069265123781372395 -4.4752637611644914 0 0 0 0 -15.546232681803531 138.22301661976243 0 138.22301661976243 -260.6700408733812 0 0 0 0 58.604877553188651 13.690372772371456 0 13.690372772371456 -1.6905864803403288 0 0 0 0 203.70366099317391 23.703175988347013 0 23.703175988347013 -277.53133119440071 0 0 0 0 159.95695898430313 292.22536497976444 0 292.22536497976444 -173.03669479645055 0 0 0 0 -90.519450430111647 226.80420213291012 0 226.80420213291012 -127.36776851638716 0 0 0 0 2427.6257404395592 658.32325261556662 0 658.32325261556662 -174.12091718689408 0 0 0 0 2294.6395130494739 746.87132854209585 0 746.87132854209585 235.22360181953636 0 0 0 0 0.83377232035966742 1.8612654618983608 0 1.8612654618983608 -0.18325559728551277 0 0 0 0 2295.3952217702381 741.29093496397275 0 741.29093496397275 239.33811245700986 0 0 0 0 8.1961220699742121 8.0153997052403376 0 8.0153997052403376 1.8370891103649978 0 0 0 0 53.382814914133633 33.975195931170106 0 33.975195931170106 -19.476211277453103 0 0 0 0 2947.9332030959467 1143.3757563623153 0 1143.3757563623153 278.78659439824992 0 0 0 0 0.60753048071870808 -3.0161620402128122 0 -3.0161620402128122 -0.63008684582301167 0 0 0 0 2423.2106063462106 609.92469668027309 0 609.92469668027309 400.57232699060091 0 0 0 0 2452.7442004419863 572.99657496589396 0 572.99657496589396 188.38552499606305 0 0 0 0 2445.7415110580337 511.15962380609494 0 511.15962380609494 -184.22906322601671 0 0 0 0 2499.7646488692253 647.18408180134179 0 647.18408180134179 95.793987199457547 0 0 0 0 2075.1371953353801 345.95639420339717 0 345.95639420339717 -230.0824183746619 0 0 0 0 2499.7682661176677 420.85264516223651 0 420.85264516223651 -568.05972056029634 0 0 0 0 1028.8787703354001 391.15655219333615 0 391.15655219333615 -238.9612543982615 0 0 0 0 2142.8530754168728 794.15697975126182 0 794.15697975126182 -231.92387438495007 0 0 0 0 1571.0917759338795 494.49278739948153 0 494.49278739948153 -307.34147942868924 0 0 0 0 1987.0632993135496 196.17554757637475 0 196.17554757637475 -570.01331237147588 0 0 0 0 1910.1592832659694 149.33570945882553 0 149.33570945882553 -557.29833725338199 0 0 0 0 2499.4342810065291 -127.20841522574398 0 -127.20841522574398 -675.39468725785798 0 0 0 0 1390.9857000893624 -164.13476507940555 0 -164.13476507940555 -370.8097298536938 0 0 0 0 1769.0839577410134 -237.44205086336976 0 -237.44205086336976 -365.95636885437273 0 0 0 0 1765.7660715484681 -316.85076242598626 0 -316.85076242598626 -674.34376429796896 0 0 0 0 587.73278363260192 -92.63542921711479 0 -92.63542921711479 -56.712151447376357 0 0 0 0 1.1603106225219677 0.12630677772486543 0 0.12630677772486543 -4.1674675045346845 0 0 0 0 1181.1344825131705 103.75201445876115 0 103.75201445876115 -164.71657022391491 0 0 0 0 420.41022245329697 -30.555063738560193 0 -30.555063738560193 -194.15574747381288 0 0 0 0 0.94555493881915087 -0.37662073326753021 0 -0.37662073326753021 -1.930299102872671 0 0 0 0 509.65167913460573 302.47848865471076 0 302.47848865471076 -85.288737685011597 0 0 0 0 936.76539603454421 123.79883394405624 0 123.79883394405624 -165.48539963349455 0 0 0 0 1082.6299024182906 319.19555840820459 0 319.19555840820459 -295.52750117002199 0 0 0 0 140.44307248250789 14.644016391140084 0 14.644016391140084 -201.0402332921841 0 0 0 0 77.172153083493868 -94.804712839457864 0 -94.804712839457864 -146.02741896123354 0 0 0 0 163.21635770239141 -49.687265902307274 0 -49.687265902307274 -152.45019017791651 0 0 0 0 198.67893371127093 -116.64273865723004 0 -116.64273865723004 -38.253002930382308 0 0 0 0 227.82901213726382 109.90757527305504 0 109.90757527305504 5.1392926036233462 0 0 0 0 166.52939882776718 -10.862347531218916 0 -10.862347531218916 -138.47938699380165 0 0 0 0 74.331853776143589 83.756727844461466 0 83.756727844461466 -194.56276500064087 0 0 0 0 -26.063728648695019 218.67648239209029 0 218.67648239209029 -38.359661897083242 0 0 0 0 583.62614869639651 -15.446904155588896 0 -15.446904155588896 -96.420264894827142 0 0 0 0 -71.5344215644418 230.80123845080516 0 230.80123845080516 -295.44066015879025 0 0 0 0 -165.76894024561659 334.03270306592026 0 334.03270306592026 -396.27897093824913 0 0 0 0 -48.238566451266252 277.31876553489599 0 277.31876553489599 -228.0709842028441 0 0 0 0 95.969500970829358 59.859919168781062 0 59.859919168781062 -322.78891120313472 0 0 0 0 19.510325931072884 210.91842534219313 0 210.91842534219313 -621.2152100639446 0 0 0 0 85.24739738185508 -168.47215884909951 0 -168.47215884909951 -522.72167757954298 0 0 0 0 77.33904238967898 -126.76883038204335 0 -126.76883038204335 -194.16312319099558 0 0 0 0 31.735973652985194 -87.679588549517348 0 -87.679588549517348 -155.4496832577513 0 0 0 0 18.515363466387953 -127.21660745198926 0 -127.21660745198926 -143.78324386891882 0 0 0 0 33.763643759290972 -106.82465640180214 0 -106.82465640180214 -124.94200099989757 0 0 0 0 56.368910776848224 -77.401362172657485 0 -77.401362172657485 -137.45619914329609 0 0 0 0 -3.6432336401267094 -100.05691696770634 0 -100.05691696770634 -74.13382657699708 0 0 0 0 -15.974542654102606 -118.9961922033574 0 -118.9961922033574 -98.618108957850609 0 0 0 0 12.55220135405645 -14.197564449394008 0 -14.197564449394008 -5.6452598387304533 0 0 0 0 63.992716451957222 -37.995935018557304 0 -37.995935018557304 -108.16008784004521 0 0 0 0 66.657678117839851 -57.47609206964276 0 -57.47609206964276 -114.26864140341854 0 0 0 0 95.425364625658403 3.4915681095118885 0 3.4915681095118885 -39.943756830573875 0 0 0 0 64.036704365051605 -54.754832909488499 0 -54.754832909488499 -97.724537478149387 0 0 0 0 130.84158796917541 71.587623820957504 0 71.587623820957504 13.057232549158925 0 0 0 0 179.13395406676591 24.280575575505225 0 24.280575575505225 -116.9550752869834 0 0 0 0 60.522910144096386 -39.418660047001254 0 -39.418660047001254 -80.778202000412875 0 0 0 0 51.783205537883077 -3.7465443167190813 0 -3.7465443167190813 -90.134526312785795 0 0 0 0 100.86268294348702 89.246851765414561 0 89.246851765414561 64.366625569558138 0 0 0 0 1.1376428482857337 4.088297622214438 0 4.088297622214438 2.1259951206113166 0 0 0 0 95.991247702186229 14.733628634276272 0 14.733628634276272 37.777712024228094 0 0 0 0 144.74765422538076 23.761406057968287 0 23.761406057968287 -19.94914224725531 0 0 0 0 -14.739753978761655 74.401799137736873 0 74.401799137736873 -174.81847407145244 0 0 0 0 4.5071434194620839 2.4641197743362171 0 2.4641197743362171 -0.67333926163537616 0 0 0 0 22.785395193084696 -85.129797596466119 0 -85.129797596466119 -159.4544869425377 0 0 0 0 -2.0253761285845826 -58.800590211146016 0 -58.800590211146016 -192.61875244077822 0 0 0 0 -31.19975854301174 3.5149281920490196 0 3.5149281920490196 -166.39646943400237 0 0 0 0 25.372104050934468 -51.179319950399659 0 -51.179319950399659 -135.15549153354891 0 0 0 0 1.7548900121691986 -53.314714929557226 0 -53.314714929557226 -72.011337858361799 0 0 0 0 80.362413540322905 -18.265530296757703 0 -18.265530296757703 -211.22463571162882 0 0 0 0 43.342305111951191 -64.584557878570422 0 -64.584557878570422 -137.66524073760013 0 0 0 0 162.58740275985565 -61.645355436949757 0 -61.645355436949757 -189.4700656527684 0 0 0 0 26.668731313034669 7.9309045368736051 0 7.9309045368736051 1.0661935672364766 0 0 0 0 67.664352408481136 40.954399574713079 0 40.954399574713079 -159.55998144593352 0 0 0 0 48.541207604415831 -22.098255052766149 0 -22.098255052766149 -166.39037587148528 0 0 0 0 31.23737466389457 2.4893446731499864 0 2.4893446731499864 -199.55755780477006 0 0 0 0 25.621560596188758 5.7776071895437759 0 5.7776071895437759 -0.78055805085435903 0 0 0 0 25.470985092360479 8.8332744324551413 0 8.8332744324551413 11.12067930124249 0 0 0 0 30.137123816275562 12.607956466734095 0 12.607956466734095 3.7013103379385797 0 0 0 0 20.919366750069386 14.837725716810745 0 14.837725716810745 7.5788588135256933 0 0 0 0 29.590503584526232 7.0785506514065446 0 7.0785506514065446 0.096117901151643537 0 0 0 0 36.355397725945295 10.974091910852962 0 10.974091910852962 13.091165419096257 0 0 0 0 30.491549755695814 7.5289571136520408 0 7.5289571136520408 11.317541959502364 0 0 0 0 34.958337629271682 14.573223409832622 0 14.573223409832622 10.200498505621908 0 0 0 0 19.128649137004004 -3.3851840495758161 0 -3.3851840495758161 0.66031599834837529 0 0 0 0 13.987176052466035 21.30207530160796 0 21.30207530160796 8.1909518282367575 0 0 0 0 61.044753158832464 2.0283355791202666 0 2.0283355791202666 5.3203704993045022 0 0 0 0 58.412100970915411 -3.758046573805693 0 -3.758046573805693 -10.047838728315153 0 0 0 0 93.134905013285106 7.3195827923570675 0 7.3195827923570675 -37.231542539735983 0 0 0 0 52.668351214371796 -156.0622574792942 0 -156.0622574792942 -112.64282932615561 0 0 0 0 50.213161116058927 18.929546833951804 0 18.929546833951804 18.50479514883591 0 0 0 0 117.29358955311957 66.295359016741884 0 66.295359016741884 -0.30928366896523585 0 0 0 0 35.974722071653559 18.121339544912018 0 18.121339544912018 1.7584465709855976 0 0 0 0 9.4987840149515712 4.3055649300602727 0 4.3055649300602727 0.096326533572945738 0 0 0 0 113.46114182507949 20.125418316787965 0 20.125418316787965 -19.870457016001723 0 0 0 0 6.929978979113919 11.357928862586416 0 11.357928862586416 8.8879974162252928 0 0 0 0 29.616877143687816 10.529951846750919 0 10.529951846750919 8.9374835351302409 0 0 0 0 52.723251453150652 -0.93972935539748592 0 -0.93972935539748592 -13.882191000247978 0 0 0 0 69.917056503764115 -30.484505332327359 0 -30.484505332327359 -51.938233149122553 0 0 0 0 48.130761965454894 -4.7969708306143914 0 -4.7969708306143914 -2.6008165122085529 0 0 0 0 82.484975735613716 38.833523253050771 0 38.833523253050771 -18.559753605459605 0 0 0 0 -48.554180617160455 -43.720396692785698 0 -43.720396692785698 -8.1584928891161326 0 0 0 0 222.61785805963336 -59.790457585458853 0 -59.790457585458853 -220.37368049747965 0 0 0 0 -37.226585946187697 198.22214020568163 0 198.22214020568163 -44.008218559946563 0 0 0 0 767.10221799347346 273.5114723975712 0 273.5114723975712 90.059945748165774 0 0 0 0 10.729445577517957 -1.4079769186942706 0 -1.4079769186942706 -0.78137842211515007 0 0 0 0 674.82203780707459 301.06529270547981 0 301.06529270547981 116.99231538923368 0 0 0 0 676.52390978473295 294.77536105145884 0 294.77536105145884 39.639983775013206 0 0 0 0 829.48289085405122 405.04198922980231 0 405.04198922980231 -9.4883822487490761 0 0 0 0 605.37028026878943 433.48557836680538 0 433.48557836680538 223.18303727525472 0 0 0 0 714.61299574549957 619.83501138436441 0 619.83501138436441 476.33711858132483 0 0 0 0 35.871815719687831 -11.000374452784676 0 -11.000374452784676 -3.914709587711549 0 0 0 0 511.96382943382559 196.90330612916205 0 196.90330612916205 77.087010918387932 0 0 0 0 48.246398138950326 99.231390888247688 0 99.231390888247688 -431.76731347269742 0 0 0 0 661.02514354416053 -707.96749369313079 0 -707.96749369313079 -563.95766648298741 0 0 0 0 12.867489395849287 -3.4466194484538351 0 -3.4466194484538351 1.2472853995441433 0 0 0 0 1344.3348876492764 1196.7034647306264 0 1196.7034647306264 647.88416886539198 0 0 0 0 255.79887533438114 269.0363210481305 0 269.0363210481305 -326.0525707617544 0 0 0 0 1429.5713606738227 -397.88513344970437 0 -397.88513344970437 -715.2142752465279 0 0 0 0 10.931969095610834 11.544326594256288 0 11.544326594256288 11.953443588133833 0 0 0 0 88.44138771768462 162.18630095534672 0 162.18630095534672 -188.59779638733062 0 0 0 0 114.42986559827818 209.65344546938286 0 209.65344546938286 -327.5813680622648 0 0 0 0 -1.372979512923524 -1.9101989446673042 0 -1.9101989446673042 -15.299531660576225 0 0 0 0 -91.315056737239331 279.4855672351141 0 279.4855672351141 -286.52028037875243 0 0 0 0 85.796755795824993 0.49156619337312435 0 0.49156619337312435 -28.805942385217179 0 0 0 0 11.089173628941881 -5.5709776528956585 0 -5.5709776528956585 -28.262454164660269 0 0 0 0 87.222467168091725 -0.40411050429722195 0 -0.40411050429722195 -30.317376283536419 0 0 0 0 105.02671014462817 27.762937517805369 0 27.762937517805369 -10.164524224378283 0 0 0 0 97.294779259442862 13.605739543865685 0 13.605739543865685 -23.616487465826822 0 0 0 0 113.41723726923101 27.313495183395332 0 27.313495183395332 -69.552550269426547 0 0 0 0 164.59415197803912 -51.881114395549616 0 -51.881114395549616 -29.444196691215083 0 0 0 0 146.18203477823658 -8.5537086099492399 0 -8.5537086099492399 -83.847003761892211 0 0 0 0 -680.63565451937961 392.8192902276578 0 392.8192902276578 383.10179699783657 0 0 0 0 -367.42169221386166 -48.403710213407066 0 -48.403710213407066 -80.499824529150828 0 0 0 0 -27.005298990904294 -240.33404421419937 0 -240.33404421419937 -102.78654993287296 0 0 0 0 -0.17459327839197192 -0.7535630174603849 0 -0.7535630174603849 -5.2351837974186175 0 0 0 0 -571.64282094137945 199.10448840031904 0 199.10448840031904 -305.80110340908823 0 0 0 0 -245.70702430332358 -205.07406736903113 0 -205.07406736903113 -895.3119421039064 0 0 0 0 12.307640507145607 179.85856907609059 0 179.85856907609059 -1002.6293554946615 0 0 0 0 -155.21177529219949 320.47326304700437 0 320.47326304700437 -256.17735278426812 0 0 0 0 -193.43516085466689 60.067143654695826 0 60.067143654695826 -435.6776885112431 0 0 0 0 -256.56689588413985 238.99934343383075 0 238.99934343383075 -272.54190015596657 0 0 0 0 64.735736933832555 21.264040542700833 0 21.264040542700833 0.13973220500733241 0 0 0 0 101.61880723147738 -149.41595521491945 0 -149.41595521491945 -696.32680872606034 0 0 0 0 283.77461704656162 -15.021451240831084 0 -15.021451240831084 -3.0108024596659106 0 0 0 0 18.636876067897674 -315.10931648938072 0 -315.10931648938072 -1070.3309322523073 0 0 0 0 16.103511773004108 4.7450537332916536 0 4.7450537332916536 -7.813909612212699 0 0 0 0 16.694759784163821 -2.9909695337219819 0 -2.9909695337219819 -3.1922383567135597 0 0 0 0 -292.54225386681674 -154.64963852797996 0 -154.64963852797996 -80.941137969260808 0 0 0 0 497.31209907203811 -51.733570929794496 0 -51.733570929794496 -1310.8681310537365 0 0 0 0 187.75070217767166 164.2161594627496 0 164.2161594627496 -897.67771653224736 0 0 0 0 283.67039460316789 272.31598838224249 0 272.31598838224249 -775.85114120548769 0 0 0 0 1152.0981101496202 326.7668546031141 0 326.7668546031141 -782.89085362552851 0 0 0 0 534.22693692981693 -473.55484679396818 0 -473.55484679396818 -68.395992254305156 0 0 0 0 -377.06962669593753 178.65002458536395 0 178.65002458536395 -485.32288671306105 0 0 0 0 -289.53737591160598 224.88708042646289 0 224.88708042646289 877.48236517608484 0 0 0 0 1423.2488232718492 846.83236869304847 0 846.83236869304847 143.44410306211512 0 0 0 0 -634.75377252949215 280.58649792071674 0 280.58649792071674 456.1708730090906 0 0 0 0 -20.368853789132118 234.1883601055406 0 234.1883601055406 298.72290442236772 0 0 0 0 306.54658202714381 254.73115728196547 0 254.73115728196547 150.83726563977629 0 0 0 0 -267.96646028264422 164.18507207582616 0 164.18507207582616 285.31581445036943 0 0 0 0 103.3979072768343 140.07848336562188 0 140.07848336562188 130.46781632381362 0 0 0 0 -206.42165350629739 456.64026569568125 0 456.64026569568125 154.7820983773845 0 0 0 0 -238.38822436954251 139.92379721264797 0 139.92379721264797 -259.7712131366734 0 0 0 0 -85.817734146214832 352.07044915776726 0 352.07044915776726 -400.07765297604419 0 0 0 0 212.39709214574555 850.79201886517058 0 850.79201886517058 399.79405854402648 0 0 0 0 227.0986912238285 691.73535605239931 0 691.73535605239931 -1193.8494077083146 0 0 0 0 -64.564469471911252 63.841493001462368 0 63.841493001462368 -665.42333757236565 0 0 0 0 48.285597818001627 12.88310501085838 0 12.88310501085838 0.13156938024469156 0 0 0 0 562.28767368022386 -363.60441830591571 0 -363.60441830591571 253.27899099503702 0 0 0 0 574.21039624101104 -453.28330375011825 0 -453.28330375011825 398.37869633725313 0 0 0 0 186.95534997240611 -121.49109251070968 0 -121.49109251070968 80.646545977533151 0 0 0 0 491.4491851298535 -384.6400296659076 0 -384.6400296659076 262.28472444327781 0 0 0 0 710.51373172620697 18.75562930429362 0 18.75562930429362 157.10506850182628 0 0 0 0 996.4424173742118 -620.86185745158537 0 -620.86185745158537 215.23932108837289 0 0 0 0 1346.7442268558989 -168.38414761560261 0 -168.38414761560261 -134.78958804030424 0 0 0 0 1627.7043679795552 -1315.9485016671256 0 -1315.9485016671256 1020.3430724771533 0 0 0 0 17.956915461132652 5.3264501417713159 0 5.3264501417713159 1.22059675499783 0 0 0 0 2341.3001719802596 87.819523543586456 0 87.819523543586456 -49.964192547181028 0 0 0 0 2075.1871320320133 -9.6421196242990845 0 -9.6421196242990845 -578.27120626880605 0 0 0 0 1426.717872069421 -735.54791869833616 0 -735.54791869833616 147.62477447162473 0 0 0 0 620.35570564597674 125.70937849224083 0 125.70937849224083 993.04500221528269 0 0 0 0 115.3496099969434 1106.0699538929348 0 1106.0699538929348 -657.70797792419671 0 0 0 0 1661.2291084997978 489.99270605115271 0 489.99270605115271 -471.56299974583771 0 0 0 0 583.40687658062598 567.31580243619828 0 567.31580243619828 -312.17628088531387 0 0 0 0 1503.8603948268919 53.841735922688713 0 53.841735922688713 -564.14832520160962 0 0 0 0 1456.4847816575493 5.0592783946929103 0 5.0592783946929103 -118.67501970308422 0 0 0 0 751.26796839646704 210.85911989687179 0 210.85911989687179 50.290398181047294 0 0 0 0 156.5727765509655 437.36608507518599 0 437.36608507518599 -536.49292637123426 0 0 0 0 2043.4815063539118 -425.8864535781197 0 -425.8864535781197 -143.8772542965562 0 0 0 0 2009.9875134188042 -285.84335969271888 0 -285.84335969271888 6.5827737821255141 0 0 0 0 1.3161993193252606 -1.562113324328589 0 -1.562113324328589 1.4063785400498645 0 0 0 0 4.3438528593287629 -148.56754814849072 0 -148.56754814849072 747.14725600698102 0 0 0 0 2378.777814861045 -68.457618755343589 0 -68.457618755343589 -35.377401945334384 0 0 0 0 6.9925342430233535 -4.3005625903360443 0 -4.3005625903360443 0.58226728412261197 0 0 0 0 1885.3410949799982 -630.74846543639126 0 -630.74846543639126 732.81312136893689 0 0 0 0 1999.6414366163517 -73.427367159625064 0 -73.427367159625064 209.89619160257553 0 0 0 0 1170.9388463083942 343.59999923974198 0 343.59999923974198 595.01532264497905 0 0 0 0 1623.0459609183199 -922.6901803166063 0 -922.6901803166063 178.95371917472352 0 0 0 0 986.83376044910256 -1114.4223482820221 0 -1114.4223482820221 343.94636726168977 0 0 0 0 813.76298088159092 -813.063320270958 0 -813.063320270958 373.54132264522366 0 0 0 0 966.92683075951754 -332.15752722420382 0 -332.15752722420382 309.90602931230364 0 0 0 0 618.64190094303285 -615.04097045735693 0 -615.04097045735693 583.95888122925328 0 0 0 0 790.27931783622807 -847.54435198630006 0 -847.54435198630006 441.49496346422529 0 0 0 0 605.09477144708217 -674.42292369168433 0 -674.42292369168433 1087.1921856073634 0 0 0 0 1053.1514033793505 284.17310136815996 0 284.17310136815996 124.26577170645959 0 0 0 0 828.96552455002166 -220.93873429493391 0 -220.93873429493391 226.07365587498163 0 0 0 0 -217.58967874967493 306.27944658304568 0 306.27944658304568 208.46736074938326 0 0 0 0 623.26552193898533 269.42056838559279 0 269.42056838559279 113.27141568136585 0 0 0 0 -25.487726834129717 -195.94145975575179 0 -195.94145975575179 244.64198424145221 0 0 0 0 272.83340421408866 -166.61595309153245 0 -166.61595309153245 438.92698187071971 0 0 0 0 707.31464305379541 -281.80980284474902 0 -281.80980284474902 242.4278029317984 0 0 0 0 484.88379620909291 711.68502013660679 0 711.68502013660679 -381.57375821889582 0 0 0 0 460.31009707477278 804.95638461263729 0 804.95638461263729 -240.54561320251435 0 0 0 0 351.71128877107549 610.50421067929096 0 610.50421067929096 5.9049625604840799 0 0 0 0 389.64621930999056 658.24096804117391 0 658.24096804117391 -101.86417463695602 0 0 0 0 418.09041646011428 310.17241645975275 0 310.17241645975275 193.53109803426736 0 0 0 0 501.31225251358774 442.86341454478543 0 442.86341454478543 210.12384465870872 0 0 0 0 633.67175537031198 599.88823366093743 0 599.88823366093743 -85.510334142954434 0 0 0 0 554.53862868273609 557.74126286161038 0 557.74126286161038 -131.32489050789229 0 0 0 0 399.94732589843989 605.98298131138461 0 605.98298131138461 -64.66928722951593 0 0 0 0 415.59596370644431 598.50748579047763 0 598.50748579047763 -15.463750850111182 0 0 0 0 624.14795430738559 139.81025792620881 0 139.81025792620881 477.14959731843805 0 0 0 0 751.84198693671533 460.80595084619915 0 460.80595084619915 82.335395678301666 0 0 0 0 862.25540659309081 103.13904924442687 0 103.13904924442687 426.38867342475754 0 0 0 0 1156.9181270974384 -4.7991817489225923 0 -4.7991817489225923 34.450156929181503 0 0 0 0 1161.8568777902983 27.480837759449173 0 27.480837759449173 197.99597136295699 0 0 0 0 561.30800436021036 1.971108667498072 0 1.971108667498072 82.426176291829506 0 0 0 0 567.91639094170955 361.49439578907317 0 361.49439578907317 23.365895885438476 0 0 0 0 71.858181810181122 -17.234055634585729 0 -17.234055634585729 -56.846486152202488 0 0 0 0 114.12825800527389 200.6949121536444 0 200.6949121536444 16.039722988594576 0 0 0 0 -47.493309314755606 -22.420302300680135 0 -22.420302300680135 -290.57545020214661 0 0 0 0 264.20438327113516 323.74872812683952 0 323.74872812683952 -403.20943536182148 0 0 0 0 402.47799746400233 327.95064384074021 0 327.95064384074021 -275.05548561901639 0 0 0 0 418.79176689582891 255.81612894329234 0 255.81612894329234 -16.582423110502646 0 0 0 0 280.0949544865407 277.38829059969123 0 277.38829059969123 -271.58335602774491 0 0 0 0 1088.5991844040273 -680.86632356568953 0 -680.86632356568953 -821.4944927138481 0 0 0 0 -470.40612495843925 -149.0286148117431 0 -149.0286148117431 -19.275212527680878 0 0 0 0 -31.241369101868997 -109.59313476373748 0 -109.59313476373748 -591.52993570670606 0 0 0 0 120.63434475331223 96.863657218245692 0 96.863657218245692 -758.66212325498202 0 0 0 0 -595.25388183728319 673.91419188263353 0 673.91419188263353 1516.0313306582757 0 0 0 0 -491.27027522825847 -63.142437195786442 0 -63.142437195786442 2316.1355483179104 0 0 0 0 934.26836791532696 563.63639179381425 0 563.63639179381425 -124.5551042063671 0 0 0 0 1456.8838613329335 -122.56621544482277 0 -122.56621544482277 496.53389848131519 0 0 0 0 276.5598305146832 387.24700563070758 0 387.24700563070758 -700.63988537702335 0 0 0 0 305.21273744593782 632.26829408279946 0 632.26829408279946 -493.35928577818464 0 0 0 0 -196.47922459589745 1042.1506676993272 0 1042.1506676993272 62.319019698839838 0 0 0 0 46.347472578941961 1600.5893217228968 0 1600.5893217228968 1453.086404206435 0 0 0 0 19.643639978230951 23.511534817100124 0 23.511534817100124 24.068550790395442 0 0 0 0 403.90385506195918 699.36691697475385 0 699.36691697475385 -224.86972930683226 0 0 0 0 388.03212052962499 521.30354678366348 0 521.30354678366348 -198.39649436839647 0 0 0 0 371.45040135444469 575.98194123922417 0 575.98194123922417 -351.24596265378898 0 0 0 0 310.43907816950559 672.06002632729906 0 672.06002632729906 -218.15241645717708 0 0 0 0 -57.986721313864628 -1656.8744881037067 0 -1656.8744881037067 -1321.8811117498856 0 0 0 0 334.73546243298915 150.82130858215896 0 150.82130858215896 -868.88369493533173 0 0 0 0 -122.4875418819538 -315.91527817940187 0 -315.91527817940187 -661.91215539606401 0 0 0 0 189.30892997058982 73.439626115844476 0 73.439626115844476 -189.51702363486766 0 0 0 0 -160.05883732142138 -76.937368632203288 0 -76.937368632203288 -86.766123679978591 0 0 0 0 -163.83319797554577 58.860923894239932 0 58.860923894239932 114.69119205233255 0 0 0 0 -615.90638683159318 -3.7371579034214619 0 -3.7371579034214619 198.04615404011565 0 0 0 0 -573.17278512738631 -257.29320191252918 0 -257.29320191252918 -123.370609715108 0 0 0 0 868.89666399189446 168.75119936540432 0 168.75119936540432 -284.60084098424886 0 0 0 0 1092.7614382460397 567.2730806961963 0 567.2730806961963 -28.016915343878281 0 0 0 0 545.01938835469628 279.21790572405189 0 279.21790572405189 -22.3591077145079 0 0 0 0 471.96398008865071 427.58757400929244 0 427.58757400929244 -313.05159495136468 0 0 0 0 513.98476509652937 242.02034150629788 0 242.02034150629788 -119.61016829049913 0 0 0 0 658.1217150193952 126.15567635470779 0 126.15567635470779 -221.08340709578988 0 0 0 0 340.28705247664038 -18.674097298611741 0 -18.674097298611741 -441.53536360163162 0 0 0 0 655.27984624136297 262.62346486245042 0 262.62346486245042 -109.00052514355571 0 0 0 0 607.46119950012871 216.27466035857151 0 216.27466035857151 -41.192312559800371 0 0 0 0 214.88976088379786 132.17174627068925 0 132.17174627068925 -25.298060789567899 0 0 0 0 298.25946746866612 118.98228494165141 0 118.98228494165141 -32.267198905510213 0 0 0 0 589.24108944790169 277.74470180100116 0 277.74470180100116 14.199610798660615 0 0 0 0 310.92965794102929 180.41555286684081 0 180.41555286684081 109.69908197592122 0 0 0 0 406.61743985288194 177.26819056853401 0 177.26819056853401 103.21995977356619 0 0 0 0 269.21412072949624 274.01480967907833 0 274.01480967907833 98.544696043976728 0 0 0 0 -357.63485424298051 310.43018247033433 0 310.43018247033433 229.74629605398331 0 0 0 0 -383.77014737414265 398.82844887036549 0 398.82844887036549 294.11638624599073 0 0 0 0 -585.41940844663077 313.91459328860583 0 313.91459328860583 364.96793664502638 0 0 0 0 -455.58413572755626 205.43751126977588 0 205.43751126977588 426.09440833184635 0 0 0 0 -465.8982626670645 123.49301072488072 0 123.49301072488072 205.67062191792502 0 0 0 0 212.1584768311468 116.4150570455123 0 116.4150570455123 -11.802013088596141 0 0 0 0 -47.457236324342375 120.06930013066994 0 120.06930013066994 27.149969958927613 0 0 0 0 235.16432577484375 260.87645101457929 0 260.87645101457929 58.611409965822531 0 0 0 0 -171.82689046207088 272.45212414713842 0 272.45212414713842 162.0115253949516 0 0 0 0 -213.20353847381193 235.41688280399285 0 235.41688280399285 254.903906434276 0 0 0 0 -175.04511070437275 385.78570886962507 0 385.78570886962507 163.49568438081042 0 0 0 0 35.645597729933797 325.78616152938412 0 325.78616152938412 103.1785407527932 0 0 0 0 -118.00882079059375 272.66688266742131 0 272.66688266742131 160.81180901059543 0 0 0 0 -4.8221077988564502 299.5303019808016 0 299.5303019808016 121.04126810900289 0 0 0 0 193.54247579640651 223.39447511844446 0 223.39447511844446 93.42896923952685 0 0 0 0 38.531872679421213 242.76488874525967 0 242.76488874525967 121.57733850978002 0 0 0 0 215.70050979458028 203.11199956710698 0 203.11199956710698 129.68201792172977 0 0 0 0 59.709639590488223 322.77664987850403 0 322.77664987850403 93.616109269918525 0 0 0 0 107.03908355958265 256.51572940324877 0 256.51572940324877 104.93279257636618 0 0 0 0 -61.929935353227847 392.64092833397171 0 392.64092833397171 72.12176019043909 0 0 0 0 45.88990244103843 352.80955779495162 0 352.80955779495162 43.980731884847046 0 0 0 0 -20.028364882586175 335.95445259957341 0 335.95445259957341 95.883517593018041 0 0 0 0 -89.100456998014124 435.6584962231027 0 435.6584962231027 1.373680221982795 0 0 0 0 -116.22122671616307 467.89775802966869 0 467.89775802966869 -63.145320925681517 0 0 0 0 -166.5010507890147 441.11127530176236 0 441.11127530176236 113.59572354153352 0 0 0 0 -410.23986252965551 451.53084197535827 0 451.53084197535827 255.19854815635881 0 0 0 0 -167.98188636370469 377.19173021693496 0 377.19173021693496 167.75643124131602 0 0 0 0 -239.49313972607342 487.15612412619521 0 487.15612412619521 97.022248601664614 0 0 0 0 -505.27859562869526 574.20355356636537 0 574.20355356636537 185.95680796097804 0 0 0 0 -454.48607226110107 563.53673632638493 0 563.53673632638493 188.19610765001744 0 0 0 0 -314.53715210693372 595.67621941540256 0 595.67621941540256 -18.019366026732314 0 0 0 0 -1480.5467531395416 336.32892163356246 0 336.32892163356246 1165.2513623427794 0 0 0 0 -922.60044431326605 1094.8305987327558 0 1094.8305987327558 -111.65927701999135 0 0 0 0 -555.46770719366441 691.93923943631444 0 691.93923943631444 155.82738003025042 0 0 0 0 10.767311402640534 11.135137919235648 0 11.135137919235648 12.150350200812566 0 0 0 0 -675.78437751632907 -19.504322967141206 0 -19.504322967141206 602.62315276283425 0 0 0 0 -664.86823263651422 533.21800217708824 0 533.21800217708824 510.32272547471803 0 0 0 0 -1019.4276795670194 820.63497415520396 0 820.63497415520396 289.48536987689931 0 0 0 0 -1046.4440941451378 115.62921471367622 0 115.62921471367622 972.84798843386216 0 0 0 0 -649.01131495651043 386.81146982005839 0 386.81146982005839 483.93270421692796 0 0 0 0 1671.2441837545464 -125.95282858028617 0 -125.95282858028617 -566.5837001495056 0 0 0 0 -2213.6669946710144 845.83979884881046 0 845.83979884881046 1064.8524056876436 0 0 0 0 87.889042157702534 227.8987551156174 0 227.8987551156174 169.01038918738959 0 0 0 0 2003.4754646313531 -1089.7244753693922 0 -1089.7244753693922 1020.9967652887071 0 0 0 0 -0.84789580284445965 -0.59505074796962543 0 -0.59505074796962543 0.90187478960443013 0 0 0 0 256.44301896909474 160.26041089562682 0 160.26041089562682 -120.26139977344701 0 0 0 0 752.52354692741756 791.85039807997737 0 791.85039807997737 121.49020427678101 0 0 0 0 -542.19762633127539 597.40637880882423 0 597.40637880882423 172.55224428240399 0 0 0 0 7.4547669913663412 -567.26587114573465 0 -567.26587114573465 -302.61249054492657 0 0 0 0 -814.87126465849178 22.201050085344548 0 22.201050085344548 133.48998074824158 0 0 0 0 -453.34905796054954 754.60517613296258 0 754.60517613296258 -14.615127485966241 0 0 0 0 326.73822406644103 80.272922453560398 0 80.272922453560398 110.05905648384851 0 0 0 0 14.215379426555558 4.7657279373049199 0 4.7657279373049199 0.32132933072413705 0 0 0 0 1394.6790720824135 -518.42554144337032 0 -518.42554144337032 -487.11506213058601 0 0 0 0 954.68020807685161 -681.29877628193435 0 -681.29877628193435 -403.15929779874273 0 0 0 0 198.40110762526638 927.42619984776275 0 927.42619984776275 -322.0992659477962 0 0 0 0 929.16466087185574 -283.572765099158 0 -283.572765099158 -403.24453390467693 0 0 0 0 57.808991094225348 58.342018322419108 0 58.342018322419108 -313.82332943741403 0 0 0 0 74.281768321001437 43.245190668749046 0 43.245190668749046 -328.21902136615154 0 0 0 0 17.533807120987149 110.31984680377627 0 110.31984680377627 -369.54891931916836 0 0 0 0 87.271319214181858 34.445263353287828 0 34.445263353287828 -391.71043665763375 0 0 0 0 26.330241348715536 2.9346735577585861 0 2.9346735577585861 -0.55606407093504995 0 0 0 0 -262.23268853378613 148.05759555448958 0 148.05759555448958 -369.56746817778912 0 0 0 0 60.505646423911458 -5.4795264912090715 0 -5.4795264912090715 -105.01096909986995 0 0 0 0 -8.4116170266606787 86.134287614051345 0 86.134287614051345 -354.61126624199642 0 0 0 0 124.01140274734826 -12.832924196677141 0 -12.832924196677141 -111.85373127323692 0 0 0 0 53.686554821027357 -27.255054180381649 0 -27.255054180381649 -78.721160652773506 0 0 0 0 -5.4222972223001307 15.127728003204766 0 15.127728003204766 106.21674730755603 0 0 0 0 57.263121849832999 82.226233898066255 0 82.226233898066255 -38.452252345201487 0 0 0 0 -4.8125577039337113 8.2328886600278555 0 8.2328886600278555 -2.4500387181981873 0 0 0 0 36.670487305623716 5.3288546401028665 0 5.3288546401028665 -1.1580323092157583 0 0 0 0 -335.91411479741146 666.27221177966476 0 666.27221177966476 -264.91051983480202 0 0 0 0 -39.836048155379103 381.83308384981001 0 381.83308384981001 -159.00893830152063 0 0 0 0 -42.389826137655064 368.28166286646251 0 368.28166286646251 11.422646393559262 0 0 0 0 -39.749140209583857 394.43320118233714 0 394.43320118233714 -15.791571383582777 0 0 0 0 -44.794315531544271 353.89561968883208 0 353.89561968883208 56.316772236170436 0 0 0 0 27.84237742640471 354.71010332684818 0 354.71010332684818 7.2911360286434501 0 0 0 0 71.948034120709053 275.02117545404508 0 275.02117545404508 88.70771409138797 0 0 0 0 185.51670771147474 193.9133864968353 0 193.9133864968353 75.420284602761967 0 0 0 0 140.04815897668959 283.2610919467952 0 283.2610919467952 31.159107163033696 0 0 0 0 117.04448409337328 265.07482662332632 0 265.07482662332632 3.5679209389199968 0 0 0 0 122.7206514635036 306.84420472583952 0 306.84420472583952 -58.707225850394025 0 0 0 0 189.49926782695547 194.31114243625052 0 194.31114243625052 123.77027127056135 0 0 0 0 189.03103801811085 293.26541095903849 0 293.26541095903849 89.799307132281683 0 0 0 0 217.01188179252858 197.39165943135686 0 197.39165943135686 97.829612350244133 0 0 0 0 331.84708553687597 25.294160326621295 0 25.294160326621295 117.53757743679034 0 0 0 0 317.56452250669827 62.903121475428634 0 62.903121475428634 109.29603796013566 0 0 0 0 222.42481809565015 174.02858681258385 0 174.02858681258385 40.682408599204791 0 0 0 0 239.17578224567114 93.728128438662679 0 93.728128438662679 217.30770502575797 0 0 0 0 152.96676119042968 250.72681195816403 0 250.72681195816403 -44.427814073470472 0 0 0 0 241.45463272147026 144.02617672672841 0 144.02617672672841 40.245959957059313 0 0 0 0 220.64226701601729 156.53159932270864 0 156.53159932270864 77.90976195928306 0 0 0 0 226.09786278511456 177.16991525776757 0 177.16991525776757 22.515275312786343 0 0 0 0 21.09540832602563 3.3857410965254582 0 3.3857410965254582 -4.5603915398221009 0 0 0 0 463.3863871953763 490.86547355280743 0 490.86547355280743 702.12417489291397 0 0 0 0 545.77653110750271 352.83392950059215 0 352.83392950059215 319.81084460992497 0 0 0 0 626.01572094147195 218.24698821128186 0 218.24698821128186 79.790251108944176 0 0 0 0 249.68368686193571 97.633238787632763 0 97.633238787632763 524.0146947084595 0 0 0 0 318.19179810613423 281.17064677632698 0 281.17064677632698 187.56126685438812 0 0 0 0 228.79025796084215 133.74085696576776 0 133.74085696576776 337.44353682551446 0 0 0 0 299.25064936945637 -13.430132362117547 0 -13.430132362117547 251.71889807073421 0 0 0 0 70.060397926125006 -31.064782777486244 0 -31.064782777486244 -432.21411696565247 0 0 0 0 27.55758554573913 81.686254501606072 0 81.686254501606072 -320.41628203905839 0 0 0 0 56.902732158614526 44.536207660587934 0 44.536207660587934 -301.83858045318175 0 0 0 0 19.121160684939241 16.919544347834972 0 16.919544347834972 -311.49614724914136 0 0 0 0 77.361804217653116 36.624471352259434 0 36.624471352259434 -317.1466019754219 0 0 0 0 66.292705706215202 24.195386939426271 0 24.195386939426271 -271.92628738558869 0 0 0 0 59.773246906974236 26.213901760649946 0 26.213901760649946 -271.72134178665419 0 0 0 0 44.693527507163708 10.606380663123048 0 10.606380663123048 -193.73122091531013 0 0 0 0 47.721135571697232 26.23399154049109 0 26.23399154049109 -186.35826198053081 0 0 0 0 51.799020623720935 2.1678976387110538 0 2.1678976387110538 -190.98625462497796 0 0 0 0 45.818035833804061 -2.7844615116160369 0 -2.7844615116160369 -235.23739699757766 0 0 0 0 33.596219975286658 62.138248530098394 0 62.138248530098394 -251.78458635987931 0 0 0 0 97.235491048664699 50.619864710225215 0 50.619864710225215 -210.487949705613 0 0 0 0 37.400980981056819 2.1411600582604766 0 2.1411600582604766 -99.96983773101212 0 0 0 0 47.782284389140841 -18.607545143004927 0 -18.607545143004927 -87.255043231046557 0 0 0 0 71.133393827716645 -10.492988881579464 0 -10.492988881579464 -109.67318721042845 0 0 0 0 63.061051191756633 6.3358502362937088 0 6.3358502362937088 -112.04462761806283 0 0 0 0 51.61706277255962 10.898969711024392 0 10.898969711024392 -186.68615980368554 0 0 0 0 33.768969842152728 0.46323962119660678 0 0.46323962119660678 -113.15104683948715 0 0 0 0 59.298893268132815 -10.919717086817968 0 -10.919717086817968 -107.14404134112044 0 0 0 0 65.795151455204177 23.546652681409114 0 23.546652681409114 -101.9145587276106 0 0 0 0 46.76012077240739 -9.3073479839769249 0 -9.3073479839769249 -110.51594407940206 0 0 0 0 61.934955690654533 -1.0418122736759301 0 -1.0418122736759301 -179.56236855041402 0 0 0 0 35.751168140730442 5.2575120529536434 0 5.2575120529536434 -112.62861572096944 0 0 0 0 46.819460086651816 -6.7438242201426419 0 -6.7438242201426419 -178.92954788417632 0 0 0 0 86.52378133809907 -37.310891991455492 0 -37.310891991455492 -310.76345717713411 0 0 0 0 78.212690110518452 1.5537624033804605 0 1.5537624033804605 -276.62225232986475 0 0 0 0 64.376288796314839 0.40023365102047137 0 0.40023365102047137 -276.35452710408708 0 0 0 0 147.99716142937359 -90.667201159498063 0 -90.667201159498063 -557.12432393833137 0 0 0 0 83.529675577234229 -47.279076285185567 0 -47.279076285185567 -182.49023461373895 0 0 0 0 50.481735009532713 -32.167378654784407 0 -32.167378654784407 -63.661439155202629 0 0 0 0 41.206067639775938 20.611644331534421 0 20.611644331534421 -60.621106545583643 0 0 0 0 66.228326586617186 -11.014148485191711 0 -11.014148485191711 -177.99956263476128 0 0 0 0 80.600836601250194 41.181582100344258 0 41.181582100344258 -52.873674159774836 0 0 0 0 60.63659320971783 13.146826428099757 0 13.146826428099757 -58.12722342748043 0 0 0 0 89.543734785213019 87.259859133888767 0 87.259859133888767 -199.85802150865129 0 0 0 0 54.275243661736518 21.348997861984234 0 21.348997861984234 -4.0288805186201451 0 0 0 0 143.103505021194 175.87114527346512 0 175.87114527346512 -143.08621036805653 0 0 0 0 24.229060026947991 178.86270162228402 0 178.86270162228402 -25.31143967979915 0 0 0 0 -7.7914328032602498 25.914080567173642 0 25.914080567173642 -85.496606256961968 0 0 0 0 516.41624807670451 27.63856213919189 0 27.63856213919189 -86.904977006044362 0 0 0 0 162.55723473332 298.35155979046294 0 298.35155979046294 143.03047198406875 0 0 0 0 24.96416210935422 132.27748766442073 0 132.27748766442073 -11.980649505176984 0 0 0 0 -34.669750095050404 115.98349864208899 0 115.98349864208899 59.124927614531089 0 0 0 0 -28.720266749882285 80.563172544840427 0 80.563172544840427 235.37358301372166 0 0 0 0 18.273950563387189 90.39280881245088 0 90.39280881245088 182.92787642317012 0 0 0 0 9.3616534203194419 16.091531414501755 0 16.091531414501755 18.966430909479055 0 0 0 0 9.3524875271723431 -25.841282015271872 0 -25.841282015271872 211.64333118309909 0 0 0 0 -8.5427232618167181 26.643533040923074 0 26.643533040923074 65.673520427284984 0 0 0 0 -83.154716634373472 -14.396838933969093 0 -14.396838933969093 88.861734087379403 0 0 0 0 1839.9040360994077 364.67246475312322 0 364.67246475312322 -26.664671405894296 0 0 0 0 789.66728671820601 -645.51777572989022 0 -645.51777572989022 -171.49689620576169 0 0 0 0 185.35530584548906 107.41878285184566 0 107.41878285184566 -158.92646960200909 0 0 0 0 4.3900854059438075 6.0523489257182632 0 6.0523489257182632 7.5522720773941083 0 0 0 0 -215.41741987892783 -551.04637450265011 0 -551.04637450265011 1463.6975054823261 0 0 0 0 -189.97271326371265 1369.8650917955251 0 1369.8650917955251 -479.28827733574417 0 0 0 0 -1109.8789437669111 1005.7629102339683 0 1005.7629102339683 1428.196902109866 0 0 0 0 909.4935848801324 1630.6560402477535 0 1630.6560402477535 913.48825476002457 0 0 0 0 1542.3565945498622 -244.56775705696612 0 -244.56775705696612 -32.776065745692904 0 0 0 0 156.67382204630849 -487.91380068693525 0 -487.91380068693525 162.68899717729437 0 0 0 0 1761.5633295737462 -709.26690971851167 0 -709.26690971851167 -929.09336869475374 0 0 0 0 0.64597793080393728 -11.941896746736639 0 -11.941896746736639 -12.171257516213844 0 0 0 0 383.63714250253543 403.49065989012115 0 403.49065989012115 -1412.4927950797769 0 0 0 0 -0.15415982751146373 1.8037553112614475 0 1.8037553112614475 0.52209368453164196 0 0 0 0 13.151840698672459 82.407407820142907 0 82.407407820142907 -2.4530406446342568 0 0 0 0 211.56447716371258 -250.15055492877195 0 -250.15055492877195 203.46983469439874 0 0 0 0 59.695762598215389 16.62675148818591 0 16.62675148818591 -7.761265696282158 0 0 0 0 31.545510060557717 8.6916980353234976 0 8.6916980353234976 -54.812945340826218 0 0 0 0 272.36622145545334 -94.879599353300364 0 -94.879599353300364 -347.02307273061979 0 0 0 0 39.125419276734874 -143.5596000670152 0 -143.5596000670152 -87.858061865809759 0 0 0 0 61.51263328389723 -12.787540750320659 0 -12.787540750320659 -85.303976203708999 0 0 0 0 63.718354339185694 16.886734046077688 0 16.886734046077688 -7.6788529567977868 0 0 0 0 115.91189107467289 64.50383949924958 0 64.50383949924958 -184.91546682139767 0 0 0 0 31.871111229749239 6.6982097890737222 0 6.6982097890737222 -2.5802994237512178 0 0 0 0 68.137670160724156 -17.811113390695255 0 -17.811113390695255 -86.905119762764343 0 0 0 0 9.7195989878000688 4.7254496834030064 0 4.7254496834030064 2.8261627308407782 0 0 0 0 232.10087900614235 177.45409809551279 0 177.45409809551279 115.36779354911937 0 0 0 0 1296.5349933502002 -485.9582865983943 0 -485.9582865983943 -55.550831640429465 0 0 0 0 6.8221935956336637 -2.2420112687641742 0 -2.2420112687641742 -1.8118180458977911 0 0 0 0 226.92859060984483 -635.58419975921561 0 -635.58419975921561 -24.124805357264222 0 0 0 0 900.42224346338844 -495.23556640050947 0 -495.23556640050947 -201.38782673073183 0 0 0 0 -8.7049787717405707 -494.72900434678604 0 -494.72900434678604 -33.641185035266062 0 0 0 0 171.44083417562797 -673.26765026440171 0 -673.26765026440171 -108.15014044585473 0 0 0 0 178.51556666201577 -761.27813767945645 0 -761.27813767945645 11.253990900348981 0 0 0 0 -158.52869036053016 -560.3869683287212 0 -560.3869683287212 58.439857327820278 0 0 0 0 205.61708278329547 -386.98635018878849 0 -386.98635018878849 -121.24761405356548 0 0 0 0 331.17233730701992 -408.64711311099518 0 -408.64711311099518 -147.71762648726326 0 0 0 0 167.94301866936439 -399.0185599676106 0 -399.0185599676106 -719.15268062279802 0 0 0 0 -119.52605593202065 -78.52726776989752 0 -78.52726776989752 -389.49672504638511 0 0 0 0 217.40510758315577 -767.05012691516504 0 -767.05012691516504 -170.48904978521477 0 0 0 0 1277.7346483909205 1284.1965407641574 0 1284.1965407641574 1133.6050898317653 0 0 0 0 19.242606790923446 -6.4416182473381411 0 -6.4416182473381411 2.762288822651815 0 0 0 0 340.47963873553635 3.1881788179589421 0 3.1881788179589421 -365.1319944956449 0 0 0 0 -47.261433761959324 -29.64685178556681 0 -29.64685178556681 -269.36640560772867 0 0 0 0 199.49668296651407 115.36609427023336 0 115.36609427023336 -154.57392862360575 0 0 0 0 699.35718113936309 44.755918092499542 0 44.755918092499542 -157.36925973283496 0 0 0 0 310.41145320426585 284.33239161806409 0 284.33239161806409 10.716822066558052 0 0 0 0 318.06046752646398 319.86152568987904 0 319.86152568987904 157.34120042931863 0 0 0 0 430.82604950787936 249.03138549267783 0 249.03138549267783 159.60483158213387 0 0 0 0 745.4204621942722 166.21384416770837 0 166.21384416770837 39.653780087186533 0 0 0 0 2157.3725065025792 -664.40104487346218 0 -664.40104487346218 -19.141010239446558 0 0 0 0 1321.7170776513303 -253.23474581621417 0 -253.23474581621417 315.7475483180923 0 0 0 0 992.16279114724693 587.66299264700933 0 587.66299264700933 145.77150938641989 0 0 0 0 -134.56071495068136 69.776862370132619 0 69.776862370132619 250.34815256196953 0 0 0 0 110.30889219620258 469.53801346516036 0 469.53801346516036 426.26607701131809 0 0 0 0 172.26678675940275 385.78362345518804 0 385.78362345518804 384.88378631652586 0 0 0 0 31.561964461972821 72.897510629215333 0 72.897510629215333 -72.938303730232008 0 0 0 0 28.822075013718859 91.645460906144066 0 91.645460906144066 88.883051521336199 0 0 0 0 17.427533400252287 -69.612612620401592 0 -69.612612620401592 189.88423982631303 0 0 0 0 373.96711688485811 -131.83193185803077 0 -131.83193185803077 -33.624979920730368 0 0 0 0 1426.8960782577342 312.1340443535284 0 312.1340443535284 -60.322115451534842 0 0 0 0 1379.1571073718078 907.06666436431851 0 907.06666436431851 321.45024507732927 0 0 0 0 1850.0123826245763 -469.00468293994038 0 -469.00468293994038 -38.181235828798037 0 0 0 0 1379.6898098820739 689.85147380165517 0 689.85147380165517 -187.91908299876201 0 0 0 0 265.56781605071706 -20.995210359252368 0 -20.995210359252368 -136.07623601800765 0 0 0 0 202.69088164940877 590.58149219859831 0 590.58149219859831 473.05281537018493 0 0 0 0 116.63250288336531 -48.27661132439421 0 -48.27661132439421 -23.883798095471903 0 0 0 0 76.255805251395941 1.3636511091214345 0 1.3636511091214345 -83.467005876833142 0 0 0 0 99.128024482626643 72.692873428125722 0 72.692873428125722 -9.820493089203552 0 0 0 0 1012.5500748384093 672.90665841778707 0 672.90665841778707 -186.63690127562313 0 0 0 0 862.59388649571883 65.199554200740636 0 65.199554200740636 -467.16205045405661 0 0 0 0 1407.6778747181215 1002.6943915264123 0 1002.6943915264123 621.21110612976349 0 0 0 0 7.377449195117741 0.96310423549203605 0 0.96310423549203605 -1.6815763623191848 0 0 0 0 115.07194053265266 -323.83339067920008 0 -323.83339067920008 -648.08303279805682 0 0 0 0 664.80516551901383 361.28768251121937 0 361.28768251121937 280.88575960376568 0 0 0 0 656.11082330114914 322.07087193944358 0 322.07087193944358 122.37940857898293 0 0 0 0 525.95924757420107 385.85362943996961 0 385.85362943996961 402.70481352755655 0 0 0 0 797.85437605522384 312.74149881277435 0 312.74149881277435 -45.954847835087477 0 0 0 0 260.88547593167641 -60.278429545190875 0 -60.278429545190875 162.40749852252156 0 0 0 0 273.62890234547376 -22.374390081165075 0 -22.374390081165075 -44.708284800017736 0 0 0 0 28.716085298112375 -3.2794353377773291 0 -3.2794353377773291 160.61398236686102 0 0 0 0 391.89359958974546 -118.13520373620099 0 -118.13520373620099 6.0349416018289048 0 0 0 0 518.35285865716833 129.82257903402979 0 129.82257903402979 262.82931779752914 0 0 0 0 505.05144555600236 183.65212819294788 0 183.65212819294788 107.39307721964997 0 0 0 0 29.713805282781323 -6.4734218229151566 0 -6.4734218229151566 1.2033775157415221 0 0 0 0 25.025618903293775 -77.89152015639506 0 -77.89152015639506 -35.116318393466372 0 0 0 0 -2.6705969860682002 -11.761673447787015 0 -11.761673447787015 0.18336987721659259 0 0 0 0 -202.91331984011777 17.363923303825118 0 17.363923303825118 125.55952486954826 0 0 0 0 -101.29003795826429 -35.286228872261631 0 -35.286228872261631 -3.8463425052460707 0 0 0 0 8.9822068255715415 -10.759095376711592 0 -10.759095376711592 -6.0608377755522245 0 0 0 0 61.533724008739227 -1.9489150588860866 0 -1.9489150588860866 -3.6474224026624142 0 0 0 0 37.464938488988992 13.407073058823244 0 13.407073058823244 4.5583938269433872 0 0 0 0 30.17118308738327 -4.3851152110678981 0 -4.3851152110678981 2.2624859350062252 0 0 0 0 15.540416249896342 -3.3423853385853697 0 -3.3423853385853697 -0.76664163336553504 0 0 0 0 12.954394643226632 14.33133522937208 0 14.33133522937208 7.883191741906713 0 0 0 0 19.214620879092763 24.233361342110584 0 24.233361342110584 12.16637325451893 0 0 0 0 10.857865130328719 11.970261555370143 0 11.970261555370143 7.5302540908414812 0 0 0 0 4.7747562577800124 2.900471762559981 0 2.900471762559981 -1.168414798271721 0 0 0 0 5.7358685806829754 4.7853740518443075 0 4.7853740518443075 2.4067930860601976 0 0 0 0 16.70409054954871 8.8853629307417066 0 8.8853629307417066 6.0400283246034405 0 0 0 0 28.180916251991221 2.7900409492243625 0 2.7900409492243625 3.16206340888791 0 0 0 0 4.6384875193707558 0.27732682340879933 0 0.27732682340879933 1.9944035477758462 0 0 0 0 2.8095923671316996 11.749950197765259 0 11.749950197765259 -6.8441612275305488 0 0 0 0 19.050697197490081 3.9443036415046038 0 3.9443036415046038 -18.545421663411673 0 0 0 0 -0.070125579251907766 24.964217702549888 0 24.964217702549888 -19.541597856113412 0 0 0 0 -0.02283052299026167 22.801432747830461 0 22.801432747830461 -23.679114944204528 0 0 0 0 -0.87067730276976363 22.419476315914608 0 22.419476315914608 -19.334042158608327 0 0 0 0 -2.2129779252827575 25.915067786437248 0 25.915067786437248 -19.958948092981814 0 0 0 0 2.5029348364041653 5.491967024279262 0 5.491967024279262 -7.0122653142663012 0 0 0 0 5.1036771840899746 10.135849679516834 0 10.135849679516834 -9.4534334225320151 0 0 0 0 -12.384452585210965 19.762708901860037 0 19.762708901860037 -13.267955834602333 0 0 0 0 9.1553998481176677 5.0874569555000164 0 5.0874569555000164 -10.155485911476944 0 0 0 0 3.4525463401411578 1.8747178972152057 0 1.8747178972152057 -3.0671281896476419 0 0 0 0 35.067324821284274 -10.225574615991377 0 -10.225574615991377 1.6203441358802593 0 0 0 0 25.298225785682007 -9.8662023268496455 0 -9.8662023268496455 2.1604793426205617 0 0 0 0 17.673312627365171 2.3653994298397869 0 2.3653994298397869 -11.37858173838589 0 0 0 0 -59.562601295845525 104.61831079340183 0 104.61831079340183 17.646411820278253 0 0 0 0 -6.7702667263644969 0.027043763862470982 0 0.027043763862470982 1.2422870868401552 0 0 0 0 25.219926941257654 -9.5660560430361841 0 -9.5660560430361841 3.6108350931267523 0 0 0 0 -1.7190923601898334 -9.9753553431040345 0 -9.9753553431040345 4.4499636667371201 0 0 0 0 -30.636576182474528 33.328803028840412 0 33.328803028840412 -98.087751673518085 0 0 0 0 -107.13193233950369 63.412268306303815 0 63.412268306303815 -15.854715925597816 0 0 0 0 3.4707125440052735 -7.4137830292769475 0 -7.4137830292769475 -1.8632414677310272 0 0 0 0 2.2987439464985826 2.0149426423909311 0 2.0149426423909311 -1.5386329860234245 0 0 0 0 -3.4086713319338742 -47.229535364602839 0 -47.229535364602839 -41.363540052831013 0 0 0 0 -14.019162152821082 6.7074072679965866 0 6.7074072679965866 -0.77296024552470044 0 0 0 0 -59.156318989544161 -41.527886279456254 0 -41.527886279456254 13.72200484555924 0 0 0 0 -10.564476996782105 5.2998520589696128 0 5.2998520589696128 -8.7717733200752264 0 0 0 0 -0.77579015179352062 0.73841041637685834 0 0.73841041637685834 -0.32674326294545963 0 0 0 0 89.470614252433734 175.54441302111354 0 175.54441302111354 144.10127816447903 0 0 0 0 24.078432285534291 -6.874432974011313 0 -6.874432974011313 -26.308065516577017 0 0 0 0 -26.369626966006763 17.384609840734129 0 17.384609840734129 118.3360144586818 0 0 0 0 -7.9471024981628844 6.2183872727690703 0 6.2183872727690703 -0.9406067075469875 0 0 0 0 85.833941467293698 148.61593465657643 0 148.61593465657643 141.49352402534805 0 0 0 0 10.247070131058535 47.308521644552684 0 47.308521644552684 49.844754948620903 0 0 0 0 30.065116069426949 192.67453121321296 0 192.67453121321296 241.69379210040097 0 0 0 0 137.29038045915149 167.08505580890824 0 167.08505580890824 46.564007896522526 0 0 0 0 152.65031499847828 229.17675082514916 0 229.17675082514916 252.54561769920383 0 0 0 0 251.79996248905081 184.39662001728311 0 184.39662001728311 -76.170514710611315 0 0 0 0 197.89284168315407 195.1960419511239 0 195.1960419511239 50.625334603179908 0 0 0 0 152.92035049424612 110.64015488599875 0 110.64015488599875 -2.2137573338513903 0 0 0 0 253.76435783099475 126.70503890352308 0 126.70503890352308 -15.336540212521868 0 0 0 0 303.19479135429538 110.85281278510956 0 110.85281278510956 -35.716925870340674 0 0 0 0 250.38619185227003 161.72366814341501 0 161.72366814341501 -173.45697903894325 0 0 0 0 162.89485158971002 165.09304120781235 0 165.09304120781235 -56.672642329932842 0 0 0 0 -6.8726639994501966 42.203175561613534 0 42.203175561613534 -35.127971565127154 0 0 0 0 -26.467542175774724 63.625829409897051 0 63.625829409897051 -51.885833273550361 0 0 0 0 12.394732982224454 -4.9433185356781664 0 -4.9433185356781664 1.9403418561146453 0 0 0 0 2.5732653682409374 5.5880421888600615 0 5.5880421888600615 3.5536421889589072 0 0 0 0 -84.767312953633336 61.405348085768765 0 61.405348085768765 -31.280162889337589 0 0 0 0 -74.274564016908698 44.822005287862339 0 44.822005287862339 -10.037697825850046 0 0 0 0 -26.391205626438932 48.185698666223743 0 48.185698666223743 -29.967653484722177 0 0 0 0 -38.644581295548051 28.798626726365001 0 28.798626726365001 -2.8718602879553146 0 0 0 0 -25.114206380318137 21.053966914542798 0 21.053966914542798 12.820189265782574 0 0 0 0 -23.914697421909295 26.980497069095918 0 26.980497069095918 -5.1132650697719555 0 0 0 0 -2.2794317763809886 55.684093777545684 0 55.684093777545684 55.64267943118648 0 0 0 0 -0.2902589685967758 9.0732322149550697 0 9.0732322149550697 8.0710009829619551 0 0 0 0 -9.885191612476774 14.654547349632594 0 14.654547349632594 -6.4916221280261084 0 0 0 0 -3.9195000941281251 14.643493573978589 0 14.643493573978589 -12.319203056169044 0 0 0 0 -2.4186383995314387 5.2059493850204213 0 5.2059493850204213 -1.8948110638675644 0 0 0 0 -10.564528306539614 28.004191761710842 0 28.004191761710842 -12.042904700737381 0 0 0 0 -12.414236026288677 14.277878999274323 0 14.277878999274323 -6.8401074914234101 0 0 0 0 -9.5934558975495747 24.570249101693207 0 24.570249101693207 -4.3394404068407084 0 0 0 0 -26.363127868851734 27.383477396072976 0 27.383477396072976 9.2295045505043163 0 0 0 0 -11.660194454860175 24.258015871116356 0 24.258015871116356 -5.3746838277959341 0 0 0 0 -24.061089402344805 25.895928564451708 0 25.895928564451708 -4.1148357028172313 0 0 0 0 -3.4916891309185303 -12.60230180560589 0 -12.60230180560589 -35.053512290875233 0 0 0 0 -1.8152440825865099 3.5265936467630539 0 3.5265936467630539 0.20631332476776798 0 0 0 0 14.924870673415199 12.410544391500357 0 12.410544391500357 -7.7337921635640985 0 0 0 0 18.510665062225144 23.668373407518359 0 23.668373407518359 -16.60678949136036 0 0 0 0 28.699359394537169 10.667111822184665 0 10.667111822184665 -18.909162467568763 0 0 0 0 14.658454794226852 21.43650170883544 0 21.43650170883544 -17.601703106608824 0 0 0 0 -19.296475078929916 40.97301456106976 0 40.97301456106976 -16.794323311502922 0 0 0 0 -26.431493416848753 39.4079787317105 0 39.4079787317105 -16.580914723349451 0 0 0 0 -20.643879561394485 20.438001906645962 0 20.438001906645962 -9.0762781340959702 0 0 0 0 21.194544389152725 4.6675957193292561 0 4.6675957193292561 -12.644212277615225 0 0 0 0 26.498582811173613 7.5023945018801825 0 7.5023945018801825 -9.5516895384468192 0 0 0 0 137.21393189939772 233.47862661337004 0 233.47862661337004 -10.71867096967776 0 0 0 0 104.00083913288836 -124.91332491222832 0 -124.91332491222832 282.48481014761262 0 0 0 0 -146.52203104276123 114.01502395452083 0 114.01502395452083 135.94557341170218 0 0 0 0 27.236721240649786 18.434350981396165 0 18.434350981396165 -21.810214580794309 0 0 0 0 -177.11936812584463 2.1690055509941999 0 2.1690055509941999 -1.5922493076123487 0 0 0 0 19.756624333852002 11.265595641083372 0 11.265595641083372 -9.6938265876634997 0 0 0 0 27.972992151903298 12.509239137606301 0 12.509239137606301 -17.435037518260039 0 0 0 0 2493.8820244215603 -334.74952619765725 0 -334.74952619765725 -408.56857697114839 0 0 0 0 1310.0757694866697 -55.47772771549279 0 -55.47772771549279 -355.66275791303212 0 0 0 0 670.08854027770576 -277.91666165792685 0 -277.91666165792685 -51.546063459003534 0 0 0 0 649.27295315224183 -696.08229479536521 0 -696.08229479536521 440.3869523712018 0 0 0 0 895.16878360445844 553.56420060204925 0 553.56420060204925 340.14894612984256 0 0 0 0 11.671243828289846 -0.86349268733995288 0 -0.86349268733995288 0.73630323702517064 0 0 0 0 2492.8776109348314 -538.06601722804328 0 -538.06601722804328 -332.86818086287451 0 0 0 0 15.636532018827808 7.4121923204930589 0 7.4121923204930589 4.1647761146283049 0 0 0 0 85.51042596672778 -28.839251726355144 0 -28.839251726355144 -81.368431176931679 0 0 0 0 25.854284382187416 28.784547985083506 0 28.784547985083506 -91.808620776891985 0 0 0 0 230.70026833664087 540.40755764770279 0 540.40755764770279 493.40449484202827 0 0 0 0 2499.397046235521 -537.06011475903404 0 -537.06011475903404 -334.12804117141923 0 0 0 0 5.9758895222217703 3.5050591663949184 0 3.5050591663949184 3.3162989252396891 0 0 0 0 599.48289827354529 -179.89391875416658 0 -179.89391875416658 -514.85003860102415 0 0 0 0 -2.4277013871287636 8.6916374273688852 0 8.6916374273688852 211.52157430065691 0 0 0 0 362.70127262832648 362.37636439564437 0 362.37636439564437 223.60760404186311 0 0 0 0 2480.5207048977027 751.52320079278229 0 751.52320079278229 -106.98747001003481 0 0 0 0 5.1029498592978442 -3.2452354976312989 0 -3.2452354976312989 -3.6253126527476307 0 0 0 0 -51.671322171121574 -211.11115822502347 0 -211.11115822502347 -95.985203824502378 0 0 0 0 207.54308661721734 141.89305310512395 0 141.89305310512395 -64.203264686792693 0 0 0 0 97.086830864198419 40.575614268331719 0 40.575614268331719 -11.732385215111378 0 0 0 0 35.569275509371437 -60.263193502101274 0 -60.263193502101274 14.926887487250156 0 0 0 0 206.95732125366612 118.47512719599467 0 118.47512719599467 80.035291455724234 0 0 0 0 -34.86204795150843 36.844449966596756 0 36.844449966596756 -12.188656846312597 0 0 0 0 -36.574376634565851 17.676863114619948 0 17.676863114619948 -9.1974970602609005 0 0 0 0 -5.5063947402586564 42.350691977922608 0 42.350691977922608 -36.176726988754098 0 0 0 0 0.39914608881921509 -0.082007302689547146 0 -0.082007302689547146 -1.3882007272476793 0 0 0 0 16.621836292969419 21.748377536246455 0 21.748377536246455 -35.623151833414227 0 0 0 0 -32.381541841554281 10.963026069959596 0 10.963026069959596 12.85296070531308 0 0 0 0 -0.50327128023637613 -0.99250013469448106 0 -0.99250013469448106 2.0067650212505508 0 0 0 0 -54.557835654244627 33.767815390359388 0 33.767815390359388 -23.586857427685686 0 0 0 0 5.3640747476929391 94.504335627488331 0 94.504335627488331 22.091391550198296 0 0 0 0 144.32467406376236 71.608613342334024 0 71.608613342334024 -13.839952524389673 0 0 0 0 24.803215274911054 35.386303430138014 0 35.386303430138014 22.072839423566961 0 0 0 0 48.44083961089018 29.312658547684464 0 29.312658547684464 2.0937935818055848 0 0 0 0 63.639247875195906 49.686837028743923 0 49.686837028743923 -18.263667630516011 0 0 0 0 112.9381231315765 13.793627025332626 0 13.793627025332626 -32.550927059500509 0 0 0 0 112.84399716406188 20.62512353987654 0 20.62512353987654 -7.8206514107064322 0 0 0 0 2490.7450994346182 715.18486902323332 0 715.18486902323332 201.14449148061752 0 0 0 0 8.3678021519297836 -9.2411640312213947 0 -9.2411640312213947 -10.277646203096781 0 0 0 0 2499.9898482753233 720.44417417642865 0 720.44417417642865 159.44391888188187 0 0 0 0 2499.9903973833857 728.73407468711002 0 728.73407468711002 205.02512848462521 0 0 0 0 134.29017340701967 25.952277794566527 0 25.952277794566527 -44.15249612503726 0 0 0 0 1048.8015996877148 -1080.2242189410838 0 -1080.2242189410838 550.81064775187485 0 0 0 0 1568.5253807633417 -998.44046417247841 0 -998.44046417247841 436.46259305530526 0 0 0 0 1561.2206111118139 -988.66596024509249 0 -988.66596024509249 537.36145917449903 0 0 0 0 2499.8257511171723 -848.91653835061504 0 -848.91653835061504 275.86239495019561 0 0 0 0 2617.2059418209501 -932.73091647325725 0 -932.73091647325725 30.761435374208116 0 0 0 0 1949.2366167385335 -618.56897881358896 0 -618.56897881358896 34.529367333213543 0 0 0 0 1303.8295434950051 -427.69754503540003 0 -427.69754503540003 -5.3283395775265845 0 0 0 0 879.49428685658495 -700.05782384603117 0 -700.05782384603117 411.99133867279772 0 0 0 0 904.4914738077714 -510.88389470586742 0 -510.88389470586742 413.09792448144947 0 0 0 0 624.16644466829166 -541.8778032454029 0 -541.8778032454029 482.14998732626873 0 0 0 0 -8.9880158385085593 -5.2677428787304166 0 -5.2677428787304166 20.477367192754169 0 0 0 0 -36.609919489550521 -73.775438620768227 0 -73.775438620768227 50.617189633310772 0 0 0 0 743.71292156678828 -755.68875203022264 0 -755.68875203022264 493.62399614122091 0 0 0 0 911.29624963727838 -691.59066177866782 0 -691.59066177866782 398.46657627978885 0 0 0 0 189.38342098485009 -77.175141151390562 0 -77.175141151390562 213.12508892598157 0 0 0 0 -3.6103055288976122 -13.209734161454378 0 -13.209734161454378 12.124989907386194 0 0 0 0 117.87293023515667 -136.63180208616973 0 -136.63180208616973 163.7151407898682 0 0 0 0 81.929651461432513 -52.07622440162163 0 -52.07622440162163 4.2459109299870761 0 0 0 0 83.372252494227723 -78.241064686011669 0 -78.241064686011669 48.237919840765244 0 0 0 0 80.597183542275161 -49.530114914372007 0 -49.530114914372007 3.8264597797697206 0 0 0 0 71.579397292327485 -34.981453366813639 0 -34.981453366813639 10.613339028724567 0 0 0 0 64.752676051080925 -22.881551932564889 0 -22.881551932564889 -9.3148890869488241 0 0 0 0 45.514452801189066 -17.091355966359103 0 -17.091355966359103 5.6943301085168763 0 0 0 0 92.016160616745765 -45.455671728648213 0 -45.455671728648213 -14.953801018467857 0 0 0 0 57.919809336206526 -21.964432788773593 0 -21.964432788773593 -6.592160122736459 0 0 0 0 27.650238868858651 -10.517765528827169 0 -10.517765528827169 5.9525606235193891 0 0 0 0 2.145278325141561 1.114960313565021 0 1.114960313565021 -4.3888329083037476 0 0 0 0 -1352.0777267874728 -407.10379527629982 0 -407.10379527629982 76.519379350796783 0 0 0 0 46.740278710761991 -35.457053873400724 0 -35.457053873400724 17.318942374179915 0 0 0 0 14.134264753442807 -12.073853529454901 0 -12.073853529454901 6.6200258996561239 0 0 0 0 20.130232159810475 -9.6606974676385562 0 -9.6606974676385562 1015.9523119197794 0 0 0 0 1518.2367939784599 617.72509614285377 0 617.72509614285377 405.38503887852301 0 0 0 0 2718.5237278414716 232.89361507835642 0 232.89361507835642 -73.812032234425061 0 0 0 0 1795.2163669428555 305.22842341752062 0 305.22842341752062 -55.633167146692898 0 0 0 0 101.46522408930468 -959.56029790710625 0 -959.56029790710625 1120.4244921378738 0 0 0 0 1416.4287907178441 -1530.1880208131445 0 -1530.1880208131445 1072.0709067170078 0 0 0 0 3075.2125605042675 -148.38324094606969 0 -148.38324094606969 880.04107727565997 0 0 0 0 3104.5117309599955 -1222.2726466221088 0 -1222.2726466221088 386.45376309486619 0 0 0 0 2500.2302510023728 -463.40398977200795 0 -463.40398977200795 1734.5109917272964 0 0 0 0 2929.1387909341393 -499.0243745092896 0 -499.0243745092896 -204.39131791407576 0 0 0 0 2182.6520130219287 -543.42304367086263 0 -543.42304367086263 -116.27051778784924 0 0 0 0 2116.4243416183963 -193.45772833684902 0 -193.45772833684902 -309.36009488391494 0 0 0 0 9.0542324132715706 -6.2263471685608351 0 -6.2263471685608351 -6.1604190178753901 0 0 0 0 615.16530265824258 -232.03862374384823 0 -232.03862374384823 70.203458898989197 0 0 0 0 600.77591746941471 728.97999046473979 0 728.97999046473979 200.40177252613623 0 0 0 0 1905.6023119429374 -449.97109771221011 0 -449.97109771221011 -352.8777755528132 0 0 0 0 1061.8911180822324 -369.89931272400463 0 -369.89931272400463 176.15110052867729 0 0 0 0 -224.74112096708996 -917.11118201496231 0 -917.11118201496231 1116.2763665720881 0 0 0 0 1.532365457234512 0.51268774223439095 0 0.51268774223439095 -2.6466714078918061 0 0 0 0 230.64169520693031 22.779232698897999 0 22.779232698897999 -23.583721961236733 0 0 0 0 24.59718366256385 9.7578533669465273 0 9.7578533669465273 2.3929412909539374 0 0 0 0 1871.9767817143293 -267.74034610208156 0 -267.74034610208156 -279.3251105779629 0 0 0 0 2499.7188610213998 -451.41602257454662 0 -451.41602257454662 -391.10537609136833 0 0 0 0 1806.9623217763874 -1023.9613336373388 0 -1023.9613336373388 428.31869112311784 0 0 0 0 2515.8201853157516 -442.35961237606301 0 -442.35961237606301 53.933928154254858 0 0 0 0 2031.0612108752557 -659.42561289552089 0 -659.42561289552089 -42.99151881862123 0 0 0 0 309.29301830213808 643.17983447371944 0 643.17983447371944 69.929868236946078 0 0 0 0 10.420957992221219 3.2292717501491524 0 3.2292717501491524 1.1183650865232901 0 0 0 0 2348.6951648785034 -1310.290170465641 0 -1310.290170465641 288.63977981131984 0 0 0 0 3199.0093214542212 -571.9950512727155 0 -571.9950512727155 77.894230943504482 0 0 0 0 2502.0989501069635 81.919633756711733 0 81.919633756711733 899.76390137132319 0 0 0 0 1485.5894017464307 869.07785335788037 0 869.07785335788037 -23.857190762711269 0 0 0 0 2703.6088539441771 -1088.2866413371994 0 -1088.2866413371994 422.94566455907352 0 0 0 0 -60.519180980991223 -114.80152448480497 0 -114.80152448480497 -47.990983386102215 0 0 0 0 118.0270387037599 -152.71716601934963 0 -152.71716601934963 -277.07206168243965 0 0 0 0 301.4744881712104 225.17529270655029 0 225.17529270655029 171.22965658310031 0 0 0 0 602.29943287960486 85.600615820718232 0 85.600615820718232 -11.732307436309725 0 0 0 0 953.5780026682678 286.37092368681903 0 286.37092368681903 13.66842445828604 0 0 0 0 2624.139810720113 178.59648215429786 0 178.59648215429786 -480.41555488344676 0 0 0 0 193.70988395474706 -2.0470447262437403 0 -2.0470447262437403 -25.370358806903027 0 0 0 0 101.57227114415582 -21.697826372287238 0 -21.697826372287238 4.2956005938199269 0 0 0 0 119.52280088778207 -31.048533858016015 0 -31.048533858016015 1.818374988368106 0 0 0 0 85.734854575406644 9.0254884765836891 0 9.0254884765836891 -18.990461239007118 0 0 0 0 91.251774057309376 -13.783835107920822 0 -13.783835107920822 14.388727358588994 0 0 0 0 -0.65458097420901851 -0.28047057904851869 0 -0.28047057904851869 -1.6626691048999378 0 0 0 0 41.846340101030364 50.202053536232107 0 50.202053536232107 152.10453624806365 0 0 0 0 -269.18962234007995 -335.76817885258936 0 -335.76817885258936 90.130561171314653 0 0 0 0 -57.155117965121462 -119.159051946933 0 -119.159051946933 -170.91387703009991 0 0 0 0 151.64195086419386 -117.04913682487557 0 -117.04913682487557 -101.03547117916906 0 0 0 0 -21.509504744739388 -187.49468985232386 0 -187.49468985232386 -81.006895164350453 0 0 0 0 100.04839875784091 -1.7126414730477109 0 -1.7126414730477109 0.9879556566154406 0 0 0 0 128.08802305346762 13.158665149406374 0 13.158665149406374 0.66788055634788179 0 0 0 0 97.405688657188875 -6.2844124291042576 0 -6.2844124291042576 -2.7356919596588796 0 0 0 0 98.152735530832615 -11.19987174710819 0 -11.19987174710819 -12.579775045830957 0 0 0 0 24.990053406421794 -53.451639535626668 0 -53.451639535626668 -312.3774060056848 0 0 0 0 8.0881205519145318 0.19895763924942145 0 0.19895763924942145 -6.186327954464387 0 0 0 0 103.74971246138375 -3.9688259032299698 0 -3.9688259032299698 -6.6433279778065071 0 0 0 0 17.766981156710244 -40.361658961554753 0 -40.361658961554753 63.138467032996459 0 0 0 0 39.111868283175681 -11.8847953334583 0 -11.8847953334583 4.9138502030682503 0 0 0 0 14.79693235144768 -6.0672457876579529 0 -6.0672457876579529 12.745103159042028 0 0 0 0 44.596296045855496 -0.4048509693166551 0 -0.4048509693166551 -2.7927597382222666 0 0 0 0 92.28347281247261 -10.170668315717876 0 -10.170668315717876 -4.0283673473383601 0 0 0 0 92.767606682871701 -19.051651795846396 0 -19.051651795846396 -8.0465264689844389 0 0 0 0 87.231004882298294 -15.484556554790288 0 -15.484556554790288 23.109626539073361 0 0 0 0 63.777056814264142 -33.308037398435772 0 -33.308037398435772 -9.2722422680271848 0 0 0 0 28.979918808472576 -8.2322281792155536 0 -8.2322281792155536 -14.534542317599289 0 0 0 0 45.456166291586953 -8.7293092277178985 0 -8.7293092277178985 -15.330145220200667 0 0 0 0 55.329120855218761 -20.834740385720906 0 -20.834740385720906 -10.569259881214546 0 0 0 0 27.643630979444424 -7.5106893845361746 0 -7.5106893845361746 -18.052103692003712 0 0 0 0 74.36494367446673 -18.667230455339606 0 -18.667230455339606 -3.3641548951055773 0 0 0 0 90.947813980514184 -15.392117955885396 0 -15.392117955885396 -14.889115332766551 0 0 0 0 56.831724365460104 -69.341251767031963 0 -69.341251767031963 -41.040627839041179 0 0 0 0 27.211454676376263 -23.652752142737299 0 -23.652752142737299 -8.1599725650236667 0 0 0 0 43.635729132671258 -66.76218611481363 0 -66.76218611481363 7.3625917930954756 0 0 0 0 46.780348496933584 -59.17856106679028 0 -59.17856106679028 0.64555716797531204 0 0 0 0 51.441825962770963 -74.770321022544977 0 -74.770321022544977 -8.0794120513655798 0 0 0 0 88.356800720761385 -21.083806092100758 0 -21.083806092100758 -54.244362081319764 0 0 0 0 68.899989721689963 -8.0964406274597849 0 -8.0964406274597849 -7.0126153888668981 0 0 0 0 116.70509823431348 -38.561933955099164 0 -38.561933955099164 -75.709488984859433 0 0 0 0 67.094889116585364 -20.16905020934017 0 -20.16905020934017 -28.837293380770006 0 0 0 0 66.364225709447055 -20.182500451522941 0 -20.182500451522941 -12.353979883397187 0 0 0 0 82.437880757104722 -7.4705437505164127 0 -7.4705437505164127 -13.795185312786813 0 0 0 0 89.785841628458002 -15.80594622444579 0 -15.80594622444579 -11.503313854343673 0 0 0 0 99.531626329160645 -9.9643917733433227 0 -9.9643917733433227 -7.4618044321978516 0 0 0 0 79.030405616264034 -15.158529964977532 0 -15.158529964977532 -3.9020525676490365 0 0 0 0 105.80548035726861 -7.6000488691911983 0 -7.6000488691911983 -15.670726709437758 0 0 0 0 -286.31981938876743 185.65998702842444 0 185.65998702842444 -84.833762483358441 0 0 0 0 56.316035604897479 209.79264626700387 0 209.79264626700387 -231.85221420671587 0 0 0 0 66.205990962218493 -6.2646466360389041 0 -6.2646466360389041 -23.586277685547657 0 0 0 0 66.714279164174513 -3.489112795867868 0 -3.489112795867868 -9.9321769977923182 0 0 0 0 64.344433416377782 3.2032061001237295 0 3.2032061001237295 -26.480073333292161 0 0 0 0 -71.808878538070758 50.845610956065286 0 50.845610956065286 -45.524732201103689 0 0 0 0 81.340549795277184 -4.7840829080553249 0 -4.7840829080553249 -5.8608298205326719 0 0 0 0 -69.692266499674588 72.879844500819672 0 72.879844500819672 -53.802862067756223 0 0 0 0 85.833549981027318 -0.12385527944246633 0 -0.12385527944246633 -1.2544890522868855 0 0 0 0 48.692138039653791 16.706434873206817 0 16.706434873206817 -27.101478735528062 0 0 0 0 65.908849813195047 -2.4103500083820109 0 -2.4103500083820109 -90.281266932666767 0 0 0 0 273.93094651981522 5.5066789650618118 0 5.5066789650618118 -195.95274672333835 0 0 0 0 587.59413422654507 -136.92899422340179 0 -136.92899422340179 -181.74419330397723 0 0 0 0 1.2972271876540855 3.0934726665696815 0 3.0934726665696815 0.12533350029666934 0 0 0 0 273.84379725206941 -27.437838046167897 0 -27.437838046167897 32.936992576027478 0 0 0 0 35.968170146035845 -140.18087815312902 0 -140.18087815312902 -106.07221234683493 0 0 0 0 399.86117932459092 51.495855024109915 0 51.495855024109915 -260.09702361430209 0 0 0 0 107.32820219676638 -38.85590890560492 0 -38.85590890560492 7.2633227318261744 0 0 0 0 174.69695135375514 -52.016732275506456 0 -52.016732275506456 -8.9686606386680978 0 0 0 0 210.81457211863744 -104.80763894412075 0 -104.80763894412075 53.788749377872136 0 0 0 0 104.53510476547672 22.699998060195639 0 22.699998060195639 -130.58095255195599 0 0 0 0 24.89129833231658 -9.3779569462399053 0 -9.3779569462399053 2.7093328927475442 0 0 0 0 165.28635073828627 -77.672150436939091 0 -77.672150436939091 -13.694845075395506 0 0 0 0 202.45540746624465 58.10540884760303 0 58.10540884760303 29.870864814353808 0 0 0 0 73.361845873558195 -54.484411815135104 0 -54.484411815135104 -57.261409662220728 0 0 0 0 -3.2000207770455802 0.87672819228839671 0 0.87672819228839671 5.4967443209488263 0 0 0 0 749.96881743334234 -50.243187183047894 0 -50.243187183047894 15.107395001768282 0 0 0 0 1.5176511658628442 259.05357833005513 0 259.05357833005513 44.642215742041628 0 0 0 0 220.60159355140786 55.482170916645373 0 55.482170916645373 18.173623242490066 0 0 0 0 608.99226329625526 172.57060833008524 0 172.57060833008524 42.65586364842693 0 0 0 0 551.04209350797464 324.54352108224953 0 324.54352108224953 28.420392318196434 0 0 0 0 754.21764558476571 350.60140147800507 0 350.60140147800507 35.423096815661211 0 0 0 0 546.03507152315069 252.47708718934427 0 252.47708718934427 75.384294578481786 0 0 0 0 300.65658429473842 -51.787856565070115 0 -51.787856565070115 101.68593407716108 0 0 0 0 237.67238563107094 48.915401417903013 0 48.915401417903013 124.8103861413914 0 0 0 0 262.57621509208548 17.722666278711017 0 17.722666278711017 20.500071885921898 0 0 0 0 104.37263809998694 -37.611372526857167 0 -37.611372526857167 56.305593723279344 0 0 0 0 97.523491558828027 -74.236505652490706 0 -74.236505652490706 1.2541329086129736 0 0 0 0 25.379207655510982 -43.34651435042224 0 -43.34651435042224 56.210016175509281 0 0 0 0 6.8109735883236056 -4.1136959253844907 0 -4.1136959253844907 -6.5309792987983695 0 0 0 0 54.164693294442259 1.0741946637394193 0 1.0741946637394193 -27.796411696747782 0 0 0 0 30.319461370279896 -36.268341249446166 0 -36.268341249446166 -3.1697312160804358 0 0 0 0 53.224349610391073 -25.658998096632331 0 -25.658998096632331 -4.9377767993610178 0 0 0 0 3.8978668606239353 -2.9998630371065786 0 -2.9998630371065786 -0.15545575319610849 0 0 0 0 80.296016524865991 -32.747450263161682 0 -32.747450263161682 -20.019662631613755 0 0 0 0 88.815061634712038 -19.424183416085953 0 -19.424183416085953 -60.396448851894093 0 0 0 0 104.22143409929413 -72.125844307218358 0 -72.125844307218358 -20.338504119971311 0 0 0 0 99.978015221306123 -53.703166804879402 0 -53.703166804879402 -45.91349641376155 0 0 0 0 144.0520738443447 -81.348668169994653 0 -81.348668169994653 8.8395826811374718 0 0 0 0 245.13087974935479 30.235293184593047 0 30.235293184593047 57.594188293965772 0 0 0 0 3.1331080961841593 3.0403503593824581 0 3.0403503593824581 -0.98294120086220005 0 0 0 0 20.570107458799612 145.78274352904737 0 145.78274352904737 -227.54655946358434 0 0 0 0 99.229322321116342 -156.46280738410405 0 -156.46280738410405 -294.10602644274195 0 0 0 0 38.974820429830288 -6.102504374358432 0 -6.102504374358432 -74.421067767328168 0 0 0 0 256.27385349679389 -47.753094073928878 0 -47.753094073928878 -171.42073424829596 0 0 0 0 122.10018942455645 -380.69669572182283 0 -380.69669572182283 415.55607683767266 0 0 0 0 107.86048014582047 -52.455818348887533 0 -52.455818348887533 150.06793323587044 0 0 0 0 -30.747645429291879 -175.84278195974821 0 -175.84278195974821 136.13871103445388 0 0 0 0 527.79856499515881 266.71910501713046 0 266.71910501713046 -328.53049637900585 0 0 0 0 23.041724152804818 -267.25847751608762 0 -267.25847751608762 67.034544219797681 0 0 0 0 -26.760757198950159 -148.55151001694503 0 -148.55151001694503 317.15034459748313 0 0 0 0 -130.2900830082026 659.9013917837608 0 659.9013917837608 336.62120658938329 0 0 0 0 1858.3275255820845 248.71300594239437 0 248.71300594239437 53.062076417173103 0 0 0 0 1.8880793523491661 1.6494885279689839 0 1.6494885279689839 2.124066679241988 0 0 0 0 1251.8585937201715 1270.9296034786266 0 1270.9296034786266 1268.7908828750678 0 0 0 0 856.42518314401968 621.44203709232715 0 621.44203709232715 535.70069541068415 0 0 0 0 609.48000176411006 504.94494738815138 0 504.94494738815138 535.17231711103523 0 0 0 0 870.31587108133681 529.31830812234966 0 529.31830812234966 264.72819387680647 0 0 0 0 968.83657756261528 -124.4076902593074 0 -124.4076902593074 -80.876142518729466 0 0 0 0 61.031096066988312 -27.338656342938272 0 -27.338656342938272 5.2506614557387756 0 0 0 0 476.61856389662717 388.53645881509192 0 388.53645881509192 398.31500712183242 0 0 0 0 -481.27910477593832 -516.26971815745401 0 -516.26971815745401 -160.55923781253409 0 0 0 0 552.60394044336135 386.46368195123387 0 386.46368195123387 381.29337864568515 0 0 0 0 -188.89330564640841 -123.80932576668238 0 -123.80932576668238 -265.72132210871314 0 0 0 0 42.94880775024231 -17.87856649417273 0 -17.87856649417273 2.5084625595121075 0 0 0 0 -56.671891847487132 -335.35224048781288 0 -335.35224048781288 -640.76408601610274 0 0 0 0 15.958506821058108 37.179875578618521 0 37.179875578618521 -108.23188574600863 0 0 0 0 65.002973384282086 16.057883996899363 0 16.057883996899363 -277.72263581590732 0 0 0 0 267.44539563139551 55.489556669468584 0 55.489556669468584 -241.59382741098307 0 0 0 0 280.7635936493607 106.78316210222238 0 106.78316210222238 -161.702882114555 0 0 0 0 593.49253981353831 53.938971444427807 0 53.938971444427807 -181.94672877819357 0 0 0 0 218.42075769529038 159.79558681385879 0 159.79558681385879 -122.61872873054199 0 0 0 0 78.444202830185532 -2.9533179099307745 0 -2.9533179099307745 19.758434995865173 0 0 0 0 269.02889755687647 -117.76948838773433 0 -117.76948838773433 88.821856669612316 0 0 0 0 309.04993578566064 -17.793651926393068 0 -17.793651926393068 -31.489820539432912 0 0 0 0 349.63044181432633 71.32312814648958 0 71.32312814648958 -149.26160893086853 0 0 0 0 11.281654936065081 9.5979702688292186 0 9.5979702688292186 0.61207523446663004 0 0 0 0 0.091847195151785854 55.193431778492595 0 55.193431778492595 143.18089855449489 0 0 0 0 430.49370588006059 -218.96429043213016 0 -218.96429043213016 110.94081524148442 0 0 0 0 869.12458210752811 160.7338621527033 0 160.7338621527033 -127.23986891326763 0 0 0 0 -712.35648206526821 427.87040374314984 0 427.87040374314984 1047.4048113318822 0 0 0 0 1023.933169635231 -401.26946608973299 0 -401.26946608973299 -911.14096154969138 0 0 0 0 356.54689639219578 209.72617595971315 0 209.72617595971315 184.79322293274663 0 0 0 0 71.397055296448542 -30.79991327223086 0 -30.79991327223086 3.8006719583939841 0 0 0 0 23.099700989045232 146.43275599063986 0 146.43275599063986 -11.909771106533299 0 0 0 0 -16.315091573123937 105.05762175572136 0 105.05762175572136 106.46233825661238 0 0 0 0 244.01500196268898 74.715693858483348 0 74.715693858483348 61.528136448196506 0 0 0 0 380.50126489584363 205.4584685167236 0 205.4584685167236 132.24513866183878 0 0 0 0 332.41260433694697 227.90522385076588 0 227.90522385076588 189.42085224474982 0 0 0 0 468.79122844723315 273.49130021417272 0 273.49130021417272 177.05290127526632 0 0 0 0 494.43881502163458 234.14472022181525 0 234.14472022181525 153.88925126666481 0 0 0 0 520.47046749007131 266.02130923109632 0 266.02130923109632 136.33675149727898 0 0 0 0 340.52772783530963 241.4816418660248 0 241.4816418660248 240.52491238615403 0 0 0 0 537.66710097839314 334.82069502522097 0 334.82069502522097 217.92638087229898 0 0 0 0 593.09993898116954 318.34191007812888 0 318.34191007812888 221.4265232033037 0 0 0 0 616.86891740484134 270.99470686944574 0 270.99470686944574 49.426887822362687 0 0 0 0 665.12883102668275 189.58697643668631 0 189.58697643668631 72.713118534436035 0 0 0 0 564.38266916685097 194.19203682570077 0 194.19203682570077 187.47039911192448 0 0 0 0 578.54747459407372 290.96024353970392 0 290.96024353970392 146.46994893571224 0 0 0 0 459.44021315321879 244.85398504052313 0 244.85398504052313 139.50028296531354 0 0 0 0 489.50346435372376 293.28397800301354 0 293.28397800301354 101.99141271393353 0 0 0 0 442.66777861873925 263.26023865387759 0 263.26023865387759 82.828671403049157 0 0 0 0 314.4952822748528 196.80368673209045 0 196.80368673209045 103.88655353820036 0 0 0 0 519.80021172404304 230.30902775609349 0 230.30902775609349 83.941224002775016 0 0 0 0 416.08823370999744 263.56606557842565 0 263.56606557842565 136.02428104822093 0 0 0 0 81.834314887684442 -30.168471983952266 0 -30.168471983952266 9.0990268224934354 0 0 0 0 301.79879196376714 158.35545460790308 0 158.35545460790308 107.31117605423583 0 0 0 0 108.33098260719089 -213.97617500545266 0 -213.97617500545266 -456.23014232677906 0 0 0 0 545.35329285954003 360.4384057673438 0 360.4384057673438 449.49001951922764 0 0 0 0 524.69717144963943 487.73538135612034 0 487.73538135612034 447.07270540798845 0 0 0 0 54.770560097278349 -18.402200399199828 0 -18.402200399199828 4.2694549032698603 0 0 0 0 566.8028733119063 398.07314763136355 0 398.07314763136355 160.6584561973209 0 0 0 0 367.82993154949327 298.3833144030699 0 298.3833144030699 336.46932746114999 0 0 0 0 557.99412408416538 242.49219366680904 0 242.49219366680904 -1.8193313766314532 0 0 0 0 731.79514115776692 486.80925912030216 0 486.80925912030216 232.07628437021776 0 0 0 0 478.11069111983079 225.77747642157982 0 225.77747642157982 46.993812566373435 0 0 0 0 429.19527999474667 157.90746044425867 0 157.90746044425867 -9.7769123898052044 0 0 0 0 450.27625524195901 284.31002491954195 0 284.31002491954195 65.574058894105121 0 0 0 0 453.33262154315344 263.38476467672149 0 263.38476467672149 83.41451856645682 0 0 0 0 443.03268180320811 271.16828451803747 0 271.16828451803747 96.514064994429873 0 0 0 0 348.90357651921295 152.62699752258408 0 152.62699752258408 76.598407129491875 0 0 0 0 18.711463881029324 -1.8391729700581152 0 -1.8391729700581152 -7.0633417903452012 0 0 0 0 161.11732277704141 11.314647813556689 0 11.314647813556689 23.172632852235438 0 0 0 0 44.747020277479507 -19.224947378956635 0 -19.224947378956635 7.5475884815820908 0 0 0 0 131.05063048053125 -38.035735858962425 0 -38.035735858962425 -43.027806827848053 0 0 0 0 65.561044491030771 12.823136648246873 0 12.823136648246873 23.261718318552994 0 0 0 0 42.211555044166744 13.336219636118585 0 13.336219636118585 18.423771131564081 0 0 0 0 491.91431054089253 86.078850085865398 0 86.078850085865398 -48.178810337422874 0 0 0 0 -0.48418080967526222 -1.1662498756438353 0 -1.1662498756438353 -2.3161950492031504 0 0 0 0 201.80484401698413 -7.837249708542231 0 -7.837249708542231 10.560829574797935 0 0 0 0 861.30000839118293 71.72483489482147 0 71.72483489482147 -192.13883717743647 0 0 0 0 83.494834524619364 -88.103965812492333 0 -88.103965812492333 -40.793362733113099 0 0 0 0 247.43515282052613 -6.4011815517937976 0 -6.4011815517937976 -43.985644792419862 0 0 0 0 307.21199238070881 -188.95231054724391 0 -188.95231054724391 -3.690984682850285 0 0 0 0 -288.8793122887073 -153.78240652590262 0 -153.78240652590262 405.76563223649737 0 0 0 0 289.76557226276236 -38.464102150292973 0 -38.464102150292973 142.64663327767357 0 0 0 0 -25.748522811536532 34.642403990237085 0 34.642403990237085 64.266227155510478 0 0 0 0 21.192026430756144 18.691654366399028 0 18.691654366399028 22.902339778929715 0 0 0 0 -31.829095044811766 19.48640936384038 0 19.48640936384038 32.345276570167698 0 0 0 0 -149.54340973661965 116.87486116595437 0 116.87486116595437 -5.6163527662479282 0 0 0 0 -42.257949011578603 8.8004099711874915 0 8.8004099711874915 101.3084125954947 0 0 0 0 -10.676492969374522 -48.945231687118849 0 -48.945231687118849 79.011239933263823 0 0 0 0 47.598563429846763 -43.161892834437481 0 -43.161892834437481 -4.9669367632000103 0 0 0 0 39.308520070589751 -10.391038025292112 0 -10.391038025292112 9.0727821796010595 0 0 0 0 -18.282249059278911 -26.590378572170721 0 -26.590378572170721 30.980870591136409 0 0 0 0 70.656915572355501 19.264361190723946 0 19.264361190723946 44.21620785464512 0 0 0 0 65.475136204161117 12.770675564898923 0 12.770675564898923 38.431601229481771 0 0 0 0 36.647730266050587 -19.524930466231353 0 -19.524930466231353 6.122493805316628 0 0 0 0 30.377977959520877 -87.706807376758547 0 -87.706807376758547 -12.696264213297582 0 0 0 0 65.903821924926888 15.779627797295234 0 15.779627797295234 41.292192343446459 0 0 0 0 64.312599934077298 9.691940219420303 0 9.691940219420303 36.245685850679138 0 0 0 0 69.760622612222505 12.545876902886619 0 12.545876902886619 35.50489036717812 0 0 0 0 65.446284155659669 11.896729032693656 0 11.896729032693656 35.710438511073335 0 0 0 0 39.288625454902672 -6.7171448919256989 0 -6.7171448919256989 -13.937915633082236 0 0 0 0 62.197731348814159 12.713511073332825 0 12.713511073332825 26.23625840693785 0 0 0 0 69.261678043940265 22.490510339711136 0 22.490510339711136 6.3127176874859288 0 0 0 0 59.716424707323313 21.457226662052562 0 21.457226662052562 23.341787069320247 0 0 0 0 67.497315242486366 13.391418571715917 0 13.391418571715917 22.793834211818648 0 0 0 0 71.953246751938423 8.7261087219662841 0 8.7261087219662841 16.173065768974539 0 0 0 0 161.78051297911588 3.2163617222067842 0 3.2163617222067842 -135.17624853178768 0 0 0 0 11.328087095919209 12.30103329257588 0 12.30103329257588 1.1473008765393473 0 0 0 0 73.157372334738213 -27.05801592205912 0 -27.05801592205912 -0.26982867129883381 0 0 0 0 66.40949366359564 77.386522260667334 0 77.386522260667334 55.76050243445934 0 0 0 0 67.990836741155363 24.522563282755073 0 24.522563282755073 5.2606684792813212 0 0 0 0 69.555336609177175 28.263517487874196 0 28.263517487874196 -3.926637541954733 0 0 0 0 1.7996138728784565 16.106447803109788 0 16.106447803109788 -3.4737658399690119 0 0 0 0 69.099374512778013 22.413706969469786 0 22.413706969469786 2.3038215808774112 0 0 0 0 24.684054433986603 16.409203429932859 0 16.409203429932859 -3.1132371010098723 0 0 0 0 10.070867954943452 14.763271679581095 0 14.763271679581095 -12.052508567177721 0 0 0 0 43.390579634694319 19.033629766166808 0 19.033629766166808 -1.314400471662303 0 0 0 0 31.397111760543879 7.6138561668827833 0 7.6138561668827833 -13.716767375404501 0 0 0 0 35.96976529519452 20.93164721314588 0 20.93164721314588 -21.742743667925879 0 0 0 0 79.021684872306651 28.566286037140202 0 28.566286037140202 -27.006916746081515 0 0 0 0 44.066205661612912 -15.043669762295849 0 -15.043669762295849 -32.813687703025835 0 0 0 0 50.711878319749133 1.9035771807246711 0 1.9035771807246711 -8.0411971557782636 0 0 0 0 51.199628957496316 29.956005850497831 0 29.956005850497831 -56.330767557109937 0 0 0 0 25.279736244687228 8.9415041634509294 0 8.9415041634509294 -6.3204053800545807 0 0 0 0 67.957547048690685 28.38284817667909 0 28.38284817667909 8.9850583150391685 0 0 0 0 32.994411192221577 11.051124587859782 0 11.051124587859782 -21.378941154013297 0 0 0 0 48.862176187562 39.000170843735873 0 39.000170843735873 16.065076972727525 0 0 0 0 38.589102202531649 71.167383112797097 0 71.167383112797097 -80.736877161817176 0 0 0 0 89.697016004909528 45.679966973989849 0 45.679966973989849 -45.633735006912389 0 0 0 0 48.147586859049625 37.316668578010194 0 37.316668578010194 -0.46775981946518641 0 0 0 0 57.566600916994503 12.371810087716824 0 12.371810087716824 -44.565880223643944 0 0 0 0 57.588194960684632 1.2439113190950764 0 1.2439113190950764 -49.740801034391325 0 0 0 0 47.240609050219064 9.756869774655911 0 9.756869774655911 -42.346510789862009 0 0 0 0 72.517165087956528 -11.982194889199832 0 -11.982194889199832 -98.699396020897439 0 0 0 0 75.103862273703271 2.8862080584030991 0 2.8862080584030991 -50.406698447590657 0 0 0 0 63.68262946086179 14.078058570965212 0 14.078058570965212 -86.620568301500725 0 0 0 0 -2.5087043509120122 -3.5375687673207494 0 -3.5375687673207494 -34.787498885566293 0 0 0 0 -0.47132423346283048 14.506044395685535 0 14.506044395685535 -2.9005472656407711 0 0 0 0 19.157571496744595 3.828223080709023 0 3.828223080709023 -17.194723241222846 0 0 0 0 69.246376511595372 -9.3510163632577843 0 -9.3510163632577843 -69.491236446644734 0 0 0 0 38.2995961463821 28.444106550667129 0 28.444106550667129 2.5832252270815843 0 0 0 0 -35.148645053748623 -77.914348381272589 0 -77.914348381272589 -113.00121386844359 0 0 0 0 103.28193651522452 5.3092667871090953 0 5.3092667871090953 -156.15059356383335 0 0 0 0 0.037194315907257192 0.33908453512469805 0 0.33908453512469805 -0.83296280552715363 0 0 0 0 183.13099777708703 19.724795462450402 0 19.724795462450402 -107.06833237546113 0 0 0 0 -45.10328768328327 25.541168496059811 0 25.541168496059811 25.540408726544229 0 0 0 0 122.02254273627477 -37.977213917781228 0 -37.977213917781228 -58.619712979041196 0 0 0 0 87.928932660594 50.294123122572557 0 50.294123122572557 -10.859054855267914 0 0 0 0 24.620022502167558 49.03757269737406 0 49.03757269737406 -71.422787951432156 0 0 0 0 100.17924437404145 99.553111249131916 0 99.553111249131916 31.685212431340418 0 0 0 0 54.7739767368912 -4.7896236486699308 0 -4.7896236486699308 24.075057435456756 0 0 0 0 47.068056049048209 49.139822148693838 0 49.139822148693838 -2.4537757158386739 0 0 0 0 48.991032295405603 33.090749654075012 0 33.090749654075012 -48.100630612336317 0 0 0 0 143.47454174939048 31.513896972239934 0 31.513896972239934 -17.418114766805047 0 0 0 0 88.982636142260162 88.09638081125081 0 88.09638081125081 -8.8969418075379565 0 0 0 0 41.155033431074116 80.506654835159168 0 80.506654835159168 -17.985109348516289 0 0 0 0 50.707241719239391 62.100095790743921 0 62.100095790743921 7.3109524661913383 0 0 0 0 -0.10434504359597696 1.1214014699656616 0 1.1214014699656616 -1.6557880914437226 0 0 0 0 114.68044591602575 104.55473738916265 0 104.55473738916265 45.009348408666483 0 0 0 0 114.65131926976028 104.6050972121638 0 104.6050972121638 89.722552026961353 0 0 0 0 174.07327735914441 86.380744989824393 0 86.380744989824393 -33.48944292863689 0 0 0 0 0.64322491703990181 0.028851069327913592 0 0.028851069327913592 -0.011152810013701275 0 0 0 0 30.66640765334887 65.397890883941784 0 65.397890883941784 111.71288544505779 0 0 0 0 70.21442595620465 125.58825168722399 0 125.58825168722399 132.54416470690239 0 0 0 0 37.286969593400499 80.204926773457288 0 80.204926773457288 50.243522959843403 0 0 0 0 84.57477485518757 49.472832121414683 0 49.472832121414683 27.840982170133657 0 0 0 0 99.486421044755843 78.40149216140594 0 78.40149216140594 18.80394810768928 0 0 0 0 30.808161626540823 72.64566419560515 0 72.64566419560515 84.559031425531884 0 0 0 0 94.327590896456968 11.455015775994866 0 11.455015775994866 32.737568954537892 0 0 0 0 -6.455472747416934 18.619211133913268 0 18.619211133913268 88.916958864044773 0 0 0 0 1.3459947513585462 -0.0073768842629107212 0 -0.0073768842629107212 -1.0870913579841472 0 0 0 0 -0.51602994730637874 3.8698002108275773 0 3.8698002108275773 -40.928213583286947 0 0 0 0 4.8563139290781692 -16.042896196963113 0 -16.042896196963113 -51.742964432266632 0 0 0 0 1.9489537556527239 -0.32787480784716649 0 -0.32787480784716649 -0.79068287969009488 0 0 0 0 11.962680412497775 -0.96298277520872766 0 -0.96298277520872766 -62.175842789457306 0 0 0 0 11.892912968087103 -3.5329182540296244 0 -3.5329182540296244 -82.08563296843829 0 0 0 0 7.5597083825850859 17.156613886996325 0 17.156613886996325 -77.143169458618573 0 0 0 0 -20.261660748506984 51.971860522775813 0 51.971860522775813 -117.17694164205432 0 0 0 0 4.9215107598497525 -16.305288932713587 0 -16.305288932713587 -127.55465522684892 0 0 0 0 0.79786334090749733 2.4308752949101731 0 2.4308752949101731 -32.253575121096809 0 0 0 0 -0.40330116901947122 -0.50774981147492326 0 -0.50774981147492326 -0.82010261056291389 0 0 0 0 -7.9471024040176417 19.516336959895682 0 19.516336959895682 -31.696140709167196 0 0 0 0 8.110816733129468 12.209439613694016 0 12.209439613694016 -52.71689818131307 0 0 0 0 6.2852841311687371 -2.4718156769421853 0 -2.4718156769421853 -43.06357632969695 0 0 0 0 -3.3846519772778265 8.7263622195263224 0 8.7263622195263224 -20.38975032129693 0 0 0 0 1.0870160224743586 -0.22367768754605066 0 -0.22367768754605066 -0.41036725397124396 0 0 0 0 2.9007837015669793 4.1736536038325482 0 4.1736536038325482 5.3596014402492749 0 0 0 0 30.933813257302972 3.7776981723623351 0 3.7776981723623351 -2.5821060298235352 0 0 0 0 0.00041760885088137911 -0.11033365784084204 0 -0.11033365784084204 -0.30715809748341666 0 0 0 0 -1.342774309646984 0.99009470811672173 0 0.99009470811672173 -0.036033918502203555 0 0 0 0 20.018202209743322 5.9892005305015914 0 5.9892005305015914 -6.4489269172768218 0 0 0 0 0.24031781837311428 -1.575160110676066 0 -1.575160110676066 -2.996179287476048 0 0 0 0 4.7523099125698707 1.8347368504080102 0 1.8347368504080102 -0.3278551894047953 0 0 0 0 0.078351865384320263 1.5414596566617755 0 1.5414596566617755 0.5848156785299895 0 0 0 0 0.2505608488136204 1.4120053289309604 0 1.4120053289309604 -0.00038092256157216237 0 0 0 0 0.29860473727276826 0.25088957722552152 0 0.25088957722552152 -0.12228991002973255 0 0 0 0 55.182706684907316 5.8767747657080243 0 5.8767747657080243 -5.3891821883220814 0 0 0 0 28.980849809762731 -15.625574149013486 0 -15.625574149013486 6.7678737638649871 0 0 0 0 -0.74730434483032582 0.14647197037256632 0 0.14647197037256632 -0.040352624667649363 0 0 0 0 -75.172273825810407 16.838809596343395 0 16.838809596343395 19.971645323627556 0 0 0 0 -0.73619934414455201 0.79583583669853719 0 0.79583583669853719 0.0015666605672136919 0 0 0 0 -30.285724228102481 -3.2094134303411295 0 -3.2094134303411295 15.890439439342487 0 0 0 0 -0.73757389848469757 0.79793387037944774 0 0.79793387037944774 0.0004521673034182641 0 0 0 0 12.759408200887265 17.582072562154309 0 17.582072562154309 1.4763847952424101 0 0 0 0 18.410813925263938 -12.269004355859423 0 -12.269004355859423 -15.780643398278642 0 0 0 0 62.494018812416471 31.71380145621049 0 31.71380145621049 -0.52624120304790267 0 0 0 0 -105.75613540668564 12.602011793547831 0 12.602011793547831 45.244151875229704 0 0 0 0 2.5211174489333814 1.5666666409110857 0 1.5666666409110857 0.36580220570098643 0 0 0 0 -13.119790280543384 9.7163019195280356 0 9.7163019195280356 -28.454406058653831 0 0 0 0 -60.485001444641966 18.635087460361959 0 18.635087460361959 2.1987862284981929 0 0 0 0 36.066150532351458 102.55663432598578 0 102.55663432598578 -33.132632537408995 0 0 0 0 -0.064060669817656901 0.53609066494857416 0 0.53609066494857416 -0.94552020119024993 0 0 0 0 -101.73212903736203 71.86525835420818 0 71.86525835420818 57.617745791022571 0 0 0 0 197.07283755252138 16.57775693611859 0 16.57775693611859 -86.696648310991122 0 0 0 0 10.4931252522656 109.98974923300977 0 109.98974923300977 20.450150029945462 0 0 0 0 -67.536733204371558 137.48399839122001 0 137.48399839122001 41.927273693196867 0 0 0 0 68.94964170633466 -3.5147135125030218 0 -3.5147135125030218 -7.9101267211633512 0 0 0 0 45.165529087593313 -13.214914024444397 0 -13.214914024444397 -11.860150325762959 0 0 0 0 55.498893168376526 -10.989282294636837 0 -10.989282294636837 -4.2959211120401051 0 0 0 0 129.69643380872731 43.627529962174663 0 43.627529962174663 -11.480786006155029 0 0 0 0 90.737538287983625 -13.386666026399951 0 -13.386666026399951 -33.91420367468595 0 0 0 0 130.67259773274418 -12.001240445453391 0 -12.001240445453391 -33.936588432232242 0 0 0 0 -29.414515529104392 -17.953408682391796 0 -17.953408682391796 -91.880127984339879 0 0 0 0 47.299496301830004 -89.673377609605666 0 -89.673377609605666 -71.861661143660967 0 0 0 0 183.35954432503786 -53.708799664570108 0 -53.708799664570108 -160.65522715327802 0 0 0 0 142.56246157852001 16.009222976626347 0 16.009222976626347 125.41752256590598 0 0 0 0 141.93349795459653 42.9447642277878 0 42.9447642277878 -262.19983947798312 0 0 0 0 -12.21414456848197 112.05062372053744 0 112.05062372053744 25.163782937111137 0 0 0 0 -20.990654829118284 41.190497845246455 0 41.190497845246455 23.168670460998783 0 0 0 0 62.741039763321169 31.457777747008095 0 31.457777747008095 23.959127079278915 0 0 0 0 35.400745531573193 107.36136208191908 0 107.36136208191908 15.969879538729174 0 0 0 0 23.634413728694199 93.638665340272155 0 93.638665340272155 -0.011818415629363699 0 0 0 0 41.491668999973626 106.686752683289 0 106.686752683289 -24.746392178694578 0 0 0 0 39.845034202779061 112.58994601688892 0 112.58994601688892 -3.3234068688061313 0 0 0 0 90.422639443044318 138.76218040384288 0 138.76218040384288 2.2520049063009253 0 0 0 0 57.566694225009996 128.85501921696198 0 128.85501921696198 -15.55688842974314 0 0 0 0 83.16581347414467 96.335756963158815 0 96.335756963158815 -99.799781676909788 0 0 0 0 136.1032139256713 199.54012997617906 0 199.54012997617906 118.25012896604414 0 0 0 0 9.5151697910769144 92.700642121283721 0 92.700642121283721 317.06078073385106 0 0 0 0 62.367848145964672 84.919873231435758 0 84.919873231435758 37.451723364533677 0 0 0 0 14.95138297144149 127.3266236543576 0 127.3266236543576 84.934987110075099 0 0 0 0 67.752683163082111 33.835399671027972 0 33.835399671027972 62.834025156334434 0 0 0 0 -60.191763115421054 49.310967853831485 0 49.310967853831485 4.1581764593012736 0 0 0 0 119.06142639580503 170.64008506371928 0 170.64008506371928 27.093709064078638 0 0 0 0 74.089959671357065 75.340996707633622 0 75.340996707633622 -140.01705303444834 0 0 0 0 0.73192806744921768 0.5345871679577634 0 0.5345871679577634 0.18342929051674192 0 0 0 0 18.646833111604792 122.02304665649621 0 122.02304665649621 0.021209719900972604 0 0 0 0 -89.912670554214856 56.499292770691312 0 56.499292770691312 5.7512734244568549 0 0 0 0 640.10181340314011 -91.543484529383932 0 -91.543484529383932 56.783132243421448 0 0 0 0 331.63327092019608 111.56883174154569 0 111.56883174154569 0.21446425164988314 0 0 0 0 193.51027139648795 21.630100491769682 0 21.630100491769682 12.646617096585089 0 0 0 0 336.46698102363735 31.68758948337657 0 31.68758948337657 87.017619209661007 0 0 0 0 349.25012553476699 43.135817822920508 0 43.135817822920508 91.03265368611207 0 0 0 0 231.89359965814219 -120.44547714200436 0 -120.44547714200436 76.403676022645186 0 0 0 0 324.67573930162325 12.713462951378006 0 12.713462951378006 -72.547805915511617 0 0 0 0 110.54575629917963 72.582824369385889 0 72.582824369385889 101.97421784227782 0 0 0 0 187.93021026221504 84.736149791310538 0 84.736149791310538 -27.685061448703436 0 0 0 0 64.019611762583736 6.5787867633283099 0 6.5787867633283099 -43.070087923498932 0 0 0 0 92.864943571439653 85.30376152974128 0 85.30376152974128 -204.83228937268268 0 0 0 0 -126.91655488681135 -54.92359542200802 0 -54.92359542200802 -78.023438279013362 0 0 0 0 360.39728456822559 356.65061504761036 0 356.65061504761036 360.5590193362641 0 0 0 0 448.29403804702451 490.15056361280699 0 490.15056361280699 509.24545699683222 0 0 0 0 173.98197792553401 270.0110075493094 0 270.0110075493094 351.13349773669398 0 0 0 0 3.1298910427121598 3.411726008248877 0 3.411726008248877 -6.4744791220225171 0 0 0 0 -50.88473811437143 -148.889510887847 0 -148.889510887847 -303.17327293217596 0 0 0 0 20.390820728498511 33.582194060988741 0 33.582194060988741 -87.414449142342846 0 0 0 0 67.95767319877632 9.301074116768973 0 9.301074116768973 -157.84979371112172 0 0 0 0 27.470187949293177 63.961515121216507 0 63.961515121216507 -28.727124990747996 0 0 0 0 45.024360733666981 63.404725295227422 0 63.404725295227422 -70.058363252086792 0 0 0 0 -36.477411100582685 -25.153403902888954 0 -25.153403902888954 -64.512640992275806 0 0 0 0 -9.2086538560906774 -20.733911110428721 0 -20.733911110428721 -85.85437215054958 0 0 0 0 27.003152427554596 40.007521468793584 0 40.007521468793584 -38.096844555060443 0 0 0 0 1.4198470331757562 -15.169179414021755 0 -15.169179414021755 -105.43919531566866 0 0 0 0 1.5199844662058695 6.6456417367231637 0 6.6456417367231637 -10.965121745081873 0 0 0 0 -10.093304370901024 -100.24993733862129 0 -100.24993733862129 -210.23303650714922 0 0 0 0 225.24097939595958 337.0234771658088 0 337.0234771658088 249.7012712332953 0 0 0 0 241.40386209931057 155.09545732204248 0 155.09545732204248 -33.83277064504 0 0 0 0 237.0948839301127 181.03650283889419 0 181.03650283889419 26.95737828453457 0 0 0 0 -4.3825192516087554 -40.566893249207851 0 -40.566893249207851 -126.73910330432432 0 0 0 0 2.2520259658551254 10.788224525881901 0 10.788224525881901 -14.008132596175065 0 0 0 0 9.6952934352739248 6.8045868414244524 0 6.8045868414244524 -145.54123327649597 0 0 0 0 3.0088804637679658 7.4631017743393784 0 7.4631017743393784 1.5081485393958118 0 0 0 0 244.31633444302133 102.8381831415445 0 102.8381831415445 9.4701116183659906 0 0 0 0 124.82387308897341 15.464207100484487 0 15.464207100484487 -30.688438675508223 0 0 0 0 234.33538376796059 152.95659325273664 0 152.95659325273664 -31.869723159536989 0 0 0 0 256.22539142009191 142.4672552017837 0 142.4672552017837 -132.75139529991247 0 0 0 0 161.60881574357336 58.076778585308148 0 58.076778585308148 -201.52500500419956 0 0 0 0 231.36762388667557 198.36153314867897 0 198.36153314867897 -183.99611271122899 0 0 0 0 175.94042400139733 109.80094304247905 0 109.80094304247905 -356.04114643518551 0 0 0 0 -45.191607712804398 -49.075806215473676 0 -49.075806215473676 -282.41755929220926 0 0 0 0 484.6498367596505 200.07416586647241 0 200.07416586647241 -40.798164031195483 0 0 0 0 235.44231157402101 106.40819715853559 0 106.40819715853559 -307.16281587853121 0 0 0 0 83.309393014511443 118.67833969071307 0 118.67833969071307 -42.269033622687857 0 0 0 0 164.47885702820167 281.56563219810687 0 281.56563219810687 -7.8289018819450575 0 0 0 0 268.16944959083048 197.7748211869075 0 197.7748211869075 49.663393291184548 0 0 0 0 1004.9316552758537 -661.08569654948133 0 -661.08569654948133 -815.38584694560996 0 0 0 0 1771.1990062643254 -172.20002549801501 0 -172.20002549801501 -549.22928882681481 0 0 0 0 1089.4398869093129 -405.31093319369847 0 -405.31093319369847 -539.14024377914802 0 0 0 0 757.92055906230235 -167.86625739177907 0 -167.86625739177907 -175.14335826569101 0 0 0 0 319.36687423074909 -171.49869602065837 0 -171.49869602065837 -406.95308439854853 0 0 0 0 165.83238602320489 -209.59611035509442 0 -209.59611035509442 -176.32466867975606 0 0 0 0 20.588172564370325 26.341674988694194 0 26.341674988694194 -619.82168020408972 0 0 0 0 -389.63941969712323 -163.7584641673966 0 -163.7584641673966 -332.06907856087037 0 0 0 0 16.936375940227606 -6.1018027453332309 0 -6.1018027453332309 1.041171789979618 0 0 0 0 2086.8622452898999 1680.4129170849665 0 1680.4129170849665 1133.2567825759179 0 0 0 0 -10.852730598111521 -986.09282616065957 0 -986.09282616065957 -791.23561410536479 0 0 0 0 3169.5553287121438 1198.5010482203634 0 1198.5010482203634 89.924657967090752 0 0 0 0 1455.4088998808875 1105.0357575472663 0 1105.0357575472663 459.47485511482864 0 0 0 0 717.47919524385361 -348.03852105484975 0 -348.03852105484975 218.72066995500063 0 0 0 0 300.79742790471937 -667.03941887193014 0 -667.03941887193014 -379.44458149663478 0 0 0 0 695.13918445361196 207.54066759019042 0 207.54066759019042 754.42884274400876 0 0 0 0 1617.5561169367356 -641.30791426458472 0 -641.30791426458472 646.30634128923703 0 0 0 0 -24.1201701220416 202.23692782362377 0 202.23692782362377 64.383168433785613 0 0 0 0 534.28319055921907 -143.07906262005332 0 -143.07906262005332 -125.68411799424575 0 0 0 0 -467.38523578184686 -102.46516351008086 0 -102.46516351008086 565.6538980394771 0 0 0 0 1.4063658511403503 2.4991691010999375 0 2.4991691010999375 4.5184637275729322 0 0 0 0 -2.4004243554019808 -0.14632185800380171 0 -0.14632185800380171 21.935793849406711 0 0 0 0 -83.031905937593365 -269.69424959720959 0 -269.69424959720959 339.69968845127732 0 0 0 0 390.2962810935569 -8.3933487640399562 0 -8.3933487640399562 -118.79449496905727 0 0 0 0 1886.8095369904886 -1308.0104919408832 0 -1308.0104919408832 109.37008928205319 0 0 0 0 4.7439253533707273 6.9473782539086528 0 6.9473782539086528 5.6687306156984363 0 0 0 0 192.36208548555442 580.09882825334034 0 580.09882825334034 166.82776147136246 0 0 0 0 845.58465986369993 264.58891000703534 0 264.58891000703534 -123.77201333858648 0 0 0 0 1679.8906568516686 923.69108284861238 0 923.69108284861238 345.27470956740217 0 0 0 0 880.16407155746128 903.99468667480232 0 903.99468667480232 67.506850222530829 0 0 0 0 1089.7938182887447 271.98885400844756 0 271.98885400844756 -128.60610134125591 0 0 0 0 300.92387450322894 -160.55135675770237 0 -160.55135675770237 -45.211377940613602 0 0 0 0 209.70447933057585 -44.358893454750159 0 -44.358893454750159 45.327778349052096 0 0 0 0 1019.7983687595406 -415.56336614487736 0 -415.56336614487736 -193.49880442457334 0 0 0 0 2368.4533584871351 -434.6079380034696 0 -434.6079380034696 -436.00613562504395 0 0 0 0 1.8004068460018345 2.8199244373078614 0 2.8199244373078614 16.622693527459276 0 0 0 0 1894.946207332323 -284.02150465489683 0 -284.02150465489683 1280.4051511463299 0 0 0 0 2186.8765723075921 -892.62905072480044 0 -892.62905072480044 -224.00625952351385 0 0 0 0 1903.9361711809761 -298.82414705985559 0 -298.82414705985559 -464.57449523513685 0 0 0 0 1539.3969390357088 -828.53971249503502 0 -828.53971249503502 -228.41533560679844 0 0 0 0 1366.8671738964622 -338.30211163154348 0 -338.30211163154348 -132.28876588091316 0 0 0 0 1383.8528335703741 -500.56886886665279 0 -500.56886886665279 121.04659467836291 0 0 0 0 1234.3031318664871 -159.78081612129989 0 -159.78081612129989 -315.29993137565327 0 0 0 0 4.5086645019803626 4.1796278190321345 0 4.1796278190321345 1.1915517567952847 0 0 0 0 1240.5462244654132 -520.37535042724846 0 -520.37535042724846 242.49074691150076 0 0 0 0 2.132111016886185 1.5402963435921606 0 1.5402963435921606 6.217016728560889 0 0 0 0 938.5249159893865 337.83427217803342 0 337.83427217803342 161.1885323818783 0 0 0 0 1838.7713304651988 -149.76402371716335 0 -149.76402371716335 -119.70034104477554 0 0 0 0 311.3628309338892 -112.88739635269212 0 -112.88739635269212 91.405775632015434 0 0 0 0 1243.3467623099423 -686.01709298262665 0 -686.01709298262665 -116.26775478348281 0 0 0 0 1817.4099106548674 307.91904691674131 0 307.91904691674131 202.69519188365439 0 0 0 0 1508.6594062849908 27.665307107542276 0 27.665307107542276 28.493320221312388 0 0 0 0 1418.2462866937858 308.86526140852311 0 308.86526140852311 330.10987517479703 0 0 0 0 1376.2332028206729 78.825081880802372 0 78.825081880802372 -23.825981132908055 0 0 0 0 1159.7085246955685 65.507525028543114 0 65.507525028543114 129.47082314709314 0 0 0 0 1323.5657639590936 40.276538380897364 0 40.276538380897364 27.913853289799192 0 0 0 0 1496.2631607929216 -384.29609959577283 0 -384.29609959577283 -198.18685133099643 0 0 0 0 1035.1823518961173 -67.771463578715384 0 -67.771463578715384 -83.72396412735452 0 0 0 0 1040.5219625049067 -86.652971397828878 0 -86.652971397828878 -173.0278751193955 0 0 0 0 790.01979220264911 -144.62190683569906 0 -144.62190683569906 -179.18389223917984 0 0 0 0 1260.876436105973 -183.26261975906937 0 -183.26261975906937 -412.29084394368329 0 0 0 0 1299.3575304780388 -220.75796844214619 0 -220.75796844214619 -416.97382163709881 0 0 0 0 796.16632733312144 217.48627206378114 0 217.48627206378114 130.42082956222748 0 0 0 0 367.54268433141988 39.148548636663918 0 39.148548636663918 57.762619625886146 0 0 0 0 1289.3875417034578 291.5083310873631 0 291.5083310873631 321.09657858602827 0 0 0 0 894.94764547952218 173.12346496795681 0 173.12346496795681 149.98885153693755 0 0 0 0 1083.8065899147623 663.60103722676661 0 663.60103722676661 541.383138447855 0 0 0 0 1092.7191734493281 350.09171223629352 0 350.09171223629352 307.62689382701774 0 0 0 0 1.3883316541096917 0.69913500925245842 0 0.69913500925245842 -1.271544793929789 0 0 0 0 95.671115775117869 -556.42971769030441 0 -556.42971769030441 -516.98968950684707 0 0 0 0 886.46863267506706 -127.01384428963718 0 -127.01384428963718 -306.1787431818214 0 0 0 0 1436.9884527828981 389.23028923173661 0 389.23028923173661 600.76563793238029 0 0 0 0 1330.1401091987209 197.05310896043329 0 197.05310896043329 359.88772775095799 0 0 0 0 1272.1154287609243 271.03528185793698 0 271.03528185793698 312.03097794527275 0 0 0 0 1401.5754095251323 -69.334327733871874 0 -69.334327733871874 45.382105824412747 0 0 0 0 1361.4323856261908 -93.083684521680084 0 -93.083684521680084 552.09387844348157 0 0 0 0 1393.486330499145 -67.588909749146637 0 -67.588909749146637 519.61522312988927 0 0 0 0 1933.1798413014621 -189.26010802179258 0 -189.26010802179258 115.59840329848248 0 0 0 0 1716.8896267890523 -238.01225672992837 0 -238.01225672992837 117.22435930978236 0 0 0 0 1394.6964860708704 -66.474917505381612 0 -66.474917505381612 39.02611556438319 0 0 0 0 1361.243465874355 -202.15051428126449 0 -202.15051428126449 -78.56838581620957 0 0 0 0 886.82593602761335 -87.658417490977286 0 -87.658417490977286 200.89481679625726 0 0 0 0 815.90550024976983 -190.52991813340799 0 -190.52991813340799 66.696804145361469 0 0 0 0 823.21442085656599 -115.07177346329829 0 -115.07177346329829 5.8764454521366076 0 0 0 0 1556.5279890433158 -149.83974510054452 0 -149.83974510054452 -130.4166659231048 0 0 0 0 1261.2728955489583 -24.107916401724168 0 -24.107916401724168 -11.248608000295292 0 0 0 0 1249.460871185227 -197.06202315393733 0 -197.06202315393733 -16.515854953101424 0 0 0 0 874.9462417901741 69.014422543794851 0 69.014422543794851 -0.46047201438404617 0 0 0 0 6.8711009619060519 -0.58521207924675878 0 -0.58521207924675878 -0.09354735206955575 0 0 0 0 2000.4071382233233 -803.70668015144054 0 -803.70668015144054 257.03703925944751 0 0 0 0 1258.8984746261558 -1081.6273953136688 0 -1081.6273953136688 506.48941739240973 0 0 0 0 2097.0608503872936 -254.69141797768683 0 -254.69141797768683 -78.096731533319854 0 0 0 0 1556.7903053767586 77.004718675010977 0 77.004718675010977 1.9598333086224016 0 0 0 0 1615.9945843494788 -76.768609357580914 0 -76.768609357580914 -119.75428843175166 0 0 0 0 1574.5904716912992 -42.221283039214313 0 -42.221283039214313 -57.140831229289233 0 0 0 0 1228.4955454747251 -245.12185488649413 0 -245.12185488649413 6.0061681163361982 0 0 0 0 1732.3344364727382 -365.03099617958515 0 -365.03099617958515 17.301919344958833 0 0 0 0 1178.652174663468 -491.13323957476882 0 -491.13323957476882 146.99991722939939 0 0 0 0 1128.78271504226 -425.96250070834299 0 -425.96250070834299 253.79161291130362 0 0 0 0 1269.662840549292 -347.96330345303204 0 -347.96330345303204 118.58392756927003 0 0 0 0 1201.1469814382144 -222.11268478190993 0 -222.11268478190993 110.37015497219795 0 0 0 0 920.53129986027488 -285.00630233771534 0 -285.00630233771534 127.50015314108441 0 0 0 0 1449.9190941504203 -194.87632142878931 0 -194.87632142878931 10.861967087302673 0 0 0 0 1194.4917220204079 -144.33390704349551 0 -144.33390704349551 76.379410850397335 0 0 0 0 1127.7905968315608 -98.931797959967753 0 -98.931797959967753 228.36743583326665 0 0 0 0 1419.8139998319966 -89.202554763099442 0 -89.202554763099442 85.082701411171456 0 0 0 0 921.35997940060042 -128.59702672457024 0 -128.59702672457024 159.71753432550054 0 0 0 0 1082.2558998991444 -217.56972337012348 0 -217.56972337012348 132.41741307727131 0 0 0 0 916.47161635079203 -172.87437109391854 0 -172.87437109391854 162.71563844763728 0 0 0 0 1502.7225712523668 -49.876704387494712 0 -49.876704387494712 23.255657425175741 0 0 0 0 1416.613232407226 -73.584132014086606 0 -73.584132014086606 33.371315956096396 0 0 0 0 1654.7424410041131 115.38169753568741 0 115.38169753568741 159.61800738613329 0 0 0 0 1573.4800197414079 33.383829603064953 0 33.383829603064953 197.49199636639514 0 0 0 0 1532.5318962281599 182.83633057442523 0 182.83633057442523 735.91827203200364 0 0 0 0 2020.5558915595539 139.09529807438446 0 139.09529807438446 220.4775535761828 0 0 0 0 1274.6308893615496 -141.49855170185356 0 -141.49855170185356 328.74666206250038 0 0 0 0 1241.9232303381214 -94.790352584952814 0 -94.790352584952814 319.84866384674888 0 0 0 0 1257.1958559232589 -317.72693631603488 0 -317.72693631603488 581.97195067146322 0 0 0 0 1235.3152181430778 -412.80955617800407 0 -412.80955617800407 214.28407062511997 0 0 0 0 1027.5222339294123 -124.38912162108204 0 -124.38912162108204 190.75595687210739 0 0 0 0 942.87569397550396 -220.71418849530102 0 -220.71418849530102 180.95596561759794 0 0 0 0 1187.0715497245546 -189.01205508598673 0 -189.01205508598673 170.14193915363967 0 0 0 0 1180.4815838155519 -270.55316270866251 0 -270.55316270866251 112.97013190419125 0 0 0 0 1152.898259123147 -346.42511911927159 0 -346.42511911927159 376.44404476237855 0 0 0 0 1168.2001895147841 -301.95306230206779 0 -301.95306230206779 218.65651897634052 0 0 0 0 1252.7114676405472 -384.42163884175397 0 -384.42163884175397 63.697572991157813 0 0 0 0 1068.8030213146121 -236.50817278946397 0 -236.50817278946397 111.17813945845216 0 0 0 0 1033.969547632616 -127.92978580675955 0 -127.92978580675955 -73.162234910516418 0 0 0 0 205.59530844287656 -16.54217596895348 0 -16.54217596895348 0.57708445098165317 0 0 0 0 853.72164766324568 -158.30149217008193 0 -158.30149217008193 143.43058230999941 0 0 0 0 118.08946408152406 -96.996441264987197 0 -96.996441264987197 300.29048218964613 0 0 0 0 424.0711987423565 -70.910604199737122 0 -70.910604199737122 297.59119761147934 0 0 0 0 555.53062097341171 -211.35564026953887 0 -211.35564026953887 251.75438066808283 0 0 0 0 768.22232393562444 -76.072640062713162 0 -76.072640062713162 125.7241483219295 0 0 0 0 33.420158530454501 -114.96372027785165 0 -114.96372027785165 372.87129505950799 0 0 0 0 33.457101211187805 -258.05750728896254 0 -258.05750728896254 548.55878832905285 0 0 0 0 153.87460922631726 -180.03847310842406 0 -180.03847310842406 181.62532521619528 0 0 0 0 170.46003052070591 -212.43467007765437 0 -212.43467007765437 371.28228793076937 0 0 0 0 169.96436566837656 -216.95604148693013 0 -216.95604148693013 435.91329904835209 0 0 0 0 92.974792114973752 -263.95147728218046 0 -263.95147728218046 411.72140512202702 0 0 0 0 95.789496515028077 -235.77332269125606 0 -235.77332269125606 442.13872212534125 0 0 0 0 170.96317021537106 -254.8153166344315 0 -254.8153166344315 374.05774302609473 0 0 0 0 337.25732762839471 -200.10986652145317 0 -200.10986652145317 363.42266584475067 0 0 0 0 195.2151884767809 -303.43292750072385 0 -303.43292750072385 338.87821563207558 0 0 0 0 369.0541131660575 -339.3391407797306 0 -339.3391407797306 243.9764204327214 0 0 0 0 188.18886593912612 -274.05720556413047 0 -274.05720556413047 336.1132293612518 0 0 0 0 178.08187809803349 -301.13790226644841 0 -301.13790226644841 269.31185063959128 0 0 0 0 81.533873649401357 -299.23805935844541 0 -299.23805935844541 352.1641617906177 0 0 0 0 61.748417779104784 -283.74316103591127 0 -283.74316103591127 280.33754247532659 0 0 0 0 5.0716522111761151 -260.22841524890907 0 -260.22841524890907 276.83578233712569 0 0 0 0 95.121263812663528 -239.28227767892065 0 -239.28227767892065 281.20565740600853 0 0 0 0 695.7556240377744 -245.05944673678454 0 -245.05944673678454 213.23781503935857 0 0 0 0 453.77588117981941 -305.88266549249062 0 -305.88266549249062 277.90525058433695 0 0 0 0 636.54837773395411 -166.4747418910431 0 -166.4747418910431 237.560436689357 0 0 0 0 629.78167581019807 -294.84791196167902 0 -294.84791196167902 201.17346661074191 0 0 0 0 385.77552910424856 -267.58414855975946 0 -267.58414855975946 288.36837378874975 0 0 0 0 915.82632830829118 -251.03826157898695 0 -251.03826157898695 155.63469157239251 0 0 0 0 853.77322426496539 -211.61981571391004 0 -211.61981571391004 177.23427066310236 0 0 0 0 674.57234734567464 -383.00057743331354 0 -383.00057743331354 214.24521983668046 0 0 0 0 841.29459998972015 -346.66886572070348 0 -346.66886572070348 232.0474194729035 0 0 0 0 423.526452525286 -241.60410909321433 0 -241.60410909321433 267.67058264800016 0 0 0 0 413.43172827507078 -35.320566939192233 0 -35.320566939192233 1.9344428889162524 0 0 0 0 833.11763250130025 -329.8584714419145 0 -329.8584714419145 211.9369959753044 0 0 0 0 602.57852573375567 -301.36246107015609 0 -301.36246107015609 252.11319503885784 0 0 0 0 729.06963609767263 -481.16832777425429 0 -481.16832777425429 566.91799328402863 0 0 0 0 571.04636411531828 -314.19034970855176 0 -314.19034970855176 308.53455675182124 0 0 0 0 652.11190096107748 -275.13954329348803 0 -275.13954329348803 284.08720322742477 0 0 0 0 446.67678753682412 -296.92329879695745 0 -296.92329879695745 210.91073107836871 0 0 0 0 568.02208474557847 -300.73835622451321 0 -300.73835622451321 310.80093282546767 0 0 0 0 496.48402355410508 -238.78673942951573 0 -238.78673942951573 262.83265812844706 0 0 0 0 570.98115818109363 -322.12397646756324 0 -322.12397646756324 220.5122881948661 0 0 0 0 385.72084398676816 -344.10161050089306 0 -344.10161050089306 184.23561483294128 0 0 0 0 410.55878697347362 -289.65704507240537 0 -289.65704507240537 253.53937914292533 0 0 0 0 601.78410264887498 -347.82081832010613 0 -347.82081832010613 186.76977373617746 0 0 0 0 365.39883224963341 -310.23153936609668 0 -310.23153936609668 243.01311440919949 0 0 0 0 537.57912939543894 6.1722706701216836 0 6.1722706701216836 -742.66099999299229 0 0 0 0 167.7368237018527 -304.20301186093087 0 -304.20301186093087 270.10602742639549 0 0 0 0 359.60587164360186 -346.37923152566077 0 -346.37923152566077 179.60436193568876 0 0 0 0 168.56563088274652 -253.91157852746895 0 -253.91157852746895 138.98992798401991 0 0 0 0 15.701482211006805 -123.42561165296618 0 -123.42561165296618 49.271014929857103 0 0 0 0 97.160523064783774 -313.41972854226884 0 -313.41972854226884 190.09761485655341 0 0 0 0 154.18180799362017 -251.43128396302421 0 -251.43128396302421 215.00480429181815 0 0 0 0 90.602733826875919 -260.13483385165648 0 -260.13483385165648 91.282091955276655 0 0 0 0 21.394972849055193 -253.61485663719253 0 -253.61485663719253 185.17872863746328 0 0 0 0 -10.36550346086733 -99.400038613854889 0 -99.400038613854889 49.193818796114236 0 0 0 0 78.985736973874737 -140.99498115762256 0 -140.99498115762256 -97.839186442176839 0 0 0 0 -123.50309275023756 181.41961394408736 0 181.41961394408736 -158.20288517627358 0 0 0 0 -328.23365932964953 -33.967680664838156 0 -33.967680664838156 241.7253999515867 0 0 0 0 158.80394842417445 -287.78394045620831 0 -287.78394045620831 264.56179345057126 0 0 0 0 204.04147000034573 -274.82114689120937 0 -274.82114689120937 225.04465042168306 0 0 0 0 175.74949723671307 -307.95055943883045 0 -307.95055943883045 222.46407026578379 0 0 0 0 -31.450489421258681 -174.1684384558946 0 -174.1684384558946 173.04826931237764 0 0 0 0 -201.69930283087888 -212.41203587613219 0 -212.41203587613219 288.50578332071007 0 0 0 0 -89.200635940302163 -240.64745699992073 0 -240.64745699992073 260.39009988262063 0 0 0 0 -376.19282563444722 414.11227826223143 0 414.11227826223143 -415.31291405974673 0 0 0 0 -446.22722984020947 782.11019226609437 0 782.11019226609437 18.341294632602853 0 0 0 0 6.8930637246581341 1.2122154609666111 0 1.2122154609666111 -0.08954403896628832 0 0 0 0 7.2955663544136939 1.4827802781829007 0 1.4827802781829007 -0.20977513727864072 0 0 0 0 464.49708541779546 -258.13894390564246 0 -258.13894390564246 769.48168225705547 0 0 0 0 468.37754137767479 -1228.1467212852774 0 -1228.1467212852774 1317.4748705428947 0 0 0 0 577.30032646161271 -139.77164956776755 0 -139.77164956776755 334.63247194004481 0 0 0 0 1250.3589088927838 -169.07807890495289 0 -169.07807890495289 -28.660815910988944 0 0 0 0 146.3981656114338 31.110340802312749 0 31.110340802312749 -508.78083022521025 0 0 0 0 -2114.7472504761536 263.24679024067217 0 263.24679024067217 151.77156378475803 0 0 0 0 15.692851440174252 2.8109859654642513 0 2.8109859654642513 -0.47057692996919698 0 0 0 0 2.0183767891492437 -0.047146007256941402 0 -0.047146007256941402 -0.4509332236954256 0 0 0 0 156.00072258952423 -271.12476037609144 0 -271.12476037609144 -502.37546251404672 0 0 0 0 124.98863458161941 -104.54098545676447 0 -104.54098545676447 -365.58489923804177 0 0 0 0 59.046024341354496 -87.671602614608886 0 -87.671602614608886 -150.22841473832932 0 0 0 0 66.175510580651462 -282.98727760318451 0 -282.98727760318451 -209.7552913695643 0 0 0 0 45.251136413309723 -243.118977573569 0 -243.118977573569 -128.58476956476875 0 0 0 0 -69.073420979781076 -386.24084961945874 0 -386.24084961945874 -33.281638736471422 0 0 0 0 -7.3000145109836012 -224.84459064868975 0 -224.84459064868975 35.74774866942704 0 0 0 0 59.496145674696891 -264.93891097410994 0 -264.93891097410994 22.79710369052961 0 0 0 0 -416.38726543508528 -285.09971152464789 0 -285.09971152464789 102.42719527901104 0 0 0 0 -31.256318322208244 -453.25640572865007 0 -453.25640572865007 -366.62747088262938 0 0 0 0 -123.00480914552645 -36.574699868315939 0 -36.574699868315939 297.79458735551736 0 0 0 0 358.80289973717299 598.53151279218059 0 598.53151279218059 126.09878642747471 0 0 0 0 2490.9876196737241 -1057.2545275403033 0 -1057.2545275403033 14.161005297940306 0 0 0 0 2842.9588245102932 -655.44189688484084 0 -655.44189688484084 286.62555640306118 0 0 0 0 9.0657992095719919 1.0811616580144801 0 1.0811616580144801 0.317282756523034 0 0 0 0 2496.5796512705856 245.72042341678602 0 245.72042341678602 -347.16671606211094 0 0 0 0 1371.4671829819126 737.85408790632971 0 737.85408790632971 45.70838261322546 0 0 0 0 410.39970009401441 18.641850247189613 0 18.641850247189613 270.84608591741443 0 0 0 0 1343.0248016737023 -102.52512607448301 0 -102.52512607448301 -90.905823035949709 0 0 0 0 802.25019561688532 175.97818721709001 0 175.97818721709001 322.34085884101671 0 0 0 0 50.113407808705233 -247.42667686056996 0 -247.42667686056996 312.34488788151117 0 0 0 0 -12.081602070415101 -171.51996590971856 0 -171.51996590971856 248.99525812414919 0 0 0 0 314.0585098266456 92.407912610398924 0 92.407912610398924 281.9701035467121 0 0 0 0 423.94819728520815 -253.52907226706128 0 -253.52907226706128 368.51409323623034 0 0 0 0 79.820487066099304 -293.69831094049027 0 -293.69831094049027 385.69904982128281 0 0 0 0 144.48822721299075 -122.20218144318055 0 -122.20218144318055 396.50893859306871 0 0 0 0 221.68551350147754 -273.56711638627206 0 -273.56711638627206 435.9258005711722 0 0 0 0 231.49503471037315 -245.22935514251219 0 -245.22935514251219 395.91291472928515 0 0 0 0 1003.2604190958518 -606.15310640828727 0 -606.15310640828727 394.61541718680508 0 0 0 0 2495.2997644185234 -867.30009962174142 0 -867.30009962174142 -111.80998359431837 0 0 0 0 1226.0395064414624 -254.46793957629313 0 -254.46793957629313 -101.44983752441212 0 0 0 0 709.23369967558392 -1012.2255931183068 0 -1012.2255931183068 602.38226684824201 0 0 0 0 12.45611860561911 -3.1603952108472804 0 -3.1603952108472804 1.0673534921230843 0 0 0 0 611.33987717219497 106.76055195913291 0 106.76055195913291 -342.91735547219611 0 0 0 0 2494.9765155794739 1039.9602839209024 0 1039.9602839209024 -366.73517620938316 0 0 0 0 -121.88922191454185 92.836294483304528 0 92.836294483304528 272.29925459601242 0 0 0 0 -206.81796400259191 -378.77553596424252 0 -378.77553596424252 656.28953866956999 0 0 0 0 134.24262174910837 96.322037422403582 0 96.322037422403582 -144.91967216157934 0 0 0 0 23.436974521377124 -415.72897994656489 0 -415.72897994656489 -484.16471960998746 0 0 0 0 981.03534452510939 156.02461600125099 0 156.02461600125099 -4.0185155066142784 0 0 0 0 35.904732765658991 279.73004554403866 0 279.73004554403866 15.670482379725854 0 0 0 0 1167.8818160057854 -150.57083152155906 0 -150.57083152155906 -69.337567713166663 0 0 0 0 489.66419815750123 181.77626486728627 0 181.77626486728627 89.126233790425204 0 0 0 0 12.579966879019281 -4.0066217397078248 0 -4.0066217397078248 0.93608217916998915 0 0 0 0 786.83735239742964 -1214.4563610292723 0 -1214.4563610292723 479.79129634022183 0 0 0 0 1579.3913172616303 421.68112907827032 0 421.68112907827032 -365.31893934550646 0 0 0 0 -515.34010502445744 -130.1138098451222 0 -130.1138098451222 142.96425242785543 0 0 0 0 25.139962460214775 -7.1146691357078602 0 -7.1146691357078602 0.79515105362776761 0 0 0 0 942.81839141645469 -116.8049792522292 0 -116.8049792522292 -925.28503728571513 0 0 0 0 473.60982904794946 -521.25323819765583 0 -521.25323819765583 307.61757380373172 0 0 0 0 899.30023414400785 -675.71513582768807 0 -675.71513582768807 195.50067056284996 0 0 0 0 783.94946714599791 -738.56936689424242 0 -738.56936689424242 191.83576332803096 0 0 0 0 903.53331991026062 -1080.1400480389932 0 -1080.1400480389932 133.49403863956417 0 0 0 0 1274.0379123108214 -979.1847987044772 0 -979.1847987044772 143.71001214214903 0 0 0 0 1266.2159984978962 -648.01593229964305 0 -648.01593229964305 258.31397357794526 0 0 0 0 1107.1731172921427 -769.00330056588359 0 -769.00330056588359 194.58356782406614 0 0 0 0 1105.7345964023843 -565.23387595649797 0 -565.23387595649797 424.85879394847319 0 0 0 0 1370.3087821240697 -605.31131830383185 0 -605.31131830383185 316.65899395195396 0 0 0 0 954.24518516082026 -478.21150246731588 0 -478.21150246731588 298.06824713545944 0 0 0 0 911.08672322773054 -673.05672333372797 0 -673.05672333372797 373.34008334897749 0 0 0 0 1256.6003130085355 189.62397011566387 0 189.62397011566387 -332.28390997081539 0 0 0 0 2500.1704891050613 -221.55956996007947 0 -221.55956996007947 -273.97657272739315 0 0 0 0 344.37698462734988 -276.51737810710347 0 -276.51737810710347 -115.27361222206537 0 0 0 0 6.0514596715669597 0.072771210613780113 0 0.072771210613780113 0.35529155644669386 0 0 0 0 12.864228158599872 72.163812913255356 0 72.163812913255356 219.1875319309961 0 0 0 0 51.733252915728372 -19.213028975692623 0 -19.213028975692623 -82.131235979356461 0 0 0 0 58.294377129306156 27.010227739855445 0 27.010227739855445 -9.8224245376137702 0 0 0 0 59.092876865782273 133.63650330309241 0 133.63650330309241 -8.402641275393762 0 0 0 0 59.891161365354492 258.03344977685106 0 258.03344977685106 -4.7987612065988969 0 0 0 0 425.62599744519684 117.05706440408926 0 117.05706440408926 -41.293764490250851 0 0 0 0 58.81878435634134 -43.087979762043126 0 -43.087979762043126 -81.443191951565041 0 0 0 0 208.15117801846645 -216.3617545980394 0 -216.3617545980394 151.03217861253836 0 0 0 0 137.33218788380691 -97.857680372797859 0 -97.857680372797859 -19.018420070811317 0 0 0 0 58.251485005741415 -121.56403504760715 0 -121.56403504760715 119.06842171585413 0 0 0 0 38.184461349497724 17.191037644619655 0 17.191037644619655 68.014127830405414 0 0 0 0 9.0421529679369996 18.094047717983358 0 18.094047717983358 115.05725109535433 0 0 0 0 26.454104307835223 17.881684620471333 0 17.881684620471333 321.29503068641588 0 0 0 0 338.38924155204586 96.280706090940384 0 96.280706090940384 -38.934135332520555 0 0 0 0 148.35508779458905 -64.785180481516647 0 -64.785180481516647 -175.12201761222514 0 0 0 0 30.768230890993436 139.84948807094179 0 139.84948807094179 9.1511096061512944 0 0 0 0 72.218556383573741 58.844714041263614 0 58.844714041263614 -138.4522195860427 0 0 0 0 15.393754482327495 25.251070628285561 0 25.251070628285561 81.774099713784835 0 0 0 0 -202.00736469979893 -239.34701726023525 0 -239.34701726023525 390.37353674785527 0 0 0 0 46.65456280709742 3.550486227173133 0 3.550486227173133 -2.2718310425761281 0 0 0 0 -138.04324060215731 -162.17810744241319 0 -162.17810744241319 -114.66175570438857 0 0 0 0 801.05540358586222 268.41221303682619 0 268.41221303682619 -488.15431972255374 0 0 0 0 32.76037870560782 2.3148890364421071 0 2.3148890364421071 -0.11943000310848029 0 0 0 0 -71.465491222348646 300.87232351887059 0 300.87232351887059 -32.943492119265898 0 0 0 0 171.31213202842628 -255.38848981297599 0 -255.38848981297599 101.14725406081197 0 0 0 0 88.746350341010839 -346.45615774188605 0 -346.45615774188605 281.26092588503025 0 0 0 0 -287.76324440181634 36.537707294806978 0 36.537707294806978 51.634576616109371 0 0 0 0 1122.6858617897597 -37.506455552833359 0 -37.506455552833359 50.473578703064049 0 0 0 0 11.569726301578356 1.9373577316887403 0 1.9373577316887403 0.49051622565823672 0 0 0 0 -271.03259932365472 314.8542011161469 0 314.8542011161469 470.14160751662234 0 0 0 0 -87.224520107614808 -338.02852511362687 0 -338.02852511362687 308.13744151416336 0 0 0 0 -220.09299690059561 -10.18853766634038 0 -10.18853766634038 615.34260109980653 0 0 0 0 -300.82325833303912 -194.67347430454902 0 -194.67347430454902 221.72215242959192 0 0 0 0 -421.56398959823127 5.7086937441908958 0 5.7086937441908958 132.31872227977522 0 0 0 0 -32.351542862066708 4.319300337121831 0 4.319300337121831 32.348070324111632 0 0 0 0 -2.2892060991501779 -1.6995514062966492 0 -1.6995514062966492 -0.62674284492541155 0 0 0 0 52.214449278720281 6.9239565986613059 0 6.9239565986613059 -7.7674535146286328 0 0 0 0 -35.150882901412842 -96.646986487487197 0 -96.646986487487197 -52.984105913148142 0 0 0 0 367.19748958970013 319.77111833570416 0 319.77111833570416 -196.59839910945129 0 0 0 0 -301.20063073080746 186.82716898429953 0 186.82716898429953 -71.649856468086909 0 0 0 0 9.7957640683017928 10.155385476822232 0 10.155385476822232 0.51475658805280222 0 0 0 0 94.639503403872368 403.39368209141276 0 403.39368209141276 465.23962838352145 0 0 0 0 -5.5212048040848458 160.4367499607315 0 160.4367499607315 -105.93158615228504 0 0 0 0 6.5932495684929542 -22.328866075810396 0 -22.328866075810396 9.9728104893347123 0 0 0 0 21.020230009369129 2.6750443198460658 0 2.6750443198460658 -7.0739780993369621 0 0 0 0 52.78177665174735 -20.274316285394434 0 -20.274316285394434 4.7383809914188788 0 0 0 0 52.181530693800596 -20.288257615392013 0 -20.288257615392013 9.104669128501655 0 0 0 0 43.230409269453958 -29.797308450739365 0 -29.797308450739365 4.6341248683747835 0 0 0 0 56.89282741988427 -17.995784458185426 0 -17.995784458185426 4.7665858563093693 0 0 0 0 36.097706988459464 -16.89945604821223 0 -16.89945604821223 -2.6999663957053261 0 0 0 0 17.882867653744647 -20.870355408895009 0 -20.870355408895009 10.483577971389453 0 0 0 0 42.972939903171209 -14.807036364670921 0 -14.807036364670921 7.7497466936918613 0 0 0 0 62.93726863815391 26.986309176082159 0 26.986309176082159 -28.384638296980484 0 0 0 0 46.492628672960564 6.5607202800081268 0 6.5607202800081268 5.2313929630608982 0 0 0 0 28.536490584346609 9.6722226786444736 0 9.6722226786444736 -0.056639313422623516 0 0 0 0 111.75618028090685 20.897476783028651 0 20.897476783028651 -89.129146955759552 0 0 0 0 26.630942358056927 -24.985362241246548 0 -24.985362241246548 23.574286107581429 0 0 0 0 85.229371045235894 -109.55325740266608 0 -109.55325740266608 45.05198081112394 0 0 0 0 37.524824062049447 -28.038930133312306 0 -28.038930133312306 3.8563788851629397 0 0 0 0 151.9864307077296 -12.460015738368384 0 -12.460015738368384 -35.554429708208772 0 0 0 0 51.735343381908024 -12.737377050490068 0 -12.737377050490068 2.1378891953518178 0 0 0 0 66.867710879834661 -8.9096023536121578 0 -8.9096023536121578 -6.3396896156830618 0 0 0 0 13.787956614581049 -26.013949143530738 0 -26.013949143530738 8.0081882679727059 0 0 0 0 26.375891244380909 -44.275143295757516 0 -44.275143295757516 43.784209874913358 0 0 0 0 203.49651593540329 -27.735538922344858 0 -27.735538922344858 101.59459975907521 0 0 0 0 -2.3801657240911993 -2.0909244285117445 0 -2.0909244285117445 3.4583194492319596 0 0 0 0 40.22614164452898 -28.848974225978509 0 -28.848974225978509 -0.54009882549371468 0 0 0 0 39.765987281049348 -26.235286219332497 0 -26.235286219332497 5.4967459844592188 0 0 0 0 39.321638610536979 -26.845764188968037 0 -26.845764188968037 3.4556479636844166 0 0 0 0 60.772606866803471 -31.848946299657655 0 -31.848946299657655 20.621592600758959 0 0 0 0 54.309125613601282 -17.309797119793302 0 -17.309797119793302 8.9278639881185882 0 0 0 0 105.663136099658 -0.35547531570909996 0 -0.35547531570909996 40.805573600639036 0 0 0 0 165.3975047770291 -124.40429173725624 0 -124.40429173725624 18.695860853624254 0 0 0 0 8.8197435866024563 1.463270047978753 0 1.463270047978753 5.9396437922836256 0 0 0 0 194.72588973783604 -50.876710756509965 0 -50.876710756509965 -14.895864470992819 0 0 0 0 39.146280871649651 -3.0211714106822001 0 -3.0211714106822001 -5.6808831098041992 0 0 0 0 2.1064879148998585 2.4482787290716956 0 2.4482787290716956 2.34273476035046 0 0 0 0 72.395614970748284 -13.481210132025353 0 -13.481210132025353 -6.9983392431959146 0 0 0 0 63.423623767135723 -24.380849862305695 0 -24.380849862305695 8.9455767060957978 0 0 0 0 -76.644754368229769 75.215559539814194 0 75.215559539814194 27.812442205741377 0 0 0 0 100.89216147887646 77.739996063394244 0 77.739996063394244 -23.693144391212627 0 0 0 0 62.706951283746889 18.96619951016114 0 18.96619951016114 -11.589897241458653 0 0 0 0 84.268734947581834 -30.538061159526933 0 -30.538061159526933 1.7859682418102238 0 0 0 0 137.76988623522266 3.3933189251345084 0 3.3933189251345084 43.422616878100598 0 0 0 0 245.9030893253148 -111.76642181192756 0 -111.76642181192756 24.796175478382338 0 0 0 0 94.112152816229354 -62.233069369839541 0 -62.233069369839541 -50.99597124664399 0 0 0 0 93.007834678792278 23.571205221163837 0 23.571205221163837 95.545877896606726 0 0 0 0 413.17076686358632 -76.892286266304836 0 -76.892286266304836 4.7083080222291755 0 0 0 0 22.698309494004206 57.188551436074249 0 57.188551436074249 45.82738917284496 0 0 0 0 0.85282389635063538 0.66190747456607824 0 0.66190747456607824 0.87560088432748984 0 0 0 0 169.015778693225 77.354799063144583 0 77.354799063144583 13.132809948414433 0 0 0 0 139.55517670519839 -66.564944025438308 0 -66.564944025438308 55.705022766613183 0 0 0 0 66.938965508878482 -18.48342478051137 0 -18.48342478051137 -6.2427987382525316 0 0 0 0 53.673373751134022 -16.256362383806163 0 -16.256362383806163 0.26614393303407269 0 0 0 0 66.477813062570931 -14.06007860537602 0 -14.06007860537602 -10.276755181498629 0 0 0 0 94.858999602416588 18.204802436863702 0 18.204802436863702 18.430080938661831 0 0 0 0 70.32239108869544 -4.4796792165716397 0 -4.4796792165716397 -11.793029365027905 0 0 0 0 77.008649894991322 -11.753459672725739 0 -11.753459672725739 -11.437565199888923 0 0 0 0 113.39032997847971 10.201677002339238 0 10.201677002339238 -11.203533848442021 0 0 0 0 129.77159053270407 24.089007483321438 0 24.089007483321438 -11.06516516600459 0 0 0 0 111.08320407950487 -0.74885527689093578 0 -0.74885527689093578 -27.987415776447961 0 0 0 0 100.58873170513561 8.9924223044552036 0 8.9924223044552036 -10.237115463975897 0 0 0 0 235.34486013483911 -14.235211010299736 0 -14.235211010299736 -24.866891192687945 0 0 0 0 147.17257827607682 13.641769419286447 0 13.641769419286447 -36.61708447755791 0 0 0 0 141.71703084473302 -6.0366727705027188 0 -6.0366727705027188 -29.568237059904277 0 0 0 0 135.88336055621039 0.080603532647955944 0 0.080603532647955944 -26.52515382659567 0 0 0 0 90.408095937627877 -0.67970897874010916 0 -0.67970897874010916 -31.013338453010874 0 0 0 0 99.741046994193539 -31.133300953494256 0 -31.133300953494256 -43.306215399022221 0 0 0 0 67.431452558495948 -21.23154594828975 0 -21.23154594828975 -39.141691095460828 0 0 0 0 7.4433688518601855 7.2359393551671962 0 7.2359393551671962 -1.8403783345272124 0 0 0 0 98.764846783938992 -17.926286729212734 0 -17.926286729212734 3.5149087215513646 0 0 0 0 94.993709161368315 -5.334534012489712 0 -5.334534012489712 1.7233378296500632 0 0 0 0 36.553261004082742 -12.597597174341445 0 -12.597597174341445 40.274698509929294 0 0 0 0 38.745160072905378 64.738164030536481 0 64.738164030536481 0.4596541154805891 0 0 0 0 66.575350512468091 23.782387998839063 0 23.782387998839063 -7.743722850639859 0 0 0 0 92.038170732619619 -2.877466066765237 0 -2.877466066765237 -33.140036586206406 0 0 0 0 117.56743919313885 -82.225148665289908 0 -82.225148665289908 -29.80414843203107 0 0 0 0 54.007125574498787 -53.22499779515374 0 -53.22499779515374 -21.838237671670868 0 0 0 0 122.45993687813461 62.005659726587055 0 62.005659726587055 -96.503064487831068 0 0 0 0 143.41999566047707 -46.441726851641221 0 -46.441726851641221 -73.702361216513509 0 0 0 0 83.161286838582797 -19.565174242705066 0 -19.565174242705066 1.8018442269911219 0 0 0 0 80.010355439284467 -58.153899615519094 0 -58.153899615519094 -8.9432467039750918 0 0 0 0 73.490225061286765 -43.531882376654494 0 -43.531882376654494 51.823360653384952 0 0 0 0 36.232086818396056 10.693024418520508 0 10.693024418520508 -42.846755049547937 0 0 0 0 37.907134879111254 0.47792406586086145 0 0.47792406586086145 -19.627237338835585 0 0 0 0 11.362341655886439 -4.2916296109908814 0 -4.2916296109908814 -0.54026405105041064 0 0 0 0 53.964110801043716 7.0635618009989685 0 7.0635618009989685 -68.819144465540376 0 0 0 0 60.45079466497009 -16.770643325277206 0 -16.770643325277206 -136.69642734769513 0 0 0 0 -8.454697096691234 70.036442306667595 0 70.036442306667595 -131.88099141465864 0 0 0 0 14.482357219414553 1.4330116969495066 0 1.4330116969495066 -41.343313492929155 0 0 0 0 -0.99801389280136732 0.43027068409153202 0 0.43027068409153202 0.860213916701138 0 0 0 0 264.25144510686368 -138.44109026045589 0 -138.44109026045589 -3.8112080715327465 0 0 0 0 -12.142649773661105 -59.82797084070171 0 -59.82797084070171 1.9651239576523949 0 0 0 0 130.08992966276128 -62.545962573708493 0 -62.545962573708493 -132.56883354042475 0 0 0 0 196.86121649735287 -4.0244979940025587 0 -4.0244979940025587 -143.98935851707211 0 0 0 0 249.7984452519413 -17.783394052714812 0 -17.783394052714812 0.22704474119382212 0 0 0 0 -0.54435622735975464 0.36561326301853825 0 0.36561326301853825 0.37223519724361509 0 0 0 0 32.598322365221975 -44.458801154431967 0 -44.458801154431967 -58.017010340144225 0 0 0 0 174.40156941353052 -78.453944533950562 0 -78.453944533950562 47.412208759760688 0 0 0 0 13.186285819022487 -106.34632810863593 0 -106.34632810863593 -86.390317913354011 0 0 0 0 53.976583891064365 -36.629586042382016 0 -36.629586042382016 -87.404724695469866 0 0 0 0 72.207180286907345 -13.87223154032333 0 -13.87223154032333 -22.841023556053251 0 0 0 0 130.5668652388149 -173.44668889476361 0 -173.44668889476361 -320.79507572103762 0 0 0 0 338.33950978333905 55.967248212001891 0 55.967248212001891 -251.88228475521214 0 0 0 0 80.976697780058203 34.267823579293008 0 34.267823579293008 -135.01597735687756 0 0 0 0 275.26569298648064 152.84724761649204 0 152.84724761649204 -255.24690870756274 0 0 0 0 180.49942042377825 96.982184208903163 0 96.982184208903163 -98.735936737008615 0 0 0 0 20.941792255998735 -19.974099816899297 0 -19.974099816899297 -2.2630541143444134 0 0 0 0 67.483711881855641 -5.0510651735917698 0 -5.0510651735917698 -28.305162469602276 0 0 0 0 32.687443593611533 -62.441419025475625 0 -62.441419025475625 -59.712103635188214 0 0 0 0 103.44963579567593 -24.923749376222531 0 -24.923749376222531 -58.024520512219624 0 0 0 0 41.477881872194871 -15.856085194273334 0 -15.856085194273334 -15.372900949519909 0 0 0 0 10.864139603655047 -2.9604039232402357 0 -2.9604039232402357 -0.4773765736952793 0 0 0 0 77.623511583887193 79.142345939595899 0 79.142345939595899 -43.03574535988696 0 0 0 0 31.843755096160749 -7.0308396628063292 0 -7.0308396628063292 -22.652176456972313 0 0 0 0 40.273667880228658 -7.9195423215056948 0 -7.9195423215056948 -4.8667104672714423 0 0 0 0 21.956186164046812 8.4651508619540436 0 8.4651508619540436 -14.912231877681734 0 0 0 0 56.793555808297242 -37.601804176600126 0 -37.601804176600126 6.263651066912189 0 0 0 0 65.289365893106151 -3.2031651409397455 0 -3.2031651409397455 30.180787573667658 0 0 0 0 42.25885766477586 -5.58121947656673 0 -5.58121947656673 -6.8667116692456602 0 0 0 0 44.615131034741609 -17.102780399194433 0 -17.102780399194433 -1.35175434980642 0 0 0 0 32.192452334536938 -13.681130907725674 0 -13.681130907725674 -17.81087112479554 0 0 0 0 34.136259669820049 -13.810440289898729 0 -13.810440289898729 -4.4468580450775992 0 0 0 0 29.841795763320988 -19.415493349907592 0 -19.415493349907592 9.8278456293624004 0 0 0 0 59.05614252477244 -114.25254184326059 0 -114.25254184326059 67.371500243392802 0 0 0 0 100.48328735760151 -95.044566279676701 0 -95.044566279676701 -21.538765569624957 0 0 0 0 75.109018776697553 -27.14129135082176 0 -27.14129135082176 5.6351829999323311 0 0 0 0 55.572830428810626 -20.048224272915405 0 -20.048224272915405 -3.1406130502151797 0 0 0 0 18.223820851663611 -2.0669054646611968 0 -2.0669054646611968 0.21848425502684421 0 0 0 0 129.17067111861979 15.599019133561796 0 15.599019133561796 1.2449450342355703 0 0 0 0 124.7310751529767 -19.395466157432111 0 -19.395466157432111 -42.392539932441196 0 0 0 0 34.804752286258008 -10.87089167568729 0 -10.87089167568729 14.830840582135352 0 0 0 0 92.649317694654201 -7.6740212120070055 0 -7.6740212120070055 -11.531761798018124 0 0 0 0 71.11604662062382 15.377241993486109 0 15.377241993486109 35.555896170897881 0 0 0 0 51.656872761064349 32.215121327271525 0 32.215121327271525 23.1857049329655 0 0 0 0 40.176560329000495 124.96565868119433 0 124.96565868119433 -33.263137419825284 0 0 0 0 -50.393711501528742 99.835134954510977 0 99.835134954510977 -36.617155795679537 0 0 0 0 11.768578841005834 7.4831493747133777 0 7.4831493747133777 -0.16093015391966148 0 0 0 0 -3.4949309278963483 124.20053821445754 0 124.20053821445754 -15.091174606722007 0 0 0 0 -37.696139225257866 102.91451818125773 0 102.91451818125773 131.73174734033819 0 0 0 0 42.820663050151779 120.48760847881067 0 120.48760847881067 -32.521777483638289 0 0 0 0 44.952344052708213 126.30152242777149 0 126.30152242777149 -40.985473423289932 0 0 0 0 275.86521539844216 261.48832916208448 0 261.48832916208448 36.249650260951967 0 0 0 0 149.8870845526435 104.05402333336497 0 104.05402333336497 -57.94288082141793 0 0 0 0 21.030046182291699 69.86409520718189 0 69.86409520718189 -57.495520484737426 0 0 0 0 119.3673629410132 27.084989870488016 0 27.084989870488016 -84.820439265697132 0 0 0 0 94.095046349313634 36.068700910524512 0 36.068700910524512 -68.291627155384504 0 0 0 0 373.79810220354057 32.093881137825804 0 32.093881137825804 -142.79299734477308 0 0 0 0 296.3398277237593 220.60949050028955 0 220.60949050028955 -97.528919214458256 0 0 0 0 -0.14547359899846768 -1.0041297076691471 0 -1.0041297076691471 -5.9822356945908099 0 0 0 0 -35.465022802462045 -211.32201202091255 0 -211.32201202091255 -102.31412882397308 0 0 0 0 148.91542760987977 77.373133175058683 0 77.373133175058683 37.310791184495883 0 0 0 0 280.91116531747866 59.986507344968231 0 59.986507344968231 -19.942132769627278 0 0 0 0 270.60766822673213 -85.798370930710462 0 -85.798370930710462 -69.825406159272461 0 0 0 0 124.13502589528184 111.77198486529693 0 111.77198486529693 35.328570345387561 0 0 0 0 16.397167635648472 -17.732767613138627 0 -17.732767613138627 -19.279742099503888 0 0 0 0 158.53648267966491 53.785099679743553 0 53.785099679743553 -58.862282305463623 0 0 0 0 86.388956271869048 4.1160230856710953 0 4.1160230856710953 -24.244904250247195 0 0 0 0 95.8724777350929 -11.66958691776648 0 -11.66958691776648 -22.100826528633899 0 0 0 0 100.93289080907107 -129.20832609897801 0 -129.20832609897801 -7.1554945977745774 0 0 0 0 91.913953557123023 -2.3984654011010207 0 -2.3984654011010207 -9.2584214288153817 0 0 0 0 88.419159580516862 15.917292937029742 0 15.917292937029742 15.340941441467294 0 0 0 0 92.386886925815915 20.580777419728779 0 20.580777419728779 2.9020340776116136 0 0 0 0 86.630887353199853 -18.88889159431664 0 -18.88889159431664 -6.4426218198495988 0 0 0 0 270.89958870574173 30.393264685802137 0 30.393264685802137 34.890332264766585 0 0 0 0 164.26308668411093 106.03909697681411 0 106.03909697681411 -14.366507539190934 0 0 0 0 16.817644898367419 7.3871379387746252 0 7.3871379387746252 -11.447354979230751 0 0 0 0 79.13416982606941 15.623885485881146 0 15.623885485881146 -70.548445055625962 0 0 0 0 67.685757309045584 26.622408464579621 0 26.622408464579621 27.929590346782106 0 0 0 0 89.15618243915651 40.070928791303913 0 40.070928791303913 -45.599907023102787 0 0 0 0 53.661613635075099 35.311377894191182 0 35.311377894191182 21.746354462367997 0 0 0 0 88.984895862879057 22.401727107672741 0 22.401727107672741 28.746593903848975 0 0 0 0 35.516176957634272 -5.1782377290737358 0 -5.1782377290737358 7.8917655068949912 0 0 0 0 80.53131135642252 8.7718264656098199 0 8.7718264656098199 31.300347370950931 0 0 0 0 69.622836327303958 11.322005083231431 0 11.322005083231431 34.169589797199478 0 0 0 0 71.245794297041357 14.264783463069577 0 14.264783463069577 36.726335063952092 0 0 0 0 53.846190282775694 -18.482470399319119 0 -18.482470399319119 -4.6427443967262914 0 0 0 0 86.102811156728421 28.788091198744041 0 28.788091198744041 21.343432124211859 0 0 0 0 69.346226937963365 14.251211216174397 0 14.251211216174397 24.13497285729045 0 0 0 0 67.674695445765792 9.8036144225806652 0 9.8036144225806652 35.199970202914301 0 0 0 0 19.809147579980078 4.5799355719532002 0 4.5799355719532002 -0.20616757081785053 0 0 0 0 47.26647624242834 -16.248681490239441 0 -16.248681490239441 -1.2049680474028914 0 0 0 0 72.362178385716106 4.2766246536530161 0 4.2766246536530161 14.475585317433797 0 0 0 0 109.04654935840517 -12.861249856879112 0 -12.861249856879112 43.600878916488 0 0 0 0 72.603126705653267 -26.345095021989437 0 -26.345095021989437 51.545968344904168 0 0 0 0 71.980395375194348 -21.79481618610771 0 -21.79481618610771 18.89082378636158 0 0 0 0 62.247797136944428 0.060784585349438203 0 0.060784585349438203 43.996272418001354 0 0 0 0 113.65408618775109 -22.928058758298675 0 -22.928058758298675 8.9230699739005104 0 0 0 0 78.429917012515943 -37.261486802602803 0 -37.261486802602803 2.7752385333001257 0 0 0 0 72.192856929497793 -20.86479283425092 0 -20.86479283425092 17.809350502957841 0 0 0 0 82.193921837184462 -35.712042060379872 0 -35.712042060379872 0.31280496082945319 0 0 0 0 114.01413333167147 -23.182350700781853 0 -23.182350700781853 2.5646998426527716 0 0 0 0 86.239167291219928 -9.0193436134577496 0 -9.0193436134577496 27.212310393933876 0 0 0 0 137.6839821984031 8.4948334697974133 0 8.4948334697974133 14.514317079007014 0 0 0 0 92.498099061689572 -0.48217403250964708 0 -0.48217403250964708 11.106974598351371 0 0 0 0 95.270908817145028 -10.552304796353496 0 -10.552304796353496 12.692408387702017 0 0 0 0 86.192869654641981 -10.974680515019713 0 -10.974680515019713 13.082933418842913 0 0 0 0 141.39232242590379 -39.764201741496365 0 -39.764201741496365 14.146133216231647 0 0 0 0 120.92862053822319 -19.841504426036863 0 -19.841504426036863 3.5299494091318593 0 0 0 0 109.70761017088807 -60.943949565597222 0 -60.943949565597222 -30.643427406997944 0 0 0 0 124.01780550408876 -37.041036121519937 0 -37.041036121519937 -19.591845256396937 0 0 0 0 106.94129377541321 -39.129744938453769 0 -39.129744938453769 -10.857278527822928 0 0 0 0 84.84388767182827 -36.686311013301065 0 -36.686311013301065 0.43736858799229594 0 0 0 0 101.17203432474344 -61.911431516653124 0 -61.911431516653124 -6.749257959796978 0 0 0 0 65.435914316258277 -62.876659784006506 0 -62.876659784006506 -6.6180613376693103 0 0 0 0 102.38653576670913 -96.791835359906401 0 -96.791835359906401 18.997135991357254 0 0 0 0 44.512057472777087 -19.256612051095999 0 -19.256612051095999 -26.66336166471342 0 0 0 0 60.079938763075916 -112.50226018485117 0 -112.50226018485117 91.168931599764676 0 0 0 0 21.723293972492684 -59.848709591641978 0 -59.848709591641978 25.858131254574516 0 0 0 0 26.740875762770884 -35.313397355613006 0 -35.313397355613006 -1.2623357143299359 0 0 0 0 52.453598796404549 -45.082413150551531 0 -45.082413150551531 -2.7706070640606413 0 0 0 0 44.897865866441862 -19.598218039267749 0 -19.598218039267749 -43.46590090608538 0 0 0 0 34.554570941036218 -35.602486049197751 0 -35.602486049197751 3.3767863149265622 0 0 0 0 32.657325875652532 -6.8362762466449496 0 -6.8362762466449496 -25.878249461151768 0 0 0 0 56.974441897837096 -28.354941065736853 0 -28.354941065736853 -25.147164317214106 0 0 0 0 38.80300989747775 -20.904251362917648 0 -20.904251362917648 -8.4623488300210283 0 0 0 0 69.346575977593602 -23.216360566179731 0 -23.216360566179731 -11.202244509998764 0 0 0 0 73.645011353240989 -51.537043451722667 0 -51.537043451722667 0.434793583836381 0 0 0 0 53.897258802695433 -42.559315012674233 0 -42.559315012674233 2.7094257873318384 0 0 0 0 81.718836476342403 -38.633837355697096 0 -38.633837355697096 3.1223293237117105 0 0 0 0 78.924926133338886 0.22051590117985143 0 0.22051590117985143 -15.065939910290126 0 0 0 0 30.446408397234336 6.9953512416280432 0 6.9953512416280432 -15.053582110020216 0 0 0 0 70.815254945206107 -32.645028962351148 0 -32.645028962351148 1.3899318825509681 0 0 0 0 62.235178210001322 -1.3454051628664274 0 -1.3454051628664274 -0.076663616336077212 0 0 0 0 64.168609330656182 -9.6062778780603111 0 -9.6062778780603111 -33.913172503530973 0 0 0 0 6.1052757975267014 1.8631386709319031 0 1.8631386709319031 -30.854480381458075 0 0 0 0 46.300176467804704 30.203636525488037 0 30.203636525488037 -78.004591390567384 0 0 0 0 54.484617690934101 -1.852662073423744 0 -1.852662073423744 -59.075039562193581 0 0 0 0 48.417216427835228 29.005469747095844 0 29.005469747095844 2.1306225388910889 0 0 0 0 47.208121897529054 4.5637811623264497 0 4.5637811623264497 10.084793516436093 0 0 0 0 68.897757456237741 -5.7022785060402157 0 -5.7022785060402157 4.372013977063034 0 0 0 0 9.6273904624445237 -8.4876101211452522 0 -8.4876101211452522 1.6144211062124754 0 0 0 0 63.191880738682812 0.53821503906010548 0 0.53821503906010548 -0.33296352046659194 0 0 0 0 61.75598786957562 -7.7847939409807623 0 -7.7847939409807623 -3.6270536453507702 0 0 0 0 27.866989267029496 3.2753991151298862 0 3.2753991151298862 -4.4477662927170396 0 0 0 0 -12.916880849836161 0.52076621605783657 0 0.52076621605783657 17.905401541374431 0 0 0 0 4.0057790500577539 -1.5634453852853767 0 -1.5634453852853767 58.14815498006692 0 0 0 0 -3.4480060357163893 12.479969544806181 0 12.479969544806181 32.706515047484572 0 0 0 0 4.4343402386998605 -6.0630539848908143 0 -6.0630539848908143 -0.47425306293744107 0 0 0 0 6.4369975112713291 -28.521747104361793 0 -28.521747104361793 -14.126962835779523 0 0 0 0 31.119435648739454 -21.594385869826965 0 -21.594385869826965 -63.86132335733646 0 0 0 0 4.9113347534876084 -52.546719305392799 0 -52.546719305392799 30.190980896010558 0 0 0 0 34.098761664608901 -57.723363457304686 0 -57.723363457304686 -39.624598041147692 0 0 0 0 7.6679483035403493 -8.1672467132358832 0 -8.1672467132358832 -1.4924860918799503 0 0 0 0 56.067306236040167 -9.6359589561260464 0 -9.6359589561260464 -8.5827339628467598 0 0 0 0 49.801532046358261 -14.418979334188634 0 -14.418979334188634 -3.1807030268755625 0 0 0 0 51.718182766693644 -5.0089850289868991 0 -5.0089850289868991 2.3191890007161646 0 0 0 0 27.920304708980609 -1.7475027255372559 0 -1.7475027255372559 -2.6140911769232349 0 0 0 0 37.473620281540207 -3.231000011438482 0 -3.231000011438482 -10.982513795750947 0 0 0 0 49.460138830247161 -11.942764289012075 0 -11.942764289012075 -11.89883186899533 0 0 0 0 23.070719901478853 -0.92659948063484876 0 -0.92659948063484876 -11.148730508373179 0 0 0 0 49.601034502411494 1.179751057752128 0 1.179751057752128 5.1557776876634307 0 0 0 0 111.14969270748225 -90.203717158206985 0 -90.203717158206985 5.3237137840342257 0 0 0 0 107.79344980264432 -4.2810683376605994 0 -4.2810683376605994 -49.188668456301457 0 0 0 0 64.539179679298954 17.303439593900734 0 17.303439593900734 -17.432628886463316 0 0 0 0 83.282660924684023 -8.4280943939893405 0 -8.4280943939893405 27.123162646603532 0 0 0 0 51.208862700686453 -7.0461025986560344 0 -7.0461025986560344 -8.5047865153463107 0 0 0 0 44.78610598242085 -7.9267581436740215 0 -7.9267581436740215 -10.438880542510219 0 0 0 0 51.79485517571905 -1.4860249278017719 0 -1.4860249278017719 -11.55766784930608 0 0 0 0 129.09681563779304 -37.711162694314226 0 -37.711162694314226 -6.4221763541554537 0 0 0 0 123.40089933704803 -44.501250101715868 0 -44.501250101715868 -53.128173727205649 0 0 0 0 102.35650554329914 -40.929769040862084 0 -40.929769040862084 -48.632100184936917 0 0 0 0 86.432224494797993 83.443646138751319 0 83.443646138751319 -80.218927748006081 0 0 0 0 30.328362496162299 -14.251176285291876 0 -14.251176285291876 1.4593326440912051 0 0 0 0 31.275484915738161 8.8052287408194729 0 8.8052287408194729 -16.765647812237244 0 0 0 0 53.337086864470621 48.932275518481561 0 48.932275518481561 -50.504828820873627 0 0 0 0 74.864367135262 62.628823669439271 0 62.628823669439271 7.6298148831169783 0 0 0 0 26.179596767047769 68.4670476936721 0 68.4670476936721 111.56405230888399 0 0 0 0 79.333479837689083 68.162578599156745 0 68.162578599156745 -13.838530476568849 0 0 0 0 228.2251137199637 49.231832058017517 0 49.231832058017517 -53.635042220492778 0 0 0 0 210.32256194746878 132.26812654572564 0 132.26812654572564 37.361653239509906 0 0 0 0 139.95290542264411 -75.731744095699128 0 -75.731744095699128 -30.283011630032433 0 0 0 0 151.30120223384438 -40.729940667511926 0 -40.729940667511926 -66.066950762098713 0 0 0 0 158.87831891576934 -47.279590812811421 0 -47.279590812811421 -60.67196188612445 0 0 0 0 171.3648804017721 -156.29362713492586 0 -156.29362713492586 -172.25808512977292 0 0 0 0 354.33707202567894 -22.620342542753463 0 -22.620342542753463 -75.271166576221731 0 0 0 0 161.72995093991631 -145.35195100066028 0 -145.35195100066028 11.008270838446066 0 0 0 0 108.02564678533963 -91.714527394472839 0 -91.714527394472839 -36.893699334584653 0 0 0 0 234.29966217260517 -432.40605965362346 0 -432.40605965362346 126.16805630728089 0 0 0 0 499.42350072273985 318.69460747245739 0 318.69460747245739 172.47041569154328 0 0 0 0 1.0865228873881279 -118.65652908224092 0 -118.65652908224092 319.64491137757295 0 0 0 0 3.3706550963769928 -2.9130783962510094 0 -2.9130783962510094 2.815265720934689 0 0 0 0 -31.795276851116796 -23.532683483407936 0 -23.532683483407936 55.109379066989391 0 0 0 0 225.28333718852082 79.41838718978245 0 79.41838718978245 -208.51915422739208 0 0 0 0 -2.8298282985250012 0.97873533582333705 0 0.97873533582333705 -1.1386692179060394 0 0 0 0 482.18424365030478 525.07292049784212 0 525.07292049784212 304.85615560539895 0 0 0 0 785.50307215750217 -0.78329225388836221 0 -0.78329225388836221 -20.375039145940264 0 0 0 0 293.92130034422735 -253.76063482356847 0 -253.76063482356847 257.15977166826769 0 0 0 0 57.314408480160637 28.571355179766726 0 28.571355179766726 1.3395576267964771 0 0 0 0 -265.75847204310412 -47.696814111976721 0 -47.696814111976721 136.50621622066961 0 0 0 0 13.614319130887452 -3.0104384004790745 0 -3.0104384004790745 -30.957922656050641 0 0 0 0 1.8061712420055045 1.8947908239166651 0 1.8947908239166651 -4.6715228196329956 0 0 0 0 23.023611800381332 -0.79379075614849626 0 -0.79379075614849626 -55.708261944305377 0 0 0 0 8.0641004682693165 2.4005923292236275 0 2.4005923292236275 6.9132250703905811 0 0 0 0 16.584251253130788 6.2737896469741639 0 6.2737896469741639 -8.5087072940638357 0 0 0 0 -45.269017041515326 10.806746611457584 0 10.806746611457584 74.872898410035532 0 0 0 0 -14.95899235448087 7.3742846261649788 0 7.3742846261649788 -6.6180891010467349 0 0 0 0 24.533515564211484 2.2799316082001155 0 2.2799316082001155 -9.1927088637303314 0 0 0 0 -22.26252834879233 28.321692080991625 0 28.321692080991625 -43.025751542927537 0 0 0 0 24.418375227886074 12.908325158283802 0 12.908325158283802 -11.283618726789438 0 0 0 0 52.517773080143726 -1.3695983801871279 0 -1.3695983801871279 -8.6391985388953607 0 0 0 0 18.801288844422743 12.441786760197928 0 12.441786760197928 -9.8179389658871479 0 0 0 0 27.675079854797048 8.6656079850583581 0 8.6656079850583581 -10.59007440384979 0 0 0 0 6.4424334670693497 -0.24122028483623126 0 -0.24122028483623126 -0.68345247444631241 0 0 0 0 -15.567031316837529 13.442463695801962 0 13.442463695801962 -44.972370987560907 0 0 0 0 -49.161989747313783 89.585093015529537 0 89.585093015529537 -14.172504573318747 0 0 0 0 -1.3730226554034743 55.696411690963032 0 55.696411690963032 32.966041216158601 0 0 0 0 19.241118098550942 46.5291461808647 0 46.5291461808647 -23.088067782817234 0 0 0 0 28.845579461951274 23.361841816101332 0 23.361841816101332 -14.432205442087252 0 0 0 0 42.5729445569159 15.030427507434069 0 15.030427507434069 -16.209676912533951 0 0 0 0 17.20462691238572 36.833040730561379 0 36.833040730561379 -19.146172319367906 0 0 0 0 -2.641683759512091 1.9815997330724571 0 1.9815997330724571 0.021387451276140723 0 0 0 0 27.2597704857655 5.9335947490606173 0 5.9335947490606173 -6.2453005184942354 0 0 0 0 -29.715485469612759 80.340272015697337 0 80.340272015697337 17.381422254456083 0 0 0 0 44.170499702711822 28.712255866803389 0 28.712255866803389 -22.473527254897817 0 0 0 0 7.7103190400812309 -10.222736822164734 0 -10.222736822164734 23.544672732714389 0 0 0 0 32.705115900957026 39.188068152217966 0 39.188068152217966 -26.756071873677229 0 0 0 0 3.1383062540690219 -5.5778100645919864 0 -5.5778100645919864 -3.1834039723250758 0 0 0 0 17.053537779399448 20.274641495580617 0 20.274641495580617 -64.444180556654374 0 0 0 0 15.385498768126126 8.7769614092871961 0 8.7769614092871961 -28.340153332245336 0 0 0 0 35.618913714055452 -18.229252534130097 0 -18.229252534130097 -80.753716850559613 0 0 0 0 31.954348700110131 -27.11747143731094 0 -27.11747143731094 -42.537730274347496 0 0 0 0 112.84780042314014 -41.131704834868209 0 -41.131704834868209 -43.899797239714644 0 0 0 0 161.73865517809827 79.656429124094771 0 79.656429124094771 -33.219265434137242 0 0 0 0 98.302214071256458 0.35273923143057573 0 0.35273923143057573 -134.35340651916999 0 0 0 0 -0.12646169554452769 -0.055291322509788188 0 -0.055291322509788188 -1.426052130278376 0 0 0 0 -25.172900099554681 -89.128369926620962 0 -89.128369926620962 -109.0429455527605 0 0 0 0 -90.913893260827535 -74.163368239836316 0 -74.163368239836316 -24.424254855048048 0 0 0 0 174.69346518685052 -166.52117153986705 0 -166.52117153986705 -28.917599942566412 0 0 0 0 356.33912958437577 -49.787151447131919 0 -49.787151447131919 -17.638609811212632 0 0 0 0 251.23899979818088 15.183539245924521 0 15.183539245924521 -53.29239803666951 0 0 0 0 332.33411210076883 -43.863337385970112 0 -43.863337385970112 -122.82996134406824 0 0 0 0 77.345841978647513 112.66929409705426 0 112.66929409705426 115.79480650462085 0 0 0 0 206.57662152175908 199.4443887776747 0 199.4443887776747 172.55161298939538 0 0 0 0 522.209123307548 159.96272931645944 0 159.96272931645944 -15.858208945070999 0 0 0 0 282.95319643488619 60.15899887584942 0 60.15899887584942 -47.182494237266496 0 0 0 0 252.68132697362671 30.802476620581132 0 30.802476620581132 -75.470917028322447 0 0 0 0 256.4983698874421 64.771724304692384 0 64.771724304692384 -44.301122471183419 0 0 0 0 271.89341653771044 123.64878174406648 0 123.64878174406648 11.069459118031546 0 0 0 0 179.93444828072097 80.122440353999536 0 80.122440353999536 1.3638761038325811 0 0 0 0 239.61490361340111 76.973631509371899 0 76.973631509371899 -21.475595238053756 0 0 0 0 132.39364895457402 65.414580316503361 0 65.414580316503361 19.73054519211405 0 0 0 0 132.39364895457402 65.414580316593856 0 65.414580316593856 19.730545192116551 0 0 0 0 163.72343701394857 35.192521860244938 0 35.192521860244938 24.893689200169092 0 0 0 0 132.39364895458857 65.414580316564354 0 65.414580316564354 19.730545192111549 0 0 0 0 158.54058581776917 11.875083398524339 0 11.875083398524339 -36.201602805468838 0 0 0 0 169.54109029172105 17.53754140125227 0 17.53754140125227 -27.474030977968141 0 0 0 0 171.55004650339833 23.048470540803862 0 23.048470540803862 -26.617185769754542 0 0 0 0 161.05720611312427 19.172437657831779 0 19.172437657831779 -17.744236704179912 0 0 0 0 168.50881313011632 31.008136492946392 0 31.008136492946392 -4.7992753467765397 0 0 0 0 160.80037643166725 18.392333757464257 0 18.392333757464257 -0.77972789267414555 0 0 0 0 180.0693160588271 25.51639102371746 0 25.51639102371746 -27.386301057362289 0 0 0 0 214.31061040994246 25.397462001669055 0 25.397462001669055 -41.892113085784331 0 0 0 0 185.12896283942973 39.759394847613294 0 39.759394847613294 -6.4848229003096094 0 0 0 0 186.19227441435942 39.121879588062455 0 39.121879588062455 -48.249969452961068 0 0 0 0 190.33673529580119 7.5855565337766961 0 7.5855565337766961 -55.012518944117573 0 0 0 0 254.49944830274035 -13.00722017539664 0 -13.00722017539664 -91.901593882434554 0 0 0 0 209.38517015476828 3.4150503241733361 0 3.4150503241733361 -71.63104294563891 0 0 0 0 148.88641761988401 -70.912796834779726 0 -70.912796834779726 -76.264519732481062 0 0 0 0 207.714366143402 -40.498268771552006 0 -40.498268771552006 -105.34898459212411 0 0 0 0 168.23038702047779 -4.7057633443460531 0 -4.7057633443460531 -51.269136014229176 0 0 0 0 148.30795076314826 -9.3496524194846984 0 -9.3496524194846984 -48.421641125134727 0 0 0 0 169.11613293693517 -2.845615902738416 0 -2.845615902738416 -47.642832945999999 0 0 0 0 150.62812820627005 9.7358811169401633 0 9.7358811169401633 -34.687035204310632 0 0 0 0 204.03047254998819 -62.004540093016431 0 -62.004540093016431 -180.50086072585145 0 0 0 0 96.370391755466699 -159.97208547494105 0 -159.97208547494105 -124.58350910055569 0 0 0 0 189.48485531122424 -67.248008785071249 0 -67.248008785071249 -95.446701567683476 0 0 0 0 156.91990550296032 -86.525888551924538 0 -86.525888551924538 -45.922562149616965 0 0 0 0 130.09425166739675 -72.329834391265535 0 -72.329834391265535 -36.661963202241765 0 0 0 0 136.83564082580051 -16.837305929180516 0 -16.837305929180516 -44.895023039619559 0 0 0 0 147.58652746550797 -50.149050033196318 0 -50.149050033196318 -48.75904671361053 0 0 0 0 128.28446888879989 -57.572801229645705 0 -57.572801229645705 -40.266348625275469 0 0 0 0 112.70679406516501 -49.698008379367373 0 -49.698008379367373 -14.147169356484369 0 0 0 0 98.174464964416984 -63.859206430871247 0 -63.859206430871247 29.284001792641277 0 0 0 0 89.439265142194927 -42.139604527587153 0 -42.139604527587153 0.44042988744621425 0 0 0 0 90.175211869544 -44.972924873621039 0 -44.972924873621039 -14.952228587509826 0 0 0 0 109.68749959031993 -83.810104067930823 0 -83.810104067930823 -17.093182868046085 0 0 0 0 167.2873264416703 -15.816513698942487 0 -15.816513698942487 48.884088070415729 0 0 0 0 97.219477127777282 -54.505433337648498 0 -54.505433337648498 69.285734868741514 0 0 0 0 353.75266483437736 -56.341273952924183 0 -56.341273952924183 59.717468753348776 0 0 0 0 227.18162510998081 -45.530492389369726 0 -45.530492389369726 58.954217518977657 0 0 0 0 145.06870646722382 29.068362055157962 0 29.068362055157962 -4.9721732756530628 0 0 0 0 128.66874919812835 -85.552507466216326 0 -85.552507466216326 -6.5257779115815424 0 0 0 0 -12.792021920686238 -61.514925030647561 0 -61.514925030647561 -7.4609179945912274 0 0 0 0 40.380186491616769 38.311198484511578 0 38.311198484511578 10.266113961082056 0 0 0 0 43.222590345671051 45.120042066103792 0 45.120042066103792 24.816657356436366 0 0 0 0 24.537819225821295 13.663824373770126 0 13.663824373770126 -17.448464806100901 0 0 0 0 54.432044189550652 27.605595899905893 0 27.605595899905893 -31.279603390369857 0 0 0 0 34.922427746153261 0.94315793884854315 0 0.94315793884854315 -1.9562747945652266 0 0 0 0 49.481742992604268 13.278528721898766 0 13.278528721898766 -55.956075470405494 0 0 0 0 12.557420979312155 5.2721367368932874 0 5.2721367368932874 -4.9078637682038107 0 0 0 0 -13.737492855230812 -17.53627221364161 0 -17.53627221364161 -21.377042886461723 0 0 0 0 22.798575407447061 34.908099396946227 0 34.908099396946227 23.575956411670489 0 0 0 0 24.646859729930384 28.656326837238748 0 28.656326837238748 24.636965690834813 0 0 0 0 4.9423037138413974 1.0277153257859624 0 1.0277153257859624 -2.1966361186139043 0 0 0 0 1.5035479287859346 0.3042782430449904 0 0.3042782430449904 -2.036107106632322 0 0 0 0 -0.82280313554656459 -24.806187308569264 0 -24.806187308569264 -22.486585004730159 0 0 0 0 2.0240167931624455 -6.8861720507313748 0 -6.8861720507313748 -22.75512638551691 0 0 0 0 18.001314815830483 16.710913673266298 0 16.710913673266298 -16.027337996913161 0 0 0 0 21.528361380138364 -5.1131896679411071 0 -5.1131896679411071 -2.9516899734145263 0 0 0 0 40.16436412683106 2.3164816371645429 0 2.3164816371645429 -53.254465735464919 0 0 0 0 6.6003016773320269 -35.132173045205491 0 -35.132173045205491 -30.806709311321924 0 0 0 0 11.893521524330311 -8.1670071926137382 0 -8.1670071926137382 2.5275199752507445 0 0 0 0 168.45782084402163 34.840220567866027 0 34.840220567866027 3.6538205457441819 0 0 0 0 -3.5723769814164257 -5.2910402030810708 0 -5.2910402030810708 0.26664726862935417 0 0 0 0 93.242447326400907 -13.237920726131641 0 -13.237920726131641 7.2996988385916666 0 0 0 0 160.6894877283612 21.11152034856913 0 21.11152034856913 -8.913747678639993 0 0 0 0 4.955845709202805 0.74771266648085088 0 0.74771266648085088 -2.110934109848416 0 0 0 0 1.6867242466905736 -9.5698013556392141 0 -9.5698013556392141 -13.682766155999502 0 0 0 0 156.4459934730985 27.857794921152788 0 27.857794921152788 -15.891631379429555 0 0 0 0 111.94949517108034 41.089340491279017 0 41.089340491279017 -0.65162275900388522 0 0 0 0 159.31474283104762 25.800856651526829 0 25.800856651526829 -17.842493110728356 0 0 0 0 148.89843545545591 29.994338149760438 0 29.994338149760438 -16.407096794870768 0 0 0 0 148.48351687833201 21.547916151267259 0 21.547916151267259 -19.494192163385037 0 0 0 0 78.035240344586782 42.142070349864071 0 42.142070349864071 0.75775997497527214 0 0 0 0 28.300264049845282 35.38775542550519 0 35.38775542550519 2.5554616054164399 0 0 0 0 119.03692553780274 14.039809271850572 0 14.039809271850572 -25.230623999445982 0 0 0 0 116.07737717591226 4.0034018780618226 0 4.0034018780618226 -32.016885849119944 0 0 0 0 150.12027616573323 9.9726552350689985 0 9.9726552350689985 -31.214719617978517 0 0 0 0 113.70108408277156 12.305480494899427 0 12.305480494899427 -23.660838869420331 0 0 0 0 118.61542836029548 19.279894967693622 0 19.279894967693622 -20.166637432835159 0 0 0 0 101.56096597334545 -25.080260321791968 0 -25.080260321791968 -29.781854785883354 0 0 0 0 90.083303344450542 5.1880685768721264 0 5.1880685768721264 -24.9285140103309 0 0 0 0 78.812778077946859 3.7471772981051004 0 3.7471772981051004 -22.914672445165877 0 0 0 0 42.138172690218198 -6.7310060809840877 0 -6.7310060809840877 -8.9649191809809281 0 0 0 0 104.29396007388277 -28.301669864478853 0 -28.301669864478853 -27.829199932000108 0 0 0 0 44.420718648732873 -10.413527173458924 0 -10.413527173458924 1.3507048113439009 0 0 0 0 35.384771158496733 -28.85782468202698 0 -28.85782468202698 17.912423423971081 0 0 0 0 67.244011128786951 -28.457506646081484 0 -28.457506646081484 -7.7520734953990882 0 0 0 0 57.801163541247661 -7.2049283998733245 0 -7.2049283998733245 -10.911039589406244 0 0 0 0 10.221563600091031 0.28635861962231957 0 0.28635861962231957 1.2937930166094702 0 0 0 0 32.201645024455502 -16.366434949911437 0 -16.366434949911437 3.8180248257887683 0 0 0 0 9.3044119683800091 -3.3909025010805358 0 -3.3909025010805358 -2.3738780242820212 0 0 0 0 5.6720709165844028 -15.489523235357664 0 -15.489523235357664 -12.208475975815304 0 0 0 0 -2.6511068080144469 -5.6392746016599915 0 -5.6392746016599915 0.19760257714864338 0 0 0 0 41.85330502238503 -3.2047716683669503 0 -3.2047716683669503 -6.1685053699450236 0 0 0 0 5.4984785779379308 4.7502270016957482 0 4.7502270016957482 4.8121193892294514 0 0 0 0 -17.195966133251204 -11.408768595249285 0 -11.408768595249285 -0.052259719564858642 0 0 0 0 0.14052019977091845 0.074121935589445798 0 0.074121935589445798 -0.013728177594706903 0 0 0 0 -3.4189798237202922 -17.697058457145431 0 -17.697058457145431 -37.472679543390768 0 0 0 0 6.1339554706064519 -8.6398962074912902 0 -8.6398962074912902 -23.737611145142637 0 0 0 0 -6.4526273785304511 -5.7513780771592593 0 -5.7513780771592593 -4.5956722191548351 0 0 0 0 -2.2050417006976204 -1.5661143376176199 0 -1.5661143376176199 -13.37075352128798 0 0 0 0 -1.9641153312986717 -3.5941846846954491 0 -3.5941846846954491 3.7526606045480122 0 0 0 0 -2.1357548794621835 -2.0382698025794639 0 -2.0382698025794639 -3.7695093427334179 0 0 0 0 0.50658230489239031 -1.4295792723866043 0 -1.4295792723866043 -2.3429507244155285 0 0 0 0 3.7743856920278631 5.8568359706442834 0 5.8568359706442834 -54.81451425460574 0 0 0 0 -3.6277328080359439 -4.6060999181674163 0 -4.6060999181674163 -6.6295673309062408 0 0 0 0 2.3196653963168501 3.2742517917946827 0 3.2742517917946827 -53.092990329000827 0 0 0 0 4.411925188215946 1.2661242023327475 0 1.2661242023327475 -2.4623013786214987 0 0 0 0 -4.7805912319381605 -7.0335325289590713 0 -7.0335325289590713 -7.0443915163285737 0 0 0 0 19.486862354679033 -10.029782690497996 0 -10.029782690497996 -45.313772955285458 0 0 0 0 -11.820668705651769 -26.736550911811264 0 -26.736550911811264 6.0289242194671715 0 0 0 0 29.864130113244755 28.441230685244818 0 28.441230685244818 24.247342956521607 0 0 0 0 29.341491910208788 24.978295469832418 0 24.978295469832418 42.889460442205291 0 0 0 0 21.294999440200627 38.601204500772837 0 38.601204500772837 23.398022581568284 0 0 0 0 9.2983072804781841 -6.410682654528344 0 -6.410682654528344 -60.40755526247267 0 0 0 0 0.25474069228320673 -0.16879999812368851 0 -0.16879999812368851 0.10031797786464233 0 0 0 0 35.297586322485586 -1.9461796378922713 0 -1.9461796378922713 -64.549397016258155 0 0 0 0 14.787530559828156 3.4086807755172686 0 3.4086807755172686 -69.695409209539434 0 0 0 0 14.740988149022144 8.7719332774326588 0 8.7719332774326588 -70.103360364321361 0 0 0 0 2.4487604796886444 12.19819684817088 0 12.19819684817088 -59.085506549981062 0 0 0 0 -15.328470540966009 65.010857766507996 0 65.010857766507996 -77.68707556018731 0 0 0 0 34.692710603430783 52.066493483152655 0 52.066493483152655 -79.226043127491778 0 0 0 0 -21.128723794237885 15.92968402648507 0 15.92968402648507 -17.339854872014001 0 0 0 0 6.1154642863402842 7.1332185687745877 0 7.1332185687745877 0.36885129716542941 0 0 0 0 0.83719474482609257 -0.25837011155142875 0 -0.25837011155142875 -1.0650187182935222 0 0 0 0 -0.26638996097790368 -16.239192966840822 0 -16.239192966840822 15.476559092970376 0 0 0 0 -30.005686845502169 68.77913915803525 0 68.77913915803525 -67.496831073379951 0 0 0 0 1.3001238723033453 0.29764233463156131 0 0.29764233463156131 -0.43434558708292031 0 0 0 0 41.533983970934059 -3.753391858732499 0 -3.753391858732499 -1.7353464512221084 0 0 0 0 -11.599973797965504 16.304700407921239 0 16.304700407921239 -20.653828292596906 0 0 0 0 -12.942453085488523 25.589654480740027 0 25.589654480740027 0.05125821638264412 0 0 0 0 40.211229658700177 30.021880919492933 0 30.021880919492933 -23.918854304914092 0 0 0 0 33.483427083185234 30.009725881810017 0 30.009725881810017 -0.026264605733485241 0 0 0 0 2.1435223755870538 6.0747119553395912 0 6.0747119553395912 -8.1226814420046907 0 0 0 0 51.251769857786712 23.839900357988839 0 23.839900357988839 -5.1117816490095151 0 0 0 0 40.329675459415029 50.026825417439724 0 50.026825417439724 25.207685160754778 0 0 0 0 34.272930067265406 27.317984454513386 0 27.317984454513386 -5.3725851725790976 0 0 0 0 212.76914827926521 45.27164306909814 0 45.27164306909814 21.093025068215844 0 0 0 0 211.7478956437626 41.658148420757129 0 41.658148420757129 25.235158523008327 0 0 0 0 255.05092753845383 62.133837837399291 0 62.133837837399291 31.046436656295846 0 0 0 0 297.00726160540944 120.31319817659858 0 120.31319817659858 107.73378612110059 0 0 0 0 180.46756090056806 19.020902353544223 0 19.020902353544223 240.00525601760398 0 0 0 0 176.42939014312287 52.777357070869641 0 52.777357070869641 141.32159706030185 0 0 0 0 167.2036863161884 11.770609962997026 0 11.770609962997026 35.273723691719617 0 0 0 0 168.47200414547478 -25.160370695471965 0 -25.160370695471965 79.268760559456084 0 0 0 0 116.52817760859034 -28.535543288934676 0 -28.535543288934676 20.309461126313501 0 0 0 0 106.6794424571417 -25.066416531425347 0 -25.066416531425347 68.736832038595011 0 0 0 0 87.084127632813761 -47.127707898423921 0 -47.127707898423921 19.461182276099706 0 0 0 0 31.187402028466749 -18.220672281439356 0 -18.220672281439356 35.677391438599138 0 0 0 0 127.57568762684969 -47.086406359497019 0 -47.086406359497019 14.246608213064878 0 0 0 0 174.20188018765475 28.231863683017586 0 28.231863683017586 48.109943955993103 0 0 0 0 -16.812101090319629 88.077012857430489 0 88.077012857430489 -9.1356456292526502 0 0 0 0 197.42545020392936 31.640334157513035 0 31.640334157513035 9.9779823993264891 0 0 0 0 225.08258407274843 -22.118242683614781 0 -22.118242683614781 16.230624707449028 0 0 0 0 0.66085143424905368 0.20916400447532624 0 0.20916400447532624 -0.061699856693239657 0 0 0 0 177.40494559265426 34.893463753057027 0 34.893463753057027 9.4658261127395846 0 0 0 0 157.38826982165483 10.060303407285561 0 10.060303407285561 -0.046051437727014741 0 0 0 0 207.72981839594286 15.166463403468512 0 15.166463403468512 -0.0041947218087315559 0 0 0 0 267.49630715278909 32.556575865761282 0 32.556575865761282 -13.870665788337654 0 0 0 0 192.0249030669147 -3.4045078297325118 0 -3.4045078297325118 -21.5956838862121 0 0 0 0 185.77801035597804 3.8123181643625617 0 3.8123181643625617 -0.040316951541090947 0 0 0 0 104.95788197232287 -28.399370301388355 0 -28.399370301388355 -5.1872985467100055 0 0 0 0 107.53424820263172 -22.221054655680629 0 -22.221054655680629 5.6636002831383916 0 0 0 0 226.97495763185725 -41.882525070209148 0 -41.882525070209148 -37.541487983073409 0 0 0 0 -0.2880054490847499 -0.093148708538535629 0 -0.093148708538535629 -0.26453394153788501 0 0 0 0 -71.799744642205042 4.2337698940554382 0 4.2337698940554382 16.415338624201638 0 0 0 0 44.702372496918542 3.7990906801425885 0 3.7990906801425885 0.036294345332462147 0 0 0 0 29.013274395780172 -29.044700193737174 0 -29.044700193737174 13.997032495615375 0 0 0 0 21.238386520693894 -6.7934406282319859 0 -6.7934406282319859 13.592521515166007 0 0 0 0 36.230913358682301 3.6642575759307086 0 3.6642575759307086 -4.4909553544570286 0 0 0 0 14.771935916058283 1.7680165552178693 0 1.7680165552178693 -7.0304335625130108 0 0 0 0 13.152666956491885 1.2278828475281216 0 1.2278828475281216 -2.2329333936474853 0 0 0 0 15.946179465463501 3.0392901395821355 0 3.0392901395821355 -10.471034943865799 0 0 0 0 13.499647390126484 4.1117631552583518 0 4.1117631552583518 -6.0729568588393619 0 0 0 0 10.497424410832139 -2.127000542646964 0 -2.127000542646964 -0.79081819992268254 0 0 0 0 18.247781037023742 -7.2256078777487023 0 -7.2256078777487023 -13.019450815856771 0 0 0 0 11.046261859313177 -2.5261481767690159 0 -2.5261481767690159 -0.39763712751472824 0 0 0 0 15.481161560433975 3.7025248670280391 0 3.7025248670280391 -11.526514628542614 0 0 0 0 356.32384002944309 16.379552631579287 0 16.379552631579287 -14.095982605528867 0 0 0 0 1.7641053590962201 -0.13404840633100434 0 -0.13404840633100434 -0.39189696277929065 0 0 0 0 -1.3116716936638113 -10.891305483100545 0 -10.891305483100545 5.2375022379751499 0 0 0 0 2.8171226038462862 0.48101233380889075 0 0.48101233380889075 -0.68855337031658048 0 0 0 0 190.08379560194044 -105.3370835692797 0 -105.3370835692797 58.988766339448432 0 0 0 0 433.71068268666568 85.823601661691569 0 85.823601661691569 19.370892982633848 0 0 0 0 239.1727719368937 207.29142475692254 0 207.29142475692254 168.52512010372544 0 0 0 0 245.73393847154966 108.93418919182773 0 108.93418919182773 16.903215417131605 0 0 0 0 218.55245066707721 65.344450589238591 0 65.344450589238591 -35.417835412893794 0 0 0 0 226.31964054939363 127.87636822099665 0 127.87636822099665 23.485091479746472 0 0 0 0 19.215935020245524 2.828896974831963 0 2.828896974831963 -12.734696160748172 0 0 0 0 1.5220444915362492 1.590056745580938 0 1.590056745580938 -4.7741839713688128 0 0 0 0 134.90626017253089 104.71915699363485 0 104.71915699363485 84.537585870017551 0 0 0 0 12.911488399178779 0.87100010637595915 0 0.87100010637595915 -10.870932940031707 0 0 0 0 17.125042080806452 0.86521273137861954 0 0.86521273137861954 -12.752196187672325 0 0 0 0 15.938389869281309 -7.0629624266620255 0 -7.0629624266620255 -12.301437444958879 0 0 0 0 4.1271648185429513 -17.102810574210594 0 -17.102810574210594 -20.163458527909853 0 0 0 0 24.259939235078491 11.611038885033224 0 11.611038885033224 -10.916362596767158 0 0 0 0 39.073963214807009 -4.4072855525897126 0 -4.4072855525897126 -25.269930993757953 0 0 0 0 22.938664573710412 10.315656878294362 0 10.315656878294362 -7.1793444520347975 0 0 0 0 -8.5644570147414925 16.074488473976885 0 16.074488473976885 2.057858498819769 0 0 0 0 23.90247240932149 40.082357608916254 0 40.082357608916254 -10.313796445613889 0 0 0 0 59.207357184521243 -24.373677257932741 0 -24.373677257932741 8.7623817407809383 0 0 0 0 53.451558750595723 1.6535082257671547 0 1.6535082257671547 -9.9475285086691656 0 0 0 0 44.961396781538497 1.3576880795066018 0 1.3576880795066018 3.5192491458799395 0 0 0 0 797.05413620170293 16.790644261101249 0 16.790644261101249 -599.17517797388598 0 0 0 0 42.584149971873558 -48.203758163647421 0 -48.203758163647421 84.374694289314675 0 0 0 0 26.933007708808333 4.0931797746426888 0 4.0931797746426888 0.41985644428125812 0 0 0 0 98.172106070051086 -44.836366336499736 0 -44.836366336499736 12.713354036969918 0 0 0 0 84.035389596727327 -226.12039279327666 0 -226.12039279327666 312.40025589630562 0 0 0 0 9.8367899816634576 3.2330110426818308 0 3.2330110426818308 0.98081276893650227 0 0 0 0 90.47303091532558 13.033847277611819 0 13.033847277611819 -31.675615665883697 0 0 0 0 544.47856587595743 -93.672351153524346 0 -93.672351153524346 -102.25611820139738 0 0 0 0 -30.888128067250364 34.136713413682514 0 34.136713413682514 -88.962559411278562 0 0 0 0 442.76325081461982 425.38656312391981 0 425.38656312391981 80.017151268613929 0 0 0 0 11.916098408912148 163.58859606105699 0 163.58859606105699 -118.26311556786322 0 0 0 0 -2.4947592455565655 -0.45577580273678109 0 -0.45577580273678109 0.56932421307286463 0 0 0 0 120.9671283638454 27.628604621605291 0 27.628604621605291 -88.685562144119785 0 0 0 0 200.80235259351684 169.33661579815225 0 169.33661579815225 -119.33471366800063 0 0 0 0 -0.10203375667134651 0.52049188711565364 0 0.52049188711565364 -1.7595575610089416 0 0 0 0 331.60645309467873 82.324740079532688 0 82.324740079532688 -199.21195314653892 0 0 0 0 296.0301909448317 75.223437684676128 0 75.223437684676128 -46.026708295299841 0 0 0 0 13.655460837512564 4.3775747900767357 0 4.3775747900767357 -5.9639380257032899 0 0 0 0 19.861601572200016 -0.29696584828588257 0 -0.29696584828588257 -3.3809758552549716 0 0 0 0 43.143276775845152 5.6957771732807032 0 5.6957771732807032 -11.562328616082596 0 0 0 0 20.2078127969653 -3.6933268474836041 0 -3.6933268474836041 -3.264566480608778 0 0 0 0 8.7729711009954627 -5.2379948118301058 0 -5.2379948118301058 -3.2162825937162953 0 0 0 0 37.176971987028082 -0.96162550027997895 0 -0.96162550027997895 0.71984374090243364 0 0 0 0 19.589282618306243 -10.79190613662854 0 -10.79190613662854 -0.19219197859365522 0 0 0 0 34.118112199214011 -1.0543647528324982 0 -1.0543647528324982 -11.275921051545083 0 0 0 0 15.231539418597119 -6.64258314770683 0 -6.64258314770683 -2.4179245234104858 0 0 0 0 73.363546636508545 -27.080825360745166 0 -27.080825360745166 -13.7838976734065 0 0 0 0 4.6670847524769385 -5.8241641771237909 0 -5.8241641771237909 -4.79028228147319 0 0 0 0 27.35051860337262 -16.28006508725457 0 -16.28006508725457 -1.9981789501764524 0 0 0 0 15.840678406690131 35.186294925973471 0 35.186294925973471 -13.051985471088301 0 0 0 0 20.233568524465227 -83.405146716914601 0 -83.405146716914601 -165.10530246112125 0 0 0 0 -139.95805420992838 -190.98780068228132 0 -190.98780068228132 41.871217568313568 0 0 0 0 36.566747480053095 5.096175835550099 0 5.096175835550099 -1.2455317499154073 0 0 0 0 45.431937836667203 -16.243978446796973 0 -16.243978446796973 10.102731826503032 0 0 0 0 33.983946985623334 -7.1497887046932647 0 -7.1497887046932647 46.305813224020426 0 0 0 0 64.061584242917888 -15.657687860877786 0 -15.657687860877786 -4.6386378191742779 0 0 0 0 44.844571831767098 -17.112621638933661 0 -17.112621638933661 8.8513594952389099 0 0 0 0 51.482803400212106 -30.006424598666698 0 -30.006424598666698 -20.768109857274339 0 0 0 0 51.481363532147952 -29.679112673842383 0 -29.679112673842383 -30.716944853012365 0 0 0 0 24.668993216546369 -32.556771676854623 0 -32.556771676854623 5.2136526436943882 0 0 0 0 25.869029067020165 -0.45835957294821128 0 -0.45835957294821128 -3.7308054597738192 0 0 0 0 23.137398572485836 -3.8028280983286322 0 -3.8028280983286322 -1.6974154671813722 0 0 0 0 2.9817830072086409 -0.32798580152991974 0 -0.32798580152991974 -0.53019280291584447 0 0 0 0 23.892011736694258 -3.6563565971177923 0 -3.6563565971177923 -3.9879393308351609 0 0 0 0 20.439681409246987 -23.260743043625894 0 -23.260743043625894 19.215741240495106 0 0 0 0 23.943637290954939 -4.8857293120039458 0 -4.8857293120039458 -1.8194881652202639 0 0 0 0 92.18798003338452 -56.796311094054772 0 -56.796311094054772 -3.6225935770776232 0 0 0 0 155.74133523509954 -31.997215801217294 0 -31.997215801217294 -27.85336190716032 0 0 0 0 70.85008447306609 -73.570899312206905 0 -73.570899312206905 68.358817676793933 0 0 0 0 52.182291427623568 13.516740224911473 0 13.516740224911473 -35.296691706630099 0 0 0 0 101.03110001664572 -8.9281077411048031 0 -8.9281077411048031 -35.31499591466627 0 0 0 0 1.2738437758562782 0.58915402532566929 0 0.58915402532566929 -0.80114901182397702 0 0 0 0 32.22377062268788 0.49291662581526907 0 0.49291662581526907 2.7156050091143698 0 0 0 0 82.382655178691493 -22.854861088494545 0 -22.854861088494545 -17.550086123360416 0 0 0 0 -81.820219422959781 189.31534300986118 0 189.31534300986118 77.74665518360689 0 0 0 0 48.237230162965716 -23.181810566506101 0 -23.181810566506101 -44.818915859625122 0 0 0 0 2.3562994206773027 0.63771192865895898 0 0.63771192865895898 -8.157372051672418 0 0 0 0 4.9121125557940104 -0.29826651717985442 0 -0.29826651717985442 -15.494220517846315 0 0 0 0 12.814635756354335 -8.0939067492609809 0 -8.0939067492609809 1.6013828388836435 0 0 0 0 -0.26313533791835653 -12.061174939111936 0 -12.061174939111936 -6.4536166385864817 0 0 0 0 8.0565303003968438 -33.015047791128609 0 -33.015047791128609 -12.464246099032891 0 0 0 0 462.1512221294106 -479.61286834522201 0 -479.61286834522201 -142.25132787716487 0 0 0 0 -17.678813737031305 193.18958269217998 0 193.18958269217998 42.956173562837193 0 0 0 0 5.2050750850030454 -18.316879351492446 0 -18.316879351492446 4.7334655303554882 0 0 0 0 -1.5425403773061817 -0.59526352235603497 0 -0.59526352235603497 -1.25752334066958 0 0 0 0 39.806417205407342 10.472212611486668 0 10.472212611486668 -34.018887437244075 0 0 0 0 5.1416806326415951 -8.6603230850828794 0 -8.6603230850828794 -3.4980091212740598 0 0 0 0 8.3035783513091417 2.3603213476320803 0 2.3603213476320803 0.56885633047389417 0 0 0 0 -4.3935166985320393 -2.3548665494683405 0 -2.3548665494683405 -6.3054665330582509 0 0 0 0 -9.0917361575156974 -14.500043519918705 0 -14.500043519918705 9.5931057013538066 0 0 0 0 10.011642063215959 -0.0077674142386103817 0 -0.0077674142386103817 -1.0266762356285246 0 0 0 0 179.54819576369482 -66.044252354283117 0 -66.044252354283117 -287.56304913615406 0 0 0 0 22.86226609624282 -4.5754488455863793 0 -4.5754488455863793 0.074636646164663034 0 0 0 0 182.37188110630086 39.04828674123479 0 39.04828674123479 -191.38682603689841 0 0 0 0 130.48321405084425 89.058417178279029 0 89.058417178279029 60.910791279550949 0 0 0 0 -42.306277921554283 62.131728069533608 0 62.131728069533608 -54.978703512594791 0 0 0 0 0.51284350474137597 -0.53564820595747165 0 -0.53564820595747165 1.5985339588293865 0 0 0 0 61.854769251076505 208.92444412406985 0 208.92444412406985 32.921797954508186 0 0 0 0 4.0559689952677047 0.67306659869633956 0 0.67306659869633956 0.024804031688025176 0 0 0 0 151.31003193506331 95.137959236901224 0 95.137959236901224 -53.163697816388094 0 0 0 0 141.14453208468331 140.41880596171438 0 140.41880596171438 56.608583404614023 0 0 0 0 -249.4216242468392 -98.608840652501613 0 -98.608840652501613 90.290045389985153 0 0 0 0 142.80749760929029 -113.30742602530246 0 -113.30742602530246 81.8407465520485 0 0 0 0 104.46793240886473 101.99020976123072 0 101.99020976123072 124.04360220952981 0 0 0 0 1.0579944752615233 0.99006776697044785 0 0.99006776697044785 1.0723756070361987 0 0 0 0 165.0255956850815 -24.046444312824164 0 -24.046444312824164 -79.388027533457347 0 0 0 0 -108.39218636634905 -33.832343476395629 0 -33.832343476395629 176.75058701062608 0 0 0 0 2.2643850138283952 -0.41664792055607336 0 -0.41664792055607336 -2.4669195542577671 0 0 0 0 -3.7654305577598279 63.321586137937189 0 63.321586137937189 -35.574899509261783 0 0 0 0 1.2884989451735933 -0.28081441768195248 0 -0.28081441768195248 0.67646971906599518 0 0 0 0 133.61544856546243 -62.805342776240281 0 -62.805342776240281 -23.008740750261637 0 0 0 0 85.785899778835073 -17.429754776891645 0 -17.429754776891645 16.687178345367585 0 0 0 0 135.89173113613651 -39.484544439132613 0 -39.484544439132613 -0.065150736348090516 0 0 0 0 1.5532010480819736 -30.550059849716757 0 -30.550059849716757 0.018154763585669823 0 0 0 0 84.724553745828871 14.100689072526293 0 14.100689072526293 -45.104713481464003 0 0 0 0 -3.3180257919448195 -8.7726237588467768 0 -8.7726237588467768 -11.33205412938382 0 0 0 0 -2.1014468550045819 -1.8124288530192345 0 -1.8124288530192345 -0.66561221943090843 0 0 0 0 -5.7307992734276922 -4.0085805844929823 0 -4.0085805844929823 -7.7207053297413424 0 0 0 0 -12.863668741272704 -11.201363945734592 0 -11.201363945734592 -8.622233239714987 0 0 0 0 5.794778482595575 0.17897483461605868 0 0.17897483461605868 1.7011319057914287 0 0 0 0 9.4055271067918511 -0.46804813404823564 0 -0.46804813404823564 -1.1066742948972732 0 0 0 0 1.0938055526084582 -0.10292117037414528 0 -0.10292117037414528 -0.27323533369420444 0 0 0 0 4.4578107864508638 -3.4574592018145687 0 -3.4574592018145687 -11.970847486397957 0 0 0 0 16.005430054006865 1.8355690934329207 0 1.8355690934329207 0.052955803663151481 0 0 0 0 0.011064557548913001 -0.19198824890560218 0 -0.19198824890560218 0.20533832531462795 0 0 0 0 -0.0012782530151511651 -0.020281810763918884 0 -0.020281810763918884 -0.095837100506478895 0 0 0 0 -23.661728323995703 -26.355182983361146 0 -26.355182983361146 -16.141200630620652 0 0 0 0 19.60517257648462 -3.2047803031538753 0 -3.2047803031538753 -1.0175404384140521 0 0 0 0 -24.811160400313383 -36.130669926571734 0 -36.130669926571734 -0.042541458501054355 0 0 0 0 -52.993006229051389 -73.105122525043484 0 -73.105122525043484 -47.755218953604896 0 0 0 0 1.7073158926796168 -8.9874922083158495 0 -8.9874922083158495 -53.198290604126797 0 0 0 0 156.96532200436923 2.1064234478591857 0 2.1064234478591857 22.090556853388133 0 0 0 0 -0.86006551151430699 -0.015231351129777693 0 -0.015231351129777693 0.002774808926324257 0 0 0 0 -3.7636668460836518 -37.659217219669273 0 -37.659217219669273 -136.80433576543049 0 0 0 0 -76.650937912570953 -110.70058199542112 0 -110.70058199542112 -48.390820973960736 0 0 0 0 -61.298526921189477 -63.149610027554743 0 -63.149610027554743 -0.038420653139067742 0 0 0 0 -39.121715719360509 -85.582831695663387 0 -85.582831695663387 -69.187466434741452 0 0 0 0 -7.5045900299774075 -132.82020086431248 0 -132.82020086431248 -0.040735876115472427 0 0 0 0 77.375481255796331 -159.29361163815585 0 -159.29361163815585 -71.088931643108765 0 0 0 0 -15.296515028021531 -116.09318874695725 0 -116.09318874695725 -66.893167060591566 0 0 0 0 -22.252048166228633 -73.191711451469104 0 -73.191711451469104 -46.273418432835342 0 0 0 0 26.342073298619653 -108.49043726978695 0 -108.49043726978695 -78.393659864745985 0 0 0 0 36.680667499482297 -99.325319115784524 0 -99.325319115784524 -159.45570242583676 0 0 0 0 0.36828276158890105 -0.35193397772862056 0 -0.35193397772862056 -1.3771816632248597 0 0 0 0 25.92645694228122 12.096957102212571 0 12.096957102212571 -130.30987523462426 0 0 0 0 -6.1124542962752457 -6.8586057256066795 0 -6.8586057256066795 -3.2474774686877481 0 0 0 0 -4.8174876145203598 -16.074287735187852 0 -16.074287735187852 -45.777963640849407 0 0 0 0 1.7302651655589329 -1.8089912441545977 0 -1.8089912441545977 1.5695422238292385 0 0 0 0 44.695364425770094 11.166015741556976 0 11.166015741556976 -1.5593726365273142 0 0 0 0 8.0123006031790283 -14.743215826526921 0 -14.743215826526921 -2.533295852192623 0 0 0 0 44.468338068356388 -7.9499003515303457 0 -7.9499003515303457 -6.3488327140640877 0 0 0 0 28.82270217162295 2.4437055387115265 0 2.4437055387115265 16.140771518191286 0 0 0 0 14.779450617214025 -35.809693136359044 0 -35.809693136359044 22.804155830502168 0 0 0 0 140.29113538094134 31.00343538839887 0 31.00343538839887 -2.9197815073805486 0 0 0 0 70.866111034003552 -148.20498740470163 0 -148.20498740470163 17.113429901833381 0 0 0 0 -12.529079853258736 -3.8007555835255857 0 -3.8007555835255857 19.025382445433934 0 0 0 0 -72.364815570195788 -44.27675424240536 0 -44.27675424240536 28.461136787195557 0 0 0 0 -79.7737883350419 -99.614739308547968 0 -99.614739308547968 -40.72993656228789 0 0 0 0 0.95588946402762076 -0.75654959525169829 0 -0.75654959525169829 0.1102951742517515 0 0 0 0 76.804334545699021 -154.25200526036608 0 -154.25200526036608 -21.261511026210542 0 0 0 0 108.22109959032969 -209.08057429315079 0 -209.08057429315079 0.1260130823567906 0 0 0 0 203.14921219096868 -170.42374259847486 0 -170.42374259847486 -39.242110884589522 0 0 0 0 91.563993007701356 -196.13670440576468 0 -196.13670440576468 -7.229574863426194 0 0 0 0 62.739099732898467 -241.39109533693372 0 -241.39109533693372 -45.404453562820891 0 0 0 0 92.524756582084137 -191.95244302168339 0 -191.95244302168339 -72.155799158543914 0 0 0 0 56.870389246709237 -168.88152360419784 0 -168.88152360419784 -0.091189843876248011 0 0 0 0 41.647750290292606 -128.20012796656226 0 -128.20012796656226 -72.053046269762319 0 0 0 0 104.71822341734514 -133.33568218726774 0 -133.33568218726774 -128.31508240121025 0 0 0 0 168.80474627286458 -241.11955712587985 0 -241.11955712587985 443.84622779064898 0 0 0 0 345.13592248143686 -396.52901153757017 0 -396.52901153757017 234.69031189335965 0 0 0 0 325.18268808350695 -306.39105875504583 0 -306.39105875504583 -53.175837283838064 0 0 0 0 146.11123499661335 -139.159509856623 0 -139.159509856623 183.56220304812723 0 0 0 0 116.16262440747232 -208.26946952678713 0 -208.26946952678713 57.445181512046815 0 0 0 0 155.01032264531386 -203.18361614240865 0 -203.18361614240865 -70.177824555490616 0 0 0 0 117.96389872292639 -245.52075271976284 0 -245.52075271976284 -92.637612205232585 0 0 0 0 42.569364988223242 -125.54931847296734 0 -125.54931847296734 -18.527265375602497 0 0 0 0 115.26475094549824 -103.43620648058885 0 -103.43620648058885 -402.14889277695795 0 0 0 0 3.2669838437834926 -3.6309513886352249 0 -3.6309513886352249 -2.4899407163239626 0 0 0 0 53.303979406438884 -263.22431805212716 0 -263.22431805212716 -131.89654475223563 0 0 0 0 68.501007257043966 -14.451240598718414 0 -14.451240598718414 -160.58444304554973 0 0 0 0 95.335521860972221 -195.40220173401917 0 -195.40220173401917 17.177341630883348 0 0 0 0 70.941331929061562 -46.606889987499244 0 -46.606889987499244 -191.57102135721448 0 0 0 0 -9.0065658672392601 -128.2900210263283 0 -128.2900210263283 -158.41175073966497 0 0 0 0 4.131271768787343 -3.5644888809083781 0 -3.5644888809083781 -2.414320446893977 0 0 0 0 68.668746509266384 -63.564305176730969 0 -63.564305176730969 -296.19716314283278 0 0 0 0 1.9741676881727983 -1.2855381431814052 0 -1.2855381431814052 -0.76703558767377888 0 0 0 0 362.93860585989023 110.89528438945501 0 110.89528438945501 -746.8721719469404 0 0 0 0 -29.61069886812038 -30.113343512767415 0 -30.113343512767415 -48.441217859647168 0 0 0 0 -13.499883312539168 -2.8204612807464287 0 -2.8204612807464287 -20.082159324259464 0 0 0 0 41.47190700811916 57.963750392552129 0 57.963750392552129 151.24456113190263 0 0 0 0 143.16155889737638 -100.25247786825548 0 -100.25247786825548 311.81821964567098 0 0 0 0 141.52434617943254 -64.194275304300447 0 -64.194275304300447 -56.738852968882384 0 0 0 0 173.23155191992555 28.122762092911216 0 28.122762092911216 99.608118673891113 0 0 0 0 157.98236895641458 -11.686354522617421 0 -11.686354522617421 -1.4727758592343889 0 0 0 0 93.798133821401279 97.835396580878864 0 97.835396580878864 -0.9352932053452605 0 0 0 0 -49.339840160435415 41.889936872711132 0 41.889936872711132 26.816269559815737 0 0 0 0 39.33040730749633 10.419999007527515 0 10.419999007527515 -5.5805461906492457 0 0 0 0 39.281963806788553 149.10229786629566 0 149.10229786629566 -91.325052923806766 0 0 0 0 9.2978716968937078 -21.087030663482892 0 -21.087030663482892 -29.671505108341307 0 0 0 0 -4.438683752063298 3.5983344019992387 0 3.5983344019992387 -127.64072174606281 0 0 0 0 43.034687072153247 11.796858326491666 0 11.796858326491666 -3.0611721637182381 0 0 0 0 51.513758892317128 65.556022529860229 0 65.556022529860229 -36.624020746453425 0 0 0 0 66.331546095514113 -73.714035912028748 0 -73.714035912028748 69.556157451479521 0 0 0 0 87.646077975368826 -133.00498958094477 0 -133.00498958094477 -86.068592126727708 0 0 0 0 -34.454796980851825 6.9253205325074987 0 6.9253205325074987 17.563723286691129 0 0 0 0 17.363593787769787 -5.0342337011297786 0 -5.0342337011297786 -8.2201037795412049 0 0 0 0 -19.282817662664456 30.115088658932564 0 30.115088658932564 -45.961373999589341 0 0 0 0 10.383492477907566 -7.535073346957688 0 -7.535073346957688 -2.3440506710412592 0 0 0 0 9.4162384550727438 -43.589450079177368 0 -43.589450079177368 -83.5425863939073 0 0 0 0 2.6410677790699992 6.1148973789395313 0 6.1148973789395313 -5.3777545874909265 0 0 0 0 13.311270611884538 22.015600648022655 0 22.015600648022655 -40.104977260336454 0 0 0 0 30.857141095300904 -6.8121123548644391 0 -6.8121123548644391 -33.05116728219582 0 0 0 0 20.73240253822587 5.1184716434245274 0 5.1184716434245274 -8.9007742597386823 0 0 0 0 22.476500763150398 11.225134870460352 0 11.225134870460352 -8.5705448186035937 0 0 0 0 33.016222207137616 -4.1625529181837919 0 -4.1625529181837919 -50.329842043540566 0 0 0 0 -21.164570084612933 -25.669757276452401 0 -25.669757276452401 -3.9084824143910737 0 0 0 0 15.281637104373658 -21.669682309531254 0 -21.669682309531254 -20.864055478261889 0 0 0 0 13.172570525685444 -6.378067297045348 0 -6.378067297045348 2.5378556223388493 0 0 0 0 2.9979290588380536 25.512707521715583 0 25.512707521715583 -0.37389802874713496 0 0 0 0 1.0936428228778823 -10.476962321686983 0 -10.476962321686983 -3.9157682946106434 0 0 0 0 16.937509335381037 -4.7572532492631581 0 -4.7572532492631581 -20.22108894330313 0 0 0 0 30.845934904878959 -12.867408864918389 0 -12.867408864918389 -15.913001974973213 0 0 0 0 18.236969853780465 -8.0766797400867745 0 -8.0766797400867745 -4.4326496775256601 0 0 0 0 19.695947243784758 5.0464192687404363 0 5.0464192687404363 5.3080398662586958 0 0 0 0 5.1390967910920153 -5.0712849810540206 0 -5.0712849810540206 -3.6948737817747315 0 0 0 0 3.2550161584275941 -3.6329384795479598 0 -3.6329384795479598 2.0792134769991213 0 0 0 0 22.469387190809357 2.67542403100407 0 2.67542403100407 -4.3457628886076236 0 0 0 0 8.8717964846800896 -14.963942047465366 0 -14.963942047465366 -4.3920374689507469 0 0 0 0 450.55283037571644 -640.65685622724686 0 -640.65685622724686 575.12232427913898 0 0 0 0 665.79677901207469 -43.354661328996144 0 -43.354661328996144 -48.257229161688883 0 0 0 0 1.8795076140524429 -1.6994063631485972 0 -1.6994063631485972 -4.2286923342849354 0 0 0 0 605.92613246098335 -310.00207890743786 0 -310.00207890743786 -144.23364820046481 0 0 0 0 505.65575712025384 -96.247209153889116 0 -96.247209153889116 72.904946027176265 0 0 0 0 -2.7347232831234578 -97.224397370889619 0 -97.224397370889619 165.00153548668459 0 0 0 0 893.27882769634016 21.64584002771926 0 21.64584002771926 -92.095426284231053 0 0 0 0 2.9864316206093804 -2.8640875368664922 0 -2.8640875368664922 0.31951531743856521 0 0 0 0 451.20248078671284 36.258773781200489 0 36.258773781200489 -125.12031557621395 0 0 0 0 705.7829901160876 -350.14514759109898 0 -350.14514759109898 379.03788433107729 0 0 0 0 10.851500938218265 -5.90474503826713 0 -5.90474503826713 1.5519316512783474 0 0 0 0 13.202431698635337 -9.1433418036790499 0 -9.1433418036790499 -7.1010618002230785 0 0 0 0 12.732046248129336 -1.8032356376421603 0 -1.8032356376421603 0.3367070416416027 0 0 0 0 4.9177187679583483 -1.4289592100882089 0 -1.4289592100882089 -3.7022375015789759 0 0 0 0 -31.081765073351562 90.684524848085857 0 90.684524848085857 63.648116910379031 0 0 0 0 9.0517487718607299 -5.9722035518716439 0 -5.9722035518716439 -1.0953946710077389 0 0 0 0 173.80458981276024 -142.38825519026614 0 -142.38825519026614 118.05312151782437 0 0 0 0 -67.884117712586885 136.51084319810298 0 136.51084319810298 74.982438547182937 0 0 0 0 0.18771133477133617 -2.5016815040798548 0 -2.5016815040798548 0.22494875692054528 0 0 0 0 -0.044668905317450935 -0.3708543414304728 0 -0.3708543414304728 0.3686072520531809 0 0 0 0 257.52913692343282 -126.30225203824466 0 -126.30225203824466 -99.949645317401973 0 0 0 0 232.83660943566065 -280.76565863411315 0 -280.76565863411315 273.40991880191359 0 0 0 0 500.87500867129711 150.41942736528608 0 150.41942736528608 268.81152490622287 0 0 0 0 718.82087082190264 -313.75446225883297 0 -313.75446225883297 133.97811400637784 0 0 0 0 287.60293396792258 -399.39023179762808 0 -399.39023179762808 287.13549644965224 0 0 0 0 366.44011014155694 -150.10073761154331 0 -150.10073761154331 58.225630439705128 0 0 0 0 400.60703162603022 -186.72307670329133 0 -186.72307670329133 31.594642518193723 0 0 0 0 393.31799062888604 -169.76893718804877 0 -169.76893718804877 27.988443261366228 0 0 0 0 411.24199924719869 6.8697278513254787 0 6.8697278513254787 64.638927775095908 0 0 0 0 240.20280554382771 -2.2671155006955814 0 -2.2671155006955814 -18.82866449095885 0 0 0 0 428.69333632788039 -31.364854825980274 0 -31.364854825980274 -18.604525188941807 0 0 0 0 288.54288085548615 -144.08980957411404 0 -144.08980957411404 -13.097038238103778 0 0 0 0 348.65350817798753 -126.45579369100824 0 -126.45579369100824 -10.495298382281362 0 0 0 0 324.63681447675481 -189.45052885825726 0 -189.45052885825726 31.510034620319857 0 0 0 0 302.98415030476463 -109.22480204671274 0 -109.22480204671274 -73.763679975553714 0 0 0 0 163.66944879268704 -57.151267645922871 0 -57.151267645922871 -23.9967158862828 0 0 0 0 85.193372542184079 -28.558780941903933 0 -28.558780941903933 -18.771201220130365 0 0 0 0 297.02209677324572 -132.81207412709682 0 -132.81207412709682 17.827860246258751 0 0 0 0 303.92293859228084 -160.21326733185242 0 -160.21326733185242 -7.7954337683122503 0 0 0 0 298.13677491854469 -173.95032008041471 0 -173.95032008041471 59.488198297674899 0 0 0 0 295.13681687228382 -141.83572994800534 0 -141.83572994800534 15.001183131603284 0 0 0 0 -0.6454300858728601 -0.85932124452506287 0 -0.85932124452506287 0.20919486333121462 0 0 0 0 -91.16353221447207 45.607131739531042 0 45.607131739531042 -15.077508608169637 0 0 0 0 4.0686238226498972 -52.602113713105098 0 -52.602113713105098 34.415466879190717 0 0 0 0 11.643512319627916 4.2387809071506126 0 4.2387809071506126 -79.043883514122172 0 0 0 0 43.757393014893751 -95.59374680194469 0 -95.59374680194469 2.0004262951561032 0 0 0 0 2.1957510562124014 -0.4615713963990693 0 -0.4615713963990693 1.0506447608999609 0 0 0 0 -31.644375707037398 -3.9864195595478122 0 -3.9864195595478122 30.489690674174199 0 0 0 0 -35.558937109439285 -93.287215483412638 0 -93.287215483412638 159.49709613436789 0 0 0 0 6.0385679925093427 -2.2854830307223892 0 -2.2854830307223892 30.524925176884409 0 0 0 0 12.378695015358971 1.7723219502731808 0 1.7723219502731808 27.40113003577153 0 0 0 0 28.513159265130525 -0.94026071427379065 0 -0.94026071427379065 -3.6037651302976883 0 0 0 0 22.315917819913011 -9.6409824598040359 0 -9.6409824598040359 -2.1868636773290291 0 0 0 0 19.615475862199673 17.304960752613624 0 17.304960752613624 9.8093492449215773 0 0 0 0 -23.191289585869526 3.4324663266015705 0 3.4324663266015705 70.718958716726775 0 0 0 0 1.3964191896408806 -0.81493463720435955 0 -0.81493463720435955 0.34981693028404237 0 0 0 0 21.280613787850598 -5.274232750835381 0 -5.274232750835381 7.7397559619439562 0 0 0 0 17.156709141639283 -4.438338446566366 0 -4.438338446566366 -3.3975767811385804 0 0 0 0 4.2443859295543405 -8.1647852077436482 0 -8.1647852077436482 0.37736298405047464 0 0 0 0 17.620767803928175 -28.597627416880187 0 -28.597627416880187 -26.949478226782958 0 0 0 0 58.054025303623348 -21.211099941294606 0 -21.211099941294606 6.8790580237114227 0 0 0 0 92.960029653419042 -68.384897382289637 0 -68.384897382289637 -12.691088774158743 0 0 0 0 9.8777477068562121 -3.821734497404961 0 -3.821734497404961 0.20503983631133771 0 0 0 0 10.27622294241155 -65.60202088248775 0 -65.60202088248775 -13.218887337992783 0 0 0 0 -113.4101917469161 -49.976260553632642 0 -49.976260553632642 88.390478700658605 0 0 0 0 6.9605151558644138 -4.0190930760491028 0 -4.0190930760491028 37.115837950936111 0 0 0 0 88.374737095648015 -2.4519201424069479 0 -2.4519201424069479 32.049306172089928 0 0 0 0 60.238870160188526 14.502253126874166 0 14.502253126874166 33.161127577517959 0 0 0 0 226.02362413414085 -88.903050204953502 0 -88.903050204953502 67.738699474052282 0 0 0 0 -149.26672709520062 44.176670530843353 0 44.176670530843353 -6.7969881936438696 0 0 0 0 302.81011055578711 -149.34967912802495 0 -149.34967912802495 58.451799805101473 0 0 0 0 -51.053993299603462 -36.7793159714181 0 -36.7793159714181 26.472215636259989 0 0 0 0 0.26729857238710508 0.0017112639640401994 0 0.0017112639640401994 -0.30586111278428696 0 0 0 0 293.90653363095771 -161.29307554186744 0 -161.29307554186744 68.267344971987768 0 0 0 0 32.973915285593506 -30.933620551853537 0 -30.933620551853537 10.398415338901085 0 0 0 0 49.598146282849484 -64.570804276930176 0 -64.570804276930176 -2.5370272170193857 0 0 0 0 -49.712541129738383 -96.308229071679307 0 -96.308229071679307 67.240276013120365 0 0 0 0 9.2060843130166177 -68.129818342517865 0 -68.129818342517865 56.061182390355953 0 0 0 0 7.7425690927298945 -15.571968019554042 0 -15.571968019554042 -2.1227940863599741 0 0 0 0 27.370977630023845 -88.478988291165479 0 -88.478988291165479 -5.2475850924838596 0 0 0 0 41.989688726083841 -75.974314718662527 0 -75.974314718662527 -13.378621696051027 0 0 0 0 80.695150152231008 -33.620560183142992 0 -33.620560183142992 9.5984497628872028 0 0 0 0 89.739783993183664 -24.704614018320171 0 -24.704614018320171 -3.1520032968846863 0 0 0 0 21.910541137471498 -19.337617021493521 0 -19.337617021493521 -5.4884357078511776 0 0 0 0 109.95375229211641 -35.209445046360543 0 -35.209445046360543 -29.144805477233149 0 0 0 0 60.46359274481074 -113.80897660812127 0 -113.80897660812127 -52.410179976500899 0 0 0 0 64.735179150658951 -158.81463132982344 0 -158.81463132982344 75.122859358136168 0 0 0 0 89.524495672165358 -28.562401126691839 0 -28.562401126691839 -5.3614000932702766 0 0 0 0 52.053809221602279 -23.930511426835448 0 -23.930511426835448 6.2971376036166298 0 0 0 0 95.813285448331783 -30.587883972611184 0 -30.587883972611184 3.4680967832645493 0 0 0 0 90.42538158080788 -61.760185481008193 0 -61.760185481008193 -23.341803828641787 0 0 0 0 183.59186666108144 -58.178018145835722 0 -58.178018145835722 -123.77435968355576 0 0 0 0 151.04804073870764 -7.6872002243866291 0 -7.6872002243866291 -69.558810066028855 0 0 0 0 34.469347686565015 -15.757446235188354 0 -15.757446235188354 9.2482433122486327 0 0 0 0 29.857764437539643 8.8513928779309055 0 8.8513928779309055 -17.794587694943498 0 0 0 0 86.88795275776647 21.658402851073845 0 21.658402851073845 -63.708273718548298 0 0 0 0 14.909435492771074 16.396472004740517 0 16.396472004740517 -14.473759061871515 0 0 0 0 -1.5184839599008626 3.2796286607434268 0 3.2796286607434268 -0.97681577226724325 0 0 0 0 -10.117459656852589 41.717456719964616 0 41.717456719964616 44.647039538042463 0 0 0 0 251.42607336721267 44.086579547482188 0 44.086579547482188 -63.618439673944408 0 0 0 0 257.5914900846401 -35.961751933870119 0 -35.961751933870119 88.003648852946071 0 0 0 0 205.28248207879369 -101.96480631450436 0 -101.96480631450436 76.044045293874206 0 0 0 0 286.49689835719619 -48.01739833949398 0 -48.01739833949398 -1.1906847107629801 0 0 0 0 305.80831469492841 -131.72815532482446 0 -131.72815532482446 -22.815616696570942 0 0 0 0 279.92271636443911 -87.443844835210257 0 -87.443844835210257 21.040773623645237 0 0 0 0 243.19746772022336 -76.015553059080958 0 -76.015553059080958 -27.789247157275895 0 0 0 0 286.06006036110557 -52.136311837041262 0 -52.136311837041262 -30.648099266604731 0 0 0 0 204.8589757361824 -96.60706677048185 0 -96.60706677048185 -26.169822112021393 0 0 0 0 278.47354022509535 -99.657652224491812 0 -99.657652224491812 -52.408454210799391 0 0 0 0 131.25693273349316 -99.60188666899694 0 -99.60188666899694 -140.5010845106417 0 0 0 0 211.81653318258759 -52.435618815515909 0 -52.435618815515909 -125.16626525500396 0 0 0 0 8.3417524422548013 -101.90916831978802 0 -101.90916831978802 -57.578077086474877 0 0 0 0 -153.96991328219883 141.85762011846964 0 141.85762011846964 -109.00181892567321 0 0 0 0 18.909491783910198 20.255664562131642 0 20.255664562131642 -19.478021836942389 0 0 0 0 29.912752771902746 14.567235364167878 0 14.567235364167878 -8.4284378940575166 0 0 0 0 -8.5231642801663838 38.812060880070931 0 38.812060880070931 -31.305770783794287 0 0 0 0 20.565795280403108 8.9969472452198715 0 8.9969472452198715 -37.188184820832248 0 0 0 0 32.530564649321605 20.896050350400401 0 20.896050350400401 -27.708237595983519 0 0 0 0 35.141031503197155 49.746771919155435 0 49.746771919155435 -44.84311236260055 0 0 0 0 23.814402902868096 52.73367351865619 0 52.73367351865619 -17.234010852800566 0 0 0 0 24.554703594316379 15.229890512035126 0 15.229890512035126 6.4655800736118181 0 0 0 0 48.485596581078426 10.073074091144008 0 10.073074091144008 -2.4440369468575227 0 0 0 0 49.155806856775598 2.7680223650445441 0 2.7680223650445441 13.361121217225445 0 0 0 0 42.844162103421695 11.36436998845511 0 11.36436998845511 25.922066852788703 0 0 0 0 62.549085337057477 -24.408957609542995 0 -24.408957609542995 34.280950968825664 0 0 0 0 18.946435967758589 17.08337495283331 0 17.08337495283331 -1.8858732348980993 0 0 0 0 20.792133266557357 6.8134759485001268 0 6.8134759485001268 21.785484222022205 0 0 0 0 19.842080925867776 18.91863458017815 0 18.91863458017815 1.0386746988715458 0 0 0 0 11.293523998603632 13.385755597411389 0 13.385755597411389 4.427199602168912 0 0 0 0 26.380593582696747 10.096702232081043 0 10.096702232081043 0.53631589330325369 0 0 0 0 115.23795399597293 -12.158166440726973 0 -12.158166440726973 28.411140076525953 0 0 0 0 16.89821122271951 15.97154894789594 0 15.97154894789594 20.029507631690649 0 0 0 0 89.605056595377391 -37.694151119648723 0 -37.694151119648723 12.719221287822393 0 0 0 0 84.878931649436709 -33.886041075160392 0 -33.886041075160392 34.26645653414289 0 0 0 0 120.47930865090166 -14.993449963885269 0 -14.993449963885269 28.762175616290733 0 0 0 0 199.81158173790755 -59.159943842062603 0 -59.159943842062603 31.88179911959196 0 0 0 0 157.39538232657651 -74.013560506149588 0 -74.013560506149588 51.174505005053106 0 0 0 0 212.47863775734186 -99.847978734798573 0 -99.847978734798573 64.910677681353263 0 0 0 0 240.11317579948081 -114.32169311301323 0 -114.32169311301323 27.314223254637 0 0 0 0 198.50840555115246 -32.796594229079915 0 -32.796594229079915 19.776187802492132 0 0 0 0 132.80313764891616 -27.31165371679981 0 -27.31165371679981 36.440808521052531 0 0 0 0 126.66928370301321 -49.83846598015225 0 -49.83846598015225 43.315728512100122 0 0 0 0 93.829082680571446 -5.1634845152450453 0 -5.1634845152450453 30.467242757604254 0 0 0 0 130.29737546976139 -35.369474888442255 0 -35.369474888442255 27.723891770676346 0 0 0 0 317.15031826799532 -18.107487546988523 0 -18.107487546988523 -9.5811566754664454 0 0 0 0 245.08353475959302 -204.13575322843553 0 -204.13575322843553 13.258559963636799 0 0 0 0 295.42100061745168 -153.08295329477437 0 -153.08295329477437 51.350986914765599 0 0 0 0 29.947422530716722 -10.506910448264534 0 -10.506910448264534 33.146848240936379 0 0 0 0 30.791933641245123 -5.9803025730025183 0 -5.9803025730025183 -6.6239686100038853 0 0 0 0 58.861702908368898 -23.954240583028877 0 -23.954240583028877 20.504018105451905 0 0 0 0 25.728304692231177 -61.038470457782751 0 -61.038470457782751 42.1266894633211 0 0 0 0 86.852794067679497 -31.010998260434008 0 -31.010998260434008 -23.818922617638236 0 0 0 0 6.1079920123700475 -1.8282234859870954 0 -1.8282234859870954 -2.3038787384610977 0 0 0 0 72.295163540540671 0.68200745917602035 0 0.68200745917602035 28.594240808870381 0 0 0 0 28.045255464705406 -24.617413053222663 0 -24.617413053222663 28.64674271480726 0 0 0 0 28.984537136231665 -33.478311694147578 0 -33.478311694147578 -5.5756532305131259 0 0 0 0 -60.448839642031089 -437.9220298411683 0 -437.9220298411683 -375.77548949423181 0 0 0 0 -306.33721535166114 -182.03893908809187 0 -182.03893908809187 -46.031864274613326 0 0 0 0 32.866503067691468 -20.272132463920862 0 -20.272132463920862 11.962636352451835 0 0 0 0 -275.10871758106441 -356.77475402290975 0 -356.77475402290975 -236.32746441527343 0 0 0 0 -138.15220624048925 -127.76941143051999 0 -127.76941143051999 -214.06681030851541 0 0 0 0 -569.53900909132426 -210.51327860432957 0 -210.51327860432957 -132.44461781497921 0 0 0 0 2.3111491183660391 -2.7543072999797289 0 -2.7543072999797289 2.6476704889578357 0 0 0 0 1539.1451491791377 616.08635719268113 0 616.08635719268113 -204.93861984345131 0 0 0 0 -788.51106481954048 -631.05542995066344 0 -631.05542995066344 -206.22719398827758 0 0 0 0 195.76442451318144 -384.11518878905827 0 -384.11518878905827 239.51177401140012 0 0 0 0 546.2501611894636 -326.85547593650409 0 -326.85547593650409 61.137081064525773 0 0 0 0 530.04789084225922 67.934959438154692 0 67.934959438154692 -26.677043816727291 0 0 0 0 100.85863539334241 26.180699524896681 0 26.180699524896681 25.92021368622045 0 0 0 0 2.7535490024824298 -2.4836284320486222 0 -2.4836284320486222 3.1419472074207633 0 0 0 0 8.5648615456279913 -9.2681671090694948 0 -9.2681671090694948 10.213124249896239 0 0 0 0 411.82447706214589 -267.0694097564874 0 -267.0694097564874 178.64304696730278 0 0 0 0 491.29353427411479 -41.572032644736282 0 -41.572032644736282 133.87297077703261 0 0 0 0 643.79261189048702 -208.13650977389966 0 -208.13650977389966 -235.39475095988018 0 0 0 0 1181.7478573976769 397.17276354702517 0 397.17276354702517 -245.49396104658851 0 0 0 0 1.2600470297781072 -2.2581655372183889 0 -2.2581655372183889 3.5191430713231853 0 0 0 0 -484.47828910420503 -326.05487964908207 0 -326.05487964908207 -118.30105766176325 0 0 0 0 -447.56488845771491 -336.83381995770696 0 -336.83381995770696 -126.64018059328373 0 0 0 0 1010.8018442381181 -13.561237846576205 0 -13.561237846576205 -760.82814357380971 0 0 0 0 -455.21696892940236 -358.00585735718187 0 -358.00585735718187 -182.16131166564173 0 0 0 0 -393.67367390177242 -265.50451822492505 0 -265.50451822492505 -256.7857702628944 0 0 0 0 -401.99590704566072 -218.80278066063602 0 -218.80278066063602 -52.184190854874032 0 0 0 0 1017.1105247364976 297.7208238877115 0 297.7208238877115 17.152011457783374 0 0 0 0 8.5391612730035575 -11.244522619589375 0 -11.244522619589375 7.3046603774125174 0 0 0 0 524.86049166459634 4.0323391477659243 0 4.0323391477659243 -323.04691525090584 0 0 0 0 507.26705605521056 39.169265376065596 0 39.169265376065596 242.40349234271162 0 0 0 0 -86.971678318477643 -56.94132951056099 0 -56.94132951056099 174.9443838730258 0 0 0 0 -113.00249896135938 156.20475140333701 0 156.20475140333701 49.955649747040752 0 0 0 0 87.149782498826426 -17.237885568846423 0 -17.237885568846423 -23.196959199827688 0 0 0 0 6.1564360180637578 -17.097894117005211 0 -17.097894117005211 -9.8254449845622922 0 0 0 0 46.856674105467391 -17.084783627517027 0 -17.084783627517027 -1.3017669654900601 0 0 0 0 273.14174863616063 49.647146334355511 0 49.647146334355511 -194.62687920385861 0 0 0 0 79.914150631091616 -63.478703601184407 0 -63.478703601184407 3.5912614031312842 0 0 0 0 4.0463178112450251 -17.578237427015949 0 -17.578237427015949 -7.6965425053057572 0 0 0 0 195.69160114887745 -19.762709222144736 0 -19.762709222144736 -15.508816663035759 0 0 0 0 65.719317574337765 -17.522701923155182 0 -17.522701923155182 -2.554422834570687 0 0 0 0 110.69293614113849 -71.670240275539072 0 -71.670240275539072 -1.9652411592282988 0 0 0 0 88.835626805353968 -37.151074694604176 0 -37.151074694604176 -1.5107943105872437 0 0 0 0 18.289736304369626 -9.4135675885432804 0 -9.4135675885432804 -18.516466529768358 0 0 0 0 105.20106255515429 -42.150176104094157 0 -42.150176104094157 -3.7972365410769271 0 0 0 0 411.15047412915737 -92.739530029347407 0 -92.739530029347407 -370.05849411710096 0 0 0 0 -26.527682365180226 194.91971730624118 0 194.91971730624118 -68.476455035888648 0 0 0 0 705.90064071300731 -273.03551695342685 0 -273.03551695342685 -178.60356651022062 0 0 0 0 59.81288529808262 -37.392452628204865 0 -37.392452628204865 3.4489469831023598 0 0 0 0 -439.51216189728257 402.09717102541822 0 402.09717102541822 142.53715728144016 0 0 0 0 -2.3233084200032508 -0.0062789342819229432 0 -0.0062789342819229432 -5.9714031495066422 0 0 0 0 1042.6148758077907 272.17013915815642 0 272.17013915815642 -9.2686253093143023 0 0 0 0 1100.6236987335797 143.30576647180351 0 143.30576647180351 -40.715923005798459 0 0 0 0 456.74344118967565 208.67671351518766 0 208.67671351518766 82.224632475558337 0 0 0 0 765.57675863013878 92.746853081542724 0 92.746853081542724 14.001236776221049 0 0 0 0 571.69848927489511 194.97394112750135 0 194.97394112750135 136.379417180573 0 0 0 0 768.40753892617204 167.13094697339142 0 167.13094697339142 140.01942599055474 0 0 0 0 1075.8916536248944 93.505602195955362 0 93.505602195955362 57.02640228774635 0 0 0 0 1158.049305642664 238.65596896298575 0 238.65596896298575 54.934167183120735 0 0 0 0 1544.089546342213 221.19735739429689 0 221.19735739429689 -32.725352402265344 0 0 0 0 1331.4265722878881 88.040937466863852 0 88.040937466863852 109.06843554505667 0 0 0 0 1257.856617039768 124.158854008655 0 124.158854008655 16.468845425135441 0 0 0 0 4.1746792538918278 -10.340206866021944 0 -10.340206866021944 10.969539503569116 0 0 0 0 -952.81889291416883 -125.87360186418528 0 -125.87360186418528 13.841476712685107 0 0 0 0 -208.18885288221281 -81.886087686543078 0 -81.886087686543078 -265.37708651827052 0 0 0 0 -343.40536462704767 -342.90066649625305 0 -342.90066649625305 -193.44021815197812 0 0 0 0 -1095.0606908455302 -519.7680861661147 0 -519.7680861661147 -64.402968162859906 0 0 0 0 -329.07858876805403 -361.70821215449905 0 -361.70821215449905 -119.94448652312713 0 0 0 0 57.570058516866993 -18.264320472641771 0 -18.264320472641771 38.009604281288546 0 0 0 0 -386.08138924763625 -289.09350404668419 0 -289.09350404668419 16.065316872978656 0 0 0 0 -72.142565551053849 14.076585485724081 0 14.076585485724081 70.497204998656343 0 0 0 0 -229.63501163772162 -325.81686736950473 0 -325.81686736950473 -172.46513756467903 0 0 0 0 1393.3866408802933 123.32604156879188 0 123.32604156879188 -12.25468512389898 0 0 0 0 1298.2884412481217 261.78326142888636 0 261.78326142888636 61.522054460207073 0 0 0 0 2040.4517917011617 -293.72998474254837 0 -293.72998474254837 53.224180513368992 0 0 0 0 1271.2785217243363 298.49854714332923 0 298.49854714332923 -83.59219905284408 0 0 0 0 1282.4774755198523 169.20128324495545 0 169.20128324495545 -56.464785306312478 0 0 0 0 10.81080465027884 -19.678761046616941 0 -19.678761046616941 27.515316312428478 0 0 0 0 17.359575520655198 -72.232039542434791 0 -72.232039542434791 136.54169547589754 0 0 0 0 1322.8635876743028 31.837658307022593 0 31.837658307022593 -94.381790133391405 0 0 0 0 37.595585798083277 2.3306531511016146 0 2.3306531511016146 -29.596797659858339 0 0 0 0 -5.6393602698772156 123.20379604244908 0 123.20379604244908 -144.44850543653592 0 0 0 0 12.733277998713657 -5.0455120555224084 0 -5.0455120555224084 -8.0396412480196346 0 0 0 0 8.100842277629539 -2.2805200881987844 0 -2.2805200881987844 6.3900513953102092 0 0 0 0 13.605886023955463 -113.9481665157507 0 -113.9481665157507 -398.12391903334719 0 0 0 0 2117.8609867745836 437.50516769936803 0 437.50516769936803 -853.70561080875632 0 0 0 0 1692.8252529632591 402.89101740628757 0 402.89101740628757 -172.02027158206511 0 0 0 0 1524.7902923000293 191.61459606811695 0 191.61459606811695 -23.930912976246873 0 0 0 0 1334.2945666425003 501.95840045733075 0 501.95840045733075 -142.59831588943234 0 0 0 0 736.56466299997555 227.82909966931948 0 227.82909966931948 -124.85358436679235 0 0 0 0 714.40533002241136 250.95472351371609 0 250.95472351371609 35.042902507464532 0 0 0 0 1178.2088856371483 357.83976026112487 0 357.83976026112487 -83.171882074063433 0 0 0 0 734.38427106259405 219.13910293543177 0 219.13910293543177 55.350468979357174 0 0 0 0 731.10629388516645 237.50714840398405 0 237.50714840398405 -38.514923575401554 0 0 0 0 521.69988083312273 4.0107278871496419 0 4.0107278871496419 -69.075528086246777 0 0 0 0 135.58785122837435 -187.04742386392536 0 -187.04742386392536 -165.09740627008341 0 0 0 0 453.2522525633467 20.249846893142603 0 20.249846893142603 -213.49677560951204 0 0 0 0 379.57583220118249 49.46424786301759 0 49.46424786301759 -9.8545225386139919 0 0 0 0 174.92097508279767 20.530389824662961 0 20.530389824662961 -405.19151889446221 0 0 0 0 -220.3053770675906 -246.38510707837395 0 -246.38510707837395 -237.83254331765102 0 0 0 0 -36.972400071575976 -21.391425640622401 0 -21.391425640622401 -76.405166771364748 0 0 0 0 328.12640970854409 120.38616789163825 0 120.38616789163825 -49.350353546750739 0 0 0 0 218.41078315443883 -96.699953387807454 0 -96.699953387807454 -121.63330528033293 0 0 0 0 179.45022102350049 50.742834106012424 0 50.742834106012424 43.216411105841416 0 0 0 0 -405.6854017504229 -555.5626559619177 0 -555.5626559619177 -423.02157784656083 0 0 0 0 -5.0864898703504196 3.1943760253126214 0 3.1943760253126214 -9.7348550948174868 0 0 0 0 21.211925250463537 -100.93618071291712 0 -100.93618071291712 -819.01813971206502 0 0 0 0 -142.02802261005127 -533.1306437675803 0 -533.1306437675803 -176.52083399053754 0 0 0 0 -291.12093925331192 105.30949383088046 0 105.30949383088046 -2.9215961142144806 0 0 0 0 58.076035605161451 -165.10882685930301 0 -165.10882685930301 125.73373242960224 0 0 0 0 -16.214675030245417 51.02412343138235 0 51.02412343138235 111.92902159597543 0 0 0 0 29.525532566796755 -166.34588426646178 0 -166.34588426646178 174.45043713426094 0 0 0 0 239.95737070454197 -192.63563637458628 0 -192.63563637458628 160.20774353176239 0 0 0 0 429.52053341425199 5.3904034024239991 0 5.3904034024239991 4.7587768635603425 0 0 0 0 194.83056487784779 -33.386241726480876 0 -33.386241726480876 -154.09467074928943 0 0 0 0 202.8755960855633 154.72565519946147 0 154.72565519946147 -44.591662920350018 0 0 0 0 247.07038376972923 -44.164402314931522 0 -44.164402314931522 130.15882061988623 0 0 0 0 282.8764013960099 156.06691261684 0 156.06691261684 109.37862085022448 0 0 0 0 488.58796832729422 47.675261659765511 0 47.675261659765511 102.30921737628705 0 0 0 0 573.599853560052 143.6539109945852 0 143.6539109945852 111.30755008275901 0 0 0 0 463.48316864075605 -0.16839418889185254 0 -0.16839418889185254 79.148494027914921 0 0 0 0 389.76863641357886 26.105838461492965 0 26.105838461492965 77.550211550628774 0 0 0 0 404.22069076291336 -33.655000491445321 0 -33.655000491445321 67.487980878037888 0 0 0 0 626.46144858018624 105.16843875633151 0 105.16843875633151 48.772269693449743 0 0 0 0 623.33071090828162 76.142069190622351 0 76.142069190622351 66.899744088156922 0 0 0 0 205.46625524308911 -145.01219140835065 0 -145.01219140835065 104.39304410191062 0 0 0 0 230.19993490962952 -24.607695669068562 0 -24.607695669068562 155.89592533977611 0 0 0 0 243.19451422383281 -130.2115953949733 0 -130.2115953949733 106.52381603896447 0 0 0 0 296.62234828693909 -67.152067184291809 0 -67.152067184291809 73.984148087883568 0 0 0 0 218.38548207391977 -108.30631463576356 0 -108.30631463576356 71.557034839982407 0 0 0 0 335.07231211379258 -95.157753778252754 0 -95.157753778252754 51.749504819573303 0 0 0 0 388.4202161631838 -60.062375482972129 0 -60.062375482972129 58.275864588734294 0 0 0 0 411.04082806204678 -120.80671029801442 0 -120.80671029801442 41.245472467747732 0 0 0 0 264.19811917131301 -117.23627593123547 0 -117.23627593123547 72.770726036653286 0 0 0 0 156.13699825368349 -95.172015456229929 0 -95.172015456229929 65.231181390971869 0 0 0 0 245.52596075250767 -62.961827195682417 0 -62.961827195682417 33.115996885933328 0 0 0 0 677.20238202495966 22.812417237025784 0 22.812417237025784 3.1218052662949276 0 0 0 0 466.10097800446238 -19.852100678913757 0 -19.852100678913757 15.89638356172145 0 0 0 0 497.49254749212923 -86.277940192567712 0 -86.277940192567712 0.21124004430294008 0 0 0 0 484.74018674291437 -61.15766386932728 0 -61.15766386932728 14.475477986420628 0 0 0 0 708.43555580897373 0.2066325265782325 0 0.2066325265782325 -77.944911078374389 0 0 0 0 835.4218513362357 49.831965873287118 0 49.831965873287118 -129.68165703100385 0 0 0 0 815.76050201010366 70.401593837436849 0 70.401593837436849 -148.01514590905936 0 0 0 0 740.27155271263109 118.88130547863125 0 118.88130547863125 -82.147068609907365 0 0 0 0 838.68824449211388 65.507943702397824 0 65.507943702397824 -163.03442631569351 0 0 0 0 755.79825678729685 74.247785983637186 0 74.247785983637186 -147.37325754580343 0 0 0 0 758.47361018584616 52.348522266510997 0 52.348522266510997 -183.29511477665437 0 0 0 0 659.83704048844083 4.9901213284256301 0 4.9901213284256301 -146.3935517936352 0 0 0 0 839.95194468850241 115.00566333793665 0 115.00566333793665 -92.642629440901146 0 0 0 0 847.61830292717787 80.05508159976489 0 80.05508159976489 -185.04431661714898 0 0 0 0 813.7546972073178 108.7449224996999 0 108.7449224996999 -110.03844293847214 0 0 0 0 831.42473268067897 -57.127355261151479 0 -57.127355261151479 -183.23155895330819 0 0 0 0 943.64473509852542 90.451893966761418 0 90.451893966761418 -109.235816694611 0 0 0 0 806.23298363725189 77.038739307344258 0 77.038739307344258 -78.47696516126598 0 0 0 0 798.14461438942089 112.93532615440608 0 112.93532615440608 -77.470012227134248 0 0 0 0 798.09281426011876 107.75503279734949 0 107.75503279734949 -68.340985029947205 0 0 0 0 647.60584519139957 79.766279479587865 0 79.766279479587865 36.833596756252973 0 0 0 0 743.3518260560013 196.83891520913403 0 196.83891520913403 121.66193509944878 0 0 0 0 849.00382450744655 174.73403593789499 0 174.73403593789499 -5.3169549744643518 0 0 0 0 964.53084595458131 165.87421044597204 0 165.87421044597204 118.07328887478616 0 0 0 0 890.32202578612487 48.505988535356664 0 48.505988535356664 -36.735302328594116 0 0 0 0 1284.8414532004972 104.08373582010972 0 104.08373582010972 -41.348386012039555 0 0 0 0 924.64895823212282 94.514680805367789 0 94.514680805367789 4.5395868556560117 0 0 0 0 1197.6849528939565 74.408004329797222 0 74.408004329797222 73.205645778289181 0 0 0 0 895.97302874671004 207.13241255430103 0 207.13241255430103 131.98275058771651 0 0 0 0 839.71101792086483 118.69113212030152 0 118.69113212030152 74.799263935100498 0 0 0 0 -810.9626425451861 -471.73488154473671 0 -471.73488154473671 -206.98211853171233 0 0 0 0 -670.1445404324113 72.058328717801487 0 72.058328717801487 -29.531261635268493 0 0 0 0 -870.26756140115322 -529.64219534950553 0 -529.64219534950553 -190.74722430468341 0 0 0 0 1355.0789564982188 292.34854890386123 0 292.34854890386123 168.92004758380358 0 0 0 0 1910.7168221065003 159.87985012066565 0 159.87985012066565 -164.46323415761708 0 0 0 0 -794.93608628641232 -401.14134045154196 0 -401.14134045154196 -245.41296392627919 0 0 0 0 2.1908400768944674 -3.9666781872989674 0 -3.9666781872989674 1.7089086169615548 0 0 0 0 1412.8147911650467 -304.98462658666904 0 -304.98462658666904 -67.160823002484904 0 0 0 0 -914.72628343349061 -322.75177916321445 0 -322.75177916321445 -217.94569080456313 0 0 0 0 1819.1910348515448 593.3671624589764 0 593.3671624589764 40.352092694080966 0 0 0 0 -966.8490006497741 -490.41286833914273 0 -490.41286833914273 -164.955964634466 0 0 0 0 16.428582927739214 -14.338865128177929 0 -14.338865128177929 5.8233647674350175 0 0 0 0 13.836389020197231 -17.073792214862308 0 -17.073792214862308 8.5663438829896137 0 0 0 0 1583.330201658875 553.13373126525801 0 553.13373126525801 337.33439189192723 0 0 0 0 -974.0681064562159 -409.55201055365342 0 -409.55201055365342 -194.01871750712871 0 0 0 0 2000.5435055424532 1019.2752934464852 0 1019.2752934464852 609.78628658854825 0 0 0 0 -115.57265249000193 -9.7208002737271499 0 -9.7208002737271499 -123.68106886956002 0 0 0 0 22.991506342932041 -27.564350863991677 0 -27.564350863991677 14.274753858686537 0 0 0 0 97.77260384899273 -397.29691697073395 0 -397.29691697073395 11.201777021986345 0 0 0 0 1002.2786747394421 31.649078589398414 0 31.649078589398414 -142.58857613126565 0 0 0 0 775.60043403234158 -272.65084793287315 0 -272.65084793287315 -51.993365737028853 0 0 0 0 570.31670993124135 -401.26659523431772 0 -401.26659523431772 -323.38032634238789 0 0 0 0 363.0921511438064 -285.58642617464193 0 -285.58642617464193 -85.656494855570145 0 0 0 0 384.57862117886543 -495.69734904016786 0 -495.69734904016786 -210.58963924071213 0 0 0 0 657.21884942315228 -161.45213607102232 0 -161.45213607102232 -147.92712557808409 0 0 0 0 557.46691524879134 9.7181452618342519 0 9.7181452618342519 -123.02184148355809 0 0 0 0 584.26633568183752 -179.26105555455342 0 -179.26105555455342 -89.054674073289789 0 0 0 0 2128.0127422448422 1356.2676425669092 0 1356.2676425669092 -378.63247856303883 0 0 0 0 18.868898865388473 -47.242363553517862 0 -47.242363553517862 36.576915058296436 0 0 0 0 452.93311134592659 201.48057197436765 0 201.48057197436765 -59.436674850634517 0 0 0 0 7.4032152826015221 -5.173871089295659 0 -5.173871089295659 1.2528669495653113 0 0 0 0 -219.57087845249407 -317.40006970891511 0 -317.40006970891511 -48.366023139833942 0 0 0 0 55.990003396276734 -92.350500985137955 0 -92.350500985137955 -150.432486543305 0 0 0 0 86.79923215060262 -397.89784840188008 0 -397.89784840188008 -113.6485190866797 0 0 0 0 -80.871832166747481 -189.95557753830707 0 -189.95557753830707 -83.459132638409756 0 0 0 0 260.83219845610438 -219.57194949455993 0 -219.57194949455993 -97.252612232408126 0 0 0 0 111.8232247226988 -138.97002646169778 0 -138.97002646169778 34.788378615486295 0 0 0 0 661.91842723228183 -251.01013419845009 0 -251.01013419845009 -120.99999403399204 0 0 0 0 226.54429359828282 -393.11681816281953 0 -393.11681816281953 -118.48253031196691 0 0 0 0 264.54005879127726 -146.21096515734146 0 -146.21096515734146 9.1658358373974806 0 0 0 0 264.97077912952591 -144.97292361324583 0 -144.97292361324583 9.8695674653986316 0 0 0 0 429.14670523429231 -95.552902897183003 0 -95.552902897183003 -2.5464882309962036 0 0 0 0 352.85058970544924 62.823747261363536 0 62.823747261363536 -60.252019065133595 0 0 0 0 25.398736118721317 -31.388631569163906 0 -31.388631569163906 15.612633931045716 0 0 0 0 1197.4662662618794 -473.82977232927544 0 -473.82977232927544 735.73732018132478 0 0 0 0 789.08643281592049 106.36916886530679 0 106.36916886530679 -84.319247723045009 0 0 0 0 767.44700022489997 163.42932598055745 0 163.42932598055745 -56.664455618695115 0 0 0 0 812.74961814649214 144.90212379063178 0 144.90212379063178 50.545233263017508 0 0 0 0 765.3574696170981 73.688884752640206 0 73.688884752640206 -51.744463155762332 0 0 0 0 868.55992779674307 -46.045330485073691 0 -46.045330485073691 -81.844802828926731 0 0 0 0 927.46372331564635 75.1066002989769 0 75.1066002989769 -125.27909130545117 0 0 0 0 1133.4798111313139 83.626902368518586 0 83.626902368518586 -41.575228753202282 0 0 0 0 1160.5817048808021 291.01030824942472 0 291.01030824942472 76.141854981931544 0 0 0 0 223.57957413820259 36.536502751423839 0 36.536502751423839 5.6004414870388075 0 0 0 0 23.762090240424214 -29.371991934294272 0 -29.371991934294272 14.321281123075615 0 0 0 0 1052.2503227489688 118.66364610965161 0 118.66364610965161 49.166119021667328 0 0 0 0 1450.1279954950878 338.69026184045401 0 338.69026184045401 170.80043366454856 0 0 0 0 21.193589538188661 -25.564259196504423 0 -25.564259196504423 14.330255938378265 0 0 0 0 1915.0413458065013 285.21255871802714 0 285.21255871802714 98.158463610387116 0 0 0 0 172.05923780571902 -3.4333976520301803 0 -3.4333976520301803 25.213379392086097 0 0 0 0 174.58767639690268 13.245727844790395 0 13.245727844790395 21.309426286663637 0 0 0 0 180.58246496510401 2.8558492185259041 0 2.8558492185259041 25.371078587435701 0 0 0 0 233.56142004081084 -12.742333848998715 0 -12.742333848998715 3.9337229969484895 0 0 0 0 227.74597141420054 -30.631341220062787 0 -30.631341220062787 29.315533559209115 0 0 0 0 236.02776972626452 -47.134693655574807 0 -47.134693655574807 -14.162141437284021 0 0 0 0 245.10001885484962 -71.685858389116405 0 -71.685858389116405 51.853646554264742 0 0 0 0 271.81870318632718 5.9112080320540485 0 5.9112080320540485 25.041995420950798 0 0 0 0 126.04030867986148 37.408667485048227 0 37.408667485048227 -33.318443155697196 0 0 0 0 244.33118104771711 -56.923887047654716 0 -56.923887047654716 19.74880875981512 0 0 0 0 227.20688762891587 -102.3283528837876 0 -102.3283528837876 70.424084765322732 0 0 0 0 502.37327364206431 -174.27774498371082 0 -174.27774498371082 38.005983179376017 0 0 0 0 100.48926767269586 -99.03208322024534 0 -99.03208322024534 133.69462694945878 0 0 0 0 792.5053947731576 -135.41432518270449 0 -135.41432518270449 -21.107552991726152 0 0 0 0 500.8727458566259 -138.45361871690392 0 -138.45361871690392 23.004449984535313 0 0 0 0 738.66298735197051 -125.78753479780721 0 -125.78753479780721 -28.968391425921254 0 0 0 0 795.31041066279431 7.1006103348568104 0 7.1006103348568104 -77.419992190880521 0 0 0 0 868.319347839275 -235.80552738770484 0 -235.80552738770484 -13.149735768640312 0 0 0 0 1663.6918489814561 -218.48121900379471 0 -218.48121900379471 -52.962121453947475 0 0 0 0 689.09446537142503 -747.05320310998923 0 -747.05320310998923 499.87667778214666 0 0 0 0 2486.8006002467591 -1142.8525062210679 0 -1142.8525062210679 530.60231920793217 0 0 0 0 408.85567135891324 -285.63094663240668 0 -285.63094663240668 154.96719205728823 0 0 0 0 348.61385084759058 -20.143514443947083 0 -20.143514443947083 87.147987376752098 0 0 0 0 102.51648647266848 553.40812772134473 0 553.40812772134473 -1001.3736141334548 0 0 0 0 40.057035161728038 13.527971882819365 0 13.527971882819365 -0.6633378669875043 0 0 0 0 -1.3045807064409018 -91.441883806595342 0 -91.441883806595342 -238.97703671322029 0 0 0 0 226.14724170013505 -11.069097043139891 0 -11.069097043139891 -211.99580589231027 0 0 0 0 44.396439833759302 13.437733461758057 0 13.437733461758057 -2.1788209786137056 0 0 0 0 106.07194211245042 101.67242877833266 0 101.67242877833266 -443.78869744849044 0 0 0 0 254.45733348544309 79.104207755993741 0 79.104207755993741 -816.74641494506909 0 0 0 0 0.97009212924905341 -1.1245848581744156 0 -1.1245848581744156 -0.71367664480153614 0 0 0 0 27.272820224308816 -536.07763521327593 0 -536.07763521327593 578.04646295822977 0 0 0 0 509.17425098227977 -311.26598787248372 0 -311.26598787248372 -754.21059059350409 0 0 0 0 311.16741431013361 -372.76022991569369 0 -372.76022991569369 6.343243649686201 0 0 0 0 750.67621141296695 410.04666628808758 0 410.04666628808758 88.320208952231724 0 0 0 0 -63.732542753037706 -116.6635532700563 0 -116.6635532700563 -146.01169877764733 0 0 0 0 578.00875507714773 1578.3531799332529 0 1578.3531799332529 -698.12391318064283 0 0 0 0 17.189535703282473 6.4778399990475748 0 6.4778399990475748 1.3579368069296329 0 0 0 0 1389.7068085808423 1096.8461273046807 0 1096.8461273046807 600.35337198692764 0 0 0 0 2588.2493838560404 723.35699208814412 0 723.35699208814412 -365.8436298651518 0 0 0 0 3169.9596819991348 1292.874604804327 0 1292.874604804327 -13.292397958699127 0 0 0 0 -147.17468801129144 -249.19555104650109 0 -249.19555104650109 -84.088984159249321 0 0 0 0 7.4287763425716378 -5.3615257947201087 0 -5.3615257947201087 0.49035060881570725 0 0 0 0 1891.5347809274972 407.38079942771441 0 407.38079942771441 -0.16888916898504333 0 0 0 0 456.20462389715249 -275.75957093158604 0 -275.75957093158604 -311.56972383569286 0 0 0 0 2457.5012279605726 139.19721603871864 0 139.19721603871864 18.354651781385954 0 0 0 0 1420.0699775401154 72.925412691616359 0 72.925412691616359 248.13531985522135 0 0 0 0 1259.1514635122003 529.22371747830687 0 529.22371747830687 355.41035077062645 0 0 0 0 1404.7492620205619 94.953859150797754 0 94.953859150797754 97.784787511684954 0 0 0 0 869.84879180590724 -67.039294508663659 0 -67.039294508663659 202.72002393269867 0 0 0 0 639.50558003535843 130.53746081371068 0 130.53746081371068 61.191509614706661 0 0 0 0 1244.2578064966365 356.50239295046561 0 356.50239295046561 188.20053521809805 0 0 0 0 685.05991660532163 -64.348472830807069 0 -64.348472830807069 0.39055161723509108 0 0 0 0 143.05140298435435 -59.394159806504462 0 -59.394159806504462 286.64865099405512 0 0 0 0 178.94887631366146 -27.53803832696239 0 -27.53803832696239 -34.992531804691552 0 0 0 0 225.22795910821878 -6.1475174701132076 0 -6.1475174701132076 -26.497187558525958 0 0 0 0 228.72662063702228 -23.216322076801674 0 -23.216322076801674 0.5594139912612377 0 0 0 0 243.82634496520041 -3.9498737564168849 0 -3.9498737564168849 -10.379108685535925 0 0 0 0 177.97484859150427 -17.35033560377876 0 -17.35033560377876 7.4024309712878704 0 0 0 0 181.2505612919922 -10.357124013534055 0 -10.357124013534055 -9.9033368375544342 0 0 0 0 145.81104163214331 -4.5436164247818311 0 -4.5436164247818311 25.173313646517979 0 0 0 0 152.90887750346701 18.399733169703868 0 18.399733169703868 22.245244853148819 0 0 0 0 4314.3712483820855 983.54678953566804 0 983.54678953566804 -847.04653453859464 0 0 0 0 96.052480566126178 -4.9397800509195342 0 -4.9397800509195342 12.745605857399823 0 0 0 0 17.033552725673843 -18.013177668242363 0 -18.013177668242363 7.1060039592082287 0 0 0 0 81.385139621808776 -37.119452577645738 0 -37.119452577645738 -31.659509709172273 0 0 0 0 2714.5693261175111 287.13388533279499 0 287.13388533279499 750.2946054615968 0 0 0 0 122.87338229684974 -14.848673755593381 0 -14.848673755593381 -80.928374978138109 0 0 0 0 150.42461273448862 -11.69106380245594 0 -11.69106380245594 -59.982200110090375 0 0 0 0 148.68793915527931 -19.105421310257029 0 -19.105421310257029 -11.34666889505281 0 0 0 0 149.78006282502611 -8.0304127262038207 0 -8.0304127262038207 -41.798486247327773 0 0 0 0 124.09271522903873 -5.2851359828367706 0 -5.2851359828367706 -38.604082934251196 0 0 0 0 157.83739311729732 1.860195844028647 0 1.860195844028647 -38.062188547816483 0 0 0 0 154.00803597834602 20.667926950953099 0 20.667926950953099 -12.607720338613163 0 0 0 0 179.22681565381936 26.153913432822073 0 26.153913432822073 -71.96393660627561 0 0 0 0 43.297492785990471 10.925580952385388 0 10.925580952385388 -67.498800588548136 0 0 0 0 144.13796431633818 -31.938291613908909 0 -31.938291613908909 -96.429383357046589 0 0 0 0 190.67464703637233 87.31422919896076 0 87.31422919896076 -72.142558070527727 0 0 0 0 166.05036797428329 48.377399901352661 0 48.377399901352661 -0.034236523012590656 0 0 0 0 236.94463130226359 88.425925235050698 0 88.425925235050698 -36.959445873003439 0 0 0 0 0.48000892398022188 -0.013185592160624537 0 -0.013185592160624537 -0.095218374255500532 0 0 0 0 117.74096552805713 -6.5755863758489648 0 -6.5755863758489648 0.071582313552521398 0 0 0 0 0.42939046502478107 -0.082383035073789301 0 -0.082383035073789301 -0.15715883963704363 0 0 0 0 111.79154419653059 -15.966508729820129 0 -15.966508729820129 -35.40471751206799 0 0 0 0 272.37977688435058 25.192784830496144 0 25.192784830496144 -10.79015800917086 0 0 0 0 218.62237240810646 35.408180718187026 0 35.408180718187026 -12.100612492260629 0 0 0 0 216.93131563169413 1.1690027440967821 0 1.1690027440967821 2.3402730595784611 0 0 0 0 243.53694584832192 -11.718144653852551 0 -11.718144653852551 -0.11252833775735974 0 0 0 0 252.74123490612692 -5.1762029352152261 0 -5.1762029352152261 3.8311103556451829 0 0 0 0 247.81588016374735 -11.222800116698792 0 -11.222800116698792 2.6849053996928225 0 0 0 0 244.51837671260728 -15.765684653959084 0 -15.765684653959084 20.319061941179367 0 0 0 0 281.8470114426309 -43.396303922002033 0 -43.396303922002033 7.6334704180041477 0 0 0 0 257.47855050801445 -25.444832045615584 0 -25.444832045615584 -5.555296786444444 0 0 0 0 258.72789355128771 -16.75982304563037 0 -16.75982304563037 -4.1527546652484091 0 0 0 0 282.26799887842208 -45.818258865484061 0 -45.818258865484061 -10.935820546104267 0 0 0 0 48.042008127995359 48.526824503399311 0 48.526824503399311 -2.7581262930389405 0 0 0 0 1.4057948672625571 0.071181901269273595 0 0.071181901269273595 0.0085227631741090736 0 0 0 0 133.67271555541811 -112.87823479915947 0 -112.87823479915947 22.236313594403281 0 0 0 0 117.49833565224981 -28.041368220216619 0 -28.041368220216619 0.1055648703936294 0 0 0 0 270.35631532225671 -64.158217818812133 0 -64.158217818812133 -30.663011702877874 0 0 0 0 -5.4665917924721725 -25.771233307155576 0 -25.771233307155576 43.323369599307043 0 0 0 0 63.174583401600103 4.4521550317726 0 4.4521550317726 -55.994299297441422 0 0 0 0 328.15444191190909 -9.4257361627675245 0 -9.4257361627675245 -0.12718160266349929 0 0 0 0 2.8557078556526392 0.26280652389077019 0 0.26280652389077019 -0.048952165986174731 0 0 0 0 8.9568286838148197 63.605096429634528 0 63.605096429634528 31.262394752401569 0 0 0 0 241.70121346262022 -127.20274663747269 0 -127.20274663747269 33.111375587068807 0 0 0 0 1.4827694704210899 0.06746135316699764 0 0.06746135316699764 0.039836605828126273 0 0 0 0 395.56681450140604 -48.27635446733585 0 -48.27635446733585 -6.5732066738693717 0 0 0 0 -34.682376432261663 -0.95814804698988354 0 -0.95814804698988354 52.642188564851438 0 0 0 0 10.834944972804806 28.672378048477839 0 28.672378048477839 -13.834500627630334 0 0 0 0 228.04118856588866 -52.454015376539182 0 -52.454015376539182 9.4001128322250409 0 0 0 0 245.63129525182921 -107.08664663190102 0 -107.08664663190102 43.166070156237076 0 0 0 0 -8.8180209894526342 -21.415619418317988 0 -21.415619418317988 29.179561383087922 0 0 0 0 -0.14611158598563634 18.534253767401275 0 18.534253767401275 -38.780502851308242 0 0 0 0 3.4552120036314591 -19.15482863096338 0 -19.15482863096338 29.590500145330154 0 0 0 0 4.0386310972369586 0.36898742749872326 0 0.36898742749872326 -0.18865542169870961 0 0 0 0 52.740675102701061 10.591704111491055 0 10.591704111491055 -25.141745902027665 0 0 0 0 46.576700986508513 -127.39247304428801 0 -127.39247304428801 51.183790972293366 0 0 0 0 139.48144538726046 -38.42155407083672 0 -38.42155407083672 -153.31950136780529 0 0 0 0 36.712955654642428 -85.566781960796817 0 -85.566781960796817 0.79484602025115336 0 0 0 0 235.74353364784315 -21.585688614533368 0 -21.585688614533368 81.583325904823596 0 0 0 0 87.574832719932601 -194.28490013783107 0 -194.28490013783107 156.10779969385618 0 0 0 0 1.8122325142199429 -0.06079746453970003 0 -0.06079746453970003 -0.0075315887632252942 0 0 0 0 58.371563035063446 -113.24263252758682 0 -113.24263252758682 27.480076275640823 0 0 0 0 238.34719225072331 -145.09913669375638 0 -145.09913669375638 31.293903907842548 0 0 0 0 147.54701964692504 -39.858727877637442 0 -39.858727877637442 -63.791146524727139 0 0 0 0 127.96894062757201 -29.102397612877709 0 -29.102397612877709 -14.564133033846076 0 0 0 0 102.80968440432116 -129.92374237814886 0 -129.92374237814886 -25.210738916991261 0 0 0 0 -9.7310961204784689 -89.928833733655097 0 -89.928833733655097 -39.217240493814671 0 0 0 0 13.00287810764712 -93.131964796217417 0 -93.131964796217417 -88.739525039148589 0 0 0 0 -52.607067740107595 -114.4198557033796 0 -114.4198557033796 -85.785736498805306 0 0 0 0 -103.79046343854861 -49.34599518236206 0 -49.34599518236206 -160.75119794686731 0 0 0 0 24.363569817272946 -65.760683826269286 0 -65.760683826269286 -156.65122287535473 0 0 0 0 115.26527791348053 -56.360477908656549 0 -56.360477908656549 -111.54658569316587 0 0 0 0 83.395196327503072 -59.146948149814023 0 -59.146948149814023 -103.39307858241409 0 0 0 0 67.167347586131655 -60.404544997051005 0 -60.404544997051005 -66.865059475357839 0 0 0 0 81.612586820076103 -34.931033657709065 0 -34.931033657709065 -121.43691188942864 0 0 0 0 16.671596221101936 -82.811116759265246 0 -82.811116759265246 -103.57917167610766 0 0 0 0 438.32109644460797 114.04295744064262 0 114.04295744064262 75.625254966458272 0 0 0 0 96.900256020744564 -162.69656359287697 0 -162.69656359287697 -8.3164513162958826 0 0 0 0 207.58265763174131 -251.67911091539091 0 -251.67911091539091 -92.192348706573654 0 0 0 0 62.065639310254483 -174.48872288914473 0 -174.48872288914473 14.284585497546715 0 0 0 0 -78.967278076001094 -189.58889202390787 0 -189.58889202390787 -11.351464513127269 0 0 0 0 -160.64805790229002 -273.25584483962768 0 -273.25584483962768 -83.004073834005396 0 0 0 0 75.661459109251155 1203.8202429816279 0 1203.8202429816279 3.654201541501152 0 0 0 0 6.9529526916065265 -3.1050109157704782 0 -3.1050109157704782 0.66592134046016715 0 0 0 0 88.850634033136885 -277.61894152504772 0 -277.61894152504772 -91.230533967006124 0 0 0 0 1164.9689723076262 302.26759983107667 0 302.26759983107667 -156.33380796859819 0 0 0 0 712.03370072329926 -296.11450944480987 0 -296.11450944480987 291.29009857402372 0 0 0 0 201.97780618059915 -91.144439880163759 0 -91.144439880163759 159.11174458697099 0 0 0 0 212.15456416171219 46.977923210649237 0 46.977923210649237 78.268837640356651 0 0 0 0 141.1303890519066 155.87006517292716 0 155.87006517292716 130.07419319049006 0 0 0 0 165.87067690934055 3.2365647438058431 0 3.2365647438058431 427.23472229244726 0 0 0 0 151.38584634326253 135.91132210283826 0 135.91132210283826 85.796138471651815 0 0 0 0 61.519695031376614 -17.576579092252416 0 -17.576579092252416 89.223783503946891 0 0 0 0 157.53373239736538 -70.805577321332493 0 -70.805577321332493 -58.734988599628515 0 0 0 0 133.27029751769442 -122.69483153739739 0 -122.69483153739739 44.39724435027432 0 0 0 0 154.9324083638603 -86.250326141150566 0 -86.250326141150566 -69.099161260664914 0 0 0 0 162.29473358997348 -102.15558606792379 0 -102.15558606792379 58.931682658293028 0 0 0 0 212.31974728347268 -87.839493581888007 0 -87.839493581888007 53.650537092473499 0 0 0 0 256.91327776823164 -19.859870097036264 0 -19.859870097036264 57.418856786570402 0 0 0 0 159.29193766202297 -58.852116590559049 0 -58.852116590559049 111.84342892970221 0 0 0 0 222.92850087632871 -7.7267211622837362 0 -7.7267211622837362 120.54105711519432 0 0 0 0 222.43776766810333 -35.255491843054017 0 -35.255491843054017 26.154345837124552 0 0 0 0 323.97902078218613 29.539668951621962 0 29.539668951621962 22.906987405942289 0 0 0 0 316.43307636019745 -101.05267284869491 0 -101.05267284869491 1.7182633399646079 0 0 0 0 48.414708305135719 -24.678319042266629 0 -24.678319042266629 11.157091842675726 0 0 0 0 112.87899491751341 228.28474641652733 0 228.28474641652733 -6.7057827245367747 0 0 0 0 2.20015960138781 0.45080191380856505 0 0.45080191380856505 0.031918836377972271 0 0 0 0 1181.9649077324393 131.45777701219359 0 131.45777701219359 -1.3836054593563354 0 0 0 0 586.40657983810524 95.247995010121713 0 95.247995010121713 0.61182532397385736 0 0 0 0 2493.9394471903688 792.71186138896894 0 792.71186138896894 -204.65925876147125 0 0 0 0 621.22997377260253 1279.9620969641251 0 1279.9620969641251 1263.6736741157979 0 0 0 0 10.527996424968308 1.2118092450215912 0 1.2118092450215912 0.63844357043587641 0 0 0 0 1020.9454571754486 365.70248504762077 0 365.70248504762077 -11.058163050849316 0 0 0 0 171.80273802271404 223.78426176720455 0 223.78426176720455 223.13630331647744 0 0 0 0 -0.15044265385169808 0.04109073340218572 0 0.04109073340218572 -0.15126053844555765 0 0 0 0 385.67460475176631 31.871475068961644 0 31.871475068961644 -0.015675421076625895 0 0 0 0 256.74595594983839 76.276287293049705 0 76.276287293049705 -14.213144333801957 0 0 0 0 5.2079223325316946 2.6004439164990032 0 2.6004439164990032 -1.6228872386748103 0 0 0 0 121.07293305431085 21.684423316820073 0 21.684423316820073 -34.881894144413991 0 0 0 0 50.396194244087383 5.450692560050868 0 5.450692560050868 38.08267348450638 0 0 0 0 190.95842730850563 -74.757587380145765 0 -74.757587380145765 224.07913737941431 0 0 0 0 21.772762691623939 8.3333910382839349 0 8.3333910382839349 -1.574785436119214 0 0 0 0 51.063144033338176 8.9048066461920143 0 8.9048066461920143 -35.395718799149826 0 0 0 0 25.216406514937091 -0.059060725697587912 0 -0.059060725697587912 -2.1432729914505635 0 0 0 0 10.855470797489346 6.6760395080667649 0 6.6760395080667649 -2.2325575962336099 0 0 0 0 13.111918521506595 7.9153778829547718 0 7.9153778829547718 1.8545501963646984 0 0 0 0 17.384735399206193 3.4069592404201927 0 3.4069592404201927 -3.7443075540057293 0 0 0 0 3.6477318162258427 6.0599513035477912 0 6.0599513035477912 3.4336931252245897 0 0 0 0 10.228083696230897 -56.792806803115681 0 -56.792806803115681 140.15880071933213 0 0 0 0 516.3614583799208 6.592912790456495 0 6.592912790456495 -12.009780420861063 0 0 0 0 831.3909557799343 47.724889855326467 0 47.724889855326467 -89.476166420469269 0 0 0 0 1.4462976615430705 2.3953510672277503 0 2.3953510672277503 1.1837401671736842 0 0 0 0 472.1260704731103 169.93939405017642 0 169.93939405017642 -202.82103162427302 0 0 0 0 276.09226948604919 -140.08411700509055 0 -140.08411700509055 50.966056423730606 0 0 0 0 5.331408218612097 5.6762552461503333 0 5.6762552461503333 1.0175064889936745 0 0 0 0 559.93447847379866 251.20734030400749 0 251.20734030400749 254.03700837559052 0 0 0 0 531.45731173276727 -14.897712559010166 0 -14.897712559010166 229.41881121780455 0 0 0 0 328.70733892035787 65.796125662311113 0 65.796125662311113 193.9259863186989 0 0 0 0 441.89040609785297 106.20157875048889 0 106.20157875048889 77.212708321542863 0 0 0 0 429.83981313630647 125.29936519490984 0 125.29936519490984 121.75535995831709 0 0 0 0 425.23270230693743 42.984111005852391 0 42.984111005852391 -12.726627338912824 0 0 0 0 372.80501626585465 64.154234818332839 0 64.154234818332839 56.77025704763269 0 0 0 0 434.04851200770827 71.682177978926816 0 71.682177978926816 42.074836996510385 0 0 0 0 515.01403375358495 116.31397873494126 0 116.31397873494126 37.11113399455931 0 0 0 0 478.73663150960056 -20.185931486402474 0 -20.185931486402474 -28.193836747722159 0 0 0 0 398.95409055124765 30.850867566852216 0 30.850867566852216 -20.548412851426363 0 0 0 0 128.18751481135359 -230.42488150478701 0 -230.42488150478701 26.731210444227031 0 0 0 0 371.99648534855805 -26.0388261462336 0 -26.0388261462336 -31.526898888067841 0 0 0 0 394.92320742374432 44.353299691572197 0 44.353299691572197 23.292565743544479 0 0 0 0 377.69850336561467 2.1346607501679191 0 2.1346607501679191 5.8931178342067341 0 0 0 0 423.80002664337371 39.883495320527587 0 39.883495320527587 0.24760093657003779 0 0 0 0 394.37822492957639 35.711737384246071 0 35.711737384246071 60.529211616632182 0 0 0 0 392.91062604253239 38.72937323704511 0 38.72937323704511 35.642058115445089 0 0 0 0 365.14334592702653 28.033091221631558 0 28.033091221631558 56.862683915038353 0 0 0 0 321.82170663010402 8.7908292591981354 0 8.7908292591981354 48.315983712413356 0 0 0 0 351.9364112309122 69.978637850329747 0 69.978637850329747 111.6128280705566 0 0 0 0 345.32412851025583 40.680082880697391 0 40.680082880697391 86.386963674031051 0 0 0 0 266.98474114190321 0.69133290628059996 0 0.69133290628059996 101.14411656447533 0 0 0 0 269.06520730230113 -61.194673709667072 0 -61.194673709667072 108.77518082142818 0 0 0 0 229.33171626090189 20.037760990014803 0 20.037760990014803 60.716245429292982 0 0 0 0 279.61423286188801 -12.130262932504799 0 -12.130262932504799 80.482065657587 0 0 0 0 259.26399222098189 23.833808878316816 0 23.833808878316816 111.9863566518535 0 0 0 0 266.345255108532 43.768194318349607 0 43.768194318349607 -24.20929929038698 0 0 0 0 217.33552150710602 -28.199355843915725 0 -28.199355843915725 29.177640617504537 0 0 0 0 198.31986951887484 13.462585770592217 0 13.462585770592217 -30.434265170895799 0 0 0 0 195.88421967283648 -65.696299943433473 0 -65.696299943433473 5.1484949676698761 0 0 0 0 242.00764240436547 -45.428069586242614 0 -45.428069586242614 11.917542528927811 0 0 0 0 172.51745414610923 -11.341606173267209 0 -11.341606173267209 -36.635457988890948 0 0 0 0 189.59421957173618 -23.095458403200126 0 -23.095458403200126 -91.082863667293054 0 0 0 0 115.61657777554859 -8.6247444257231685 0 -8.6247444257231685 -93.482368028357996 0 0 0 0 145.69864260063332 -9.0703675217601472 0 -9.0703675217601472 -120.47088757812236 0 0 0 0 149.07773239487142 31.784105406915899 0 31.784105406915899 -113.22472997542184 0 0 0 0 151.97158664016752 27.237738959845586 0 27.237738959845586 -106.74273613233794 0 0 0 0 174.22680171194952 43.968490448941679 0 43.968490448941679 -116.84071138884212 0 0 0 0 185.65669817446178 16.192315613290674 0 16.192315613290674 -28.036727632614884 0 0 0 0 215.1290478931769 17.129473591099384 0 17.129473591099384 -111.32710194822295 0 0 0 0 215.16140149325656 77.900556915606188 0 77.900556915606188 -30.312114967034859 0 0 0 0 253.24431587806612 35.297956936255957 0 35.297956936255957 -146.29713148947837 0 0 0 0 146.1660705713366 123.05209966864167 0 123.05209966864167 -172.66663483452464 0 0 0 0 522.40308336557791 -53.457349891200352 0 -53.457349891200352 -32.126183241631452 0 0 0 0 32.801110195774527 107.56134796036446 0 107.56134796036446 -79.042890248156027 0 0 0 0 0.59062261472561417 0.078788643063163022 0 0.078788643063163022 -1.6699317118339549 0 0 0 0 358.51702904297417 13.239601410540047 0 13.239601410540047 -30.550677008637422 0 0 0 0 422.25445219969697 52.420965906333947 0 52.420965906333947 -143.65584931002712 0 0 0 0 371.42794400105777 133.38423796833078 0 133.38423796833078 -73.788513760593872 0 0 0 0 293.75766922034381 138.77185330821948 0 138.77185330821948 -68.280048756310975 0 0 0 0 417.54091636904195 181.30145196428293 0 181.30145196428293 25.332108620783131 0 0 0 0 383.70054378958594 60.555389424970812 0 60.555389424970812 36.660869943582924 0 0 0 0 260.84291759156622 22.994700230643979 0 22.994700230643979 42.266295537686204 0 0 0 0 313.1501283168036 62.751359977503355 0 62.751359977503355 -34.327581174601065 0 0 0 0 319.96446616713365 107.1331952982483 0 107.1331952982483 2.8832338138074718 0 0 0 0 365.87536099611316 38.27549876867684 0 38.27549876867684 40.069003781966238 0 0 0 0 330.87546007887067 86.781593184980409 0 86.781593184980409 89.137843455609712 0 0 0 0 474.48259000037797 77.335900446388649 0 77.335900446388649 84.829901003834564 0 0 0 0 558.82095868559554 312.31109278597592 0 312.31109278597592 162.82665537798906 0 0 0 0 -7.0505700222785777 14.551769728344226 0 14.551769728344226 6.1627600290028033 0 0 0 0 292.79227499026456 168.71609955762023 0 168.71609955762023 93.193100488755192 0 0 0 0 55.016162817148142 24.115278384743647 0 24.115278384743647 -3.9630002849238508 0 0 0 0 1.7501440368007906 5.3402762085223827 0 5.3402762085223827 -7.3678275328673326 0 0 0 0 22.065868299397351 7.5636613310873848 0 7.5636613310873848 -4.9468511691442529 0 0 0 0 34.445008216316637 30.486523923517666 0 30.486523923517666 10.081016208049277 0 0 0 0 26.710465468564507 10.142413974238991 0 10.142413974238991 13.419860803620509 0 0 0 0 348.70648208507191 128.22371672208189 0 128.22371672208189 14.437692928299228 0 0 0 0 373.61442591911327 141.66037390406913 0 141.66037390406913 3.2323684016408265 0 0 0 0 296.5548611162485 75.832609100202646 0 75.832609100202646 29.104791260603861 0 0 0 0 246.61606084906089 51.167506809691076 0 51.167506809691076 17.083229055055426 0 0 0 0 286.62046862128773 -18.963312971505388 0 -18.963312971505388 -44.939246911919781 0 0 0 0 -9.3056200379912468 14.118043400129636 0 14.118043400129636 0.55822175240690486 0 0 0 0 49.183112011560297 94.224327260311384 0 94.224327260311384 -31.930124732704712 0 0 0 0 312.49259425213677 109.84492123160371 0 109.84492123160371 1.543879874180675 0 0 0 0 -9.4011269948063614 14.280785734347504 0 14.280785734347504 2.7864636621271415 0 0 0 0 99.977267751044565 23.722055405096029 0 23.722055405096029 -21.128164196060652 0 0 0 0 7.4918853576818947 43.340584168934811 0 43.340584168934811 45.808772466856226 0 0 0 0 388.07947982141195 -451.57375167263154 0 -451.57375167263154 201.70780738682384 0 0 0 0 -0.30100838897503479 0.41558239461595292 0 0.41558239461595292 -2.0403200607168506 0 0 0 0 25.082330353354337 6.0542358390277968 0 6.0542358390277968 -16.119210153252084 0 0 0 0 558.46349897468463 1006.8732029300272 0 1006.8732029300272 624.66337974000612 0 0 0 0 1.8995953982375795 88.997879419294748 0 88.997879419294748 -90.914576894220886 0 0 0 0 4.4741543666670367 3.6289252712923741 0 3.6289252712923741 2.2480731322768128 0 0 0 0 -133.48038535783417 103.51379057451288 0 103.51379057451288 23.013513747261072 0 0 0 0 -131.4055958260069 72.432320604480196 0 72.432320604480196 -496.62298884437905 0 0 0 0 -10.951023909910873 11.664440804768503 0 11.664440804768503 26.711967921659379 0 0 0 0 2503.315614499239 -243.91548015422461 0 -243.91548015422461 -110.81632015281927 0 0 0 0 2497.511177323413 -241.17386639153165 0 -241.17386639153165 -102.24534742831301 0 0 0 0 2500.196230304944 -247.17999050263299 0 -247.17999050263299 -93.813054492584996 0 0 0 0 2606.1739790030333 -156.0465130413676 0 -156.0465130413676 -125.50457061697495 0 0 0 0 2496.52431347327 -244.48127257982006 0 -244.48127257982006 -72.67418062571781 0 0 0 0 2184.4860836623993 -403.57177270779658 0 -403.57177270779658 -142.22260366212285 0 0 0 0 2399.4423008701269 2.5824194565588883 0 2.5824194565588883 -15.971523685637948 0 0 0 0 2014.2641617093323 -373.31361636042266 0 -373.31361636042266 -230.93401671837069 0 0 0 0 1057.4535651625774 -454.91607435793748 0 -454.91607435793748 129.56824796807325 0 0 0 0 1531.8004101570405 -141.11413995605727 0 -141.11413995605727 -22.788167230080504 0 0 0 0 2011.6979371240304 -420.88418116576906 0 -420.88418116576906 -129.75156307860675 0 0 0 0 2496.2631128402718 -721.54253512310822 0 -721.54253512310822 -376.14286796873438 0 0 0 0 1880.4955044954841 -1161.0060442529693 0 -1161.0060442529693 167.61320598099798 0 0 0 0 962.56226405542111 -415.29949317404999 0 -415.29949317404999 -18.572173857840937 0 0 0 0 1573.9511796002771 -612.46883128614888 0 -612.46883128614888 -54.988593488822289 0 0 0 0 1076.0939381911885 -271.51899597427592 0 -271.51899597427592 -141.5314794095714 0 0 0 0 -134.83972468556021 200.32486651238514 0 200.32486651238514 272.96432394940922 0 0 0 0 7.7724849672376877 60.089225070371278 0 60.089225070371278 42.059317072502502 0 0 0 0 16.122789579878116 -4.3204941080831603 0 -4.3204941080831603 0.36178731552509691 0 0 0 0 -115.10411393202958 110.42894679243028 0 110.42894679243028 -88.206347176676218 0 0 0 0 704.4425546270686 -810.31218247923312 0 -810.31218247923312 694.33127185147112 0 0 0 0 2478.7907218807959 216.26878002287268 0 216.26878002287268 -119.07199269124573 0 0 0 0 94.794036704983228 -117.19469811986313 0 -117.19469811986313 81.462901501769252 0 0 0 0 6.6604174613405576 -2.9004902354643853 0 -2.9004902354643853 1.4991288167919492 0 0 0 0 202.27219048812549 418.45344942484587 0 418.45344942484587 895.1258797977838 0 0 0 0 5.3455750458455782 1.8314507761936056 0 1.8314507761936056 8.636485359610198 0 0 0 0 -31.049616175165283 27.560333877667972 0 27.560333877667972 15.533570548317584 0 0 0 0 1.4512686997463788 23.624074659524283 0 23.624074659524283 6.071752666643647 0 0 0 0 -88.462783908311394 17.366795920057939 0 17.366795920057939 34.809114032951584 0 0 0 0 -58.889110364609223 -4.2392475044612183 0 -4.2392475044612183 -0.64111625490659208 0 0 0 0 -10.007835537556453 2.4176474555049197 0 2.4176474555049197 7.3905691692309814 0 0 0 0 -11.320881261626482 24.67604941888878 0 24.67604941888878 4.181319224128579 0 0 0 0 -65.024811906223476 27.077854425368713 0 27.077854425368713 -1.8936313671081235 0 0 0 0 2495.1622447466289 943.60120745302117 0 943.60120745302117 -126.59170374764714 0 0 0 0 1199.2216310234071 402.34049084151121 0 402.34049084151121 -124.23258642125039 0 0 0 0 2500.4794414942226 100.53625446345406 0 100.53625446345406 -293.72075436429537 0 0 0 0 1967.610132456306 285.12483985698884 0 285.12483985698884 -110.78412739860269 0 0 0 0 1921.8389136669357 -148.81477760631446 0 -148.81477760631446 -122.31844681210501 0 0 0 0 -30.794165096078359 22.642638379406037 0 22.642638379406037 32.896285694574772 0 0 0 0 -2.5299610029412278 10.674338597064107 0 10.674338597064107 6.8133329740452027 0 0 0 0 1473.6249505409833 214.01840135717947 0 214.01840135717947 62.636624343478388 0 0 0 0 -5.6013636763615153 15.402266698693367 0 15.402266698693367 0.53083814846604049 0 0 0 0 208.72781766692788 52.388713314659526 0 52.388713314659526 12.985967935933559 0 0 0 0 257.37892740951065 60.136952263478292 0 60.136952263478292 -12.814270655830683 0 0 0 0 218.28052294016379 38.07911641834562 0 38.07911641834562 -1.9590976271263116 0 0 0 0 201.70742341857112 55.214663313398205 0 55.214663313398205 -19.183036453200202 0 0 0 0 201.75151980261853 19.654674687040099 0 19.654674687040099 -28.032703297313901 0 0 0 0 227.65783031356841 38.404680146140663 0 38.404680146140663 -35.962771861587953 0 0 0 0 75.23797615973308 36.80036527687389 0 36.80036527687389 8.2400567913688292 0 0 0 0 228.30052615694149 9.9125339831512065 0 9.9125339831512065 27.31503987808901 0 0 0 0 269.33707182408398 24.087483361447767 0 24.087483361447767 -17.069949991894646 0 0 0 0 0.44934352459850402 -0.11195189931990512 0 -0.11195189931990512 2.6663342002844939 0 0 0 0 523.84593915141886 30.506531544353493 0 30.506531544353493 -32.087386760901154 0 0 0 0 -1.1789333472123928 -2.611850198419134 0 -2.611850198419134 -1.9577890231289494 0 0 0 0 33.978762730883318 -5.8307061838659138 0 -5.8307061838659138 113.0251162930922 0 0 0 0 201.5920805849164 -19.953544803161549 0 -19.953544803161549 35.087539687784556 0 0 0 0 298.23350799394757 30.828385259008769 0 30.828385259008769 -1.3487681802744191 0 0 0 0 6.2217151355301823 -0.70702386701603359 0 -0.70702386701603359 -5.9186336220938278 0 0 0 0 402.49683390310202 -23.579802538639854 0 -23.579802538639854 -8.2059100041624333 0 0 0 0 396.5926168228907 -11.187558483656858 0 -11.187558483656858 -16.481204226246518 0 0 0 0 1.8695821804308252 -2.2823064289359252 0 -2.2823064289359252 -0.65681221965439285 0 0 0 0 373.5915126319378 -13.635062597706906 0 -13.635062597706906 6.5929377181487325 0 0 0 0 1.0305676429979229 -1.1716939113878908 0 -1.1716939113878908 -0.28171308648634508 0 0 0 0 623.47019417268893 8.373520373376607 0 8.373520373376607 -25.909764878541409 0 0 0 0 38.719697695581999 -30.113486814908129 0 -30.113486814908129 8.9997904948686482 0 0 0 0 448.34611983913783 16.878905687687961 0 16.878905687687961 -4.8612981742357988 0 0 0 0 0.082482246836047324 1.4211948924394306 0 1.4211948924394306 -4.6886476063087237 0 0 0 0 156.68662492221847 -19.78335510452267 0 -19.78335510452267 -56.02701949966854 0 0 0 0 93.193430231644015 -28.687873089197922 0 -28.687873089197922 -4.351520699203661 0 0 0 0 83.192276338999363 4.3446127000234185 0 4.3446127000234185 -44.441706297613109 0 0 0 0 119.64627738058334 60.343320682114438 0 60.343320682114438 -121.74831289612126 0 0 0 0 123.64311156157055 24.855413166490898 0 24.855413166490898 -109.91859533610773 0 0 0 0 76.865470638906118 56.091471486359296 0 56.091471486359296 -34.377787100413229 0 0 0 0 105.83013601886341 13.737384325279947 0 13.737384325279947 -75.851815449216701 0 0 0 0 69.275231179664843 -25.73444348671859 0 -25.73444348671859 -107.27937839453116 0 0 0 0 50.679564894540817 -33.25042378067576 0 -33.25042378067576 -83.313803064843697 0 0 0 0 54.628327971375256 -39.172223128200812 0 -39.172223128200812 -81.632053497907918 0 0 0 0 -31.608751008592662 -87.470723390280909 0 -87.470723390280909 -51.996596976966202 0 0 0 0 33.63892837745189 -23.953749714691419 0 -23.953749714691419 15.267742859098963 0 0 0 0 24.751292829478189 -63.211566588577284 0 -63.211566588577284 -50.038843584960205 0 0 0 0 57.191825635825808 -5.7331404253732217 0 -5.7331404253732217 23.313221393599974 0 0 0 0 24.77662782259722 -66.131427431578231 0 -66.131427431578231 -27.851302714457177 0 0 0 0 80.482553514710162 -44.588136925310437 0 -44.588136925310437 -28.756250152724647 0 0 0 0 33.031533664818198 -27.844887083380151 0 -27.844887083380151 18.579136533948635 0 0 0 0 93.570485974742041 -60.440744340882247 0 -60.440744340882247 5.5211972086681271 0 0 0 0 63.392976785795327 26.507921044242721 0 26.507921044242721 80.486485785831974 0 0 0 0 7.7776311673878809 -31.327714731351989 0 -31.327714731351989 57.964003518325626 0 0 0 0 35.468061540857889 5.8337228961081564 0 5.8337228961081564 76.697333912389695 0 0 0 0 19.804200525331908 -58.412747229640672 0 -58.412747229640672 28.820520842411497 0 0 0 0 53.90768341693547 -23.223346989357196 0 -23.223346989357196 16.870914111608727 0 0 0 0 53.066235842896276 -11.332041034015674 0 -11.332041034015674 42.754143939697315 0 0 0 0 72.195547020597587 -19.180576972265044 0 -19.180576972265044 24.386225245809328 0 0 0 0 75.646273035919876 14.804465379569592 0 14.804465379569592 46.109840602305667 0 0 0 0 85.320142392229172 14.447102932189409 0 14.447102932189409 44.805767124082195 0 0 0 0 101.87562666100712 25.160318749651196 0 25.160318749651196 5.6918744052090915 0 0 0 0 84.783140862038636 12.937397194006735 0 12.937397194006735 88.530105638839814 0 0 0 0 111.22646196803544 52.17593780601328 0 52.17593780601328 54.35791736662577 0 0 0 0 111.35165392394902 -31.583051386077159 0 -31.583051386077159 -42.990531166449728 0 0 0 0 112.20795347064268 16.155049326309381 0 16.155049326309381 11.208088093761035 0 0 0 0 104.31428666661668 18.421877169413165 0 18.421877169413165 21.245095290913014 0 0 0 0 110.70263090470689 -6.8904884972980653 0 -6.8904884972980653 5.885330515789974 0 0 0 0 108.36293384512101 10.546070584130575 0 10.546070584130575 4.282119601368322 0 0 0 0 104.26256149445544 -12.918996474636515 0 -12.918996474636515 16.404402540920273 0 0 0 0 107.14197150222026 1.6203871549005271 0 1.6203871549005271 19.233801647234941 0 0 0 0 21.672344063329625 1.9418556351903788 0 1.9418556351903788 1.1005999090116561 0 0 0 0 65.978739539823437 -16.338636625399431 0 -16.338636625399431 16.37229044331707 0 0 0 0 101.20559023591341 -8.6245449837242631 0 -8.6245449837242631 30.982157826987532 0 0 0 0 104.86912705199211 1.6815529366067494 0 1.6815529366067494 34.604657907730143 0 0 0 0 67.942543180272651 -17.198558678944792 0 -17.198558678944792 7.589698366126111 0 0 0 0 111.33544785904814 5.7809637027694407 0 5.7809637027694407 39.279663505647477 0 0 0 0 73.763848559225494 -6.3137898658372649 0 -6.3137898658372649 -2.5810687463811774 0 0 0 0 72.82393037452124 -6.4618342449456136 0 -6.4618342449456136 18.588439333222105 0 0 0 0 110.28967071281905 10.957159231866477 0 10.957159231866477 -1.9615158354665141 0 0 0 0 47.322744096571114 -8.2199788586076465 0 -8.2199788586076465 -15.515929067216348 0 0 0 0 112.75585301459068 0.48039507229441369 0 0.48039507229441369 27.979235467279068 0 0 0 0 121.56421402133128 -1.3499436622755638 0 -1.3499436622755638 21.842508283325515 0 0 0 0 118.50914660916897 -5.3133161947080225 0 -5.3133161947080225 21.177516003963319 0 0 0 0 106.31881247961428 1.5623562882246915 0 1.5623562882246915 27.902934443707636 0 0 0 0 107.91600114309404 -0.18718106283631641 0 -0.18718106283631641 22.033457982746768 0 0 0 0 106.03650578804081 6.5145050596038345 0 6.5145050596038345 22.578473836510966 0 0 0 0 109.2216599851381 6.5014821814565948 0 6.5014821814565948 18.986263172933832 0 0 0 0 107.72881323285401 8.2610059427879605 0 8.2610059427879605 17.607230240151694 0 0 0 0 104.87730693315098 8.1123758069388714 0 8.1123758069388714 20.692258190199937 0 0 0 0 102.34641222185201 -9.4393101826134398 0 -9.4393101826134398 26.923280213082762 0 0 0 0 261.09030201031419 -8.8417619180438578 0 -8.8417619180438578 7.7440079621865152 0 0 0 0 19.764627997225677 -21.399557481892742 0 -21.399557481892742 30.160853147856187 0 0 0 0 255.38266193168238 -29.613786839992827 0 -29.613786839992827 40.16279752545779 0 0 0 0 243.95269987416395 15.633637643856673 0 15.633637643856673 -5.5026668496384445 0 0 0 0 43.961036001618382 -2.5213463859065257 0 -2.5213463859065257 -0.90674193927069879 0 0 0 0 146.74061814137985 -13.895854410276684 0 -13.895854410276684 58.756550578546012 0 0 0 0 23.983690366823723 -1.7846214843727566 0 -1.7846214843727566 32.825115221670657 0 0 0 0 225.54024369589752 -23.562318400338881 0 -23.562318400338881 35.26747401069224 0 0 0 0 115.84914321558108 26.60798520028272 0 26.60798520028272 -5.866453559049372 0 0 0 0 191.02763393495843 -0.26655424013733864 0 -0.26655424013733864 10.880275297377011 0 0 0 0 46.365883462493002 93.354915544893402 0 93.354915544893402 60.364753424604714 0 0 0 0 13.980220152055168 12.797821598271408 0 12.797821598271408 -4.9329313625281586 0 0 0 0 116.83737939029743 64.800817997707554 0 64.800817997707554 -0.81522231983052507 0 0 0 0 108.95139324360207 42.62878000849102 0 42.62878000849102 13.543054981316871 0 0 0 0 172.07802453852582 31.474444801941672 0 31.474444801941672 -13.427702905025399 0 0 0 0 216.80524002955644 -8.5566445025124267 0 -8.5566445025124267 -22.214219585372575 0 0 0 0 110.27866497893012 36.036784984461292 0 36.036784984461292 10.62803024581588 0 0 0 0 107.16862575182495 16.022690656568102 0 16.022690656568102 28.426139167310794 0 0 0 0 223.55206259485567 -0.78913333326727297 0 -0.78913333326727297 20.560401013527553 0 0 0 0 284.50488831257098 -1.9573434088015347 0 -1.9573434088015347 12.62816145209581 0 0 0 0 216.4487385143766 1.4661638308119791 0 1.4661638308119791 25.256667019792076 0 0 0 0 220.81379675373319 38.026559020599962 0 38.026559020599962 -0.20604490561322564 0 0 0 0 289.97224058193387 -17.632911855613656 0 -17.632911855613656 0.93096656060697569 0 0 0 0 275.8062156244996 -31.291953118806305 0 -31.291953118806305 5.8359002046545356 0 0 0 0 -0.20016645108646713 -22.386910525714043 0 -22.386910525714043 24.761318850369722 0 0 0 0 329.34322569833603 -60.425249200974804 0 -60.425249200974804 21.1015852241635 0 0 0 0 331.3849574681808 -60.503014174179043 0 -60.503014174179043 7.6961043105334284 0 0 0 0 342.37581577396486 -36.430781461873266 0 -36.430781461873266 7.3395433202617824 0 0 0 0 289.29441021244565 9.9292447919870028 0 9.9292447919870028 37.474015510144454 0 0 0 0 377.59643017490453 -8.4668463018356306 0 -8.4668463018356306 25.376833942038502 0 0 0 0 350.0129898860614 -16.419082259876859 0 -16.419082259876859 31.740891258770716 0 0 0 0 342.47838330733066 -16.585379481878817 0 -16.585379481878817 114.28036314146084 0 0 0 0 465.61378934938693 -97.667269981984646 0 -97.667269981984646 91.036253750326068 0 0 0 0 364.72217160344189 -146.05203756497173 0 -146.05203756497173 56.266393073696236 0 0 0 0 620.19063796408591 15.381515604567539 0 15.381515604567539 21.228412821435995 0 0 0 0 -7.063124315567336 -0.92749968918256798 0 -0.92749968918256798 6.3041489869535337 0 0 0 0 455.84882918893709 16.482368073929138 0 16.482368073929138 21.235975276646485 0 0 0 0 341.18796714965356 -42.593437845495203 0 -42.593437845495203 41.30801481506478 0 0 0 0 343.33737762039527 -58.860496754852647 0 -58.860496754852647 91.021448603253702 0 0 0 0 256.752326059388 -9.3770483961493483 0 -9.3770483961493483 39.732841699295932 0 0 0 0 141.71009019948542 58.981502449813206 0 58.981502449813206 32.741256076636091 0 0 0 0 257.35606703042208 2.2195899295837336 0 2.2195899295837336 -9.9384781822491277 0 0 0 0 226.40885808469466 12.192662478222928 0 12.192662478222928 59.654122034073225 0 0 0 0 280.83933367792633 28.48508859118283 0 28.48508859118283 41.966301212943648 0 0 0 0 174.33379934573168 4.5690837601209751 0 4.5690837601209751 -66.840330089106828 0 0 0 0 108.66110065488465 -25.608456765040046 0 -25.608456765040046 -3.259069948452634 0 0 0 0 167.27852905807231 73.367608565185492 0 73.367608565185492 234.4708587290761 0 0 0 0 222.67877168595442 -97.559741148195371 0 -97.559741148195371 -95.299229117513278 0 0 0 0 169.24910311315034 32.231993013600004 0 32.231993013600004 -172.88326948410054 0 0 0 0 101.52656435778077 35.992972905482915 0 35.992972905482915 -0.0064394509541010336 0 0 0 0 143.43558312350797 193.60617829695298 0 193.60617829695298 -38.420260445804161 0 0 0 0 122.1698463252269 82.126704849194368 0 82.126704849194368 -24.789930590183758 0 0 0 0 111.28247826578445 23.462199401515818 0 23.462199401515818 24.602359204845015 0 0 0 0 29.278994534345173 2.3437104910897801 0 2.3437104910897801 -5.0282944858756551 0 0 0 0 104.20491670804429 38.549759243160359 0 38.549759243160359 3.3965438409033171 0 0 0 0 29.78435125097829 6.3792416254025142 0 6.3792416254025142 -1.9974984874796782 0 0 0 0 159.46293020690064 28.704949403672686 0 28.704949403672686 -8.6157758389609285 0 0 0 0 194.44224454399227 34.457514150151951 0 34.457514150151951 -1.7312856538377588 0 0 0 0 131.72837089520544 28.158697340280824 0 28.158697340280824 -0.076909796798872776 0 0 0 0 147.75510109092465 31.499749475623553 0 31.499749475623553 147.53449073176967 0 0 0 0 286.84894628478287 79.795249051404411 0 79.795249051404411 97.869539867654709 0 0 0 0 406.91070489932463 -428.62747235219433 0 -428.62747235219433 352.40480780014354 0 0 0 0 -2.669877496752445 1.087348098794422 0 1.087348098794422 0.43583108463715381 0 0 0 0 -6.7682917382981032 -16.14364499811461 0 -16.14364499811461 147.39783269632471 0 0 0 0 646.53993365094357 -396.80551699468094 0 -396.80551699468094 379.96651603941064 0 0 0 0 265.39321613495849 176.85495879627729 0 176.85495879627729 71.641400431362399 0 0 0 0 2494.1168744702081 -1381.9628321046521 0 -1381.9628321046521 263.87284209733679 0 0 0 0 143.54903274698154 -723.62263764173144 0 -723.62263764173144 1254.8443804671547 0 0 0 0 3.3328336465405073 -3.8635603537632264 0 -3.8635603537632264 8.294068155202222 0 0 0 0 -238.11556377670786 -146.29047953886038 0 -146.29047953886038 873.50221042091403 0 0 0 0 2500.6663673976363 610.38247472943237 0 610.38247472943237 103.26380519032175 0 0 0 0 1395.6629099831625 204.51825569079446 0 204.51825569079446 54.061833006698969 0 0 0 0 194.11377522514067 -24.272976818653376 0 -24.272976818653376 -106.75174276149255 0 0 0 0 70.098570412365007 272.96540157109411 0 272.96540157109411 24.870869591120936 0 0 0 0 76.827053424283804 -41.449329189013497 0 -41.449329189013497 -79.417387588719066 0 0 0 0 84.688899573995542 28.591479852460637 0 28.591479852460637 0.22743612238492261 0 0 0 0 -65.213225090585183 27.688578335691545 0 27.688578335691545 34.754234842050664 0 0 0 0 2495.7484156567211 -406.80833885328559 0 -406.80833885328559 -35.426716684108321 0 0 0 0 18.976092593180773 -11.047838715404396 0 -11.047838715404396 20.370648698005393 0 0 0 0 114.3088179264596 9.615672975428879 0 9.615672975428879 -26.527805667318262 0 0 0 0 -0.22217311323038302 -28.022828819924825 0 -28.022828819924825 25.394637658574084 0 0 0 0 -2.66207137608734 0.70132369253212801 0 0.70132369253212801 0.72511105114787711 0 0 0 0 7.2378111912344139 66.486509575154884 0 66.486509575154884 -237.15315052174901 0 0 0 0 144.12705961026859 -39.399423477936779 0 -39.399423477936779 5.681328805879275 0 0 0 0 135.0013588986476 -47.013593348471204 0 -47.013593348471204 38.23443560498896 0 0 0 0 14.341581257685107 -7.4027298845162051 0 -7.4027298845162051 0.99159740966107179 0 0 0 0 141.16284056656377 -83.430964844777506 0 -83.430964844777506 4.2728990930718282 0 0 0 0 75.679852412795299 17.795329831066283 0 17.795329831066283 -15.075787537186898 0 0 0 0 7.4380882163820843 -4.6876583322600425 0 -4.6876583322600425 -6.0428278833396023 0 0 0 0 33.143745966459392 -4.9034557582222078 0 -4.9034557582222078 -1.4728632059955089 0 0 0 0 25.084063217713265 -8.2223753373777981 0 -8.2223753373777981 28.753060553091927 0 0 0 0 66.042623197652574 -22.80804711600274 0 -22.80804711600274 -0.96594493149132177 0 0 0 0 52.387860662118669 -6.7683772217819111 0 -6.7683772217819111 -5.3047638860075974 0 0 0 0 66.117107557278359 -34.44764678383217 0 -34.44764678383217 7.5591032675511087 0 0 0 0 122.12462542425237 -27.882593085676945 0 -27.882593085676945 -20.245623251870711 0 0 0 0 17.517327173290198 -4.7085486987821383 0 -4.7085486987821383 0.49976246376764344 0 0 0 0 26.81597275066639 -9.3381695892488636 0 -9.3381695892488636 -0.03395493965312113 0 0 0 0 628.03801513541111 418.25832293869689 0 418.25832293869689 603.91987256414268 0 0 0 0 24.349882634705864 -9.2188339978747535 0 -9.2188339978747535 28.740059003631032 0 0 0 0 63.462989125153399 25.555377307995059 0 25.555377307995059 54.612040409720066 0 0 0 0 886.11459024299984 -60.258541567178327 0 -60.258541567178327 -55.991926258899184 0 0 0 0 19.584550832652681 -16.995897355473829 0 -16.995897355473829 11.067448281757235 0 0 0 0 2.4881886831135489 -50.698875908139712 0 -50.698875908139712 -72.047087045620174 0 0 0 0 3.1870640305714915 -39.023455362896811 0 -39.023455362896811 0.14105450210172421 0 0 0 0 37.521880309825065 -24.788039367525016 0 -24.788039367525016 -14.264711870404881 0 0 0 0 22.02424373026588 -29.649266554402288 0 -29.649266554402288 -9.4025601098437619 0 0 0 0 9.9399359981180169 -16.313882197829571 0 -16.313882197829571 48.557651794199046 0 0 0 0 21.793792766373372 -14.160255535998658 0 -14.160255535998658 35.193195450967778 0 0 0 0 42.143209211266367 -15.668306298041671 0 -15.668306298041671 -49.93936135778668 0 0 0 0 42.544628837771597 -13.997032161979178 0 -13.997032161979178 -75.197161560925736 0 0 0 0 39.175225123985001 -31.936566748666991 0 -31.936566748666991 -50.808949345051133 0 0 0 0 30.985893588658655 -45.687533110907793 0 -45.687533110907793 -64.374551271708697 0 0 0 0 36.890470940736122 -13.318104346654309 0 -13.318104346654309 -8.6443859200089719 0 0 0 0 29.511785729191615 -45.492592268369094 0 -45.492592268369094 -10.800843191718968 0 0 0 0 10.70139946823474 27.570063736478687 0 27.570063736478687 -4.930960187143711 0 0 0 0 85.65462000880143 44.863277256249546 0 44.863277256249546 -295.21328839970488 0 0 0 0 46.128992166086391 14.919057270117605 0 14.919057270117605 -154.29717967100305 0 0 0 0 108.91386302786123 -9.9571759882438755 0 -9.9571759882438755 -169.5239748670665 0 0 0 0 32.921867379322066 -44.365270651785522 0 -44.365270651785522 -131.64911066767036 0 0 0 0 28.357501635153312 -37.544622572111393 0 -37.544622572111393 -121.47020574151225 0 0 0 0 79.767672707108431 -43.133532773846071 0 -43.133532773846071 -166.16762488213021 0 0 0 0 -8.1550466316111851 -95.176462163440419 0 -95.176462163440419 -127.02183254575311 0 0 0 0 41.060755468308344 -25.106004002957434 0 -25.106004002957434 -147.40994002140314 0 0 0 0 43.179615524139081 -86.474972388893548 0 -86.474972388893548 -108.67493648791969 0 0 0 0 92.959984799170343 -47.341087184254945 0 -47.341087184254945 -169.94393488466312 0 0 0 0 131.06879234040389 -78.967175586597932 0 -78.967175586597932 -149.0975472309824 0 0 0 0 91.830098040576559 -121.95683960376812 0 -121.95683960376812 -88.823352586515853 0 0 0 0 120.385710324088 -95.350194194218091 0 -95.350194194218091 -267.1107483669042 0 0 0 0 95.498424294346478 -59.265726756485151 0 -59.265726756485151 -60.655070984087047 0 0 0 0 19.947481675079644 96.297028143097776 0 96.297028143097776 -32.98513949546782 0 0 0 0 27.72630520293751 -130.43473378916894 0 -130.43473378916894 -68.684058224781438 0 0 0 0 -16.824575096827175 98.482885578438584 0 98.482885578438584 -174.50644723615028 0 0 0 0 85.918725457842811 -148.47958159084658 0 -148.47958159084658 -128.76917607955511 0 0 0 0 -1.4261093917831573 -1.0513379636451674 0 -1.0513379636451674 -2.3198143947328829 0 0 0 0 278.42943944213403 23.474096981461742 0 23.474096981461742 -250.43839661024776 0 0 0 0 178.5338237802498 -138.60307801384835 0 -138.60307801384835 -311.57560185970283 0 0 0 0 572.36617763308459 -15.242264243720456 0 -15.242264243720456 -206.60300219835722 0 0 0 0 235.85583591288014 52.023015537698484 0 52.023015537698484 -211.92840418231481 0 0 0 0 398.88252508614823 371.05236050938549 0 371.05236050938549 -153.86667584712222 0 0 0 0 -28.450384324976767 172.07387759197172 0 172.07387759197172 -71.330889783516113 0 0 0 0 221.59690174714342 -279.58539626237462 0 -279.58539626237462 776.06496166254988 0 0 0 0 441.46214254500592 379.26455453374615 0 379.26455453374615 -61.159953241098265 0 0 0 0 0.38402805815637464 -0.10606820714771459 0 -0.10606820714771459 -7.0022006765453204 0 0 0 0 -45.756416387244826 -46.672183277213662 0 -46.672183277213662 47.100435062143333 0 0 0 0 275.19778651365777 219.00661838275664 0 219.00661838275664 -214.40259075509857 0 0 0 0 237.99747670945362 75.689361778943749 0 75.689361778943749 -65.375482878602952 0 0 0 0 160.57728816778399 18.321108957481101 0 18.321108957481101 -79.591309300222406 0 0 0 0 40.870225817052415 -75.637190890089954 0 -75.637190890089954 -142.90873126698921 0 0 0 0 70.829154501363519 -25.863155040613975 0 -25.863155040613975 -113.33195642684154 0 0 0 0 31.947032794378174 -80.189797390145827 0 -80.189797390145827 -151.77729376518596 0 0 0 0 17.01826995582087 -69.45764497945612 0 -69.45764497945612 -121.5508639405051 0 0 0 0 -31.274872872643755 -113.72125278002142 0 -113.72125278002142 -153.42421444883132 0 0 0 0 -16.91485574800754 -101.80630194916557 0 -101.80630194916557 -134.56320991006214 0 0 0 0 9.3251551844005007 -61.601477237313134 0 -61.601477237313134 -128.04718696617044 0 0 0 0 20.932400919856178 -12.373913691942889 0 -12.373913691942889 4.9976674217570931 0 0 0 0 -80.465344505297253 -197.59516098543679 0 -197.59516098543679 -189.83475482629342 0 0 0 0 462.81088334800734 387.9875971153142 0 387.9875971153142 -134.91524305045095 0 0 0 0 -133.72604695908376 -151.23095357901559 0 -151.23095357901559 -124.92402881769567 0 0 0 0 -16.777752047782997 -120.00675860009017 0 -120.00675860009017 -160.64353292485839 0 0 0 0 -29.414950839680387 -118.02083604079405 0 -118.02083604079405 -149.21284171105111 0 0 0 0 -2.0840548915875843 -113.68056379521573 0 -113.68056379521573 -245.36722119249319 0 0 0 0 -55.326590077660512 -179.04892921858766 0 -179.04892921858766 -218.18600651248568 0 0 0 0 8.1151772479934152 120.5548524962569 0 120.5548524962569 118.70654111091335 0 0 0 0 374.09957227864652 601.9720051055283 0 601.9720051055283 436.87697141356693 0 0 0 0 382.28606454099645 436.24257609685719 0 436.24257609685719 43.635310664612916 0 0 0 0 294.43707854332752 485.84360098272373 0 485.84360098272373 287.01398255308231 0 0 0 0 211.50462155717105 574.02223101313302 0 574.02223101313302 1025.9923836949674 0 0 0 0 724.84271597099723 393.78092478036342 0 393.78092478036342 -239.76745512420894 0 0 0 0 628.78513977432158 743.70000498268928 0 743.70000498268928 420.37967177426481 0 0 0 0 1442.831108731014 840.14596285324205 0 840.14596285324205 -329.87297820157619 0 0 0 0 296.50314243136381 -34.674947800191148 0 -34.674947800191148 22.625331078439558 0 0 0 0 -15.186736346440739 -103.26955454391612 0 -103.26955454391612 -91.66942107892919 0 0 0 0 29.150014192482899 -20.444022941165805 0 -20.444022941165805 12.302311335562401 0 0 0 0 -23.986347454134375 -74.174281290922636 0 -74.174281290922636 -108.99070365944385 0 0 0 0 -69.823395621060627 -82.474605842763879 0 -82.474605842763879 -108.95594969960916 0 0 0 0 13.688564118987415 -76.855586608888416 0 -76.855586608888416 -114.00338663208788 0 0 0 0 15.530663383819046 -84.816028650864382 0 -84.816028650864382 -134.21499183858259 0 0 0 0 330.34802796554868 107.37408668122316 0 107.37408668122316 -9.129061799549163 0 0 0 0 0.65823472841367447 4.219090176488848 0 4.219090176488848 6.9414255466223942 0 0 0 0 529.81977205586736 -68.367486472367091 0 -68.367486472367091 -42.328837041082807 0 0 0 0 358.37938871572169 -54.064271952781723 0 -54.064271952781723 28.884229527040588 0 0 0 0 6.3152321121199151 -4.0049228049304872 0 -4.0049228049304872 3.436636594275658 0 0 0 0 317.86821104952105 0.40556046909250654 0 0.40556046909250654 -2.9827631303969611 0 0 0 0 285.0874472240248 -9.934379963916399 0 -9.934379963916399 8.3633337573394329 0 0 0 0 129.29305491747982 63.113928121343861 0 63.113928121343861 46.552496095844617 0 0 0 0 213.48789076867251 -8.6916812620660266 0 -8.6916812620660266 -67.820328248897567 0 0 0 0 289.33816270618263 -162.66515840029319 0 -162.66515840029319 44.260907466185927 0 0 0 0 142.15823144945898 -41.860633367532046 0 -41.860633367532046 -9.2490876825945634 0 0 0 0 4.7344457051139273 3.9348180186206463 0 3.9348180186206463 -21.357838522004545 0 0 0 0 96.599656144426262 -18.581873346455041 0 -18.581873346455041 -18.727448738634848 0 0 0 0 32.622662583617057 -23.090815549095623 0 -23.090815549095623 6.7940927885465499 0 0 0 0 95.053131802196731 14.179756120230195 0 14.179756120230195 -3.4551473270659301 0 0 0 0 8.2781678915669943 6.5403808886738233 0 6.5403808886738233 -17.653653765568688 0 0 0 0 158.63865031950263 -43.92184134904096 0 -43.92184134904096 -20.032453239989991 0 0 0 0 153.21775479853386 -31.795986255000571 0 -31.795986255000571 -22.924461963730778 0 0 0 0 40.66994744491565 -5.6519667308388506 0 -5.6519667308388506 -12.305139943444559 0 0 0 0 27.875101793761132 -12.054868782211997 0 -12.054868782211997 10.704686942296121 0 0 0 0 54.44226903474555 -47.910809309731121 0 -47.910809309731121 16.949765965558981 0 0 0 0 40.341236209764247 -150.69604448225869 0 -150.69604448225869 -41.161481293798715 0 0 0 0 132.84778140981658 -50.295715408616452 0 -50.295715408616452 12.996778382117224 0 0 0 0 196.51454042559635 -44.156505358187133 0 -44.156505358187133 -12.597749439273684 0 0 0 0 66.664663385815018 17.948809305965 0 17.948809305965 -27.107505677480489 0 0 0 0 149.87215420088614 -58.044387714428012 0 -58.044387714428012 148.00114673493226 0 0 0 0 149.01160351553699 13.80643296004655 0 13.80643296004655 43.985427356550645 0 0 0 0 484.35653563581582 -12.065726017724046 0 -12.065726017724046 6.9556999951023499 0 0 0 0 -15.29210998727649 -8.1939998163534256 0 -8.1939998163534256 138.45425093050653 0 0 0 0 0.93479888571670955 -1.2753678162274582 0 -1.2753678162274582 1.3871488079744836 0 0 0 0 278.65571570708562 -110.98095347408707 0 -110.98095347408707 -156.56431093076935 0 0 0 0 38.969787905411067 -169.51019279044181 0 -169.51019279044181 124.09830987700298 0 0 0 0 139.24689049005246 40.228733861212731 0 40.228733861212731 -19.596956511501048 0 0 0 0 132.83527486015373 55.86698435663584 0 55.86698435663584 88.009332703387827 0 0 0 0 131.46629285771633 4.7109311640929263 0 4.7109311640929263 -52.427237032552512 0 0 0 0 88.441074693347844 -28.778666150539038 0 -28.778666150539038 11.622198434132763 0 0 0 0 105.58887658309425 -44.583071532854945 0 -44.583071532854945 17.995206084529045 0 0 0 0 118.4098571566883 -59.273169254483037 0 -59.273169254483037 -6.7854483370983871 0 0 0 0 92.662657076703908 -37.681578651002837 0 -37.681578651002837 29.932441081538855 0 0 0 0 87.204853536735754 -53.131253549890971 0 -53.131253549890971 7.9223409334590542 0 0 0 0 83.953992050246598 -41.824784683016333 0 -41.824784683016333 15.804746620825426 0 0 0 0 84.640617686149199 -51.499469010523171 0 -51.499469010523171 20.128123610877083 0 0 0 0 183.33205306959007 -42.027852225164224 0 -42.027852225164224 32.046587874054239 0 0 0 0 214.88748380925699 -84.833279646158189 0 -84.833279646158189 21.866278480487381 0 0 0 0 121.50832568920305 -39.617931455787584 0 -39.617931455787584 30.215534791828759 0 0 0 0 174.34978901717295 -59.598779026285229 0 -59.598779026285229 15.620128744893009 0 0 0 0 158.82468607015107 -46.031539485396024 0 -46.031539485396024 19.317947084171237 0 0 0 0 232.78996036772696 -51.819914791441079 0 -51.819914791441079 2.9074542582075082 0 0 0 0 234.6200469870073 -60.993712866906662 0 -60.993712866906662 -35.191816537431805 0 0 0 0 48.27542149972718 42.237226309206562 0 42.237226309206562 -10.448283563254783 0 0 0 0 61.917329423997217 -44.063789313291181 0 -44.063789313291181 60.649323093224666 0 0 0 0 47.490313676320511 -17.098358185294273 0 -17.098358185294273 10.682780266248187 0 0 0 0 103.18141833361005 -14.107215268835716 0 -14.107215268835716 10.840754143508661 0 0 0 0 94.643844458947569 -23.939571296849863 0 -23.939571296849863 6.6971323300676886 0 0 0 0 102.09773447148655 -12.095676090274083 0 -12.095676090274083 8.3156298118428822 0 0 0 0 104.30105084417301 -16.440230547754254 0 -16.440230547754254 -3.0575426848263305 0 0 0 0 99.887889009143692 -30.952411540056346 0 -30.952411540056346 -10.991405853983451 0 0 0 0 96.23175235871895 -21.290428483944197 0 -21.290428483944197 13.402075394489657 0 0 0 0 120.56454162129376 -19.719987966409462 0 -19.719987966409462 7.3621393311477732 0 0 0 0 111.3264784923449 -22.942390889646049 0 -22.942390889646049 16.309273157175994 0 0 0 0 117.97176189773018 -17.411218364441083 0 -17.411218364441083 19.848561388884264 0 0 0 0 110.09216244029085 -17.206476824564561 0 -17.206476824564561 3.7929331505574737 0 0 0 0 106.74127588818374 -83.271515245005958 0 -83.271515245005958 5.4653373786522934 0 0 0 0 97.535602635452719 -32.261834391084747 0 -32.261834391084747 8.2665268357150552 0 0 0 0 121.15876677600681 -25.59798000633873 0 -25.59798000633873 4.8727203084999928 0 0 0 0 128.20834376753919 -35.805900499670315 0 -35.805900499670315 14.468363184441841 0 0 0 0 130.86790222596028 -32.105538924635766 0 -32.105538924635766 11.057429436641542 0 0 0 0 101.04549578050327 -28.438442984349464 0 -28.438442984349464 3.565624177192726 0 0 0 0 149.09668018607044 -23.748100298653981 0 -23.748100298653981 -35.158589264162401 0 0 0 0 88.953519362883526 -35.20475985900157 0 -35.20475985900157 5.460557756899675 0 0 0 0 3.8537340912328233 -4.7698104146570728 0 -4.7698104146570728 3.0588302280658439 0 0 0 0 -1041.6678315516965 -759.00247938547557 0 -759.00247938547557 -59.37749753441858 0 0 0 0 1810.6211978463616 464.1587503385208 0 464.1587503385208 -210.0609817109339 0 0 0 0 26.352333493363588 2.0321682366388529 0 2.0321682366388529 -8.7691481456353131 0 0 0 0 -503.25028378083152 -834.79934169173941 0 -834.79934169173941 -405.64373421177334 0 0 0 0 27.775652674736151 -1.6091217615174855 0 -1.6091217615174855 -4.9222336956961641 0 0 0 0 57.937567082415626 -11.641664411994498 0 -11.641664411994498 -5.4104885560109324 0 0 0 0 56.464821590838255 -10.884552919758789 0 -10.884552919758789 -4.0490151668491308 0 0 0 0 55.944880216047352 7.0026822401474931 0 7.0026822401474931 -11.909466109712131 0 0 0 0 133.03567913857478 -26.149768972194579 0 -26.149768972194579 8.6616131224727724 0 0 0 0 184.64062500162981 -36.520320677649579 0 -36.520320677649579 3.3987999293931352 0 0 0 0 130.74970324724563 -39.236130641038471 0 -39.236130641038471 36.931662396858883 0 0 0 0 45.472936157639197 -12.685956451942275 0 -12.685956451942275 -0.79848165880866873 0 0 0 0 51.377626718651371 -8.8390961883417987 0 -8.8390961883417987 -3.5631753732353886 0 0 0 0 18.678362541553142 -4.3364087470568577 0 -4.3364087470568577 -9.9057371920869031 0 0 0 0 102.89111491433687 -34.661158245978868 0 -34.661158245978868 23.946010702013155 0 0 0 0 27.129965137380978 9.1398557130500251 0 9.1398557130500251 -13.648739416872569 0 0 0 0 93.60161017619248 -77.008039137062951 0 -77.008039137062951 75.80342305827071 0 0 0 0 172.15102998277871 -43.929826765444886 0 -43.929826765444886 6.4510974932927638 0 0 0 0 141.88913117040647 -13.958774373291817 0 -13.958774373291817 34.12534755444949 0 0 0 0 131.17746526415431 -28.408465897113274 0 -28.408465897113274 14.814516229977016 0 0 0 0 135.36853815952782 -37.797368524037665 0 -37.797368524037665 -0.81359769291157136 0 0 0 0 116.26542716920085 -23.173372681205365 0 -23.173372681205365 14.824354632419478 0 0 0 0 130.55207465517742 -48.244995624585499 0 -48.244995624585499 9.5657330473986804 0 0 0 0 117.73198130886158 -53.256634487248448 0 -53.256634487248448 23.769122266050545 0 0 0 0 127.47972009063233 -41.037868345523748 0 -41.037868345523748 7.2292387694660647 0 0 0 0 119.48417695795069 -36.668205124271481 0 -36.668205124271481 2.6889019774207554 0 0 0 0 117.67265591530304 -42.003438348921918 0 -42.003438348921918 18.838012558315313 0 0 0 0 115.23347846643446 -48.736321833747752 0 -48.736321833747752 23.91835616206663 0 0 0 0 110.29755037624273 -46.334357504074433 0 -46.334357504074433 19.671394403795603 0 0 0 0 10.715185625637517 -5.9818362532246852 0 -5.9818362532246852 3.1228923756987399 0 0 0 0 -114.87439256445214 -105.72853742769166 0 -105.72853742769166 768.47441837135921 0 0 0 0 865.10231099250086 -106.09388822026403 0 -106.09388822026403 -405.66230776754946 0 0 0 0 198.1617230893462 -450.20442472094328 0 -450.20442472094328 -330.12273594179032 0 0 0 0 174.58466980849335 -78.014341497374517 0 -78.014341497374517 -23.824885734230065 0 0 0 0 167.88780501797737 -128.7542145642592 0 -128.7542145642592 -376.38890044162406 0 0 0 0 39.605190815756458 10.818990395645756 0 10.818990395645756 -27.785982842340228 0 0 0 0 122.76006115690689 -62.29838774144082 0 -62.29838774144082 -2.2932688453620358 0 0 0 0 110.99456204861053 -40.772267720174568 0 -40.772267720174568 -9.0702442289693863 0 0 0 0 126.10286942457606 -43.321779784291721 0 -43.321779784291721 -59.080487474850088 0 0 0 0 128.82568250424265 -38.664827177520237 0 -38.664827177520237 -7.2484453260331065 0 0 0 0 113.11626751514268 -54.237323593779365 0 -54.237323593779365 -16.812972072963021 0 0 0 0 138.87772438060347 -53.975723306622058 0 -53.975723306622058 -128.61721966536061 0 0 0 0 124.42502143459569 -34.584191014597309 0 -34.584191014597309 -57.131811605133862 0 0 0 0 126.02478361588146 -10.418818731335705 0 -10.418818731335705 -56.210512992017357 0 0 0 0 80.06933754288184 -1.0086159043021325 0 -1.0086159043021325 -47.004950492759235 0 0 0 0 111.30059944119057 -45.070396704101768 0 -45.070396704101768 -13.184246187349345 0 0 0 0 121.09261119083385 -34.392933720368092 0 -34.392933720368092 -1.6210934152941263 0 0 0 0 118.94510145767708 -35.068806709808996 0 -35.068806709808996 -21.550104877334888 0 0 0 0 123.69596764239395 -45.10310458888398 0 -45.10310458888398 -9.3490383810494677 0 0 0 0 116.39845207188046 -64.794884434233609 0 -64.794884434233609 -39.470402589471632 0 0 0 0 117.55655695058522 -58.183174352214337 0 -58.183174352214337 -1.7320168238693441 0 0 0 0 38.464044556843874 -93.903541042253892 0 -93.903541042253892 -17.824081360352466 0 0 0 0 100.56166132206999 -178.1950829892553 0 -178.1950829892553 58.941369611398841 0 0 0 0 325.83131830162893 -322.05143285381746 0 -322.05143285381746 6.785660866949911 0 0 0 0 428.01140202114766 -107.32470604191258 0 -107.32470604191258 -621.64483866305454 0 0 0 0 153.21005311613771 -155.92855428494386 0 -155.92855428494386 -151.19127548914184 0 0 0 0 26.963272665132536 -229.44529936356685 0 -229.44529936356685 162.06476759272573 0 0 0 0 101.74899282415572 -287.70630222189902 0 -287.70630222189902 203.36475448684178 0 0 0 0 42.022663284260489 -253.74975466081469 0 -253.74975466081469 998.64541738556727 0 0 0 0 -169.41413307032417 -135.97283798372519 0 -135.97283798372519 247.9185430702255 0 0 0 0 -12.043847172288224 -108.6383191254572 0 -108.6383191254572 35.418891376580177 0 0 0 0 -59.573606511319667 -13.790861226790184 0 -13.790861226790184 -70.008946686855779 0 0 0 0 211.22343988738794 -85.929578786623097 0 -85.929578786623097 392.23545042303886 0 0 0 0 -67.731683973121108 97.716471207584618 0 97.716471207584618 578.22829483716487 0 0 0 0 297.47456140898794 455.7298859915727 0 455.7298859915727 397.62595373490876 0 0 0 0 -84.440472972222778 -25.025080073421577 0 -25.025080073421577 -34.833849477254262 0 0 0 0 -117.66058691029548 432.06071017012277 0 432.06071017012277 86.553712320553132 0 0 0 0 62.68708268229112 62.960283267011704 0 62.960283267011704 25.93916742681764 0 0 0 0 -432.66656967916788 519.82117162944451 0 519.82117162944451 178.81142676841046 0 0 0 0 -168.68570199368105 86.991901091783006 0 86.991901091783006 143.17365941832941 0 0 0 0 200.5516194065649 -253.59331193137291 0 -253.59331193137291 58.377882395354817 0 0 0 0 172.83180340637773 459.9776077170759 0 459.9776077170759 -253.14439568514376 0 0 0 0 64.479153255420641 64.28662562548385 0 64.28662562548385 27.550532731384756 0 0 0 0 1141.5587902949749 189.45936672809788 0 189.45936672809788 -109.42129899202791 0 0 0 0 30.512924607804052 61.823730023477083 0 61.823730023477083 70.363436569579108 0 0 0 0 -15.66322257383581 -36.169285098267892 0 -36.169285098267892 264.90772421423333 0 0 0 0 3.0978588639407523 -3.8538889746595117 0 -3.8538889746595117 10.257859052732801 0 0 0 0 858.4905710510393 175.74343606681305 0 175.74343606681305 171.45874020945757 0 0 0 0 858.19921175115269 187.79754275612049 0 187.79754275612049 104.24150658017663 0 0 0 0 465.38576007518418 28.788285777249598 0 28.788285777249598 80.456044653005847 0 0 0 0 598.81435913065388 -126.55542005501843 0 -126.55542005501843 -30.926167138631172 0 0 0 0 1148.9646877782161 -69.580783212187271 0 -69.580783212187271 -165.94653059941675 0 0 0 0 9.997878075462836 -288.70657678759858 0 -288.70657678759858 915.51793356277358 0 0 0 0 131.20364421535123 -278.66745951710709 0 -278.66745951710709 425.78927161422871 0 0 0 0 68.008060607687185 -101.5607189812963 0 -101.5607189812963 157.49122507719403 0 0 0 0 274.50346072088723 -230.55978685488208 0 -230.55978685488208 -49.167545203828922 0 0 0 0 184.62317497288495 -239.70481397427716 0 -239.70481397427716 190.58526737087686 0 0 0 0 234.77248933521696 -129.5409613696238 0 -129.5409613696238 -63.510490021770352 0 0 0 0 494.57540664488261 -473.36788522005645 0 -473.36788522005645 208.06738578998375 0 0 0 0 155.65798518753218 243.86078827262827 0 243.86078827262827 -248.58532776325319 0 0 0 0 952.29454866920969 -27.434733288408097 0 -27.434733288408097 -398.06078568020075 0 0 0 0 -236.35161426143259 89.027480372461014 0 89.027480372461014 44.147315705935398 0 0 0 0 58.79570856228257 54.115449542098773 0 54.115449542098773 11.225515420799091 0 0 0 0 294.81199604041603 -74.416258404671225 0 -74.416258404671225 -32.251426344446372 0 0 0 0 174.52041990578982 -83.193045978819555 0 -83.193045978819555 1.280286260594039 0 0 0 0 232.43252967842136 -116.50444752494354 0 -116.50444752494354 20.131330631922538 0 0 0 0 125.41165989401816 -65.234395167140065 0 -65.234395167140065 44.38363212774675 0 0 0 0 80.175372589406834 -54.451244168246831 0 -54.451244168246831 46.218159202975585 0 0 0 0 124.17888381994089 -93.850857520956197 0 -93.850857520956197 69.80532523612419 0 0 0 0 100.63098430205537 -132.35939461764337 0 -132.35939461764337 53.393494055679639 0 0 0 0 83.382768628587655 -38.668974240881653 0 -38.668974240881653 35.935405530581193 0 0 0 0 95.334624054965388 -44.440932941906794 0 -44.440932941906794 38.542775271669598 0 0 0 0 111.07571949860358 -38.657668792819095 0 -38.657668792819095 24.749618366898176 0 0 0 0 94.789031777898344 -40.753965490856672 0 -40.753965490856672 55.594271623361237 0 0 0 0 91.161744328830537 -33.726008529562478 0 -33.726008529562478 42.024440880914653 0 0 0 0 71.430127587391326 -30.997821270129862 0 -30.997821270129862 29.555066431667001 0 0 0 0 152.06881851866456 -47.473322520585498 0 -47.473322520585498 -486.12820726730752 0 0 0 0 20.301678825821007 8.4770379106311253 0 8.4770379106311253 5.9707374102751558 0 0 0 0 40.260901171994732 5.966615024299184 0 5.966615024299184 -11.619647010341307 0 0 0 0 255.76212075798458 298.19738023937975 0 298.19738023937975 221.55755825556525 0 0 0 0 6.6304437268959369 -6.370695576880383 0 -6.370695576880383 5.8935172792322845 0 0 0 0 -138.58999349015357 -17.757679076166077 0 -17.757679076166077 588.00408558724882 0 0 0 0 13.328651784203444 0.75279991390856438 0 0.75279991390856438 1.7641330004660851 0 0 0 0 -62.040487187347708 553.74472476714232 0 553.74472476714232 1323.5443022800077 0 0 0 0 -264.76865430691032 -1378.7007196005525 0 -1378.7007196005525 208.39108505977492 0 0 0 0 341.60787015348319 115.50915131879145 0 115.50915131879145 -196.03623638163299 0 0 0 0 117.5745839625979 -135.44534930680356 0 -135.44534930680356 -164.22134038548757 0 0 0 0 240.60356323345513 -42.885758957058442 0 -42.885758957058442 -115.83248244837978 0 0 0 0 154.43493121801657 42.952776898869161 0 42.952776898869161 57.297673701181338 0 0 0 0 193.56950250878435 57.932707952617193 0 57.932707952617193 27.122315464072244 0 0 0 0 9.5116831695813744 -70.997125815629943 0 -70.997125815629943 102.11464510350027 0 0 0 0 66.981398436093514 -74.202592365906014 0 -74.202592365906014 14.010186853402047 0 0 0 0 48.434390862796135 -78.074498797941033 0 -78.074498797941033 215.08371532940009 0 0 0 0 48.900778254224861 -13.387071158249796 0 -13.387071158249796 49.151308394117592 0 0 0 0 40.193274641183095 9.1841527021238214 0 9.1841527021238214 -5.2710055532582434 0 0 0 0 127.4284763871965 -22.328715715155795 0 -22.328715715155795 -43.271216109535089 0 0 0 0 -37.666259943128352 -94.472439121933576 0 -94.472439121933576 138.57546794243581 0 0 0 0 18.132757057097024 47.952200992368944 0 47.952200992368944 -8.731404437457968 0 0 0 0 66.604260297177461 70.490286620721236 0 70.490286620721236 11.7582274395889 0 0 0 0 79.724869288000718 77.8157590149508 0 77.8157590149508 -64.431694884356602 0 0 0 0 28.295706165208848 -0.39578477104407384 0 -0.39578477104407384 -11.084963282376698 0 0 0 0 158.84325622176766 -35.571855850723296 0 -35.571855850723296 7.1431627226198771 0 0 0 0 125.91506863984068 62.794887191430007 0 62.794887191430007 6.5142326551067526 0 0 0 0 86.979069817085474 -2.7023482628712827 0 -2.7023482628712827 -93.848406877219077 0 0 0 0 -51.314853039619265 67.00917531655341 0 67.00917531655341 194.80051934477569 0 0 0 0 232.56267454800764 74.153935205711605 0 74.153935205711605 -16.017941323141713 0 0 0 0 257.56483157753428 4.3894691122757195 0 4.3894691122757195 -34.53433718679662 0 0 0 0 0.81966279165353662 2.1388794273004237 0 2.1388794273004237 0.60637283971118094 0 0 0 0 199.01016290662574 -120.3339584759658 0 -120.3339584759658 5.1919036144313395 0 0 0 0 -38.573280834278194 45.796438744417173 0 45.796438744417173 29.696312174854938 0 0 0 0 -74.583932847500591 -63.402985748503966 0 -63.402985748503966 8.4681149108582758 0 0 0 0 87.485211872397031 -5.9698280238323491 0 -5.9698280238323491 23.02458599626334 0 0 0 0 83.368059838338013 9.5886288415686067 0 9.5886288415686067 -34.474489777213876 0 0 0 0 90.656835025380133 -49.841988545050725 0 -49.841988545050725 -59.530349165159834 0 0 0 0 192.65645836071394 -10.611857523938909 0 -10.611857523938909 -87.090388884461845 0 0 0 0 144.04646095109456 60.504350149160246 0 60.504350149160246 6.4366266619014141 0 0 0 0 159.34074348312879 9.8909080414719028 0 9.8909080414719028 -21.495244882451061 0 0 0 0 104.0870136925879 -9.5045762713241047 0 -9.5045762713241047 -1.0452774337695701 0 0 0 0 109.30032944704362 -59.12707164123583 0 -59.12707164123583 -20.439459873767305 0 0 0 0 -7.7502758847876976 -151.76932089161983 0 -151.76932089161983 -61.432947563500875 0 0 0 0 63.96459417443657 -62.9008719634503 0 -62.9008719634503 -18.23306913188685 0 0 0 0 58.459230581564952 -49.463840049033564 0 -49.463840049033564 -5.0592343120281384 0 0 0 0 106.61690678964715 -12.129357864326153 0 -12.129357864326153 -5.692271598359639 0 0 0 0 50.071401996204713 -12.366922311553708 0 -12.366922311553708 -3.2384697703546408 0 0 0 0 25.521299879183061 -25.41010422512052 0 -25.41010422512052 1.3176077523186498 0 0 0 0 77.180935977013178 -46.647683971062293 0 -46.647683971062293 -11.507267839477265 0 0 0 0 78.821043172030841 -42.890273243517356 0 -42.890273243517356 -2.9523254619384431 0 0 0 0 45.924466712159301 -28.98112800339976 0 -28.98112800339976 12.882700443982088 0 0 0 0 37.366863110312806 12.726521418981065 0 12.726521418981065 -60.357298175749008 0 0 0 0 51.872440362684756 10.624363955462911 0 10.624363955462911 -108.88062818514825 0 0 0 0 33.176526282663872 -28.430396244684655 0 -28.430396244684655 -80.509247344925711 0 0 0 0 241.57934749491324 67.833784502293014 0 67.833784502293014 -7.1742545471668109 0 0 0 0 -0.83801125143689781 1.0429475934297097 0 1.0429475934297097 0.19938550528963095 0 0 0 0 136.40879526366825 -66.990659927023017 0 -66.990659927023017 -25.270645313770615 0 0 0 0 105.71066822520606 -10.028138967625637 0 -10.028138967625637 -22.09845224792096 0 0 0 0 148.0313029400786 21.967456541106003 0 21.967456541106003 1.9437608936663366 0 0 0 0 284.07924521176847 43.528873141779115 0 43.528873141779115 -53.756518889763925 0 0 0 0 175.55422613568066 -96.433623095502824 0 -96.433623095502824 -11.69828443821882 0 0 0 0 -0.10761645847092893 0.47755344833030566 0 0.47755344833030566 0.14086451872823547 0 0 0 0 151.9477192521781 -21.30362980045777 0 -21.30362980045777 -47.690952953652129 0 0 0 0 253.33391704981841 56.078888948700936 0 56.078888948700936 -24.866424893827514 0 0 0 0 274.81881833524267 21.906045794278455 0 21.906045794278455 -47.849604479021025 0 0 0 0 289.9213706487426 66.140492107103398 0 66.140492107103398 -22.33564082989551 0 0 0 0 305.19394299429405 35.990177589617957 0 35.990177589617957 -41.435481546382533 0 0 0 0 288.96336057191706 39.800130193417488 0 39.800130193417488 -36.34134876098733 0 0 0 0 288.48252024703334 -4.9455600013882446 0 -4.9455600013882446 -41.081249809192514 0 0 0 0 364.9589639054966 -11.771146484537439 0 -11.771146484537439 -40.612664276856748 0 0 0 0 261.88844892380257 13.714211564938324 0 13.714211564938324 -41.976969553996412 0 0 0 0 183.7148227241222 35.997888829695206 0 35.997888829695206 -23.880205995402633 0 0 0 0 181.01054425078519 23.741002942520907 0 23.741002942520907 -17.859159191548429 0 0 0 0 131.89509159826753 8.5978337995508411 0 8.5978337995508411 28.833982845229809 0 0 0 0 235.41776072587345 -21.74382810276748 0 -21.74382810276748 -15.416167388719828 0 0 0 0 253.10797947292713 -8.084871349183345 0 -8.084871349183345 -18.085126205131786 0 0 0 0 71.728253886757557 46.291298422019864 0 46.291298422019864 21.427610130598282 0 0 0 0 117.38030236721261 -45.335484361338331 0 -45.335484361338331 52.424926719331552 0 0 0 0 189.60031812030792 -62.365734801196325 0 -62.365734801196325 90.749784422064749 0 0 0 0 190.6020436410472 -26.289191803913582 0 -26.289191803913582 17.100837326185683 0 0 0 0 480.51243048590004 -139.09360821006453 0 -139.09360821006453 37.527219318819391 0 0 0 0 403.73692880020553 -34.223446032236438 0 -34.223446032236438 38.643701453800929 0 0 0 0 560.09342959587593 -57.13537286129008 0 -57.13537286129008 41.36733862244796 0 0 0 0 870.59055866194103 112.36980892401789 0 112.36980892401789 78.983552791665034 0 0 0 0 498.98079034178903 52.635259037185619 0 52.635259037185619 200.80282597681526 0 0 0 0 873.35932812849569 79.309968404264964 0 79.309968404264964 214.61267945991381 0 0 0 0 2.0215389579248066 1.6443732700941611 0 1.6443732700941611 -2.1712319403962201 0 0 0 0 341.66149220673105 356.58613127860201 0 356.58613127860201 212.02742147769595 0 0 0 0 -96.956886337397805 -79.373818106404883 0 -79.373818106404883 69.104745134533914 0 0 0 0 305.54057176596143 101.24656522452483 0 101.24656522452483 77.187618295748507 0 0 0 0 3.0883336599708233 -1.6719259406635931 0 -1.6719259406635931 0.8028119553539792 0 0 0 0 637.15353471380877 54.66220639094513 0 54.66220639094513 -15.637073648619207 0 0 0 0 353.74921678339524 141.27917873388299 0 141.27917873388299 12.015369816964039 0 0 0 0 370.25026579113774 49.75616474541124 0 49.75616474541124 -29.704470909982547 0 0 0 0 468.10853254716403 93.798224419348799 0 93.798224419348799 -21.734105340842689 0 0 0 0 351.64462815602019 60.346307291040375 0 60.346307291040375 -35.05643791454429 0 0 0 0 433.52306938763013 -56.809396971623983 0 -56.809396971623983 -4.6686374717756962 0 0 0 0 267.35220376875873 -37.345055507263311 0 -37.345055507263311 -5.1054520231714378 0 0 0 0 1662.6169029608463 320.38177626357856 0 320.38177626357856 -459.72879070562846 0 0 0 0 2498.6847745460072 102.46121197931252 0 102.46121197931252 -578.9725403235559 0 0 0 0 1662.123203267096 285.22857848560534 0 285.22857848560534 -179.17699760517843 0 0 0 0 991.85485032686847 24.199596476664794 0 24.199596476664794 -163.52922402662398 0 0 0 0 1427.5992105270361 64.098070348975682 0 64.098070348975682 -207.81672180179044 0 0 0 0 1685.5746490024212 -146.28756262599995 0 -146.28756262599995 -452.35258956166899 0 0 0 0 2500.9796124271907 -705.65893569771458 0 -705.65893569771458 -345.30037138396074 0 0 0 0 1673.2324638128666 -184.8895541622052 0 -184.8895541622052 -436.46664037354515 0 0 0 0 1265.4678481537667 -624.97790074649834 0 -624.97790074649834 -167.48120533617069 0 0 0 0 1175.6214744279087 -377.47625744653328 0 -377.47625744653328 -58.956819451356679 0 0 0 0 1191.7794671919401 -483.17024880307667 0 -483.17024880307667 9.9581857296113441 0 0 0 0 693.8995867942831 -58.561046936902812 0 -58.561046936902812 -49.854062291307116 0 0 0 0 195.39641425484297 -109.71753050004853 0 -109.71753050004853 195.12147181323974 0 0 0 0 133.70283413931611 78.807592149199095 0 78.807592149199095 47.84274919337841 0 0 0 0 258.05276578206394 -30.919011912852504 0 -30.919011912852504 67.254167466759895 0 0 0 0 608.5853779843892 -159.12440630440443 0 -159.12440630440443 37.922662714551848 0 0 0 0 247.88726999619394 43.72516253190031 0 43.72516253190031 44.33861529698197 0 0 0 0 553.35065869662139 97.49106632240327 0 97.49106632240327 4.3996553440382513 0 0 0 0 293.94784657228956 -49.750725670581573 0 -49.750725670581573 61.701230920070273 0 0 0 0 873.7236112282917 -146.92626148300235 0 -146.92626148300235 -43.740060998917521 0 0 0 0 862.85058135887812 231.04562999499859 0 231.04562999499859 -23.070480784183019 0 0 0 0 421.32174101744749 -71.387205720700024 0 -71.387205720700024 -0.76572315085187004 0 0 0 0 343.22138216933672 91.264852222725438 0 91.264852222725438 -47.32330378134526 0 0 0 0 3.5003165732172015 -8.1709248425631031 0 -8.1709248425631031 0.66355883865160625 0 0 0 0 80.316136076722614 -1.2353150797349031 0 -1.2353150797349031 -12.482385282451901 0 0 0 0 -25.409475940843549 -49.384860986941135 0 -49.384860986941135 41.77782226125521 0 0 0 0 6.515330662853394 6.8765493287656412 0 6.8765493287656412 -0.58819746736329614 0 0 0 0 -21.974216231141327 2.9825074312888091 0 2.9825074312888091 48.082618977087577 0 0 0 0 44.073435734484519 -10.548972812208717 0 -10.548972812208717 10.382692645874371 0 0 0 0 83.870165391208957 -25.886184687082675 0 -25.886184687082675 159.2719124600053 0 0 0 0 91.787729496907559 35.230948271726447 0 35.230948271726447 -24.606244767531734 0 0 0 0 101.22752718133961 -102.15768942953514 0 -102.15768942953514 130.38709978804218 0 0 0 0 138.22256409901456 -59.932765358211498 0 -59.932765358211498 6.9803955744120429 0 0 0 0 222.86993099545361 12.852864777390323 0 12.852864777390323 -17.313334066244579 0 0 0 0 260.01643422486632 53.538578434918776 0 53.538578434918776 -59.399814501030278 0 0 0 0 30.576771620113504 -53.067574054094749 0 -53.067574054094749 11.855334876258212 0 0 0 0 -1.3304212657271695 -0.1280325427931075 0 -0.1280325427931075 16.996015120713775 0 0 0 0 43.325525923621171 64.685065669513563 0 64.685065669513563 104.59344653079853 0 0 0 0 2.185380447935394 -0.34858771360313057 0 -0.34858771360313057 -0.27768806697189441 0 0 0 0 163.65722521867974 -77.659748302593783 0 -77.659748302593783 132.37236058419504 0 0 0 0 158.1797981756099 83.666519776660323 0 83.666519776660323 -46.762705502995431 0 0 0 0 45.611856182816155 60.429630508676716 0 60.429630508676716 82.859837262484064 0 0 0 0 146.32049912589719 84.058608632025795 0 84.058608632025795 55.069483566766124 0 0 0 0 240.42387898998277 -21.361983202923739 0 -21.361983202923739 -16.805989354330904 0 0 0 0 104.86298885922406 -21.485793455486657 0 -21.485793455486657 62.696003328866027 0 0 0 0 12.466462778495043 -37.333217986788213 0 -37.333217986788213 28.194030114409543 0 0 0 0 100.79956570927061 -32.546708689856587 0 -32.546708689856587 -3.9272939618695091 0 0 0 0 15.931756283492657 4.0385995779017065 0 4.0385995779017065 14.971450543219255 0 0 0 0 242.08802490076596 -13.234042543557734 0 -13.234042543557734 22.728048371902787 0 0 0 0 99.893225456014079 -31.826518574393049 0 -31.826518574393049 0.4754270900884876 0 0 0 0 99.405333504612827 -28.220686885312716 0 -28.220686885312716 -1.8649753875233728 0 0 0 0 53.568063476335197 -0.30768613225321673 0 -0.30768613225321673 -8.2528749215457964 0 0 0 0 102.13080942074157 -16.502641507840053 0 -16.502641507840053 36.994856752725354 0 0 0 0 63.492705501652381 -23.809762951222183 0 -23.809762951222183 24.386757746027797 0 0 0 0 41.744885295129279 -59.517175277207798 0 -59.517175277207798 -6.8532702313575555 0 0 0 0 3.5831869042849576 -77.066259223819969 0 -77.066259223819969 8.2117640499311975 0 0 0 0 327.24836725392379 -101.36751426419437 0 -101.36751426419437 -29.031335740709437 0 0 0 0 41.90816046895452 -37.195012201993677 0 -37.195012201993677 -9.7237686539717743 0 0 0 0 -1.3147739231323463 4.5365738273365039 0 4.5365738273365039 4.201452454781899 0 0 0 0 -185.95133811575943 53.074579914917649 0 53.074579914917649 275.22542138890458 0 0 0 0 574.28997387994605 224.69361495963312 0 224.69361495963312 -212.30169051400844 0 0 0 0 -63.649506587442829 -143.4659994504951 0 -143.4659994504951 -38.647174715000951 0 0 0 0 24.725569349055529 -17.152613817366849 0 -17.152613817366849 11.968435807195402 0 0 0 0 120.32264097056941 87.923633620768669 0 87.923633620768669 110.63425971836114 0 0 0 0 165.5107429463983 57.82439546894534 0 57.82439546894534 45.616140843314042 0 0 0 0 89.567905452386185 20.316651578764322 0 20.316651578764322 23.568740858712658 0 0 0 0 113.22594794977158 32.802730077173919 0 32.802730077173919 53.626121785736359 0 0 0 0 77.664249888804989 34.590348474683424 0 34.590348474683424 88.621486450626207 0 0 0 0 126.32530565325214 41.280939931906346 0 41.280939931906346 30.03710535647815 0 0 0 0 73.250856849266711 19.585492106634092 0 19.585492106634092 42.111659907114699 0 0 0 0 83.085809045857786 8.5149336635465147 0 8.5149336635465147 39.564403614858747 0 0 0 0 97.330286671094655 26.698439076694285 0 26.698439076694285 37.806815906018642 0 0 0 0 111.71823576600036 29.378647747425703 0 29.378647747425703 -11.654779983974265 0 0 0 0 103.17350168690155 25.501549554069811 0 25.501549554069811 3.3023649672900319 0 0 0 0 111.60984713955258 27.510851329520847 0 27.510851329520847 -41.492192318889693 0 0 0 0 95.157446196642923 15.264380621508963 0 15.264380621508963 6.7620084747600231 0 0 0 0 108.18936323294656 10.469468157005281 0 10.469468157005281 6.7488559471148619 0 0 0 0 95.630306550781825 36.268256743872257 0 36.268256743872257 -4.6817018554498873 0 0 0 0 83.318317096081955 30.342031114744827 0 30.342031114744827 13.736956660306305 0 0 0 0 58.574127725796643 -15.716873524746177 0 -15.716873524746177 -18.585006462178967 0 0 0 0 -15.718066557865967 46.476713612002818 0 46.476713612002818 -17.270227942764905 0 0 0 0 59.54190768564834 54.375114866268774 0 54.375114866268774 -17.792933273960443 0 0 0 0 -17.948830079659274 -12.630260882214046 0 -12.630260882214046 -18.698429938150312 0 0 0 0 236.15628932110121 -125.01086901174401 0 -125.01086901174401 95.903015371242645 0 0 0 0 92.483643434879014 107.18928585228356 0 107.18928585228356 -86.291474513277791 0 0 0 0 2.0368060496268363 -0.52668287598733343 0 -0.52668287598733343 -0.65950089417474955 0 0 0 0 293.91322217997367 18.293020490436163 0 18.293020490436163 -81.006836311506788 0 0 0 0 132.63028483880771 19.446513746529547 0 19.446513746529547 -81.014950137784695 0 0 0 0 80.486873206307791 -20.434744778087747 0 -20.434744778087747 12.64317648034546 0 0 0 0 75.286426904533073 -15.846125031799033 0 -15.846125031799033 14.252387868398841 0 0 0 0 257.70854115921793 10.672270444804496 0 10.672270444804496 134.15405480909021 0 0 0 0 127.54073470426465 -24.269364488982191 0 -24.269364488982191 31.837689897937366 0 0 0 0 -0.91841100761389072 1.2373757562883583 0 1.2373757562883583 0.56079556219280668 0 0 0 0 125.7944300966592 -12.842637075079281 0 -12.842637075079281 -28.064768585292484 0 0 0 0 121.70880814837619 -4.8898318913384173 0 -4.8898318913384173 39.622410849891139 0 0 0 0 -6.9231312303036248 -7.3077644633868601 0 -7.3077644633868601 19.600269148061386 0 0 0 0 -0.16419055595999055 0.36731118506044425 0 0.36731118506044425 0.075065506719657171 0 0 0 0 7.894224261146201 0.68190798944759479 0 0.68190798944759479 -8.0675824847800452 0 0 0 0 11.095514428115621 36.661618691566986 0 36.661618691566986 -53.625211985974602 0 0 0 0 62.657660421204127 -28.184845534683291 0 -28.184845534683291 -16.555248638309592 0 0 0 0 77.308611501397536 -8.0837736736568786 0 -8.0837736736568786 6.8543586501705249 0 0 0 0 126.72327571469941 -9.4421231460005401 0 -9.4421231460005401 -27.372279734420772 0 0 0 0 88.746337003142287 -15.709083657546227 0 -15.709083657546227 5.657706594879528 0 0 0 0 -36.091267288445124 -20.65343205469317 0 -20.65343205469317 28.452352003668466 0 0 0 0 -0.14014092064587658 -8.3499625862437554 0 -8.3499625862437554 3.5125267877714808 0 0 0 0 24.555022192299369 -28.904193960967834 0 -28.904193960967834 -1.5769067409166793 0 0 0 0 87.816042734048096 -37.035125203903931 0 -37.035125203903931 2.284968879459484 0 0 0 0 -3.426472471130964 -5.5040404370982374 0 -5.5040404370982374 2.3521270318725178 0 0 0 0 100.70355838655996 -26.832622307563099 0 -26.832622307563099 1.406324935310181 0 0 0 0 10.742848824298063 -0.83571089225840467 0 -0.83571089225840467 2.7742505044097263 0 0 0 0 126.11679240891453 -4.7707374214961078 0 -4.7707374214961078 -7.9443511091453729 0 0 0 0 123.30808775963851 6.2937156051068541 0 6.2937156051068541 -51.057579970661664 0 0 0 0 20.089178377316156 -0.23978460929210144 0 -0.23978460929210144 -14.873874225124853 0 0 0 0 191.60120889146492 -96.072641861260308 0 -96.072641861260308 -241.06875187431257 0 0 0 0 43.554289128887163 -25.485432066673962 0 -25.485432066673962 12.31179963954591 0 0 0 0 -44.989883419297257 8.8774668054147696 0 8.8774668054147696 -27.813985023489295 0 0 0 0 101.5555406036583 1.0919432393449142 0 1.0919432393449142 37.613913718721506 0 0 0 0 43.725361955897824 -15.284639554713337 0 -15.284639554713337 -3.9613869674296893 0 0 0 0 -21.104091888830681 -25.480877460539254 0 -25.480877460539254 76.335087422322147 0 0 0 0 8.6674316500727571 -10.200009292573938 0 -10.200009292573938 1.4051670411296517 0 0 0 0 36.146848956682845 -22.749620796499318 0 -22.749620796499318 -1.7836183900342171 0 0 0 0 275.22649376966001 29.984287909983721 0 29.984287909983721 -4.5826372248719309 0 0 0 0 238.48802968218115 170.93843675157834 0 170.93843675157834 78.870867408367644 0 0 0 0 645.34289182056818 70.737270574552895 0 70.737270574552895 -55.99924400043782 0 0 0 0 980.48129037046237 327.32879255488803 0 327.32879255488803 -29.788608092118011 0 0 0 0 621.93794725335829 260.33937130070683 0 260.33937130070683 63.871582244056299 0 0 0 0 804.22278880502927 175.75278861089521 0 175.75278861089521 -36.830245045111724 0 0 0 0 412.19945758458925 129.70905386986101 0 129.70905386986101 121.07282472442296 0 0 0 0 -34.217153350917215 -93.311649271765901 0 -93.311649271765901 -10.041029504406529 0 0 0 0 446.64514533300826 87.828134591870139 0 87.828134591870139 -21.534559160451977 0 0 0 0 3.4436068821529489 -0.49307909339069411 0 -0.49307909339069411 -0.42423136260955374 0 0 0 0 48.172349678399769 -150.50029286510801 0 -150.50029286510801 -129.90934557079947 0 0 0 0 264.77756183291785 197.2677082209452 0 197.2677082209452 29.208729281642377 0 0 0 0 484.393856233306 89.293096810709443 0 89.293096810709443 34.797103147884336 0 0 0 0 79.002543336674535 54.927003661633876 0 54.927003661633876 -84.010274965666213 0 0 0 0 56.410675643052855 26.607466101950649 0 26.607466101950649 -109.9190159476525 0 0 0 0 54.881737027568718 -16.208035783718383 0 -16.208035783718383 0.39514733212114983 0 0 0 0 -452.15343335401849 -127.77624922655389 0 -127.77624922655389 641.0765815701011 0 0 0 0 31.524951056697319 69.31873729824747 0 69.31873729824747 -1.6258341920115527 0 0 0 0 72.599523074437457 -19.301325696030403 0 -19.301325696030403 -28.1896435615634 0 0 0 0 203.96041982965653 -82.584985066448581 0 -82.584985066448581 242.49648965966981 0 0 0 0 382.6871510492856 -105.71419930053747 0 -105.71419930053747 -76.794414562059842 0 0 0 0 19.373877986381558 -1.9130458143449687 0 -1.9130458143449687 38.394744893057918 0 0 0 0 257.47060253919335 -67.373344581061247 0 -67.373344581061247 -0.011507535967027138 0 0 0 0 786.21610670510745 364.20119418129246 0 364.20119418129246 226.2222384051928 0 0 0 0 217.34465188174272 -178.80912226467842 0 -178.80912226467842 -108.82874228867604 0 0 0 0 748.28193061268394 511.92920490263089 0 511.92920490263089 57.318850906719149 0 0 0 0 46.287609883208759 -9.236161455591521 0 -9.236161455591521 2.3140532000080389 0 0 0 0 236.11313042034772 -198.74546013668987 0 -198.74546013668987 288.1593272783 0 0 0 0 18.604287278880562 -3.5419521254536361 0 -3.5419521254536361 3.1484955269499038 0 0 0 0 705.92509632619476 -1335.2273022341737 0 -1335.2273022341737 1527.960053563437 0 0 0 0 2494.0017079355257 1728.912983457876 0 1728.912983457876 939.89932740143615 0 0 0 0 980.33506289217257 637.1524890036236 0 637.1524890036236 166.77630424203579 0 0 0 0 1618.1459961471774 856.0628275530886 0 856.0628275530886 86.542984233428029 0 0 0 0 913.82926180768482 280.82665127542418 0 280.82665127542418 91.23972843998925 0 0 0 0 954.93105756565637 411.11282782007731 0 411.11282782007731 126.8301952230383 0 0 0 0 1370.2038226781606 317.29096456929818 0 317.29096456929818 -115.85676052428778 0 0 0 0 1041.6524722379618 231.52056185979245 0 231.52056185979245 -102.47221907428474 0 0 0 0 2501.2774123014815 546.74451869891868 0 546.74451869891868 -402.84690147011929 0 0 0 0 2498.5769627298441 -41.986649494831788 0 -41.986649494831788 -635.98347219205175 0 0 0 0 1704.8632688607763 -316.62937503901742 0 -316.62937503901742 -274.12363304364806 0 0 0 0 1709.5877753655723 -293.79368224928783 0 -293.79368224928783 -556.5781372732838 0 0 0 0 2500.8256697471006 -596.07358390529748 0 -596.07358390529748 -490.58208053957992 0 0 0 0 1568.1281822520104 -846.97265300188599 0 -846.97265300188599 -217.32826674639782 0 0 0 0 2494.6883801879349 -1235.5670164100534 0 -1235.5670164100534 -61.803181058969251 0 0 0 0 581.76134280153929 -676.0564687431912 0 -676.0564687431912 567.32555770504496 0 0 0 0 965.90766228938446 -343.55582955090222 0 -343.55582955090222 -154.60766263002773 0 0 0 0 1568.971602164268 -602.96168315032833 0 -602.96168315032833 -94.591812021232499 0 0 0 0 356.81657732823805 -176.1105444830574 0 -176.1105444830574 141.19423890217695 0 0 0 0 966.2834512430527 -331.49989897678211 0 -331.49989897678211 -45.584418457609331 0 0 0 0 620.04599971932589 -251.6501856677682 0 -251.6501856677682 65.767471480037898 0 0 0 0 -4.4097798786551721 -13.442282303809776 0 -13.442282303809776 148.50180329146738 0 0 0 0 120.02604109402 63.076634257886056 0 63.076634257886056 97.329782875440628 0 0 0 0 388.91905931142344 13.70063954202999 0 13.70063954202999 -56.835116903172548 0 0 0 0 0.95150021040660349 -1.4477027206847826 0 -1.4477027206847826 0.8565397409873059 0 0 0 0 148.2462793452969 -166.7792296646561 0 -166.7792296646561 45.827062404205947 0 0 0 0 21.310454225838839 -0.71083121964115037 0 -0.71083121964115037 -20.241740768398415 0 0 0 0 713.26866888891527 -1.5356155742001647 0 -1.5356155742001647 -117.14820133351611 0 0 0 0 576.11308931070198 55.035327053137848 0 55.035327053137848 -86.55217215356447 0 0 0 0 579.2714681878806 -116.21642994666696 0 -116.21642994666696 -30.602883177910371 0 0 0 0 769.41716994416493 -215.27703954685103 0 -215.27703954685103 2.488806189475099 0 0 0 0 841.74305434812595 -66.911610678205022 0 -66.911610678205022 -70.963061485477056 0 0 0 0 1105.9970446957559 -24.559712119703704 0 -24.559712119703704 -231.65095892938689 0 0 0 0 1081.8008991156748 -201.90872579645895 0 -201.90872579645895 -85.868489593441154 0 0 0 0 723.89541868611013 -15.678937002521138 0 -15.678937002521138 -70.627026073966064 0 0 0 0 -1.9424857626599987 -0.11575968456611463 0 -0.11575968456611463 47.59321147382343 0 0 0 0 0.62321127900659512 -0.46277562698039532 0 -0.46277562698039532 0.75448709062739283 0 0 0 0 793.47908504775296 -103.83535645894904 0 -103.83535645894904 -30.69947310958139 0 0 0 0 0.21307837492806492 0.19342237829558329 0 0.19342237829558329 -1.7989692474952301 0 0 0 0 238.85622608338417 -129.16373133135551 0 -129.16373133135551 27.481185116641882 0 0 0 0 162.37128088760346 -95.331867110043049 0 -95.331867110043049 -184.10144152807129 0 0 0 0 184.5808969685786 -121.40862805958585 0 -121.40862805958585 -158.66252805816248 0 0 0 0 35.606588801645557 -74.081425523343569 0 -74.081425523343569 -103.36208150121274 0 0 0 0 103.11524035360344 -149.2644656714067 0 -149.2644656714067 -23.402370216100735 0 0 0 0 -300.44577667897101 -284.09174806896931 0 -284.09174806896931 -139.55015944612842 0 0 0 0 13.649458262473786 -205.91292659836427 0 -205.91292659836427 -354.33225252674038 0 0 0 0 -249.35941282164549 49.691467221991275 0 49.691467221991275 -22.096260611124535 0 0 0 0 -0.56931767806236167 90.431596720070559 0 90.431596720070559 -261.80199371043568 0 0 0 0 25.636385735539079 11.077889535620443 0 11.077889535620443 -22.75184523569817 0 0 0 0 274.63979153754644 113.31076486896274 0 113.31076486896274 -87.446603032700068 0 0 0 0 0.61613652161834453 0.96495294062902914 0 0.96495294062902914 -3.3958901641053405 0 0 0 0 128.18224768125674 137.45351230182655 0 137.45351230182655 32.379123773573156 0 0 0 0 50.411728651537487 64.256799820820504 0 64.256799820820504 56.804599884252639 0 0 0 0 220.34778176767031 43.547527087907042 0 43.547527087907042 -76.22721984633182 0 0 0 0 -0.022222357424514172 0.15381725392230017 0 0.15381725392230017 -0.82006320799493415 0 0 0 0 -23.831465612442116 -44.828860185347509 0 -44.828860185347509 115.95809479436838 0 0 0 0 11.287060431142891 1.8687664986219588 0 1.8687664986219588 -11.544628930677391 0 0 0 0 102.90553391382264 79.973545628403315 0 79.973545628403315 41.346063305300277 0 0 0 0 -0.70660224420415174 0.95443259363787547 0 0.95443259363787547 -3.0379210083233081 0 0 0 0 100.76477593966774 13.519874080676004 0 13.519874080676004 23.696542126383633 0 0 0 0 80.358076406510008 63.512098163713858 0 63.512098163713858 39.687358477085809 0 0 0 0 101.69848223742883 -4.5348583259286102 0 -4.5348583259286102 85.735546659888655 0 0 0 0 82.163935909997235 47.209478755652867 0 47.209478755652867 80.097571604804315 0 0 0 0 105.78188537616279 55.751704284203413 0 55.751704284203413 33.403292191267155 0 0 0 0 62.873469488077717 -2.1753342554886359 0 -2.1753342554886359 -33.996388465185646 0 0 0 0 -7.852663627721995 -152.09420360267814 0 -152.09420360267814 -43.449074015650297 0 0 0 0 75.266444188919195 -108.79331838777659 0 -108.79331838777659 -48.679989433073388 0 0 0 0 89.105633687741431 -143.92538276599748 0 -143.92538276599748 10.312420072710552 0 0 0 0 22.994995066266711 -84.194649886334446 0 -84.194649886334446 89.191069992204064 0 0 0 0 45.099644281317069 -63.600917899189994 0 -63.600917899189994 -18.085794286714076 0 0 0 0 67.834450884854846 -146.72471585710719 0 -146.72471585710719 -96.244841635385001 0 0 0 0 151.05490121879393 -135.45483650715073 0 -135.45483650715073 -109.82550000470246 0 0 0 0 260.82375090885944 -102.68622409679278 0 -102.68622409679278 -223.74469317669713 0 0 0 0 58.989028052557842 -230.51433234301714 0 -230.51433234301714 -205.86357525364065 0 0 0 0 -248.00444752985004 -307.09390501976657 0 -307.09390501976657 -113.89669920565325 0 0 0 0 13.428645377025532 42.706444253641621 0 42.706444253641621 -188.8986286089505 0 0 0 0 -446.80506796634381 -99.282397598655336 0 -99.282397598655336 -12.539379638459877 0 0 0 0 7.2191064375197787 -3.6440398935763127 0 -3.6440398935763127 -4.3815086210776055 0 0 0 0 132.71400826217814 -307.33849304023147 0 -307.33849304023147 -396.37529001593498 0 0 0 0 7.0279044419084737 0.417450604429904 0 0.417450604429904 -0.88203951582818618 0 0 0 0 225.05641185974309 -93.890083295309068 0 -93.890083295309068 -84.138077178071399 0 0 0 0 187.18319775595774 -64.818527575960275 0 -64.818527575960275 -96.583033914425414 0 0 0 0 221.59698763158576 -96.208692603579493 0 -96.208692603579493 -85.529137435596567 0 0 0 0 270.26552879093833 -27.443821998848648 0 -27.443821998848648 -8.047223314938492 0 0 0 0 12.919742234851583 -66.31648251242359 0 -66.31648251242359 -12.51027784668338 0 0 0 0 29.538924492602664 -20.345857096721481 0 -20.345857096721481 -2.0656668804035867 0 0 0 0 56.286444399083848 -6.9160112911859528 0 -6.9160112911859528 4.1820713170368435 0 0 0 0 22.378586165007682 15.487600602703781 0 15.487600602703781 -8.491369141856417 0 0 0 0 70.01567547530567 -12.76774480359532 0 -12.76774480359532 3.657941808257533 0 0 0 0 345.76178133371468 -312.90884307989336 0 -312.90884307989336 -3.3305286155696194 0 0 0 0 147.65424562725093 -248.84781987941074 0 -248.84781987941074 -21.930412991695448 0 0 0 0 17.288463537663663 14.678410638111362 0 14.678410638111362 -13.462745752513763 0 0 0 0 -783.72737123965317 -185.19088753769256 0 -185.19088753769256 248.08393402312413 0 0 0 0 80.037543110433035 -13.485382964683197 0 -13.485382964683197 -8.7018503789620354 0 0 0 0 72.758152699903121 -6.3661692675287611 0 -6.3661692675287611 -24.067143141286124 0 0 0 0 57.994150594548046 -19.031828041488438 0 -19.031828041488438 -9.9459544973974516 0 0 0 0 -218.19288823835768 -216.20468814638878 0 -216.20468814638878 -52.142180479951776 0 0 0 0 47.28138462026709 -15.109267455768531 0 -15.109267455768531 -2.1456222160726384 0 0 0 0 27.180623978553982 -19.929653191639265 0 -19.929653191639265 -2.7166580455612261 0 0 0 0 34.127686596575131 -24.998689243977935 0 -24.998689243977935 -14.955361170657682 0 0 0 0 57.192269443169948 -9.6471707545434811 0 -9.6471707545434811 -5.1823578624466791 0 0 0 0 27.359839501733912 -18.96515495738873 0 -18.96515495738873 -6.5096424230316874 0 0 0 0 39.526672792565478 -15.327364071460011 0 -15.327364071460011 -13.596905076892597 0 0 0 0 -104.62713427780773 -16.518512747251052 0 -16.518512747251052 15.621544145287828 0 0 0 0 -48.687202561901358 -63.975159962490693 0 -63.975159962490693 -33.925220474425828 0 0 0 0 -188.92284935535736 -83.359426565506794 0 -83.359426565506794 -15.529535023597191 0 0 0 0 -205.3364118949396 -152.10262936735327 0 -152.10262936735327 -54.99622276206901 0 0 0 0 -10.03646372062758 -132.19009627396008 0 -132.19009627396008 -75.656681626198633 0 0 0 0 1.1562610731020868 -151.28685746073856 0 -151.28685746073856 -109.45002595097935 0 0 0 0 -11.238730160485829 -126.92802642970233 0 -126.92802642970233 -98.616359723274627 0 0 0 0 586.01060372269603 -137.71105857935129 0 -137.71105857935129 -280.24646830233763 0 0 0 0 629.26822451980115 120.29716015837795 0 120.29716015837795 -238.34538018325543 0 0 0 0 693.42761390095257 126.17644964047685 0 126.17644964047685 -131.48464692364126 0 0 0 0 1094.5032005810963 133.03194247376439 0 133.03194247376439 -264.27652300170894 0 0 0 0 966.46191229073793 105.75411635844156 0 105.75411635844156 -163.48110407236283 0 0 0 0 232.78201424291365 -90.702706621766879 0 -90.702706621766879 -66.09421580846201 0 0 0 0 419.33203322943427 177.92128358094027 0 177.92128358094027 94.614049007657968 0 0 0 0 158.03198814758252 20.39471636770736 0 20.39471636770736 -8.8935460174151331 0 0 0 0 202.57580542506275 -35.606769484792551 0 -35.606769484792551 -95.462778884784882 0 0 0 0 -144.49088410775494 -164.95395998912124 0 -164.95395998912124 -9.7109309643216193 0 0 0 0 193.89595806110128 -62.055327994608945 0 -62.055327994608945 23.42832251701202 0 0 0 0 578.38566465246322 444.94406377269769 0 444.94406377269769 342.99590119371339 0 0 0 0 1427.0772411305397 428.5999055926286 0 428.5999055926286 -222.27050194585757 0 0 0 0 161.12899850287113 -48.400081525797255 0 -48.400081525797255 64.565867052412571 0 0 0 0 541.44572893718521 1097.6527487244696 0 1097.6527487244696 1017.9680519731146 0 0 0 0 1595.7835437062299 765.80819382012658 0 765.80819382012658 -351.64934976976383 0 0 0 0 2493.7542149821529 1185.429700629689 0 1185.429700629689 -173.94356716217632 0 0 0 0 2501.230275089054 486.97007901578206 0 486.97007901578206 -633.25121227747559 0 0 0 0 1065.963989842631 289.31152276708451 0 289.31152276708451 -269.16049681945316 0 0 0 0 1210.7536391078811 -60.522683061934288 0 -60.522683061934288 -229.45779200416163 0 0 0 0 1736.1648862537363 331.20507232702505 0 331.20507232702505 -359.01654823006157 0 0 0 0 1832.2023190364546 154.64465506116031 0 154.64465506116031 -635.35635858087244 0 0 0 0 224.68549469425034 71.096507196653647 0 71.096507196653647 -0.014790664129577635 0 0 0 0 237.17094623864295 70.705681743276273 0 70.705681743276273 -40.337761111249165 0 0 0 0 237.45749145972354 62.638985594810151 0 62.638985594810151 -6.3674430882388151 0 0 0 0 249.68094093186619 70.323063461746074 0 70.323063461746074 -58.898801582205579 0 0 0 0 219.60990659981462 110.07717209507655 0 110.07717209507655 -53.589410365005563 0 0 0 0 227.07067640894275 90.371121536906912 0 90.371121536906912 -29.575832658549075 0 0 0 0 278.45534689944043 132.73919693258426 0 132.73919693258426 7.6833654769484383 0 0 0 0 312.43985973614411 102.92838169910596 0 102.92838169910596 -31.899155580038041 0 0 0 0 227.80947794931444 53.088434324904256 0 53.088434324904256 93.25578171935183 0 0 0 0 263.9573729404367 -8.7357777362836941 0 -8.7357777362836941 47.042096536112922 0 0 0 0 255.44308222175368 18.61667014243568 0 18.61667014243568 -12.204385287471951 0 0 0 0 183.67672984101716 64.713138747623589 0 64.713138747623589 -4.5884137781208665 0 0 0 0 383.95164758373244 85.375273075251926 0 85.375273075251926 -7.6971540291083329 0 0 0 0 270.84643977676376 47.598079034021552 0 47.598079034021552 -31.468241430063017 0 0 0 0 260.56302259207445 6.4185914713843886 0 6.4185914713843886 -16.432843730451395 0 0 0 0 271.80859836363788 13.509513342901528 0 13.509513342901528 -42.938956243049461 0 0 0 0 243.73500130287039 22.390319894526897 0 22.390319894526897 18.140482347786872 0 0 0 0 246.63911110894151 25.035773584711137 0 25.035773584711137 -10.945698867548117 0 0 0 0 242.0874619931285 37.574747186220364 0 37.574747186220364 -31.806220470594781 0 0 0 0 271.11770063134418 27.781465010671525 0 27.781465010671525 -52.869414695283865 0 0 0 0 261.97226480878589 42.283501591435197 0 42.283501591435197 -10.227931287731963 0 0 0 0 349.97036328427475 67.318249221585575 0 67.318249221585575 -17.001577385081646 0 0 0 0 276.72793290725622 14.140561487698392 0 14.140561487698392 -55.167334842223369 0 0 0 0 224.85712610032056 -133.5634645155148 0 -133.5634645155148 5.8521763649940794 0 0 0 0 2.3344565480366057 -0.48708362675782579 0 -0.48708362675782579 -0.83361946349193161 0 0 0 0 294.32356010061767 63.061091728270867 0 63.061091728270867 -156.70560191565437 0 0 0 0 129.31617073868438 144.77671702158148 0 144.77671702158148 -196.74334866294339 0 0 0 0 314.28346967835387 21.633234178137286 0 21.633234178137286 -108.05733438330378 0 0 0 0 257.75605684070706 29.027147018436608 0 29.027147018436608 -52.448219930111762 0 0 0 0 269.01542186797451 5.6991740866981218 0 5.6991740866981218 -4.4089936299596957 0 0 0 0 3.9199003053340533 -0.49570780150737859 0 -0.49570780150737859 -1.0889544766578405 0 0 0 0 64.475447015066493 -62.910618863245418 0 -62.910618863245418 -118.01545940104103 0 0 0 0 -11.483814152632476 30.668065293278914 0 30.668065293278914 -85.829902942531135 0 0 0 0 105.1818498154089 29.450739772824591 0 29.450739772824591 -94.932302140305978 0 0 0 0 25.550360980374307 -57.691809731716063 0 -57.691809731716063 -100.8596109627108 0 0 0 0 142.96353199030364 -63.494248627472416 0 -63.494248627472416 -107.53603427560512 0 0 0 0 116.65849988414857 -94.693818877148601 0 -94.693818877148601 -136.88674293068379 0 0 0 0 218.90191098269315 -51.59044283690082 0 -51.59044283690082 -135.10060446026699 0 0 0 0 186.6116263017766 16.74129609594911 0 16.74129609594911 -119.19904780578122 0 0 0 0 219.6139157756943 31.902698160631218 0 31.902698160631218 -112.23430824732395 0 0 0 0 264.66226755718708 30.209412617573435 0 30.209412617573435 -128.67507206227253 0 0 0 0 327.70660598792711 28.333950418112636 0 28.333950418112636 -129.53935374374009 0 0 0 0 281.78139409734285 69.877344322463159 0 69.877344322463159 -139.34893098479824 0 0 0 0 195.84991493796247 -50.296916341800994 0 -50.296916341800994 -113.70518405079565 0 0 0 0 231.42144835249564 -45.768063055473704 0 -45.768063055473704 -115.88022412877535 0 0 0 0 254.78338384127392 64.062070623573391 0 64.062070623573391 -54.936134590978796 0 0 0 0 267.10169667867422 83.13572542623092 0 83.13572542623092 -99.444885321523543 0 0 0 0 262.25397863062335 89.102546512454865 0 89.102546512454865 -103.45863551246968 0 0 0 0 251.41173788145011 75.024955091966262 0 75.024955091966262 -108.69846934299221 0 0 0 0 198.63877698005945 112.94659564333483 0 112.94659564333483 -118.71647283396351 0 0 0 0 266.17794039287674 96.693048688699946 0 96.693048688699946 -117.0643985594146 0 0 0 0 249.89009650055232 91.215267834097517 0 91.215267834097517 -116.25774283095416 0 0 0 0 305.59526082201774 92.353174045228116 0 92.353174045228116 -119.49432621653182 0 0 0 0 275.69477580099715 112.32937490480549 0 112.32937490480549 -122.58258032666618 0 0 0 0 251.5239792723105 117.13588429185029 0 117.13588429185029 -99.843145195565967 0 0 0 0 278.92331279017071 124.94878480567741 0 124.94878480567741 -102.30380269857778 0 0 0 0 258.19473392620648 94.475090235916241 0 94.475090235916241 -84.937030437227804 0 0 0 0 248.35168571813915 120.44942597562897 0 120.44942597562897 -95.366357204293308 0 0 0 0 242.40483800729766 117.52122029102108 0 117.52122029102108 -96.578569636125394 0 0 0 0 289.65895402072874 151.97387474045627 0 151.97387474045627 -97.815941664738602 0 0 0 0 242.70074941045709 134.10789150644575 0 134.10789150644575 -100.98236253720643 0 0 0 0 327.36698730551052 128.80374812969603 0 128.80374812969603 -119.25806691743492 0 0 0 0 339.45306123266369 77.330117733465784 0 77.330117733465784 -146.30839719928281 0 0 0 0 398.44721630214508 94.625543125820798 0 94.625543125820798 -177.41668616000425 0 0 0 0 385.08300823655736 183.02262335353953 0 183.02262335353953 -106.34970931414136 0 0 0 0 295.00632729107565 136.92759613358385 0 136.92759613358385 -120.32209673678608 0 0 0 0 297.97802880093286 182.54109539624528 0 182.54109539624528 -78.493004576828753 0 0 0 0 311.97128415568659 159.11327406470582 0 159.11327406470582 -97.261176327923749 0 0 0 0 401.88680335041317 257.33077628954334 0 257.33077628954334 -68.622111935143039 0 0 0 0 387.32843336624865 226.45189239333467 0 226.45189239333467 -84.634768114974122 0 0 0 0 149.79052882592623 165.11110754772562 0 165.11110754772562 -21.847476351881596 0 0 0 0 185.53229814649421 97.226106489562426 0 97.226106489562426 -86.72380021322806 0 0 0 0 153.16152853632775 82.745609445517402 0 82.745609445517402 -78.793377001506997 0 0 0 0 232.89778089229662 119.89983116525195 0 119.89983116525195 -104.20922189871362 0 0 0 0 214.22571148042425 145.62782110147145 0 145.62782110147145 -79.038952420887199 0 0 0 0 248.31117793206795 -102.13117819214222 0 -102.13117819214222 -103.12200068903849 0 0 0 0 334.92143863870479 -124.29849698600538 0 -124.29849698600538 -104.24773030511446 0 0 0 0 320.54927578668867 -64.374658642845588 0 -64.374658642845588 -117.54038839456962 0 0 0 0 281.67309612322606 -3.45511591720242 0 -3.45511591720242 -141.14909617158537 0 0 0 0 375.59330905821207 -10.345165881408775 0 -10.345165881408775 -152.15953913536532 0 0 0 0 374.76981034958408 80.123110731387897 0 80.123110731387897 -159.04640172275776 0 0 0 0 611.27984369172964 -119.17438263494842 0 -119.17438263494842 -336.53641276622511 0 0 0 0 474.78227711139652 18.966379264183161 0 18.966379264183161 -249.86097954130037 0 0 0 0 547.84979667372954 129.08217527911711 0 129.08217527911711 -176.88481340969884 0 0 0 0 850.93810942647542 115.4150631509392 0 115.4150631509392 -225.54445371961356 0 0 0 0 480.92095835687633 -14.94169062785295 0 -14.94169062785295 -168.20160291001775 0 0 0 0 529.39428050001698 -161.89387656790132 0 -161.89387656790132 -162.68353739449458 0 0 0 0 363.40838474325074 -123.99374241497821 0 -123.99374241497821 -145.11620842146931 0 0 0 0 618.68149917739561 -1254.2927156394926 0 -1254.2927156394926 361.77861015582221 0 0 0 0 2102.1983867382196 75.951328343211571 0 75.951328343211571 -311.34191882535697 0 0 0 0 573.39901353537698 437.04286319060498 0 437.04286319060498 40.974151924305261 0 0 0 0 742.30700242716375 638.19322138409177 0 638.19322138409177 210.55648566022319 0 0 0 0 678.53532843060066 430.97170211803405 0 430.97170211803405 38.962338543731676 0 0 0 0 27.871625363269242 -2.2644819575951978 0 -2.2644819575951978 -0.18703669744090634 0 0 0 0 -334.90391719982836 -1383.8560029967798 0 -1383.8560029967798 669.23728218613087 0 0 0 0 1523.875160014082 -1032.2259587309968 0 -1032.2259587309968 -115.14522721270168 0 0 0 0 413.20374193377575 470.45813525613357 0 470.45813525613357 332.2581588570074 0 0 0 0 76.866022251760114 -6.9247007894944659 0 -6.9247007894944659 -44.481609783240572 0 0 0 0 16.844073624502194 11.380358896708856 0 11.380358896708856 -32.354419161331563 0 0 0 0 -124.99189478981134 1556.211063300517 0 1556.211063300517 728.69623966963718 0 0 0 0 42.739777924726695 10.214861685545884 0 10.214861685545884 -163.45370543896297 0 0 0 0 97.44550963979782 63.335448929247377 0 63.335448929247377 -230.40925746905941 0 0 0 0 128.18547010582404 -6.8552802444576741 0 -6.8552802444576741 -160.41694167286551 0 0 0 0 112.42319065092499 82.299000962052958 0 82.299000962052958 -65.707779539870899 0 0 0 0 79.262611950002793 -4.2393988126987097 0 -4.2393988126987097 -164.28405435093009 0 0 0 0 263.23475460063082 296.69236816682132 0 296.69236816682132 74.079980027896454 0 0 0 0 45.974723419413749 97.536329210298845 0 97.536329210298845 37.482941973779816 0 0 0 0 179.95403377307957 146.0101760245625 0 146.0101760245625 -50.889064004275497 0 0 0 0 40.565971446387266 164.26742026609281 0 164.26742026609281 62.617777297362522 0 0 0 0 351.94199925237808 286.01355449099538 0 286.01355449099538 24.83091565634038 0 0 0 0 -153.08162363055726 116.50148161423749 0 116.50148161423749 163.36718483996034 0 0 0 0 68.584655045919135 330.78392254866048 0 330.78392254866048 280.99706856468492 0 0 0 0 281.5541921415238 371.15663949816781 0 371.15663949816781 164.69619393775793 0 0 0 0 -138.92094093932792 -123.72345801273059 0 -123.72345801273059 -57.742511502598518 0 0 0 0 99.00170031606649 122.69877587879819 0 122.69877587879819 10.835236400642316 0 0 0 0 -458.18985916122847 -740.18253410150476 0 -740.18253410150476 1053.7974094005922 0 0 0 0 4.3473255501152082 -9.5660257509273645 0 -9.5660257509273645 22.836439793467335 0 0 0 0 -6457.706630253233 -966.82328931743905 0 -966.82328931743905 2446.4590765427711 0 0 0 0 125.99511147020576 -67.860007215544101 0 -67.860007215544101 -414.95256356591108 0 0 0 0 4559.3935250971954 1719.1420375637936 0 1719.1420375637936 -218.44556334570188 0 0 0 0 50.352324400060603 3.8959380491577527 0 3.8959380491577527 -0.38533775179704266 0 0 0 0 935.43899336013055 -642.43399765657205 0 -642.43399765657205 -481.65256387141562 0 0 0 0 35.918352991953604 4.5262328993772023 0 4.5262328993772023 -0.027811022676798913 0 0 0 0 245.29330449941244 287.27180443251041 0 287.27180443251041 -554.8933852019436 0 0 0 0 132.81100658236301 -145.5247265528792 0 -145.5247265528792 -101.90294925539092 0 0 0 0 282.30359777855631 -121.84661884168716 0 -121.84661884168716 -236.74862205844602 0 0 0 0 278.41599959092082 -155.73833128065448 0 -155.73833128065448 -458.29798789554161 0 0 0 0 193.84274208057445 39.235840365399554 0 39.235840365399554 -145.28442754955631 0 0 0 0 198.32947623016025 50.164094135865071 0 50.164094135865071 -120.02711645784484 0 0 0 0 250.79943729552042 19.915102336673044 0 19.915102336673044 -307.26650529683548 0 0 0 0 331.3875213793026 87.108893038904171 0 87.108893038904171 -475.64407481467242 0 0 0 0 292.69063152599369 96.42838932882546 0 96.42838932882546 -177.17345747181116 0 0 0 0 228.28535801620748 137.60952047972711 0 137.60952047972711 -97.869712365609757 0 0 0 0 232.30708358131733 83.531367865984748 0 83.531367865984748 -155.59612900594357 0 0 0 0 210.52470863102508 115.04811143457391 0 115.04811143457391 -89.375745512737922 0 0 0 0 241.68216267284151 103.30094843285724 0 103.30094843285724 -143.05507879300495 0 0 0 0 323.01886276996777 236.31521412390703 0 236.31521412390703 -2.9329616210130212 0 0 0 0 232.88831193678033 88.973342558440265 0 88.973342558440265 -33.972698806742301 0 0 0 0 321.67109373781 218.78919545470512 0 218.78919545470512 -229.54758055732145 0 0 0 0 -1.4153315845346004 2.8171221818782506 0 2.8171221818782506 -6.9994458226758205 0 0 0 0 23.623076449263863 -141.26794050112312 0 -141.26794050112312 -578.90759107409258 0 0 0 0 363.69914012524669 326.73562354100932 0 326.73562354100932 -590.86000132468735 0 0 0 0 545.53733464602328 661.57177175535071 0 661.57177175535071 -117.72555226223903 0 0 0 0 455.81786490427402 -524.65788464777575 0 -524.65788464777575 147.13887769402663 0 0 0 0 12.48083286512664 2.7396600324736653 0 2.7396600324736653 0.67223706351844381 0 0 0 0 -10.356107322109438 336.86548595128579 0 336.86548595128579 618.68854850203911 0 0 0 0 -52.948927525127601 151.4307419221002 0 151.4307419221002 -142.49527151239636 0 0 0 0 39.871238158716551 24.99198008264193 0 24.99198008264193 -193.3496213233675 0 0 0 0 30.776205870630747 182.83205622378546 0 182.83205622378546 -262.49097599030392 0 0 0 0 47.929518220537886 214.8182693077141 0 214.8182693077141 -224.80347824677028 0 0 0 0 58.279039959190413 296.43232206955417 0 296.43232206955417 -53.090363601043464 0 0 0 0 26.669758873428236 -112.87578707502371 0 -112.87578707502371 -704.71697419180236 0 0 0 0 67.685334496120959 156.38818913907653 0 156.38818913907653 -419.80233406446723 0 0 0 0 69.862898433335886 101.15309981852943 0 101.15309981852943 -378.76475644525954 0 0 0 0 132.54697126003839 276.3774629776874 0 276.3774629776874 -176.87099713683892 0 0 0 0 32.247668051563778 99.410205757513722 0 99.410205757513722 -71.069433836078588 0 0 0 0 6.4768004026674362 138.06097387139346 0 138.06097387139346 -6.0932057750997046 0 0 0 0 91.573858534058672 217.81539455177062 0 217.81539455177062 142.92573529958281 0 0 0 0 64.27916832329629 105.81279942067931 0 105.81279942067931 -186.25447171267047 0 0 0 0 89.358769184435232 54.849711654381281 0 54.849711654381281 -95.678426482950272 0 0 0 0 16.39523010795665 19.617791003295679 0 19.617791003295679 -88.785651770346249 0 0 0 0 241.00141842766598 -33.565296385373586 0 -33.565296385373586 -7.6879205404461572 0 0 0 0 -2.3826918274183715 11.592903666268484 0 11.592903666268484 -15.968840521258509 0 0 0 0 84.307965545587422 132.71059768392524 0 132.71059768392524 155.26105282530568 0 0 0 0 1.5074427324412003 2.9833823934923367 0 2.9833823934923367 -2.7431917295441908 0 0 0 0 38.097481999335287 39.815206781516508 0 39.815206781516508 -7.9161575944109472 0 0 0 0 1.7145581426241847 20.687097014109497 0 20.687097014109497 41.795098930411314 0 0 0 0 19.415149948836969 19.55352110242983 0 19.55352110242983 0.13485631823743738 0 0 0 0 -14.120084402788196 15.263489100230386 0 15.263489100230386 0.38408488630386906 0 0 0 0 15.928548491344145 30.796820918711774 0 30.796820918711774 -13.100338071391889 0 0 0 0 21.767692864261971 22.046130443563708 0 22.046130443563708 4.9366660802940494 0 0 0 0 27.493687331925912 35.69659861408536 0 35.69659861408536 -1.2745078785355872 0 0 0 0 22.196834131545074 26.614822789219033 0 26.614822789219033 -15.941702926374944 0 0 0 0 42.364542672402422 -6.8603336408577889 0 -6.8603336408577889 107.73886127263904 0 0 0 0 -14.066815465916079 62.955545826067009 0 62.955545826067009 197.16354565478832 0 0 0 0 34.209835354601502 16.116756468144541 0 16.116756468144541 -14.090862035677787 0 0 0 0 17.080832879029913 23.71033628929149 0 23.71033628929149 -0.71658818293190052 0 0 0 0 22.892901824003275 28.111781897198398 0 28.111781897198398 -27.003567892792489 0 0 0 0 80.936198225013868 28.539341867804069 0 28.539341867804069 89.197126641106536 0 0 0 0 26.809415108459106 31.062078552897823 0 31.062078552897823 4.4480262743737438 0 0 0 0 44.608040007688942 42.18833782130514 0 42.18833782130514 3.4663950157832915 0 0 0 0 384.60799092305024 -173.98648662613596 0 -173.98648662613596 49.244549647231452 0 0 0 0 172.31932742989466 -279.04467135436198 0 -279.04467135436198 270.69224410883362 0 0 0 0 404.15440153909731 -374.86413233676603 0 -374.86413233676603 163.64259454888884 0 0 0 0 481.01650761112251 -259.41086263198088 0 -259.41086263198088 266.81931030532451 0 0 0 0 390.43690829450497 -403.19811876636925 0 -403.19811876636925 282.87005395753386 0 0 0 0 315.05476151380208 -653.77600740436446 0 -653.77600740436446 123.36994736644408 0 0 0 0 197.89678989069762 -140.94409404695318 0 -140.94409404695318 287.53910371962911 0 0 0 0 23.044513149779618 7.8041446984541594 0 7.8041446984541594 0.68152541449569726 0 0 0 0 628.03635832697182 -171.88272814813126 0 -171.88272814813126 -6.3617486055184145 0 0 0 0 32.796061669401638 99.845754375832342 0 99.845754375832342 14.565400304740322 0 0 0 0 61.31665996130846 70.377138924270639 0 70.377138924270639 -3.0977217149078342 0 0 0 0 53.485032471708713 51.823313932243437 0 51.823313932243437 6.1059137429636134 0 0 0 0 168.2606794355022 51.158174616632209 0 51.158174616632209 -9.3763820394404576 0 0 0 0 153.26076632617423 77.342406365357832 0 77.342406365357832 -7.0223838388421918 0 0 0 0 113.09053538796451 120.56400416538258 0 120.56400416538258 18.697193500508092 0 0 0 0 41.954911332600432 99.687672176705746 0 99.687672176705746 61.200544927778537 0 0 0 0 -10.681483610197006 41.162756493609436 0 41.162756493609436 27.639959302739044 0 0 0 0 3.0887133959469626 24.70374065730558 0 24.70374065730558 -7.4899943962602951 0 0 0 0 8.4247406381764449 42.246752972366721 0 42.246752972366721 19.840965263683302 0 0 0 0 2789.4324248390549 129.57698816145967 0 129.57698816145967 -83.424165261189046 0 0 0 0 1762.444776991164 -90.302111881938572 0 -90.302111881938572 -61.042622564739759 0 0 0 0 11.345334318509753 12.811539562040558 0 12.811539562040558 13.396517791627078 0 0 0 0 15.843908944967929 0.90935371622242034 0 0.90935371622242034 4.9084869385650194 0 0 0 0 45.825353712607466 -4.1677227673287689 0 -4.1677227673287689 -1.7041680264112529 0 0 0 0 -56.967138845318914 -22.475666028366959 0 -22.475666028366959 118.14495942640451 0 0 0 0 102.60015231710349 9.8034038892308217 0 9.8034038892308217 -1.6722569083890448 0 0 0 0 4.6527922553295156 -0.24296709546024431 0 -0.24296709546024431 -0.87546217874584187 0 0 0 0 42.450049774368381 -57.365013142286898 0 -57.365013142286898 63.836062011832837 0 0 0 0 4.8954446851019675 5.1243365480315575 0 5.1243365480315575 3.8689411306791328 0 0 0 0 84.95091662991581 53.825461969197647 0 53.825461969197647 20.794663883912108 0 0 0 0 -36.432519043773937 -21.478200269439412 0 -21.478200269439412 307.46242014285554 0 0 0 0 2951.9792683287451 -311.03906527789013 0 -311.03906527789013 -53.609918283475508 0 0 0 0 1670.3253759083145 171.54729851217257 0 171.54729851217257 452.00677662485168 0 0 0 0 1142.5971425119569 -69.781799713515625 0 -69.781799713515625 340.02409168481779 0 0 0 0 898.02519295433012 -434.10645743750774 0 -434.10645743750774 284.86742523692828 0 0 0 0 595.23809521035218 -199.48987480041876 0 -199.48987480041876 308.01916706815518 0 0 0 0 685.17656701387386 -448.2763214274263 0 -448.2763214274263 282.47226821808499 0 0 0 0 1243.985842721213 -507.32754685172631 0 -507.32754685172631 177.83405468362616 0 0 0 0 304.16778991679894 -301.03681675299595 0 -301.03681675299595 469.93493465625306 0 0 0 0 814.42788524679781 -238.65133710042301 0 -238.65133710042301 266.96803438644332 0 0 0 0 1954.4335787215859 -248.48952672938003 0 -248.48952672938003 68.312373018662242 0 0 0 0 1838.9792390063994 -417.99905491844208 0 -417.99905491844208 -6.103140714240908 0 0 0 0 1205.7358985213395 -623.25839257842836 0 -623.25839257842836 97.487881567411023 0 0 0 0 1818.8034401254408 -375.34578786091697 0 -375.34578786091697 5.5320152538133698 0 0 0 0 1952.0047583194046 -626.27807232469604 0 -626.27807232469604 -135.3969457898238 0 0 0 0 2083.1506962047688 -560.79428340105744 0 -560.79428340105744 -104.99962333662006 0 0 0 0 2871.393512789592 -963.14545071120369 0 -963.14545071120369 45.55342228990412 0 0 0 0 2099.4453210779438 -840.65651764881727 0 -840.65651764881727 89.023178826817457 0 0 0 0 640.27626821321974 -914.56742826531172 0 -914.56742826531172 880.14280751144179 0 0 0 0 400.57741615902887 -133.61438723692663 0 -133.61438723692663 -64.247999783845444 0 0 0 0 785.80783174020689 -567.27679416735191 0 -567.27679416735191 395.97748192856488 0 0 0 0 242.75486395120606 -109.80795213943929 0 -109.80795213943929 350.91593609074243 0 0 0 0 109.99541256534212 60.826093931176729 0 60.826093931176729 15.363099608275206 0 0 0 0 53.729600603831528 4.7324019251374487 0 4.7324019251374487 -7.5047124868969117 0 0 0 0 21.097135008001437 -0.93788258510734934 0 -0.93788258510734934 0.84642641263281249 0 0 0 0 1745.9646735383249 -1581.8786527574748 0 -1581.8786527574748 1254.4998811475944 0 0 0 0 724.86539885233105 856.49836813368256 0 856.49836813368256 755.35493268095593 0 0 0 0 1017.1221902915731 336.50921925971011 0 336.50921925971011 1200.7602787011701 0 0 0 0 2147.4081221108509 -1263.7491242400724 0 -1263.7491242400724 282.3944449870628 0 0 0 0 2863.3726224075672 -875.32762480022211 0 -875.32762480022211 -825.93254193126631 0 0 0 0 8.8791081955936182 12.032795574266947 0 12.032795574266947 24.55615428944423 0 0 0 0 2.6443926197472933 2.547355500379572 0 2.547355500379572 6.6653665201482202 0 0 0 0 13.991895478975493 3.9812708543884128 0 3.9812708543884128 18.476685596750031 0 0 0 0 -11.810621408139923 1.2590229905018759 0 1.2590229905018759 25.551910702536247 0 0 0 0 21.063391367471922 -14.691407831314365 0 -14.691407831314365 15.654822176128846 0 0 0 0 -3.1238859506074732 -18.107237897511055 0 -18.107237897511055 23.698945119637301 0 0 0 0 1279.2601367791158 -817.21979911206358 0 -817.21979911206358 -136.02981524618372 0 0 0 0 9.128376313212808 17.121040270411719 0 17.121040270411719 32.15334169030541 0 0 0 0 1215.1879598531468 -724.05312526780745 0 -724.05312526780745 5.3791383087818758 0 0 0 0 1095.1764616937162 -839.4027306264652 0 -839.4027306264652 -66.392682233017695 0 0 0 0 1205.5969641121565 -912.40068820589522 0 -912.40068820589522 -223.62145665299704 0 0 0 0 579.81005726902458 427.37983838261607 0 427.37983838261607 220.41409494757318 0 0 0 0 110.96609614018416 -32.454412535684241 0 -32.454412535684241 320.35053542438982 0 0 0 0 2635.9623939570238 242.99644737979861 0 242.99644737979861 -165.06663988472246 0 0 0 0 749.29893134008125 -128.59082745414617 0 -128.59082745414617 -161.06526011780397 0 0 0 0 1418.7925276357337 -252.96700337922584 0 -252.96700337922584 -276.06870540412956 0 0 0 0 215.36092185360394 105.63125295043869 0 105.63125295043869 -38.597726249716288 0 0 0 0 88.688839590109865 193.08254592554067 0 193.08254592554067 -22.924834841245683 0 0 0 0 407.13114825583943 253.79857205851522 0 253.79857205851522 -497.92021050845506 0 0 0 0 -72.736167911130451 8.9735147813321419 0 8.9735147813321419 -482.0984077300659 0 0 0 0 282.2491618277856 -356.46021742833642 0 -356.46021742833642 -199.90129372494539 0 0 0 0 58.106964205348547 -8.2374125260708801 0 -8.2374125260708801 -2.1917874337516805 0 0 0 0 340.10697347289897 -179.95826296584937 0 -179.95826296584937 -1345.0365685285542 0 0 0 0 -31.773181762183185 -143.21567463455301 0 -143.21567463455301 -615.70872889110342 0 0 0 0 1954.1221950045187 -545.67997349183861 0 -545.67997349183861 -486.82142438633764 0 0 0 0 1289.2652659364321 590.35857592623233 0 590.35857592623233 865.72428571676937 0 0 0 0 883.16584629028398 -1180.2518760242572 0 -1180.2518760242572 -710.31463741199786 0 0 0 0 24.447317480809172 -2.324214535120861 0 -2.324214535120861 -1.0918915446286004 0 0 0 0 1823.728921958196 1245.2581844609176 0 1245.2581844609176 359.41654701594416 0 0 0 0 2825.8044108078184 -20.036391925338194 0 -20.036391925338194 -891.78457381516819 0 0 0 0 2116.1616497147998 -1011.4266268545778 0 -1011.4266268545778 -422.89355449791401 0 0 0 0 75.534077475431332 -7.9356589312493782 0 -7.9356589312493782 1.2874479843958397 0 0 0 0 100.22954648006726 3.1959327532366579 0 3.1959327532366579 -5.0033397100215922 0 0 0 0 11.678293567593133 20.690011819782974 0 20.690011819782974 30.277308634937299 0 0 0 0 18.063999457842328 80.23046739200889 0 80.23046739200889 9.6083415204738003 0 0 0 0 114.47092378727393 4.4999736249652074 0 4.4999736249652074 -7.5896388709339817 0 0 0 0 59.619110565344727 -7.3343521645767922 0 -7.3343521645767922 -3.3894667674076686 0 0 0 0 76.865323103760602 -10.189806439921689 0 -10.189806439921689 -0.53016388169716866 0 0 0 0 19.044979127716942 -27.639199730170105 0 -27.639199730170105 8.4817331996991641 0 0 0 0 104.9386797442985 6.3693445856825974 0 6.3693445856825974 21.125498261470113 0 0 0 0 77.838976292221105 -38.171729703050744 0 -38.171729703050744 43.443849963121352 0 0 0 0 59.385770889647574 2.2822850220949249 0 2.2822850220949249 -2.2221610178116862 0 0 0 0 55.695327270118469 14.416354522348684 0 14.416354522348684 63.700451692830029 0 0 0 0 100.59319257889865 9.2098243465514429 0 9.2098243465514429 156.52335670897901 0 0 0 0 146.73911663678518 89.984545476496123 0 89.984545476496123 79.289251566181974 0 0 0 0 0.63438047056043345 1.2820882242532647 0 1.2820882242532647 1.7797173862617939 0 0 0 0 -84.14734141995541 26.476418920157244 0 26.476418920157244 154.25939345516065 0 0 0 0 186.74022105571203 76.434077398705597 0 76.434077398705597 -27.231354658698024 0 0 0 0 170.14764572594868 -55.331117609854687 0 -55.331117609854687 49.009888761903881 0 0 0 0 62.148827038432046 19.014765405016306 0 19.014765405016306 -42.875869464745278 0 0 0 0 61.326435519289134 1.1486245829203199 0 1.1486245829203199 -27.587962077653629 0 0 0 0 53.753365265518823 2.481644825857984 0 2.481644825857984 -9.9061426419107974 0 0 0 0 56.294343057907781 -0.13392470987810157 0 -0.13392470987810157 -13.389844304266944 0 0 0 0 68.397837746641471 7.2527038637325631 0 7.2527038637325631 -14.578305858652868 0 0 0 0 51.281837643303561 21.577471321604889 0 21.577471321604889 -7.4847423638807413 0 0 0 0 56.500842913505153 10.01179132310466 0 10.01179132310466 9.9384095807217818 0 0 0 0 91.154136310327885 1.4178656800794442 0 1.4178656800794442 -5.6170847443324874 0 0 0 0 68.340301175127934 7.0623479086771113 0 7.0623479086771113 0.90012636664269507 0 0 0 0 3.708275303209307 -11.362677728107798 0 -11.362677728107798 7.0362695383004077 0 0 0 0 3.1860357383054425 -10.8197138381994 0 -10.8197138381994 6.096166712813778 0 0 0 0 -24.753011792566213 -29.165251603303432 0 -29.165251603303432 36.393340785065334 0 0 0 0 53.881270602548739 24.127446741800213 0 24.127446741800213 2.0685308717028192 0 0 0 0 48.312085162959193 25.684674378237673 0 25.684674378237673 12.918685251093166 0 0 0 0 8.3635196868499406 20.513675150735935 0 20.513675150735935 12.251443293500984 0 0 0 0 26.939067476431092 52.654878593201829 0 52.654878593201829 -20.445341299544111 0 0 0 0 30.926338495951768 40.107583465180824 0 40.107583465180824 17.56073580972236 0 0 0 0 19.38079446524921 38.946671511328645 0 38.946671511328645 41.424631411498467 0 0 0 0 11.832402924009784 12.489781786383105 0 12.489781786383105 33.990070458006358 0 0 0 0 -2.1264903530245647 -6.8198336621960607 0 -6.8198336621960607 -2.9963414368939993 0 0 0 0 -2.0050210257345498 5.4699422724422675 0 5.4699422724422675 58.590769986103169 0 0 0 0 3.4802530760230588 -10.185121031485011 0 -10.185121031485011 4.5551972337723328 0 0 0 0 -3.5884167463691483 14.681952769824647 0 14.681952769824647 27.954552867039183 0 0 0 0 -13.934243440496402 10.941308588793419 0 10.941308588793419 41.845715111777054 0 0 0 0 70.488672994513763 20.413468068411248 0 20.413468068411248 3.3289499413695012 0 0 0 0 71.570492910364919 40.979543769436077 0 40.979543769436077 15.963654265751757 0 0 0 0 90.625256162068581 20.329227988133425 0 20.329227988133425 6.2374152797268607 0 0 0 0 0.67488378166956231 -10.858841872764296 0 -10.858841872764296 1.633243451861091 0 0 0 0 -25.162236857112248 -24.981923028364974 0 -24.981923028364974 30.652941456078224 0 0 0 0 50.113369757011242 21.040895194841596 0 21.040895194841596 7.2595581692594351 0 0 0 0 -8.8002896849066019 -17.458256017388294 0 -17.458256017388294 20.433301825005401 0 0 0 0 5.6963323558693446 -57.208264900261383 0 -57.208264900261383 6.505487144763606 0 0 0 0 6.2664174921569611 -52.536129717607309 0 -52.536129717607309 41.676891305685331 0 0 0 0 3.9644279143001313 -12.704355612063637 0 -12.704355612063637 84.983135033502549 0 0 0 0 2.1651705318590757 -24.120189249487794 0 -24.120189249487794 22.863044243581498 0 0 0 0 5.9950233854688122 -51.820780904282856 0 -51.820780904282856 40.862352530012686 0 0 0 0 -18.896151665117031 50.33523798157637 0 50.33523798157637 24.067735342339802 0 0 0 0 -0.53140747863504956 -0.047488934813479489 0 -0.047488934813479489 0.89133187328672747 0 0 0 0 48.540180716507166 -14.451376742842513 0 -14.451376742842513 -18.793539461361433 0 0 0 0 3.3000915957649664 2.6862435307263475 0 2.6862435307263475 5.8609768648424003 0 0 0 0 43.772537228069268 -10.438445344536262 0 -10.438445344536262 5.4637639567959013 0 0 0 0 42.062824463318975 -6.3551660915054526 0 -6.3551660915054526 -4.2706726158194215 0 0 0 0 51.902408857667979 -39.274694438163237 0 -39.274694438163237 30.373248505168476 0 0 0 0 192.6264124877207 27.272039174305633 0 27.272039174305633 27.396931094083811 0 0 0 0 77.377568397649156 -20.183077123423573 0 -20.183077123423573 7.9444886901553673 0 0 0 0 148.06065728047543 70.453153071649467 0 70.453153071649467 46.757282847697297 0 0 0 0 116.92217937995474 89.525045753161464 0 89.525045753161464 35.143267538645432 0 0 0 0 142.53580951905326 23.217875743658475 0 23.217875743658475 29.57210287348812 0 0 0 0 80.392641836557232 55.208708095730799 0 55.208708095730799 61.192756430231157 0 0 0 0 222.69475169545194 20.221917386094447 0 20.221917386094447 -5.7546062386500125 0 0 0 0 80.701700739643456 12.528012095696113 0 12.528012095696113 -5.9615412140499586 0 0 0 0 98.218546281815179 37.015752563540445 0 37.015752563540445 -10.300136217790168 0 0 0 0 90.422068883611246 24.270294136219945 0 24.270294136219945 -20.925615622722944 0 0 0 0 66.902284867149163 18.160465551855065 0 18.160465551855065 -18.465301192253811 0 0 0 0 53.757027858198853 97.425783416751074 0 97.425783416751074 -16.868144901462074 0 0 0 0 39.434132340642464 15.840455361307704 0 15.840455361307704 -24.046735832626553 0 0 0 0 98.377897375219618 3.7351885897453485 0 3.7351885897453485 -28.680583811598808 0 0 0 0 13.820527513978629 2.8248015741982329 0 2.8248015741982329 -4.6837356245559576 0 0 0 0 2.6297693560227344 2.9927481335171251 0 2.9927481335171251 30.500694206308935 0 0 0 0 13.031438488771776 1.1067700752403939 0 1.1067700752403939 10.8828651172593 0 0 0 0 40.536526773827063 9.2062720082392389 0 9.2062720082392389 12.926864349330117 0 0 0 0 54.962148888243973 95.431515171281717 0 95.431515171281717 -29.80982115923689 0 0 0 0 -85.609471311301604 41.554566170378166 0 41.554566170378166 77.757857580613745 0 0 0 0 27.829786947117348 39.087315967858473 0 39.087315967858473 55.278173706059015 0 0 0 0 -10.23682792125328 86.280509284584696 0 86.280509284584696 -26.649739510285144 0 0 0 0 17.812536496007887 30.047875234375777 0 30.047875234375777 45.873879482438177 0 0 0 0 -170.91111406395612 247.91777999203032 0 247.91777999203032 -88.274339626939764 0 0 0 0 25.065493959533342 222.27084533982224 0 222.27084533982224 -164.73541211233351 0 0 0 0 87.136796555743786 102.43220164883314 0 102.43220164883314 -135.06497248497271 0 0 0 0 110.62266899359201 131.60775770214241 0 131.60775770214241 -112.55446700591528 0 0 0 0 43.188727124696015 142.51757566790184 0 142.51757566790184 -95.421696053283085 0 0 0 0 90.707060429384001 78.513915352947151 0 78.513915352947151 -30.561780260403793 0 0 0 0 116.44075314477232 63.800761206152856 0 63.800761206152856 -112.89669242800301 0 0 0 0 127.5973800356187 11.503784712724155 0 11.503784712724155 -120.82669965302557 0 0 0 0 158.90968259037254 23.972208509905613 0 23.972208509905613 -210.35781663600937 0 0 0 0 80.105076918247278 9.2112028377484965 0 9.2112028377484965 -23.464792198067936 0 0 0 0 161.45513482054957 37.347301950585461 0 37.347301950585461 -110.12900305958465 0 0 0 0 155.49921376619011 -85.712260262311815 0 -85.712260262311815 36.554064366297098 0 0 0 0 207.44107012921813 62.82416980904236 0 62.82416980904236 -114.09915597446889 0 0 0 0 149.97228392764373 37.681332049591219 0 37.681332049591219 -90.005160841295947 0 0 0 0 255.19722111319425 -21.839457875366406 0 -21.839457875366406 -66.822333885065746 0 0 0 0 203.03893964077542 72.511417557378081 0 72.511417557378081 -109.26794272736879 0 0 0 0 397.17721795033685 53.615437126288271 0 53.615437126288271 -132.91159560386222 0 0 0 0 219.2229872353746 -105.46568849593132 0 -105.46568849593132 -23.114249178295722 0 0 0 0 280.92946648494399 -40.263479569677656 0 -40.263479569677656 -91.753848453150567 0 0 0 0 198.92926070800604 -106.2672391232627 0 -106.2672391232627 -22.699695482377138 0 0 0 0 323.66852646411644 -192.11588930202015 0 -192.11588930202015 -15.330438985158253 0 0 0 0 320.48509635365917 -62.622545251826523 0 -62.622545251826523 -82.232530705936369 0 0 0 0 456.75739320201683 -39.077050101584973 0 -39.077050101584973 -79.709080449903013 0 0 0 0 536.59580759674463 141.21184738908778 0 141.21184738908778 -52.648164766414993 0 0 0 0 431.35493633601436 -53.166250064748965 0 -53.166250064748965 -18.533292674783297 0 0 0 0 466.02074862887093 92.083553245840449 0 92.083553245840449 23.627069445235975 0 0 0 0 287.86062631817185 78.081167263386305 0 78.081167263386305 -63.117972463634942 0 0 0 0 339.99177172332566 206.14187976725225 0 206.14187976725225 -110.38498273823643 0 0 0 0 191.1260004965734 136.8404732448289 0 136.8404732448289 -10.08006034085156 0 0 0 0 73.44151034137758 244.17136853709781 0 244.17136853709781 119.83581519662039 0 0 0 0 47.003087787197728 168.72085362449934 0 168.72085362449934 -94.697748521746689 0 0 0 0 -267.3586722506443 243.23302462954507 0 243.23302462954507 7.6295063652032695 0 0 0 0 28.574728271876666 137.55953775162061 0 137.55953775162061 -127.50508198884745 0 0 0 0 264.05087113507034 124.58199980655263 0 124.58199980655263 -143.86915481617143 0 0 0 0 43.553471685409022 170.42246687757097 0 170.42246687757097 -79.86104491797596 0 0 0 0 78.978393375180531 -5.2319473458934915 0 -5.2319473458934915 -10.879790930154684 0 0 0 0 26.652085882454685 -118.91939026391333 0 -118.91939026391333 -139.68642999141321 0 0 0 0 20.228293239038521 -81.985154484604209 0 -81.985154484604209 -125.53277397258626 0 0 0 0 19.458885076762726 -113.91471015253592 0 -113.91471015253592 -105.65594539135964 0 0 0 0 8.4047897636207836 -108.41418525933295 0 -108.41418525933295 -58.063893347183694 0 0 0 0 1.8833466226661244 -92.63254882254212 0 -92.63254882254212 -1.7269636931860077 0 0 0 0 12.151493394110275 -65.376834788091401 0 -65.376834788091401 -41.643245288320031 0 0 0 0 19.4459801373294 -92.999899031359519 0 -92.999899031359519 -73.756000464685712 0 0 0 0 51.305246042791168 -49.419171459800964 0 -49.419171459800964 -14.352872929418481 0 0 0 0 69.573869991959995 -8.7664342737551664 0 -8.7664342737551664 -13.4301751634064 0 0 0 0 75.91322029938965 7.8932857297741066 0 7.8932857297741066 -0.31020613295459043 0 0 0 0 159.58786879480203 10.204304858609476 0 10.204304858609476 -9.5341147075414483 0 0 0 0 23.76217077638994 8.671268562521357 0 8.671268562521357 2.9991793902750778 0 0 0 0 -13.569195997401039 -87.342602432535386 0 -87.342602432535386 -73.156040284404924 0 0 0 0 -25.922705090742966 -29.355579392519758 0 -29.355579392519758 -59.60163560804358 0 0 0 0 28.133736793504347 -16.6935669358949 0 -16.6935669358949 -17.864180756104851 0 0 0 0 -50.790290663751875 -60.568533724016561 0 -60.568533724016561 -76.406390804102557 0 0 0 0 20.374139437566281 -5.0948129426966204 0 -5.0948129426966204 -0.54764503826353561 0 0 0 0 95.482123892131085 22.766389624397164 0 22.766389624397164 6.5387699862621957 0 0 0 0 48.745046573219042 -41.80223275917524 0 -41.80223275917524 -33.903419390311683 0 0 0 0 88.557264498668232 -1.3624377227952849 0 -1.3624377227952849 -22.591738911458044 0 0 0 0 187.66541451471858 -221.56126850325018 0 -221.56126850325018 -133.10482804763342 0 0 0 0 -19.036532543075737 63.034469985706892 0 63.034469985706892 -50.085388667088409 0 0 0 0 270.50803645969427 -87.915588259615106 0 -87.915588259615106 -36.754769126315296 0 0 0 0 2.4542583154661344 -1.9658081252396471 0 -1.9658081252396471 0.23410686708406558 0 0 0 0 287.81330972417891 -12.477460013532209 0 -12.477460013532209 -33.947420027030603 0 0 0 0 212.03037473341101 -98.45104620449456 0 -98.45104620449456 -24.899030510232478 0 0 0 0 173.32354474770909 1.9640401357551127 0 1.9640401357551127 -18.437751121186011 0 0 0 0 224.26769511980092 -85.88169274836855 0 -85.88169274836855 -13.864304463739245 0 0 0 0 114.91679597932671 -67.260218445226201 0 -67.260218445226201 -11.01855280749669 0 0 0 0 182.51373727795726 -114.9153622265776 0 -114.9153622265776 18.925046865380864 0 0 0 0 72.533541057615366 -67.872591090404967 0 -67.872591090404967 46.084875724011908 0 0 0 0 98.511093752539637 16.734790513729649 0 16.734790513729649 -10.769071442358836 0 0 0 0 -4.9288276295555988 -29.533093544153417 0 -29.533093544153417 32.346207415632307 0 0 0 0 -50.65661434395588 -51.112955715927455 0 -51.112955715927455 -16.12087387708857 0 0 0 0 0.3596009344350577 -5.4967077819089596 0 -5.4967077819089596 1.8556430961458474 0 0 0 0 -80.641577287949985 -22.890174774543539 0 -22.890174774543539 -7.0735934320036904 0 0 0 0 -96.135486220700841 -66.503344197415572 0 -66.503344197415572 -41.024301889297931 0 0 0 0 75.113708722732554 4.4171944436079684 0 4.4171944436079684 -11.092108338378239 0 0 0 0 43.217071880717413 0.78144803505074378 0 0.78144803505074378 -10.262734746706201 0 0 0 0 -48.796044751481531 -32.979088852664972 0 -32.979088852664972 -18.084091260978312 0 0 0 0 3.4373314657630907 -25.228228947138177 0 -25.228228947138177 -16.217937583753375 0 0 0 0 37.581719296787924 -4.0968942159142898 0 -4.0968942159142898 -11.484454340568846 0 0 0 0 0.10981145785221713 0.24176721057978057 0 0.24176721057978057 -6.876708475859111 0 0 0 0 78.811794004930562 78.842085663372927 0 78.842085663372927 26.910108427287014 0 0 0 0 18.620576527565369 5.9351599122480536 0 5.9351599122480536 -1.2225855219995907 0 0 0 0 83.050020394321109 71.588796244152945 0 71.588796244152945 31.070678163772754 0 0 0 0 131.89048916461616 42.950388980800199 0 42.950388980800199 -48.408182098035468 0 0 0 0 41.988821779395948 -71.879801664443221 0 -71.879801664443221 36.146591194053144 0 0 0 0 21.926007891699555 -14.360204076070659 0 -14.360204076070659 -19.669171699816616 0 0 0 0 -6.8421660048770718 -6.4068032441382456 0 -6.4068032441382456 -3.8459238056475442 0 0 0 0 -0.43249162274150876 -10.383363245362489 0 -10.383363245362489 -20.425075967725206 0 0 0 0 3.0465223482206056 -6.8004179177905826 0 -6.8004179177905826 -16.883773838901107 0 0 0 0 10.166797027601888 -5.7083675296288554 0 -5.7083675296288554 -4.611465574723451 0 0 0 0 6.3160036201509246 -9.6798459870673739 0 -9.6798459870673739 -10.572617807122988 0 0 0 0 -40.442944539136079 -75.111307927488269 0 -75.111307927488269 -52.6464237446271 0 0 0 0 -12.976278298687248 -18.268094350553838 0 -18.268094350553838 -6.2081888868963233 0 0 0 0 -12.597369259878178 -12.953429993834106 0 -12.953429993834106 -11.285071287197752 0 0 0 0 -0.68386140135505968 -12.183858874057165 0 -12.183858874057165 -4.740996847102565 0 0 0 0 -15.300641511709529 -26.685649925668741 0 -26.685649925668741 -6.9935043243837089 0 0 0 0 -12.898743071062199 -22.076217931147767 0 -22.076217931147767 -5.4990592359024504 0 0 0 0 -7.6316725583369305 -2.8134631245497559 0 -2.8134631245497559 -1.0237469608832015 0 0 0 0 5.4898904221918201 -63.741419371904158 0 -63.741419371904158 -59.946509128361868 0 0 0 0 3.2161367928129039 -16.182514219737641 0 -16.182514219737641 -7.6058461256920964 0 0 0 0 -6.466860747357714 -83.867543298666533 0 -83.867543298666533 -35.320843673160198 0 0 0 0 -1.7981555915248464 -52.393427301882184 0 -52.393427301882184 -119.5996201630096 0 0 0 0 14.937798111022857 0.52533011673403962 0 0.52533011673403962 -6.9284076534368069 0 0 0 0 -4.46252071740048 -2.1098829252157749 0 -2.1098829252157749 -0.14989432842585426 0 0 0 0 65.036628841196944 -73.831863164471542 0 -73.831863164471542 44.426140256586223 0 0 0 0 109.15320461089868 1.7374916650114756 0 1.7374916650114756 -257.57419607434599 0 0 0 0 -1.718440379996224 1.1772702922124552 0 1.1772702922124552 0.19056444298753306 0 0 0 0 102.75093439623879 104.88680114254993 0 104.88680114254993 153.90433626099548 0 0 0 0 97.025837714187219 -87.780392942636809 0 -87.780392942636809 8.2850429067548248 0 0 0 0 129.28050671258143 -82.415512222467157 0 -82.415512222467157 18.149026374539972 0 0 0 0 275.79904781113692 -62.353514133257477 0 -62.353514133257477 40.189533027487414 0 0 0 0 369.92438655429942 161.13796282885937 0 161.13796282885937 132.88955325223469 0 0 0 0 10.758634504458314 39.198760604853305 0 39.198760604853305 144.11526599917488 0 0 0 0 6.893231982994422 -16.332047386828187 0 -16.332047386828187 -10.318061697096702 0 0 0 0 7.2793671175869576 -38.056571386215353 0 -38.056571386215353 -18.115831379827796 0 0 0 0 -31.076767432023189 -29.739351619769877 0 -29.739351619769877 -12.050035585249134 0 0 0 0 -116.42064980886425 -48.567618557241985 0 -48.567618557241985 69.225838924050549 0 0 0 0 5.2435386717224493 -16.53139447576325 0 -16.53139447576325 -9.9134475637763231 0 0 0 0 -23.614152345278853 88.367732453405551 0 88.367732453405551 101.30749446349637 0 0 0 0 41.910872471926268 -26.823414925483121 0 -26.823414925483121 -12.169843543024399 0 0 0 0 91.267020993909682 -22.993517158870418 0 -22.993517158870418 -20.669676279508167 0 0 0 0 -30.971483527384521 -26.223529498637888 0 -26.223529498637888 13.324790073289478 0 0 0 0 798.73946921298193 -25.902083645687526 0 -25.902083645687526 35.480059128967241 0 0 0 0 19.461849154661259 -26.346864522950135 0 -26.346864522950135 27.0963725682386 0 0 0 0 110.18425489486253 270.97478200371188 0 270.97478200371188 1213.2659493854517 0 0 0 0 7.6096120422040201 -10.752806053207003 0 -10.752806053207003 7.8238833948182762 0 0 0 0 53.806428475858411 42.436496107435232 0 42.436496107435232 209.43284441715514 0 0 0 0 66.725185497421009 -7.1989216900334156 0 -7.1989216900334156 -4.4294493921394853 0 0 0 0 105.6537145654147 -38.800147720394307 0 -38.800147720394307 -110.61103620225504 0 0 0 0 5.8475461586831443 93.75565443933715 0 93.75565443933715 36.778063914487575 0 0 0 0 -29.495293552205112 40.726665056829916 0 40.726665056829916 267.04969059019277 0 0 0 0 172.78250518988352 186.49730168042515 0 186.49730168042515 62.185651031819361 0 0 0 0 173.24314881729401 204.4389703436147 0 204.4389703436147 245.89610123126113 0 0 0 0 437.757543108346 285.70894764245531 0 285.70894764245531 71.662112621295819 0 0 0 0 319.46019220005837 261.6550440551564 0 261.6550440551564 264.44450280278761 0 0 0 0 12.578513205196941 -58.92428422958983 0 -58.92428422958983 550.70997889706632 0 0 0 0 751.43453154590679 137.39404780851328 0 137.39404780851328 111.49764350142141 0 0 0 0 456.83821504272055 570.35895182169588 0 570.35895182169588 1109.5378709968245 0 0 0 0 252.22530872555217 228.95238976989276 0 228.95238976989276 539.91122052991705 0 0 0 0 -23.404744528666924 98.928091221896011 0 98.928091221896011 994.83555444442027 0 0 0 0 432.20399992575403 460.80224257514055 0 460.80224257514055 592.85696034180364 0 0 0 0 766.75961503069266 -50.74401088972445 0 -50.74401088972445 -18.515935223261778 0 0 0 0 568.1288864691669 181.86487609755386 0 181.86487609755386 100.93225145917313 0 0 0 0 406.51751268377848 -99.011807123879407 0 -99.011807123879407 297.37574204389057 0 0 0 0 591.41595496416994 128.02143872865963 0 128.02143872865963 76.487188444160893 0 0 0 0 1341.6273731020192 512.11383221222059 0 512.11383221222059 327.82866114395983 0 0 0 0 672.91386127291844 -99.854517427417704 0 -99.854517427417704 705.83584920612338 0 0 0 0 249.69146431024274 -212.76417461867823 0 -212.76417461867823 -130.55244386348568 0 0 0 0 391.71436027759046 -30.017722399683407 0 -30.017722399683407 37.73922155766968 0 0 0 0 279.80217844425351 173.98546075285594 0 173.98546075285594 100.52394054931619 0 0 0 0 345.66798124699199 54.032560074770117 0 54.032560074770117 293.41223902733691 0 0 0 0 787.37402527328231 345.18486788723658 0 345.18486788723658 128.89160648410871 0 0 0 0 689.2915148797656 223.79372169719727 0 223.79372169719727 55.027741076482926 0 0 0 0 472.10175659946617 61.971364178428303 0 61.971364178428303 30.182165201382304 0 0 0 0 488.00354997242175 215.72890004739838 0 215.72890004739838 117.99334743744294 0 0 0 0 524.52141618620954 52.524945194993052 0 52.524945194993052 99.53440747741206 0 0 0 0 854.07092098134672 262.23573307068727 0 262.23573307068727 43.220515774226442 0 0 0 0 13.306490727632195 -19.103754453338915 0 -19.103754453338915 16.355667760276582 0 0 0 0 -171.3204039384218 -312.91450720052956 0 -312.91450720052956 -135.27819338037716 0 0 0 0 242.98573112063605 -121.42465129209586 0 -121.42465129209586 -148.68329568820536 0 0 0 0 -9.5962439239410742 -154.84092188376133 0 -154.84092188376133 -119.84026001839266 0 0 0 0 97.704242558771512 -24.975121027598561 0 -24.975121027598561 -133.8742056955125 0 0 0 0 267.322346768015 53.499792812939148 0 53.499792812939148 -102.47595140341309 0 0 0 0 131.34141699953761 90.60450837991857 0 90.60450837991857 32.434387510475858 0 0 0 0 139.13166351135442 90.438351444129125 0 90.438351444129125 -77.601459411703672 0 0 0 0 15.318625483235024 16.03466365895278 0 16.03466365895278 -31.038880470959935 0 0 0 0 106.11126840760699 21.83653648500831 0 21.83653648500831 -51.065733191709342 0 0 0 0 -240.54296940591666 287.31445190204886 0 287.31445190204886 -99.316859447991192 0 0 0 0 149.29912370003876 49.553261527445557 0 49.553261527445557 -169.68396671127493 0 0 0 0 88.013979658147761 -1.8922480036139895 0 -1.8922480036139895 -4.7518710882559834 0 0 0 0 986.33427745279369 298.39971679097607 0 298.39971679097607 -934.74544505919948 0 0 0 0 106.71823516266878 2.110594627780511 0 2.110594627780511 -11.887105032914917 0 0 0 0 -205.51249837694922 382.96448845629493 0 382.96448845629493 153.41570201649847 0 0 0 0 -550.02285652648061 305.92435931061027 0 305.92435931061027 136.28267203172254 0 0 0 0 5.0240043171423139 7.0294859641297265 0 7.0294859641297265 10.260532974893628 0 0 0 0 -248.73962151759042 220.05974251679072 0 220.05974251679072 123.95576699649428 0 0 0 0 481.92460435134126 -459.48794995718617 0 -459.48794995718617 -186.33021313459307 0 0 0 0 773.64731046780071 655.43737996802611 0 655.43737996802611 -203.89161464412098 0 0 0 0 26.987337534304942 7.5513646977147921 0 7.5513646977147921 -10.102378065909235 0 0 0 0 -375.26633719546953 -850.91987844726282 0 -850.91987844726282 116.72862589943179 0 0 0 0 103.54462179916845 77.557581912376918 0 77.557581912376918 -73.504162368544712 0 0 0 0 160.55708340755882 112.23651064421574 0 112.23651064421574 -121.53055034165482 0 0 0 0 49.317231836699648 -102.20040531479481 0 -102.20040531479481 -312.69166738351851 0 0 0 0 92.842272488342118 13.027945221137124 0 13.027945221137124 -8.2069267756342583 0 0 0 0 64.42243341892754 -105.53605240290017 0 -105.53605240290017 -321.58075430246254 0 0 0 0 -16.863859905675781 -161.75253878696503 0 -161.75253878696503 -276.77262603193412 0 0 0 0 88.013457665132592 -197.48361028202908 0 -197.48361028202908 -264.60140228774162 0 0 0 0 118.71935640776428 -99.097854826174967 0 -99.097854826174967 -314.24617678939831 0 0 0 0 289.77368003482115 183.02223796331964 0 183.02223796331964 -48.102794006082149 0 0 0 0 -290.05674472360988 -179.24557161696612 0 -179.24557161696612 -184.80046767154096 0 0 0 0 625.33616869337857 188.55177585034835 0 188.55177585034835 -199.53657180089795 0 0 0 0 425.47288038589249 460.24379012799909 0 460.24379012799909 -75.730998546066985 0 0 0 0 586.39690716870246 -1122.7966139801611 0 -1122.7966139801611 1568.355575947463 0 0 0 0 705.2117173351362 953.71873323817272 0 953.71873323817272 -309.82039911072752 0 0 0 0 64.897078135840275 -292.06782647025921 0 -292.06782647025921 255.56763575418518 0 0 0 0 573.48551531485282 -123.49325942363066 0 -123.49325942363066 -169.80713911251587 0 0 0 0 285.01676761437557 -24.455523945169716 0 -24.455523945169716 -899.0349476429983 0 0 0 0 66.144371319494752 5.613108576004791 0 5.613108576004791 -0.29563136439039894 0 0 0 0 -125.565702227359 -213.08154739331894 0 -213.08154739331894 171.30405922383216 0 0 0 0 990.62335377695126 -111.60017218023222 0 -111.60017218023222 171.17259367390034 0 0 0 0 1775.5268655302862 -935.56432985280208 0 -935.56432985280208 1036.1264720397594 0 0 0 0 2037.4253958012268 831.03028825581805 0 831.03028825581805 -429.25239181785764 0 0 0 0 2737.6954464372611 157.90961758455887 0 157.90961758455887 -569.98708204830018 0 0 0 0 2179.9345096763209 279.93458841989832 0 279.93458841989832 -596.68174465910488 0 0 0 0 25.235849952812899 1.8615066029863456 0 1.8615066029863456 0.34376637554494138 0 0 0 0 2319.9792245729236 -1144.6560816630845 0 -1144.6560816630845 170.30817851292704 0 0 0 0 2414.2061640433094 504.95237193582125 0 504.95237193582125 218.2133881779082 0 0 0 0 713.4481887814909 305.76903463988856 0 305.76903463988856 1682.3947406204052 0 0 0 0 735.22410981155554 242.69563987095353 0 242.69563987095353 513.81574079614984 0 0 0 0 913.89367909688008 74.178697168562394 0 74.178697168562394 101.6575059988063 0 0 0 0 910.65978671456105 24.591046237197133 0 24.591046237197133 -170.80692763075967 0 0 0 0 1559.032476728702 -263.31139896386958 0 -263.31139896386958 -269.41540027547671 0 0 0 0 566.8158649253819 -925.73751086253651 0 -925.73751086253651 143.46168725898679 0 0 0 0 636.0408223281047 -194.72496046309607 0 -194.72496046309607 -274.41531036385209 0 0 0 0 655.02829099472729 -262.3318357633043 0 -262.3318357633043 -34.174473258665785 0 0 0 0 185.36665001418464 202.49466551106681 0 202.49466551106681 -74.418577903001278 0 0 0 0 378.20533922257164 -408.55213337002078 0 -408.55213337002078 205.56498649909827 0 0 0 0 1.5179235415399646 -0.428194016136203 0 -0.428194016136203 -3.1385526477704602 0 0 0 0 1611.4244583835934 -810.48265394804321 0 -810.48265394804321 94.998288532599645 0 0 0 0 -67.271225539807347 -419.14826617808922 0 -419.14826617808922 154.60673303963085 0 0 0 0 506.41711553023924 -351.41042857192087 0 -351.41042857192087 273.2853177537354 0 0 0 0 907.73646752614513 -34.896779214820526 0 -34.896779214820526 -63.581088163507957 0 0 0 0 1014.7327505341168 -410.21141071464319 0 -410.21141071464319 74.959360660918719 0 0 0 0 760.77224695447694 -243.42971276858839 0 -243.42971276858839 -91.770510161610218 0 0 0 0 0.82607091182276804 -3.7816241930399741 0 -3.7816241930399741 -5.0937434331532785 0 0 0 0 602.81115395211236 -126.93452354116516 0 -126.93452354116516 81.854039772574197 0 0 0 0 509.87988287749977 -354.80166886370262 0 -354.80166886370262 75.785375821202706 0 0 0 0 538.0381475530121 -312.49698184771341 0 -312.49698184771341 112.64254096865079 0 0 0 0 644.65525418277684 -142.42795790351283 0 -142.42795790351283 -96.926315105402864 0 0 0 0 546.35613227875183 -216.37151816277674 0 -216.37151816277674 39.917426344331034 0 0 0 0 345.19136738262023 33.236108705319111 0 33.236108705319111 -125.2746778033997 0 0 0 0 63.281397307886934 61.071194192376396 0 61.071194192376396 22.414610180448499 0 0 0 0 85.292401198967355 71.850018128118307 0 71.850018128118307 -0.50199401289876278 0 0 0 0 60.973904079241436 56.356781335960562 0 56.356781335960562 15.472501911632833 0 0 0 0 321.01280255060919 -37.850116424378712 0 -37.850116424378712 100.331385812598 0 0 0 0 562.58995951942779 -312.03974525027161 0 -312.03974525027161 91.332559425858562 0 0 0 0 94.401422636795019 36.531538888018396 0 36.531538888018396 -7.0684254840284098 0 0 0 0 0.63754925432288445 -3.2472114090976731 0 -3.2472114090976731 -3.525885540620596 0 0 0 0 582.08080631280245 -371.48278710859631 0 -371.48278710859631 -0.84191415672466974 0 0 0 0 951.80290317865729 -276.73353403297938 0 -276.73353403297938 15.131835708999915 0 0 0 0 647.46166225731577 -176.23798176151786 0 -176.23798176151786 193.58550344283231 0 0 0 0 864.09766296701855 -72.927889638690885 0 -72.927889638690885 68.170322733914873 0 0 0 0 787.41690704737994 -191.19404326186259 0 -191.19404326186259 -1.8444064806935785 0 0 0 0 1222.7298777528304 -629.28098913474651 0 -629.28098913474651 161.20390528226562 0 0 0 0 1.1204259761624087 0.22833122269399553 0 0.22833122269399553 -1.6079455520660719 0 0 0 0 -379.04285454508044 -263.22177361888862 0 -263.22177361888862 411.46979120105607 0 0 0 0 331.1147844438492 -132.85795123583875 0 -132.85795123583875 -24.786633309669014 0 0 0 0 680.476179954283 -566.20682498115548 0 -566.20682498115548 96.004971507665687 0 0 0 0 915.39644562002104 -234.70099247817825 0 -234.70099247817825 53.473463674692539 0 0 0 0 872.52023479594573 -401.97359801494395 0 -401.97359801494395 -21.144841785024937 0 0 0 0 652.96718256679924 -279.09821450125492 0 -279.09821450125492 48.702261436548724 0 0 0 0 941.1389602745403 -85.720307031814173 0 -85.720307031814173 -131.68083894509255 0 0 0 0 995.66408923420386 -400.55147518077683 0 -400.55147518077683 383.53260300605012 0 0 0 0 1403.4065712075862 -271.28361087876897 0 -271.28361087876897 -57.422565151466188 0 0 0 0 200.99462226843752 354.51781600434379 0 354.51781600434379 381.3340403412476 0 0 0 0 1118.0337647652195 324.30148486929556 0 324.30148486929556 25.265076793241406 0 0 0 0 200.5477806049239 3.0956231179261522 0 3.0956231179261522 23.886444939264038 0 0 0 0 13.963709215853669 230.10745054211975 0 230.10745054211975 151.31321793364145 0 0 0 0 201.63606302469179 12.971325400568503 0 12.971325400568503 29.770878162585177 0 0 0 0 749.97212719913659 51.954463740794381 0 51.954463740794381 -99.321807262439961 0 0 0 0 529.51470924617024 70.987063229009436 0 70.987063229009436 -53.76680180790845 0 0 0 0 13.689166528354811 20.909638060687364 0 20.909638060687364 28.580290917208568 0 0 0 0 -300.40845068357112 381.87725530672196 0 381.87725530672196 -164.47093473937275 0 0 0 0 -326.45795761655063 99.298126403671176 0 99.298126403671176 -33.129723554899101 0 0 0 0 1462.5690190552814 -227.98107195933198 0 -227.98107195933198 -59.69358167444625 0 0 0 0 664.67285238591285 -36.507665087110581 0 -36.507665087110581 -16.081382145883254 0 0 0 0 659.57146780368203 -119.42154542337857 0 -119.42154542337857 220.26873234944384 0 0 0 0 -74.167453084137378 -135.16382875639101 0 -135.16382875639101 224.80532127904917 0 0 0 0 524.85248681178837 -273.3087403136974 0 -273.3087403136974 48.579866156766911 0 0 0 0 726.86101795487957 -101.37960928142508 0 -101.37960928142508 -41.81986075047098 0 0 0 0 651.80250105706 -59.599270162797666 0 -59.599270162797666 -57.453830229146661 0 0 0 0 
</DataArray>
<DataArray type="Float64" Name="cross_section_updated" format="ascii">
1 1 1 1 1 0.010621552955460939 1 1 1 1 1 1 1 1 1 1 0.010232271784258657 1 1 0.010118366254380359 1 0.0099046932902764426 1 1 1 1 0.011320245091261063 1 1 1 1 1 1 0.010146957637927174 1 1 1 1 1 1 0.010777918191125011 0.010494507474071487 1 1 0.010361703706893179 0.01074205936320027 1 1 1 1 1 1 1 1 1 1 0.010681696598752316 0.0099930486281317454 1 1 1 0.0099516509902320034 1 1 1 1 0.0099841095207838463 1 1 1 1 1 1 1 1 1 1 1 0.01029635678296096 1 1 1 0.010575023689973489 1 1 1 0.013806499890334752 1 1 1 1 0.013941597579997744 1 1 1 1 1 1 0.013231873959419552 1 1 0.01128584258682456 1 1 1 1 0.010213199517795648 1 1 1 1 1 0.010758253812999575 1 1 1 1 1 1 1 1 1 1 1 1 1 1 1 1 1 1 1 1 1 1 0.010068372817627997 1 1 1 0.010022209503648728 1 1 1 1 1 1 0.010219160577732058 1 1 1 1 1 1 1 1 1 1 1 1 1 1 1 1 1 1 1 1 1 1 1 0.010065658537324216 1 0.010134031354952213 1 1 1 1 1 1 1 1 1 1 1 1 0.011247081362913889 1 1 1 1 1 1 1 1 1 1 1 1 0.01061634214587338 1 1 1 1 1 1 1 1 1 1 1 1 0.012110788993655549 1 1 1 0.0099004380378723746 0.00939476195102768 1 1 1 1 1 1 1 0.012005335175913456 1 1 1 1 1 1 1 1 1 0.0096689662396483786 1 1 0.009936808782131332 1 1 1 1 1 1 1 1 1 1 1 1 1 1 1 1 1 1 0.011914886977275226 1 1 1 1 1 1 1 1 1 0.014206733929011556 1 1 1 1 1 1 1 1 1 1 1 1 1 1 1 0.01034002035203755 1 1 1 1 1 1 1 1 1 1 1 1 1 1 1 1 1 1 0.013628967304414185 1 1 1 1 0.010853668546305364 1 1 1 1 1 1 1 1 0.012597244938274641 1 1 0.01133712035267786 1 1 1 1 1 1 1 1 1 1 1 1 1 1 1 1 1 1 1 1 1 1 1 0.011634425315467952 1 1 1 1 0.010864869287212215 1 1 1 1 1 0.011195850671080549 0.010255033844653689 1 1 0.010928800233255808 0.011656858842755378 1 1 1 1 1 1 1 0.011270581594156346 1 1 1 1 1 1 1 1 0.010941891212664994 1 1 1 1 1 1 1 1 0.010412450628166179 1 1 1 1 0.011238361673919053 1 1 1 1 1 1 0.012092405200183672 1 1 1 1 1 1 1 1 1 1 1 1 1 1 1 1 1 1 1 1 1 1 1 1 1 1 1 1 1 0.01083775838940406 1 1 1 1 1 1 1 1 0.012098357166385552 1 1 1 0.017060037282497598 1 1 0.0099793604527584814 1 1 1 1 1 1 1 1 0.013703355397720541 1 1 1 0.0098746391246908455 1 0.013928833476652223 1 1 1 1 0.012274308589858403 1 1 0.0095948187983509702 1 1 0.012353956485262592 1 1 1 0.0094254935143498163 1 1 1 1 1 1 1 1 1 1 1 1 1 1 1 1 1 1 1 1 1 1 1 0.0098478990350468875 1 1 1 1 1 1 1 1 0.01146433637504257 1 1 1 1 1 1 1 1 1 1 1 1 1 0.01059104132230935 1 1 1 1 1 1 1 1 1 1 1 1 1 1 1 1 1 1 1 1 1 0.010035922204653424 1 1 1 0.010629447346029481 1 1 0.0097034083610710899 1 1 1 1 0.01001237900578123 1 1 1 1 1 1 1 0.011669817301435449 1 0.010345091964496856 1 1 1 1 1 1 1 1 1 1 1 1 1 1 1 1 1 1 1 1 1 1 0.012319994578600417 1 0.0096529562384560178 1 0.010570977352173411 1 1 0.012830931667764162 0.01127941959608623 1 1 1 1 1 1 1 1 1 1 1 1 1 1 1 1 1 0.010536441968412975 1 1 1 1 0.0099422284705675754 1 1 1 1 0.011240905965934047 0.011156291280067766 1 0.013369166050177102 1 1 1 1 1 1 1 1 1 1 1 1 1 1 1 1 1 1 1 1 1 1 1 1 1 1 0.010561055377680886 1 1 1 1 1 1 1 1 1 1 1 1 0.012965388538039285 1 1 1 0.012863931494036713 1 0.0097999619044589013 1 1 1 1 1 1 1 1 1 1 0.01012194448302511 1 1 1 0.010548000795979551 1 1 1 1 1 1 1 1 1 0.015063174141646037 1 1 1 1 0.015720000362858137 1 1 1 1 1 1 1 1 1 0.011105363915129627 1 1 0.011408808518196574 1 1 1 1 1 0.010181230235373239 1 1 1 1 0.011255387927788395 1 1 1 1 1 1 1 0.0098720194457940121 0.011483516890882535 1 1 1 1 1 1 0.010232009980552704 1 0.010181074192451782 1 1 0.011814981061689453 1 0.010500497743719547 1 1 1 0.010705746131531113 1 1 1 1 0.0094646036214859133 1 1 0.010499003465274499 1 0.012131212323266718 0.010472597501828893 1 0.010225869486573254 0.015241669794565758 1 1 0.0097699751086279731 1 0.010588488004101893 1 1 1 0.012710783970952943 0.010249043061050428 1 1 1 1 1 0.013205191161457703 1 1 1 1 1 1 1 1 0.01222570983449555 1 0.010733272213187295 1 1 1 1 0.0098668837373661489 0.010383222229169906 1 1 0.010035415091713748 1 1 1 1 1 0.014165438683148936 1 1 0.010091335480298195 1 0.0089460664961674152 1 0.013931044597636886 0.014514004941040546 1 0.01002008191080472 1 0.015129134601079791 0.010171114970505215 0.0093496937101716533 1 1 0.014626156775067407 1 0.014322313224301228 1 1 0.014963128222500871 1 1 1 1 1 0.015114242110134051 1 1 0.0098090637633121772 1 1 1 1 0.010114569658001418 1 1 1 1 1 1 1 0.0097812194791013305 1 0.01032340316973903 1 1 1 0.01032222046065855 1 1 1 1 1 1 1 1 1 1 1 1 1 1 1 1 1 1 0.010204046398025093 1 1 1 1 1 1 1 1 1 0.010255598017602875 1 1 1 1 1 1 1 1 1 1 1 1 1 0.0099568956010963553 1 1 1 1 1 1 1 1 1 1 1 1 1 1 1 1 1 1 1 1 1 1 1 1 1 1 1 1 1 1 1 1 1 1 1 1 1 1 1 1 0.012051599536022181 1 1 1 1 1 1 1 1 1 1 1 1 1 1 1 0.013463791402263392 0.0099722975342893035 1 1 0.013043818237763079 1 1 1 1 1 1 1 1 1 1 1 1 1 1 1 1 1 1 1 1 0.0099177476290685587 1 0.010290104333360146 1 1 1 1 1 0.011006050102445113 0.0098073940493247427 1 1 1 1 1 1 1 1 1 1 1 1 1 1 1 1 1 1 1 1 1 1 1 1 1 1 1 1 1 1 1 1 1 1 1 1 1 1 1 1 1 1 1 1 1 1 1 1 1 1 1 1 1 1 1 1 0.009987162522983626 1 1 1 1 1 1 1 0.013105030498919788 1 1 1 1 0.011321947628843813 1 1 1 1 1 1 1 1 1 1 1 1 1 1 1 0.012188376526863894 1 1 1 1 0.015757845405692326 1 1 1 1 0.017531824325575433 1 1 0.01209520695551528 1 1 0.0097861954104961815 1 1 1 1 0.011952734726019629 1 1 1 1 1 1 1 1 1 1 1 1 1 1 1 1 1 1 1 1 1 1 1 1 0.017563333135728641 1 0.0051427253198815092 1 1 1 1 1 1 1 1 1 1 1 1 0.010436373445987478 1 1 1 1 1 0.011224933956461944 1 1 1 1 1 1 1 1 1 1 1 0.011579248785127005 0.014000432446779393 1 1 0.0099143233079450905 1 1 1 1 0.01000317201055115 1 1 0.011677035244030434 1 1 1 1 1 1 0.0099481652329704504 1 1 1 1 1 1 1 1 1 1 1 1 1 1 1 1 1 0.011194739441671025 1 1 0.0099868630430100767 1 1 1 0.011863502498800619 1 0.0099968206144886648 1 1 1 1 0.012156828813235102 1 1 1 1 1 1 1 0.0097985769728184541 1 1 1 1 0.01151941984247634 0.013809910343917379 1 1 0.010580201486671856 1 1 1 0.0098685022082529369 1 1 0.011221629146153 1 1 0.0099965923580396243 1 1 0.012325260428698961 1 1 1 0.011553732269257296 1 1 1 1 1 1 1 1 1 1 1 0.013322326112738578 1 1 1 0.0098695257893857309 0.01098765435779462 1 1 0.0100152418408536 1 1 0.010505886044616252 1 1 0.010061682703420753 1 0.010524154292513061 1 1 1 0.012423792547585097 0.011649205817171859 0.010041755758286293 1 1 0.010480441985437617 1 1 1 1 1 0.010010831321421379 1 1 1 1 0.010714215028391556 1 1 0.0099004777416775609 1 1 0.01376189513636962 0.011192906877439929 1 1 1 1 0.0099968436933431312 1 1 1 0.011206788192402225 1 0.010384440287448509 1 1 1 1 1 1 1 1 0.010108378666135334 1 1 1 0.013313802337908395 1 1 1 1 1 1 1 1 1 1 1 0.010020682520769058 1 1 1 1 1 0.0096390632199389314 0.0099487691940190557 1 0.011341581198230614 0.015569830134255747 1 1 1 0.014803334876965734 1 0.010021967877287284 1 1 0.0099111917309807826 1 1 1 1 1 1 1 1 1 0.0096756296103344651 1 1 1 1 0.016965422150032373 1 1 1 1 1 1 1 1 1 0.014405760632035546 1 1 1 1 1 0.010006352683054678 0.0095036504409730608 1 1 0.010036838631102107 1 1 1 1 1 0.0087588313143930584 1 0.011759713821664994 1 1 1 0.01080186574877577 1 1 1 1 1 1 1 1 1 0.011401701605818791 0.014669749653040257 1 1 1 0.0099996289297457873 1 1 0.015796506427447524 0.010008799839221077 1 1 1 0.01118972394351749 1 1 1 1 1 1 0.010000146855326927 1 1 1 0.014809376551975152 0.010013823673498703 1 1 1 0.01578114491071771 0.010990724288766155 1 1 0.01432392635682978 1 1 1 0.010856780978918151 1 0.014797544894313536 1 1 1 0.010234087045480835 1 1 1 1 1 1 0.011621931167442555 0.013657335571968434 1 0.0097858484534376431 1 1 0.011664090485439054 1 0.0098857226894342055 0.013607996715172639 1 1 0.014870253717205796 1 1 1 1 1 0.010659944524981263 1 1 1 1 0.011260163608846031 1 1 1 1 1 1 1 0.0099985711460134231 1 1 1 1 0.01114658917451539 1 1 1 1 1 1 1 1 1 1 0.01266733302423618 1 1 0.011175406504743501 0.011914658119619058 1 1 1 1 1 1 1 0.010002821983444644 1 1 1 0.012122166478213564 0.010251802993498215 1 1 1 1 1 1 1 1 0.010823147360663225 1 1 1 1 0.012843940828492686 1 1 1 1 1 0.0095912682791918485 1 1 1 1 1 1 1 1 1 1 1 1 1 1 1 1 1 1 1 1 1 0.0089974816894977157 1 1 0.017780077241381663 1 1 1 1 0.017222153932999428 1 1 1 1 1 1 1 1 1 1 1 1 1 1 1 1 1 1 1 1 1 1 1 1 1 1 1 1 1 1 1 1 1 1 1 1 1 1 1 1 1 1 1 1 1 1 1 1 1 0.0090380864219884605 1 1 1 1 1 1 0.0094709284937994423 1 1 1 1 0.0098390554821168458 1 0.010405221400438355 1 1 0.011534838812750565 1 1 1 1 1 1 1 1 1 1 1 1 1 0.0093866355568015779 1 1 0.0064398572686363426 1 1 0.016663708749586035 1 0.015627225874906198 1 1 1 1 1 1 1 1 1 1 1 1 1 1 1 1 1 1 1 1 1 1 0.012488070602294864 1 1 1 1 1 1 1 1 1 1 1 1 1 1 1 1 1 1 1 1 1 1 1 1 1 1 1 1 1 1 1 1 1 1 0.01190419733669109 1 1 1 1 1 1 0.0097676399465460133 1 1 0.011073667227427478 0.012610831249874053 1 1 1 1 1 1 1 0.014642475264786101 1 1 0.0094107678652417502 1 1 1 1 1 1 0.010279128859135383 1 1 1 0.010074656965347165 1 0.01009655588440935 1 1 1 0.010806442785767631 1 1 1 0.01458574537926511 1 1 1 1 1 0.014377943341427403 1 1 0.010341551064969746 1 0.010294219425288549 0.011866663825946694 1 1 0.010467343372621177 1 0.0097696122693533786 1 1 1 1 1 0.010240737957112655 1 1 0.010888048626660436 1 0.0100072135709302 1 1 0.013458403802495187 1 1 1 1 1 0.010208200524219238 0.0093731008276752535 0.010057170551365732 1 1 1 1 1 1 1 1 1 1 0.0099971835024230439 1 1 0.01013764469383335 1 1 0.010130751933676548 0.01306519461671391 0.012065366200203407 1 0.010022735180690998 1 1 1 1 0.010667520005817338 1 0.0099994261749303155 1 1 1 0.010831666186011505 1 0.012324020399343291 1 0.010252140752829944 1 1 1 0.013641375700950668 1 1 0.0099896610187260038 1 0.0086771368325852857 0.01278498827602324 0.011437626615988692 1 1 0.012157011362850644 1 0.012749707780684757 0.01043105997613534 1 1 1 1 1 1 1 1 1 1 1 1 0.010192464735116822 1 1 1 1 0.010696505439194787 1 1 1 0.011605705803355291 0.0096345191102067719 0.0098366442762347645 1 1 1 0.011650973603557564 1 0.011056967100784312 1 0.0084164001125352217 1 1 1 1 1 1 0.0099802626957734824 1 1 0.010389396142208343 0.010899536986937736 0.0088153209096847578 1 1 1 0.011551759213727439 1 0.010001776915374365 1 1 1 1 1 1 1 0.010344835358129844 1 1 1 1 0.0098886623587600159 1 1 1 0.016424848887512035 1 0.010292473922113687 0.0081873083672157551 1 0.015693904741314671 1 1 1 1 1 1 1 1 1 1 1 1 1 1 0.0100549985468011 1 1 1 1 1 1 1 1 1 1 1 0.016232828678691049 1 1 1 1 1 1 1 1 1 1 1 1 1 1 1 1 1 0.0096943544201705777 1 1 1 1 0.01004495436215228 1 1 1 1 1 1 1 1 1 1 1 1 1 1 1 1 0.010020435289617139 1 0.010301481575687796 1 1 1 1 0.010185838009168198 1 1 0.01103044018430876 1 1 0.0093577996427762489 1 1 0.010000364157796975 0.010952573311949862 1 1 0.01063717775189027 1 1 0.010393812039405882 1 1 1 0.011047293291674953 1 1 1 1 0.010111657063339557 1 0.0098216049674624845 1 1 1 1 1 1 1 1 1 1 1 1 1 1 1 1 1 1 1 1 1 1 1 1 1 0.0099443445155130098 1 1 0.0099265296413571548 1 1 1 1 1 1 1 1 1 1 1 0.0099504426228528026 1 1 1 1 0.010178626253885915 1 1 0.010020307159246233 1 1 1 1 1 0.010434341975132233 1 0.010529322887062759 1 1 1 1 1 1 1 1 1 1 1 1 1 1 1 1 1 1 1 1 1 1 1 1 1 0.013058452748452491 1 0.010186869723845067 1 0.0089899193796648558 0.015284337236417251 1 1 1 1 1 0.013808615741900216 1 1 1 1 1 1 0.014197050730557019 1 1 1 1 1 1 0.0087709064256583161 0.0097593399269929135 1 1 1 1 0.014258454592162635 1 1 1 1 1 1 1 1 1 1 1 1 1 1 1 1 1 1 0.01392603400599066 1 0.01017482113047986 0.01157235823011071 1 1 1 1 1 1 1 0.011009577752059196 1 1 1 0.011315137877610161 0.0095818700937602315 1 1 1 1 1 1 1 1 1 1 1 1 1 1 1 1 1 1 1 1 1 1 1 1 1 1 1 1 0.011752792589543103 1 1 1 1 0.01067512374277825 1 1 1 1 1 1 1 1 1 1 1 1 1 1 1 1 1 1 0.010144446801226127 1 1 1 1 1 1 1 1 0.013725425682099958 0.0099852844795259264 1 0.0098866473249215794 1 1 1 1 1 1 1 1 1 1 1 0.01063554480352958 1 0.010442615028733634 1 1 1 1 1 1 1 1 1 0.010756925635488046 1 1 1 0.010435402913320584 0.010402553242094005 1 1 1 0.0097702333799036846 0.010065948521752612 1 0.010004897746569879 1 1 1 1 1 1 1 1 1 0.0094546466689514694 1 1 1 1 1 1 1 0.014087342124398683 1 1 1 1 1 1 0.011741620477333894 1 1 1 1 1 1 0.0098537070723139653 1 1 1 1 1 1 1 1 1 1 1 1 1 1 1 0.0091967943229499839 1 1 1 1 1 1 1 1 1 1 1 1 1 1 1 0.010203511358024473 1 1 1 1 1 1 1 1 1 1 0.010382599578289936 1 1 1 0.0099582264892399582 1 1 1 1 1 1 1 0.0087657599834385924 1 1 1 0.015898741347158553 1 1 0.0070382443612270074 1 1 1 0.010565238879643644 0.011604258460385042 1 1 1 0.00727592147570277 1 1 1 1 1 1 1 0.014605394438753978 1 1 1 1 1 0.011079817145493802 1 1 1 1 0.012720317760134931 1 1 1 1 1 1 1 1 0.011914340695327005 1 1 1 1 1 1 1 1 1 1 1 1 1 1 1 1 1 1 1 1 1 1 1 1 1 1 1 1 1 1 1 1 1 0.0133751225502665 1 1 0.01149773225354688 1 1 1 0.011208992034505302 0.010055764901914567 1 1 1 1 0.010017970011236561 0.010027511954746283 1 1 1 1 1 0.01008015694584747 1 1 1 1 1 1 1 0.013382525095768616 1 1 1 1 1 0.011149599891248944 1 1 1 0.010373764599540239 1 1 1 1 1 0.011576654717343671 0.0095421164519122036 1 1 1 1 1 1 1 1 1 1 1 0.0097335927830049258 1 1 0.0093168699961736472 1 1 1 1 1 1 1 1 1 1 1 1 1 0.010414137547830762 0.01080701496683836 1 1 1 1 1 1 1 1 1 1 1 1 1 1 0.010597856092694785 1 1 1 0.010594023970303663 1 1 1 1 1 1 1 1 1 1 1 1 1 1 0.011380677210504484 1 0.010100190063659547 1 0.011477652103662785 1 1 1 1 1 0.010070398208185109 0.011899953536969193 1 1 1 1 1 0.01012277444653027 1 1 1 1 1 1 1 1 1 1 0.010058369279758807 1 1 1 1 1 1 1 1 1 1 1 1 1 1 1 1 1 1 1 1 0.0099458301917897621 1 1 1 1 1 1 1 1 1 1 1 1 1 1 1 1 1 1 1 1 1 1 1 1 1 0.010012168312458963 1 1 1 1 1 1 1 0.0097346300344484573 1 1 1 0.0097643371218564725 1 1 1 1 0.0092308143813627438 1 0.0098686942217971509 1 1 1 1 1 1 0.010895182213882471 1 1 1 0.0085871673595874342 1 1 1 1 0.01056241106628817 1 0.010008634593857032 1 0.0099963937196107799 1 1 1 0.010107901075375958 1 0.01023487356089892 1 1 1 1 1 1 1 1 0.010300144118541563 1 1 1 1 1 1 0.010081881596927854 1 1 1 1 1 0.011361960129121799 0.009989598066094986 0.010515673528542605 1 1 1 1 1 1 1 1 1 1 1 1 1 0.011195905541080154 1 0.0099926222695767754 1 1 1 1 1 1 1 1 1 0.0099942047479531261 1 1 0.011068095203937331 0.0098041011436295518 1 1 0.010020252982908252 1 1 1 1 0.0099249622636268311 1 1 1 1 0.01095415783752136 1 1 1 1 1 0.010171505304629593 1 1 1 1 0.010441132435076377 1 1 1 0.010398223593214675 1 1 1 1 1 0.010513625567498063 1 1 1 1 1 1 1 1 1 0.010006298246480378 1 1 1 1 1 1 1 1 1 0.010297177702457271 1 1 1 1 1 1 1 1 1 1 0.01515437174033207 1 1 0.0096828673665744873 1 0.010740429875068128 1 1 1 1 1 1 1 1 1 1 0.015512728305012718 1 0.015415365091525888 1 1 1 1 1 1 1 1 1 1 1 0.010243655947157955 1 1 1 0.01050144880072261 1 1 1 1 0.010550063289564047 1 1 0.010553703129155073 1 1 1 1 1 1 1 1 1 1 1 1 1 1 1 1 1 1 1 1 1 1 1 1 1 1 1 0.010503542272686947 1 1 1 1 0.010558540789958283 1 0.0099531166590254069 0.015885761581179863 1 1 1 1 1 0.010659469072036751 0.012852464416403316 1 1 1 1 1 1 1 1 1 1 1 1 1 1 1 1 1 1 1 0.015672908786574742 1 1 1 1 0.0097588775979089524 1 1 1 1 1 1 1 0.010146758795132049 0.0096175631553317605 1 1 0.0099955271432007001 1 1 0.010317131301609562 1 0.0099365149264664492 1 0.0092922934724541436 1 1 1 1 1 0.010088533138491554 1 1 0.0095882323438247537 1 0.010001667754177062 1 1 1 1 1 1 1 1 1 1 1 1 1 1 1 1 0.0099832287417940518 1 0.009985888213255906 1 1 1 1 1 1 1 1 1 1 1 1 1 1 1 1 1 1 1 1 1 1 1 1 1 1 1 1 1 1 1 1 1 1 1 0.0099844304488517638 1 1 1 1 0.0099293678807752736 1 1 1 1 1 1 1 1 1 1 1 1 1 0.013144814635171012 1 0.0087934426620168565 1 1 1 0.0078906505535080163 0.0082063945838853868 1 1 1 1 1 0.0087456915323068686 1 1 1 1 0.0085023079006670988 1 1 0.012394322565061901 1 1 1 1 1 1 1 1 1 1 1 1 1 1 1 1 1 1 1 1 1 1 1 1 1 1 1 1 1 1 1 1 1 1 1 1 0.010198250077303229 1 1 1 1 1 1 1 1 1 1 1 1 1 1 1 1 1 1 1 1 1 1 1 1 1 1 1 1 1 1 1 1 0.0099901421387726605 1 0.012132331084955183 1 1 1 1 0.010018201345277257 1 1 1 1 0.010873344566894176 1 1 1 1 1 1 1 1 1 1 1 1 1 1 1 1 1 1 1 0.012611204521445096 1 1 1 1 1 1 0.013432932114797116 1 1 1 1 1 0.010010019913276866 1 1 1 1 1 1 1 1 1 1 1 0.010157865610913332 1 1 1 1 1 1 1 1 0.011837237113023751 1 1 1 1 1 1 1 0.010710595950798731 1 1 1 1 1 1 1 1 1 1 1 1 1 1 1 1 1 1 1 1 0.0099853398990753604 1 0.012304675643472263 1 1 1 1 1 1 1 1 1 0.011051462428919266 0.012531691457425312 1 1 0.015090745242611392 1 1 1 0.0099423763544142091 1 1 1 1 0.011712749304614167 1 1 1 0.010953329752460298 1 1 1 1 1 1 1 1 1 1 1 0.0096175172619216969 1 1 0.010700830445159086 1 1 1 1 0.011485292945235228 1 1 0.011393826649892259 1 1 1 1 1 1 1 1 1 1 1 1 1 0.0099536638491271208 1 1 1 1 1 1 0.009991610562853118 1 1 1 0.0099970170536745652 1 1 1 1 1 1 1 1 0.010002447153695769 1 1 1 0.01136383716806369 1 1 1 0.010145847752955132 1 0.010205144276483316 1 1 1 1 1 1 1 1 1 1 0.010064233728862806 1 0.012029914202742365 1 0.011048803243032285 1 0.011245638333405517 1 1 1 1 1 1 1 1 0.01698214451668769 1 0.018999621134627567 1 1 1 1 0.020912266691595648 1 1 1 1 1 0.021783764516359681 1 1 1 1 0.0095355519459795791 1 1 1 1 1 0.009062287936160901 1 0.016323052611084937 1 0.013225950156150025 0.012762921084068689 1 1 1 1 0.013962992518342829 1 1 1 1 1 1 1 1 1 1 1 1 1 1 1 1 1 1 1 1 1 1 0.012013483094520584 1 0.010475709212485166 1 0.0096503155584884912 1 1 1 0.0099607366793885987 1 0.0099968517308760847 1 1 1 0.0078306648198260345 1 1 1 1 1 1 1 1 1 1 1 1 1 1 1 1 1 1 1 1 1 1 1 1 1 1 1 1 1 1 1 1 1 1 1 1 1 1 1 1 1 1 1 1 1 1 1 1 1 1 1 1 1 1 1 1 1 1 1 1 1 1 1 1 1 1 1 1 1 1 1 1 1 1 1 1 1 1 1 0.010006267483289498 1 1 1 1 1 1 0.010849043512348892 1 1 1 1 1 1 0.022192412795758502 1 1 1 1 1 0.010610411766738444 1 1 1 0.020672433994795215 1 1 1 1 1 1 0.01248587630578798 1 1 0.01450578287670186 1 0.015195639201793494 0.018448474122502459 1 1 1 0.011881995386738576 1 1 1 1 1 1 1 1 1 1 1 1 1 1 1 1 1 1 1 1 1 1 1 1 1 1 1 1 1 1 1 1 1 1 1 1 0.010040733587025669 1 1 1 1 1 0.010100789400031075 1 1 1 1 1 1 1 1 1 0.01017162013295715 0.0093140345111217011 1 1 0.010969453333056493 1 0.011566691088571534 1 1 0.010038182087219944 0.0094299113683514214 1 1 0.011621466802152329 1 1 1 1 1 1 1 1 1 1 1 1 1 0.011057828044181482 1 1 1 1 1 1 1 1 1 1 1 1 1 1 1 1 1 1 1 1 0.010470304651739846 1 1 1 1 0.010381073849806879 1 1 0.0098786360367339714 1 1 1 1 1 1 1 1 1 1 1 0.010399083111033519 1 1 1 1 1 1 1 1 1 1 1 1 1 1 0.010857702097062511 1 1 1 1 0.011099703302038919 1 1 1 1 1 0.011246032884247954 1 1 1 1 1 1 1 1 1 1 1 1 1 0.010871266824552209 1 1 1 1 1 1 1 1 1 1 1 1 1 1 1 1 1 1 0.010229328588728187 0.0099627594426807565 1 1 1 1 1 1 1 1 1 1 0.01074041896488393 1 1 1 1 1 1 1 1 1 1 1 0.010006159188786876 1 1 1 1 0.010170513832803669 1 1 1 1 1 1 1 1 1 1 1 1 0.010016496792312358 1 1 1 1 1 1 1 1 1 1 1 1 1 1 1 1 1 1 1 1 1 0.01011048161898867 0.010584976336124796 1 1 1 1 1 1 1 1 1 1 1 0.0095392264334793874 0.010349805437263111 1 1 1 1 1 0.01018982234847416 1 1 1 1 0.014001440292221336 0.00990854274257328 1 0.013575463922951751 1 1 0.010002994690092405 1 0.011211611819551041 1 1 1 0.0099030287583510793 1 1 1 1 0.010006416047090247 1 1 1 1 1 0.010658064331373469 1 1 1 0.0091419642352276211 1 1 1 1 1 0.010376953393392277 1 1 1 1 1 0.011066692463263177 1 1 0.0098058101641265473 1 1 0.010468828275860736 1 1 1 0.010490145549281116 1 1 1 0.010100281024508558 1 1 1 0.0096642086378023392 1 1 1 0.01150411304613767 1 0.0098649258507288312 1 1 1 1 1 1 1 0.010371485812095543 1 1 1 0.0099896623964745284 1 1 1 1 1 1 1 1 1 1 1 1 1 1 1 1 1 1 1 1 1 1 1 1 1 1 1 1 1 1 1 1 1 1 1 1 1 1 1 1 1 1 1 1 1 1 1 1 1 1 1 1 1 1 1 1 1 1 1 1 1 1 1 1 1 1 1 1 1 1 1 1 1 1 1 1 1 1 0.012523893252930154 1 1 0.013557454936210914 1 1 1 1 1 1 1 1 1 1 1 1 1 1 0.013161597909842211 1 1 0.0099877444861774071 1 1 0.010783596686974525 1 1 1 1 1 1 1 1 1 1 1 1 1 1 1 1 1 1 1 1 1 1 1 1 1 1 1 1 1 1 1 1 1 0.010977924217428967 1 1 1 1 1 1 1 1 1 1 1 1 1 1 1 1 1 1 1 1 1 1 1 1 1 1 1 1 1 1 1 1 1 1 1 1 1 0.0098306225605028531 1 1 1 1 1 1 1 1 1 1 1 1 1 1 1 1 1 1 1 1 1 1 1 1 1 1 1 1 1 1 1 1 1 1 1 1 1 1 1 1 1 1 1 1 1 1 1 1 1 1 1 1 1 1 1 1 1 1 0.011667972719003094 1 1 1 1 1 1 1 1 1 1 1 1 1 1 1 1 0.0096733551238952324 1 1 0.010172334566624492 1 0.014233417527567883 0.0090651191516484941 1 1 1 1 1 1 1 1 1 1 1 1 1 1 1 1 1 1 1 1 1 1 1 1 1 1 1 1 1 1 1 1 1 1 1 1 1 1 1 1 0.010032323187693103 1 1 1 1 0.0099388677068277011 1 1 1 1 1 0.0094194641063419324 0.012487709035440372 1 1 1 0.008930003865062916 0.011741256987607708 0.014427347107054943 1 1 1 1 1 1 1 0.014496291815317445 1 1 0.014254878522557296 1 1 0.012806895893339554 1 1 0.0098584808880483304 1 1 1 1 1 1 0.0099444009766311604 1 1 0.010584609856255818 1 1 1 1 1 1 1 1 1 1 1 1 1 1 1 1 1 1 1 1 1 1 1 1 1 1 0.010077399221910376 1 1 1 1 1 1 1 1 1 1 1 1 1 1 1 1 1 1 1 1 1 1 1 1 1 1 1 1 1 1 1 1 1 1 1 1 1 1 1 1 1 1 1 1 1 1 1 1 1 1 1 1 1 1 1 1 0.010624461242109945 1 1 0.01219557906500908 0.011826241459463481 1 1 0.0099833701088206037 0.010285353162262555 1 1 1 0.012495379853152406 1 0.0098828945018873664 1 1 1 0.010383207549037059 1 1 1 1 1 1 1 1 1 1 1 1 1 1 0.01163172244442293 1 1 1 1 1 0.01373539305716396 1 1 1 1 1 1 1 1 0.01272232498083942 1 1 1 1 1 0.014124219696959806 1 1 1 1 1 1 1 1 1 1 1 1 1 1 0.0095076421190820899 1 1 1 0.014039398319450516 0.016882999042213048 1 1 1 1 1 1 1 1 0.012944502736343559 1 0.011129186860703199 1 0.010067859643771809 1 0.011103127243061285 1 1 0.014149923570735256 1 0.0096660520375016681 1 1 1 1 1 1 1 1 1 1 1 0.0097676880025907836 1 1 1 1 1 1 1 1 1 1 0.011836333498492394 1 1 1 1 1 1 1 1 1 1 1 1 1 1 1 0.0098844067435245094 1 1 1 1 1 1 1 1 0.0097082561913212455 1 1 0.01207868176264686 0.0085522192761668201 1 0.0094838977640916318 0.011196198664141201 1 0.010537484592954781 1 1 0.013867393310178418 1 0.0096181226665683281 1 0.012625432878200685 1 0.011021653568780088 1 1 1 1 1 0.0098947236595330543 1 1 1 0.010252185792443863 1 1 1 1 1 1 1 1 1 0.010714006002960406 1 1 1 1 1 1 1 1 1 1 1 1 1 1 1 1 1 1 1 0.010706530647003467 1 1 1 1 1 1 1 0.01195236390775466 1 0.010690674073763215 1 1 1 1 0.011347540068028241 1 1 1 1 1 1 0.011662442760873606 1 1 1 1 1 1 1 1 1 1 1 1 1 1 1 1 1 0.0097642393426446688 1 1 1 1 0.0086554490413822908 1 0.0099678912205732346 1 1 1 0.0094324655145132975 0.0099911308555837783 1 1 1 1 1 0.0099961067563176364 1 1 1 0.0098407918879694894 1 1 1 0.010297785546642024 0.010015253030902008 1 1 1 1 1 0.010114662796677693 0.010489855180287097 1 0.010008061199558816 1 1 1 1 1 1 1 1 1 1 1 1 1 1 1 1 0.010062446066696243 1 1 1 1 0.010053671809864573 1 1 0.010445339351477324 1 1 1 1 1 1 1 1 1 1 1 1 1 1 1 1 1 1 0.01093232610056543 1 1 1 1 1 1 1 1 0.012612095618650877 1 1 0.0088563682256622579 1 1 1 1 0.010263739353840064 1 1 1 1 1 1 0.010508936100409262 0.0097774573095641172 1 1 1 1 1 0.011498413628138545 1 1 1 1 0.016198400811168367 1 1 0.016160848043263627 1 1 1 1 0.0088027123950738372 0.013154797271306785 1 1 1 1 0.013128270391854486 0.0098266938897056452 1 1 1 1 1 1 1 1 1 1 0.0065762367598020677 1 1 1 1 1 0.0056802087139490066 0.010014918521131125 1 1 1 1 1 1 1 1 1 1 1 1 0.011260523559789692 1 1 1 1 1 1 1 1 0.010520883252755159 1 1 1 0.010235605292893902 1 1 1 1 0.010610386069096395 1 1 0.010715903559355556 1 1 1 1 1 1 1 1 1 1 1 1 1 1 1 1 1 1 1 1 1 1 1 1 0.010686493878903027 1 1 1 1 1 1 1 1 1 1 1 1 1 1 1 1 1 1 1 1 1 1 1 1 1 1 1 1 0.0071465326677986295 1 1 0.012750037591148962 1 1 0.0099032230753798248 1 1 1 1 0.010341122783153068 1 1 1 1 1 0.0080752660760945311 1 1 1 1 1 1 0.011765874452714268 1 1 1 1 1 1 1 1 0.010094471807304894 1 1 1 1 1 1 1 1 1 1 1 1 1 1 1 1 1 1 0.013680082180801609 1 1 0.015800246983195775 1 0.0098998868999822884 1 1 0.014487641506921327 1 1 1 1 1 1 1 1 1 1 1 1 1 1 1 1 1 1 1 1 1 1 1 1 1 1 1 1 1 1 1 0.017531130605516046 1 1 0.011682736659915566 1 1 0.010037024297856035 0.012613257623947098 1 1 1 1 1 1 1 1 1 1 1 1 1 1 1 1 1 1 1 1 1 1 1 1 1 1 1 1 1 1 1 1 1 0.010010888650353961 1 0.0097199277215276221 1 0.011031718688214306 1 1 1 1 1 0.011280541386352641 1 1 1 1 1 0.010437598827892816 1 0.012136108121332321 1 0.011051930430004131 1 1 1 1 1 1 1 1 0.010940927943686982 1 0.011352323382108752 1 1 0.011566739313955996 1 1 1 1 1 1 0.011718942185362182 1 0.0099665892461259353 0.010028258672078849 1 1 1 1 1 1 1 1 0.010185866614734791 1 1 0.010251575033387712 1 1 0.010000549971592559 1 0.010286971970842893 1 1 1 0.0092527276071458758 0.01202760206901236 1 0.011994487560256444 1 1 1 1 1 1 1 1 1 1 1 1 1 1 1 1 1 1 1 0.010128937638129276 1 1 1 1 1 1 1 1 1 1 1 1 1 1 1 1 1 1 1 1 1 1 1 1 1 1 1 1 1 1 1 1 1 1 1 1 1 1 1 1 1 1 1 1 1 1 1 1 1 1 1 1 1 1 0.010367508125881891 1 1 1 1 0.0098849181708739915 1 1 1 1 1 1 1 1 1 1 1 1 1 1 1 1 0.013289433131779969 1 0.010774405944539673 1 1 1 1 1 1 1 0.010008203672474469 0.012483340435166808 0.0099861277502028539 1 1 1 1 0.010028568096738275 0.013229118736294345 0.0108336549286367 0.011148464986111672 0.010952850447198605 1 1 0.010935684102888109 1 1 1 1 0.0095348572911070507 1 1 1 1 1 1 1 0.014496146602049908 1 1 0.014269159015743351 0.014549869171778152 1 1 1 1 1 1 0.018046587074292984 1 0.016253413868806944 0.011024375252648079 1 0.01506252874435856 0.011003694906372978 1 1 1 1 0.0097255836589437566 1 0.010762888404282436 1 1 0.009985313652714255 1 1 0.013902855985447672 1 0.0091560219044814484 1 1 0.0098745810074174073 1 0.010096178144162516 1 1 1 1 0.0099868199588746924 1 1 1 1 0.0099868485065551047 1 1 0.011432094539057559 1 1 1 1 1 1 0.010032284819669151 1 1 1 1 1 1 1 1 1 0.014167732579109605 1 0.014131876392866992 1 1 1 1 1 1 1 0.0099410312765982334 1 1 1 1 1 1 1 1 1 1 1 0.012452321896617914 0.012713163729120382 1 1 0.012438855957291 0.012497233180775977 1 1 0.012999154173818639 1 1 1 0.0098036292030508759 1 0.013346044592225458 0.010706644746288029 1 1 1 0.014524263557998143 0.013421974931858854 1 1 0.011300392966945565 1 1 0.010000494973293731 1 0.014426744663065681 1 0.0099587910175196748 1 1 1 1 1 0.010685908811380436 1 1 0.0097278518990037404 1 0.010516466554408023 0.0097463674763411199 1 0.011671523702342661 0.0099970469240524048 1 1 1 1 1 1 0.012447450707077118 0.013125667301836289 1 0.0097833577322339396 1 1 1 1 0.0099267297291286936 1 1 1 1 1 1 1 1 1 1 1 1 1 1 1 1 1 1 1 1 1 1 1 1 1 1 1 1 1 1 1 1 1 1 1 1 1 1 1 1 1 1 1 1 1 1 1 1 1 1 1 1 1 1 1 1 1 1 1 1 1 1 1 1 1 1 1 1 1 1 1 1 1 1 1 1 1 1 1 1 1 0.0098966636215077602 1 1 1 1 1 1 0.010569001687688604 1 1 1 1 1 1 0.0099578186893613824 1 1 0.01058569689551323 1 1 1 1 1 1 1 1 1 1 1 1 1 1 0.015894550999084951 1 1 1 1 1 0.01026724890392087 1 1 1 1 0.010443583351018063 1 1 1 1 1 1 1 1 1 1 1 1 1 1 1 1 1 1 1 1 1 1 1 1 1 1 1 1 1 1 1 1 1 1 1 0.010225196843999458 1 1 1 1 1 1 1 1 1 1 1 1 1 1 1 1 1 1 1 1 1 1 1 1 1 1 1 1 1 1 1 1 1 1 1 1 1 1 1 1 1 1 1 1 1 1 1 1 1 1 1 1 1 1 1 1 1 1 1 1 1 1 1 1 1 1 1 1 1 1 1 1 1 1 1 1 1 1 1 1 1 1 1 1 1 1 1 1 1 1 1 1 1 1 1 1 1 1 1 1 0.010163938968499295 1 1 1 1 1 1 1 1 1 1 1 1 1 1 1 1 1 1 1 1 1 1 0.0095441105752783716 1 0.012553042366399992 1 1 1 1 1 0.012410119739712087 0.014516325995755471 1 1 0.010510673747369101 1 0.013477870402771968 1 1 0.010733146932053052 1 1 1 1 1 1 1 1 1 1 1 1 1 1 1 1 1 1 0.010243026351335368 1 1 1 0.0089924098178527749 1 1 1 0.010298363836002841 1 0.010144354272053274 1 1 1 1 1 1 1 1 1 1 0.0094681984414550693 1 1 1 1 0.010029848442081751 0.011374874857558856 0.008713520631881853 1 1 1 1 1 1 1 1 0.010549068413851028 1 1 1 1 1 1 1 1 0.010252395519786135 1 1 0.0098523205818472955 1 1 1 1 1 0.0099611367239100419 1 0.010241437796358277 1 0.011943526427157302 0.0098447839720256659 1 0.012113691636961509 1 1 0.013191287618360359 1 0.01280480657182639 1 1 1 1 1 1 1 1 0.0091572281120589714 1 0.0097829230218504318 0.010004079616774358 1 0.015250834505365778 1 0.010012650646994359 1 1 1 0.010139658743720465 0.012380628531512792 1 1 0.008942566238371542 1 0.0099999259168247687 1 0.0078867534358757693 1 1 1 1 1 0.0092743479231137491 1 1 1 1 1 1 1 1 1 0.0098026087690456839 1 0.012665022765081475 1 1 1 1 1 1 1 0.01094842881111157 1 1 1 0.010076136723434518 1 0.016510988590271291 0.0097837829466101908 1 1 1 1 1 0.013732014237588347 0.011041231679041186 1 1 1 1 1 1 1 1 0.01396855116756991 1 0.012791324326006683 1 0.009573355966887534 1 1 1 1 1 0.0098535847320851029 1 1 1 1 1 1 1 1 1 1 1 1 1 1 1 1 1 1 1 1 1 1 0.0099839836322000285 1 1 1 1 1 0.0099583415260235814 1 1 1 1 0.00983937613481441 1 1 1 1 1 1 1 0.011158686372030841 1 1 0.011567064475142979 1 1 1 1 1 1 1 1 1 1 1 1 1 0.010557592988967465 1 0.0094635640255925739 1 1 1 1 1 1 1 1 1 1 1 1 1 0.0093968978461756083 1 1 1 0.0099988527733531011 1 1 0.0099983146215151062 1 0.0097524606576246606 1 1 1 1 1 1 0.0099702561812098738 1 1 1 1 1 1 1 0.015498875901489432 1 1 0.011966268694262663 1 0.012532694254787665 1 0.011197320588420497 0.010265422248391155 0.011073429855927236 1 1 1 0.012378928622980363 1 1 0.0092301259356957349 1 0.010355305496526669 1 1 1 1 1 1 1 1 1 1 1 1 1 1 1 1 0.010542633647124038 1 0.0097992825882020039 1 1 1 1 1 1 1 1 1 1 1 1 1 1 1 1 0.010135380350988101 1 1 1 1 0.01089202384989351 1 1 1 1 1 1 1 1 1 1 1 1 1 1 1 1 1 1 1 1 0.015924045816282324 1 1 1 1 0.01637472028365727 1 1 1 1 1 1 0.016619936931579808 1 1 1 1 1 1 1 1 1 1 1 1 1 1 0.010111347607797043 0.010235570490847716 1 1 1 1 0.016742651399208157 1 1 1 1 0.016597906841591861 0.01002641608721829 1 1 1 1 1 1 1 1 1 1 1 1 1 1 0.0099933086852362404 1 0.017753507464159102 1 1 1 1 1 1 1 1 1 1 1 1 1 1 1 1 1 1 1 1 1 1 1 1 1 1 1 1 1 1 1 1 1 1 1 1 1 1 1 1 1 0.0097776982302985888 1 1 1 1 1 1 1 1 1 1 0.0093142097770749985 1 1 1 1 1 1 1 1 1 1 1 1 1 1 1 1 0.015710475959955585 1 1 0.0098876656046603985 1 0.015687543887321007 1 1 1 1 1 0.0098892205421202209 1 0.0098012314144059181 1 1 0.010094255609934013 1 1 1 1 1 1 1 1 1 1 1 1 1 1 1 1 0.0095883052504976956 1 1 0.009820617247906914 1 1 1 1 1 1 1 1 1 1 1 1 1 1 1 1 1 1 1 1 1 1 1 1 1 1 1 1 1 1 1 1 1 1 1 0.010068134507111444 1 1 1 0.0099734838654048103 1 1 1 1 1 1 1 1 0.012569639819164483 1 1 1 0.01248886748187656 1 1 0.012217287936783236 1 1 1 1 0.011210125657638854 0.011142261669114429 1 0.01493134354552272 1 1 1 1 1 0.0099939144776541051 1 0.01106168563534128 1 0.014180863105970068 1 1 1 1 1 1 1 0.009968641902792251 1 1 1 1 1 0.013727750072916938 1 1 1 0.011345555040902042 1 1 1 0.01227857946385536 1 1 0.0085131985474721939 1 1 0.0072844080184089671 1 1 1 1 1 1 1 1 1 0.0094882961339982606 1 1 1 1 1 1 0.016847636793892576 1 1 1 0.0091526613481200496 0.0099225068207982672 1 1 1 1 1 1 1 1 1 1 1 1 1 1 1 1 1 1 1 1 0.014865393428767505 1 1 1 1 1 1 1 1 0.011877697041350183 1 1 1 1 1 1 1 1 1 1 1 1 1 0.0099983496302579796 1 1 0.010636416935145302 1 1 1 1 1 1 1 1 1 1 1 1 1 1 1 1 1 1 1 1 1 1 1 1 1 1 1 1 1 1 1 1 1 1 1 1 1 1 1 1 1 1 1 1 1 1 1 1 1 1 1 1 1 0.014523221823002645 1 1 1 1 1 1 1 1 1 1 1 1 1 1 1 1 1 1 1 1 1 1 1 1 1 1 1 1 1 1 1 1 1 1 1 1 1 1 1 1 1 1 1 1 1 1 1 1 1 1 1 1 1 1 1 1 1 1 1 1 1 0.012244642359147281 1 1 1 1 1 1 1 1 1 0.0099859451734932974 1 1 1 1 1 1 1 0.011506336393050636 1 1 1 1 1 1 1 1 0.012611047798297441 1 1 1 1 1 1 1 0.0089472987728731659 0.013693130228013422 1 1 1 1 1 1 1 1 1 1 1 1 1 1 1 1 1 1 1 1 1 1 0.01148521258973656 1 1 1 1 1 1 1 1 1 1 1 1 1 1 1 1 1 1 1 1 1 1 1 1 1 1 1 1 1 1 1 1 1 1 1 1 1 1 1 1 1 1 1 0.014603783375117816 1 1 1 1 1 1 1 1 1 0.012862713040512905 1 1 1 1 1 1 0.011146522354633341 1 1 1 1 1 1 1 0.008878044615222052 1 0.010139629779238499 1 1 0.015271580867139799 1 1 1 1 0.015655537506716409 1 0.013053487831259009 1 0.011211847350276419 1 1 0.010730939367913294 1 1 1 1 1 1 1 1 1 1 1 1 0.01209531356558851 1 1 1 1 1 1 1 1 1 1 1 1 1 1 1 1 1 1 1 1 1 1 1 1 1 1 1 1 1 1 0.010525566155722636 1 1 1 1 1 1 1 1 1 1 1 1 1 0.009836422858884265 1 1 0.0092361328751830295 1 1 1 0.010968600686733975 0.012040407008396384 1 1 0.0098554650640039869 0.010691735574225984 1 1 1 1 1 1 1 1 1 1 1 1 1 0.0099751212150786701 1 1 1 1 0.0093923481143673802 1 0.010288497136379965 1 1 0.010720999072302922 0.010085154576801092 1 1 1 1 0.0099783754696135575 1 1 1 0.0089140672760883062 1 1 1 1 1 1 1 1 1 1 1 1 1 1 0.0099974787007171967 0.010554119617237481 1 1 1 1 1 1 1 0.011106911302531686 1 1 0.0099970020003053613 1 0.007996865363646766 1 1 1 1 1 0.010231183567420581 0.010586988496488772 1 1 0.010095950475566261 1 1 0.0068770229527994609 1 0.011593213922473099 1 1 1 1 1 0.011626127814684336 0.0096835041670073809 1 1 1 1 1 0.011119400239552919 1 0.011729892500685325 1 1 1 1 0.010814792063734539 1 1 1 1 0.0098817995674337321 1 1 1 1 1 1 1 1 0.0099475353283242588 1 1 0.010101590814825404 1 1 1 1 1 1 1 1 1 0.0096188409966377619 1 1 1 1 1 1 1 1 1 1 1 1 1 0.011158147534554238 1 1 1 1 0.0099597202229374689 1 1 1 1 1 1 0.015091272369955338 1 1 1 0.0095544889320363958 1 0.0095743421856258684 0.012248494893453527 1 1 1 1 1 1 1 1 1 1 1 1 0.0091740733669394697 1 1 1 1 1 0.0098439657484129806 1 0.01269008614818197 1 1 1 1 1 1 0.011060015994648273 1 1 1 1 1 1 1 1 1 1 1 1 1 1 1 1 0.0098492177158320086 1 1 1 1 1 1 1 1 1 1 0.0094333310521288374 1 1 1 0.011526516930399633 0.013008455348861078 1 1 1 1 1 0.011932871372241891 0.015808982639326487 1 0.017272592106033775 1 1 0.0080487475560334365 1 1 1 1 0.015890175697777641 1 1 1 1 1 1 1 1 1 1 1 1 0.012202533029891393 1 1 1 1 0.012740988103494499 1 1 1 0.010128363602116717 1 1 1 0.021750188253935775 1 1 1 0.010439550968561353 1 1 1 0.010203562472245386 1 1 1 1 1 1 1 1 1 1 1 1 1 0.0093498058110242175 1 1 1 0.0099943093970312463 1 1 1 1 1 1 0.010289013186020402 1 1 1 1 1 1 1 1 1 1 1 1 0.01035373446981732 1 1 1 1 1 0.016622560089391041 1 1 1 1 0.014482649571871247 1 1 1 1 1 1 1 1 1 1 1 0.011550499136238982 1 1 1 1 1 1 0.017542615805262451 1 1 1 1 1 1 1 1 1 1 1 1 1 1 1 1 1 1 1 1 1 0.019082429988105123 1 1 1 1 0.015890431286589082 1 1 1 1 1 1 1 1 1 1 0.0093926987457356673 1 0.014917691403874516 1 1 1 1 0.0098036647773086811 1 1 1 1 1 1 1 1 0.01399838267417682 1 1 1 1 1 0.013781821309002025 1 1 1 0.014392888945677232 1 1 1 1 1 0.012594040319111172 1 1 1 1 1 1 0.0097985061764265663 0.017131146523215603 1 1 1 0.0092232980049803508 1 1 0.0084340069243434047 0.015003715422423283 0.010721380933128731 1 1 1 0.014739142420110655 1 1 1 0.010203466115896091 1 1 1 1 1 1 1 1 1 1 1 0.0093188805338706888 0.010190199729519248 1 1 1 1 0.0099060516082334002 1 1 1 1 1 1 1 1 1 1 1 1 1 0.0097919650679101806 1 1 1 0.010049603225424536 1 1 1 1 1 1 1 1 0.010045558844067486 1 1 0.010168496196097823 1 1 1 1 1 1 0.0098839646009798512 1 1 1 1 0.01010325754846019 1 1 0.0099979282836142481 0.0098152019453871982 1 0.0096582872048359917 0.010504321444274165 1 1 0.010024660155183527 1 1 0.0099250387075776759 1 1 1 1 1 1 1 1 0.010278589702572722 1 1 1 0.0098859134596767789 1 1 1 1 1 1 1 1 1 1 1 1 1 1 1 1 1 1 1 1 1 1 1 1 1 1 1 1 1 1 1 1 1 0.010082380924132344 1 1 1 1 1 1 1 1 1 1 1 1 1 1 1 1 1 0.0096249557809948445 1 1 1 1 1 1 1 1 1 0.0090438056441632837 1 1 1 1 1 0.008575628918158924 1 0.0099500947667862001 1 1 1 1 1 1 1 1 1 1 1 1 1 1 1 1 1 1 1 1 1 0.011677445500170721 1 1 1 1 1 1 1 1 1 1 1 0.010575607350761219 0.011773356254865461 1 1 1 0.011000011517026183 1 1 1 1 1 1 1 1 1 0.011623936779060992 1 1 1 1 1 1 1 0.010424404166264967 1 0.010668224416730281 1 1 1 1 1 1 1 1 1 1 1 1 1 1 1 1 1 1 1 1 1 1 0.0099720504739047571 1 1 1 1 1 1 1 1 1 1 1 1 1 1 1 1 1 1 1 0.01056868230039997 1 1 1 1 1 1 1 1 1 1 1 1 1 1 1 1 1 1 1 1 1 1 1 1 1 1 1 1 1 1 1 1 1 1 1 1 1 1 1 1 1 1 1 1 1 1 1 1 1 1 1 1 1 1 1 1 1 1 1 1 1 1 1 1 1 1 1 1 1 1 1 1 1 1 1 1 1 1 1 1 1 1 1 1 1 1 1 1 1 1 1 1 1 1 1 1 1 1 1 1 1 1 1 1 1 1 1 0.010699829009265973 0.010737384712255976 1 1 1 1 1 1 0.011593907870724843 0.010170125462849976 1 1 1 1 1 1 1 1 1 1 1 1 1 1 0.010896279299883802 1 1 1 1 1 1 1 1 1 1 1 1 1 1 1 1 1 0.011326659999925347 1 1 1 1 1 1 1 1 1 1 0.011381751069885241 1 1 1 0.012706174884656873 1 1 1 1 1 1 1 1 1 1 1 1 1 1 1 0.010576905597021988 1 1 0.01506718894736286 1 1 1 1 1 1 1 1 1 1 1 1 1 1 1 1 0.014684604670288827 1 1 0.013288396574517315 1 1 1 1 1 0.011169427109345627 1 1 1 1 1 1 0.0097468299445169944 0.015205849618982099 1 1 1 0.011392860096264796 1 1 0.011672700643162066 0.010941248678347478 1 1 1 1 0.0092979979103316509 0.011705002518785194 1 1 1 0.012367130421099654 1 1 1 1 1 1 0.015873311804913297 0.0086272920534931179 1 1 0.010005402322625843 1 0.015346860693034958 0.012504885207623447 1 1 1 1 0.010805858390952536 1 1 0.010447438131431789 1 1 1 1 0.014389977855294771 1 1 1 1 1 1 1 0.010146339684610511 1 1 1 1 1 1 1 1 1 1 1 1 1 1 1 1 1 1 1 0.0100226487235082 1 1 1 1 0.015257239192487802 1 1 1 1 1 0.018358214793920823 1 1 1 1 0.010102031892977169 1 1 1 1 0.01003768742477721 1 1 1 1 1 0.010025891325595943 1 1 1 1 0.015018636159664041 1 1 1 1 1 1 0.013665566553326807 1 1 0.012448819812674299 0.010147232376741621 1 1 0.01298029719102279 1 1 1 1 0.01494939487163866 1 0.012063445748630353 1 1 1 0.018347438686192916 0.010322455435977217 0.010108853237280101 1 1 1 1 1 0.017211535739988473 1 1 0.0099916457730262406 1 1 1 1 1 1 1 1 1 1 1 0.0096029487948980259 1 1 1 1 1 0.010070412772064843 1 0.014837817866688592 0.016317427301108568 1 1 1 0.017838699674888648 0.017019798260190372 1 1 0.0088393226851001747 1 1 1 0.017581771023937556 1 0.011775713477698438 1 1 1 0.014991441142306253 1 1 1 0.010020724202323653 0.014490919171226494 1 1 1 1 1 1 1 1 1 1 1 1 1 1 1 1 1 1 1 1 1 1 1 1 1 1 1 1 1 1 1 1 1 1 1 1 1 1 1 1 1 1 1 1 1 1 1 1 1 0.010400784399958316 1 1 0.011270368023821168 1 1 1 0.0099932806118937841 1 1 1 1 0.010083653592672524 1 1 1 0.012378509199600292 1 1 0.0102661400247634 1 1 1 0.015021083160690861 1 0.014546667886900245 1 0.01262985848310638 1 1 1 1 1 0.012158155500518481 1 1 1 1 1 1 1 1 1 1 1 1 1 1 1 1 0.010585965338169044 1 1 0.0097242451653401629 1 1 1 1 1 1 0.0094942050131273919 1 1 0.011700141988070276 1 1 1 1 0.0085933068836618019 0.0092817961272406435 0.012001123874449316 0.011446007981506398 1 1 1 1 1 1 1 1 0.010029281335337648 0.011405075445342371 1 1 1 1 0.0094013906079496081 1 1 1 1 1 1 1 0.0098611854894619759 1 1 1 1 1 1 1 1 1 1 1 1 1 1 1 1 1 1 1 1 1 1 1 1 1 1 1 1 1 1 1 1 1 1 1 1 1 1 1 1 1 1 1 1 1 1 1 1 1 1 1 1 1 1 1 1 1 1 1 1 1 1 0.013270691780740409 1 1 1 1 1 0.010277675013693701 0.010018941609949518 1 1 1 0.011706389858314088 1 1 0.011658350290652182 1 0.0093949467145221423 1 1 0.010302385793802401 1 1 1 1 1 1 1 1 1 1 1 1 1 1 1 1 1 1 1 1 1 1 1 1 1 1 1 1 1 1 0.010002785188159993 1 1 1 1 1 1 0.0098097180420559441 1 1 1 0.010210957528352785 1 1 1 1 1 1 1 0.010035044097034594 1 1 1 1 1 1 1 1 0.0099898123716179732 1 1 0.010095669776968883 1 1 1 1 1 1 1 1 1 1 1 1 1 1 1 1 1 1 1 1 1 1 1 1 1 1 0.01005996994251928 1 1 1 1 1 1 1 1 1 0.0099763520367632565 1 1 1 1 1 1 1 1 1 0.011053814077897966 1 0.011109480853683646 1 1 0.0099732162257086081 1 0.010280732957020408 1 1 1 1 1 1 1 0.0094862161655603697 1 1 1 1 1 1 1 1 1 1 1 1 1 1 1 0.012749376379354508 1 1 0.011073341515381177 1 1 1 1 1 0.0098799236371206484 1 1 0.0098107376462959316 1 1 0.010285155364193567 0.011887613970679726 1 1 0.0098674958426428344 1 1 1 0.010003915463930261 1 0.0092543878895828425 1 1 1 1 0.013708462457448089 1 1 1 1 1 1 1 1 1 0.009965554045409962 1 1 1 1 1 1 1 1 0.010024116417748506 1 1 1 1 0.0091899777069958284 1 0.011668431359318667 1 1 1 1 1 0.0099116647412709358 1 0.0099360474304185428 0.010896115637209399 1 1 0.011001072852601178 1 1 1 1 1 0.01013008201835355 1 0.010404235033027001 1 1 1 1 1 0.010161711608281363 1 1 0.0097775551835556224 1 0.010058305743875697 1 1 1 1 1 1 0.0097002126188842578 1 1 1 1 0.0099791084778309957 1 1 0.010010896878861961 0.0099912641321759539 1 1 1 1 1 1 0.0099206359711036061 1 1 1 1 1 1 1 1 1 1 0.0098654804290776721 1 1 1 0.010325598111793803 1 1 1 1 1 1 1 1 1 1 0.010104052810582959 1 1 1 1 1 1 1 1 1 1 1 1 1 1 1 1 1 1 0.010092543008851384 1 1 1 1 1 0.010176567570120296 1 0.010109253650413727 1 1 1 1 1 1 1 1 1 1 0.013535279820829357 1 1 1 0.013996353610578761 1 1 1 1 1 1 1 1 1 1 1 1 1 1 1 1 0.011561477216956989 1 1 1 1 1 1 1 0.010571254343836569 1 1 1 1 0.0095532034891035161 1 1 1 1 0.010368672578689999 1 1 0.011329675291557298 1 1 0.0096687745530675308 1 1 1 1 0.0098340558020365305 0.010044557772996218 1 1 1 1 1 1 1 1 1 1 1 1 1 1 1 1 1 1 1 1 1 0.0099419059024386993 1 1 1 1 0.010197728639890104 1 1 1 1 1 1 1 1 0.010004953176202621 1 0.011469774547693453 0.0094114845928771375 1 1 1 0.0099479428427701588 1 1 1 1 1 1 1 1 1 0.0099792684127437744 1 0.012040971473847367 1 1 1 0.010006986879826311 1 1 0.019399831349021249 1 0.010108887316400944 1 1 1 1 0.016228211617483827 0.02035843667580833 1 1 1 1 0.0091810375236867532 1 0.0096819437945646954 0.010165499210043409 1 1 1 1 1 1 1 1 1 1 1 1 1 1 1 1 0.013172251489606126 1 1 1 1 1 1 1 1 1 1 1 1 1 1 1 1 1 1 1 1 1 1 1 1 1 1 1 1 1 1 1 1 1 1 1 1 1 0.010000671255119435 1 1 1 1 1 0.014432786491313092 1 1 1 0.010453060449238228 1 1 1 1 1 1 0.010461964118749754 0.011621360260374303 1 1 1 1 0.010474155382002383 1 1 1 1 1 1 1 0.011536608259204495 1 1 1 1 1 0.009579218836310955 1 1 1 0.0097966382017723522 1 1 1 1 0.0079443099166127476 1 1 1 1 1 1 0.0094365818168737469 1 1 1 1 1 1 1 1 1 1 1 0.011419690163709476 1 1 1 1 1 1 1 1 1 1 1 1 1 1 0.013355133621482825 1 1 0.010312552560645344 1 0.0094212353434808792 0.010489393418260152 1 1 1 1 1 1 1 1 1 1 1 1 1 1 1 1 1 1 1 1 1 0.0088638940277736243 1 1 1 1 1 1 1 1 1 1 1 1 1 1 1 1 1 1 1 1 1 1 1 1 1 1 1 1 1 1 1 1 1 1 1 1 1 1 1 1 1 1 1 1 1 1 1 1 1 1 1 1 1 1 1 1 1 1 1 1 1 1 1 1 1 1 0.010303380802574173 1 1 1 1 0.012015454979408754 0.01214882820287342 1 1 1 1 0.013516721745709221 1 1 1 1 1 1 1 1 1 1 1 1 0.01069444120892009 1 1 1 1 1 1 1 1 1 1 1 1 0.013938294005614861 1 1 1 1 1 1 1 1 1 1 0.013660647184144125 1 1 0.013352554362373497 1 1 1 1 1 1 1 1 1 1 1 1 1 1 1 1 1 1 1 1 1 1 1 1 1 0.014019556130729504 1 1 0.014268679141022323 1 1 0.010025229089144813 1 1 1 1 1 1 0.011836161248276552 1 1 1 1 0.010533225456535131 1 1 1 1 1 1 1 1 1 1 1 1 1 1 1 1 1 1 1 1 1 0.012138710008291125 1 1 1 1 1 1 1 1 1 1 1 1 1 1 1 0.010005692406298132 1 0.010005725877821399 1 1 1 1 1 1 1 1 1 1 1 1 1 0.010139848469737532 1 1 1 1 1 1 0.010287204469162526 1 1 0.010147355999424998 1 1 1 1 1 1 1 1 0.010394276134066679 1 1 1 1 1 1 0.010166187265873244 1 1 1 1 1 1 1 1 1 1 1 1 1 1 1 1 1 1 1 1 1 1 0.010704171807829031 1 1 1 1 1 1 1 1 1 1 1 1 1 1 1 1 1 1 1 1 1 1 0.010228088868193441 1 1 1 1 0.010943651444066917 1 1 0.0099816533848204533 1 1 0.0097639859030454086 1 1 1 1 1 0.012374778975812205 0.0095021051931779357 1 0.011462785961983323 0.009984631620991568 1 1 1 0.010039966949740969 1 1 0.010230855449126129 1 1 1 1 1 1 1 1 1 1 1 1 1 1 1 1 1 1 1 1 1 1 1 1 1 1 1 1 1 1 1 1 1 1 1 1 1 1 1 1 1 1 1 1 1 1 0.0098356217811351419 1 1 1 1 1 1 1 1 1 1 1 1 1 0.0096198923814829369 1 1 0.0090175963708092419 0.011670438100862143 1 1 1 1 1 1 1 0.0091181920883766851 1 1 0.0093084821111872468 1 1 1 0.0097966144166038629 1 1 1 0.010385385449228485 1 1 1 1 1 1 1 1 1 1 1 1 1 1 1 1 1 1 1 1 1 0.011722934356227076 1 1 1 1 0.01077431504848121 1 0.010805261828405572 1 0.0091550502614382717 1 1 0.010760963397672081 0.0087963939769392079 1 1 1 1 1 1 1 0.011082067187358151 1 0.0090756681290169554 1 1 1 1 1 1 1 1 1 0.010252000044272635 1 0.0099272533889115423 1 1 1 0.0094045407604418547 1 1 0.010051922382053878 1 0.010032287753239895 1 1 1 0.0095562408885770563 1 1 1 1 1 1 1 1 1 1 1 0.014876626328348512 1 1 1 1 0.015392509238228987 1 1 1 1 1 1 1 1 1 1 1 1 1 1 1 1 1 1 1 1 0.010922718848014455 1 1 1 0.016975061830325988 1 0.016377903238071735 0.015012320012628153 0.010043652838490492 1 1 1 1 1 1 1 1 1 1 1 1 0.012675710549500464 1 1 0.010001037489705454 1 0.013308757584099294 1 0.020287900966779446 1 1 0.010009297592928804 1 1 1 1 0.021282539664684838 1 1 1 1 1 1 1 0.01211142123715094 1 1 1 1 1 1 1 1 1 1 0.010027098098885195 1 1 1 1 1 1 1 1 1 1 1 1 1 0.020345211471306131 1 1 1 0.0095782156495158866 0.020871584154150274 0.0096839697189102063 1 1 1 1 1 1 0.0099771514960197063 1 1 1 1 1 0.011010692356539885 1 1 1 1 1 1 0.01850438981616518 1 1 0.01268120288192455 1 1 0.0099890675470333534 1 1 1 0.0099662802347067429 1 1 0.0092592233681952612 1 1 1 0.014642966133407626 1 1 0.010823729373454121 0.012912128244339379 1 1 1 1 0.012714640925740012 1 1 1 1 1 1 1 1 1 1 1 1 1 1 1 1 1 1 1 1 1 1 1 1 1 1 1 1 1 1 1 0.009707541340027083 1 1 1 1 1 1 1 1 0.0093660631896080003 1 1 1 1 1 1 1 1 1 1 1 0.012565767049591593 1 1 1 1 1 1 1 1 1 1 1 1 1 1 1 1 1 0.014150087941932349 1 1 1 1 1 0.010902363825116876 1 1 0.010586826329353906 1 1 1 1 1 1 0.0078620675040577716 1 1 1 0.0094512989586583995 1 1 0.0096071022893410574 1 1 1 0.024926675635765852 1 0.011194652338877859 1 1 1 1 0.010204942408593683 1 1 1 1 1 0.019621631862511896 0.022380678765631035 1 1 1 1 1 1 1 1 1 1 1 1 0.014087389975250247 1 1 1 1 1 1 1 1 1 1 1 1 1 0.020563239623408142 1 1 1 0.020449028117879693 1 1 0.010656823089252435 1 1 0.0097566987467447089 1 0.0098545392095921933 1 1 0.012576324030861244 1 1 1 1 0.011611227625643723 0.010011210602718892 1 0.011390067029979616 1 1 1 1 1 1 1 1 1 1 1 1 1 0.010003349083240434 1 1 1 1 1 0.01134761767827374 1 1 1 1 1 1 1 1 1 1 1 1 1 1 1 1 1 1 1 1 1 1 1 1 1 1 1 1 1 1 1 0.018971521617780745 1 1 1 1 0.019252140274005052 1 1 1 0.011193794310202135 1 1 1 1 1 1 1 1 1 1 1 1 1 1 1 0.017004764804595368 1 1 1 1 1 1 1 1 1 1 1 1 1 1 0.011820939887106698 0.012976742438283409 1 0.011196550456909619 1 0.010601972272040976 1 1 1 1 1 1 1 1 1 1 1 0.013465140744425789 1 1 1 1 1 0.011578118237869162 1 1 1 1 1 1 0.010264674080307987 1 1 1 1 1 1 1 1 1 1 1 1 1 1 1 1 1 1 1 1 1 1 1 1 0.009926556843262711 1 1 1 1 1 0.0099749764748375755 1 1 1 1 1 1 1 1 1 1 1 1 1 1 1 1 1 1 1 1 1 1 1 1 0.0097295152717234712 1 1 1 0.010083881308679057 1 1 1 1 1 1 1 1 1 1 1 1 1 1 1 1 1 1 1 1 1 1 1 1 1 1 1 1 1 1 0.01022778095695388 1 1 0.010228026900310458 1 1 1 1 1 1 1 1 1 0.011684633871968397 1 0.0099682022974715481 1 1 1 1 1 1 1 1 0.011560767950045091 1 1 1 0.013421210797808268 1 1 1 1 1 1 0.010487571839559709 1 1 1 0.013639312712453541 1 1 1 1 1 1 1 1 1 1 1 1 1 1 1 1 1 1 1 1 1 1 0.01013480291911281 1 1 1 1 1 1 0.010097427903755622 1 1 1 0.0099822089005197952 0.0091951980019347509 1 1 1 1 1 1 0.010800854135854864 0.010428672960890993 1 0.010001447601177684 1 0.010275449847530314 1 1 0.0086337169920826119 1 0.015781411193499545 1 1 1 1 0.010345572498897454 0.014636225686613501 1 1 1 1 1 1 1 1 1 0.010290261463305269 1 1 1 1 1 0.015931850694738656 1 1 1 1 1 1 1 1 1 1 0.014778634858752526 1 0.011929115812109002 1 1 1 1 1 1 1 1 1 1 1 1 1 1 1 1 1 1 1 1 1 1 1 1 0.010176265671838188 1 1 1 1 1 1 1 1 1 1 1 0.010102680316934053 1 0.0098182621161571181 1 1 1 1 1 1 1 1 1 1 1 0.009645487604781882 1 1 1 0.0099170314137336461 1 1 1 0.0096798881187598086 1 1 1 1 1 1 1 1 1 1 1 1 1 1 1 1 1 1 0.0095026629867312664 1 0.010116532692909953 1 1 1 1 1 0.012643239849214926 1 0.011010128957338935 1 1 1 0.010445810814457935 1 1 1 1 1 1 0.012487219835379364 1 1 0.012141065259678663 1 1 1 1 1 1 1 1 1 1 1 1 1 1 1 1 1 1 1 1 1 1 1 1 1 1 1 1 1 1 1 1 1 1 1 1 1 1 1 1 1 1 1 1 1 1 1 1 1 1 1 1 1 1 0.010161256962801868 1 1 1 1 1 0.010296059881914678 1 1 1 1 1 1 1 1 1 1 1 1 1 1 1 1 1 1 1 1 1 1 1 1 1 1 1 1 1 1 1 1 1 1 1 1 1 1 1 1 1 1 1 1 1 1 1 1 1 1 1 1 1 1 1 1 1 1 1 1 1 1 0.012705739372298202 1 1 1 1 0.0086624591367894417 1 1 1 1 1 1 1 1 1 1 1 1 1 1 1 1 1 0.012665839618747654 1 1 1 0.015059690418853945 1 0.013647109852451144 1 1 1 1 1 1 1 1 1 1 1 1 1 1 1 1 0.0092118862538501066 1 1 1 1 0.011293158805895398 1 1 1 1 1 1 1 1 1 1 1 1 1 1 1 1 1 0.0077511026399145087 1 0.010217773348760041 1 1 0.012394090381323542 0.0081827350928813623 1 0.012690858926938184 1 1 1 1 0.011198090006907628 1 1 1 0.013697290281715254 1 1 1 1 1 1 1 1 0.010036126373995008 1 1 1 0.016289357487488495 1 1 1 1 1 0.0072959872803110889 1 1 1 0.012097148557520252 0.011345479934757078 1 1 1 0.009970466480396678 1 0.010708887237137437 1 1 1 1 1 1 1 1 1 1 1 1 1 1 1 1 1 1 1 1 1 1 1 1 0.015394465736159364 0.012055283292970502 1 1 1 1 1 0.013025530385140309 0.010142157910110104 1 1 1 1 1 0.014018848815562755 1 1 1 1 1 1 1 1 1 1 1 1 1 0.01576620142161279 1 1 1 1 1 0.012361769283248026 1 1 1 1 1 0.01409370402375471 1 1 1 1 1 1 1 1 1 1 1 0.010250129437926195 1 1 1 1 1 1 1 1 1 1 1 1 0.011043473124071801 0.010933844639772278 1 1 1 1 1 1 1 1 1 1 0.010764726626061131 1 1 1 1 1 0.010493435049678996 1 1 1 1 1 1 1 1 1 0.01005632557798398 1 0.010735107895441225 1 1 1 1 1 1 1 1 1 1 1 1 1 0.014018578787615893 1 1 1 0.010136113229549694 1 0.011188527826755376 1 1 1 0.018117188842250161 1 0.016436138270875353 1 1 1 1 1 1 1 1 1 0.015704117371261622 1 1 1 1 1 1 1 1 1 1 1 1 1 1 1 1 1 1 1 1 1 1 1 1 1 0.016861035534730104 1 1 1 1 1 1 1 1 0.016286494986166213 1 1 0.0099972335633110171 1 1 0.0088350171871640817 1 0.010151417773588103 1 1 0.017200715630821824 1 1 1 0.010218307283211429 1 1 1 1 1 1 1 1 1 1 0.010586345360469804 1 1 1 1 1 0.00919767301003541 1 0.0094076171164922621 1 0.0097617313570714098 1 1 1 1 1 1 1 0.010870032600613264 0.0092795965997922499 1 1 1 0.010552252219145576 0.0078827205576296171 1 0.0099934256993637095 1 1 1 1 1 0.0095119652177927654 1 1 0.0098569529025464304 1 1 1 1 1 1 0.0095094640770772721 1 1 1 0.0095510968368758709 1 1 1 1 1 0.014447432370795203 1 0.010332103935515409 1 0.016088310037231816 1 1 1 1 1 1 1 1 1 1 1 1 1 1 1 1 1 1 1 1 1 1 1 1 1 1 1 1 1 0.012931300089182845 1 1 1 1 1 1 1 0.0065578390365613887 1 1 1 0.018339225959669365 1 0.020261959900340201 1 1 0.011485612187531628 1 1 1 0.0091472413295317946 1 1 1 1 0.019383844632222189 1 1 1 1 1 1 1 1 1 1 1 1 1 0.016561923744328647 1 1 1 1 1 1 0.012494259802373776 1 1 1 1 1 1 1 1 1 1 1 1 0.0096858558658010942 1 1 1 1 1 1 0.0093771618935948459 1 1 1 1 1 1 0.018558551151707195 1 0.017571878803366033 1 1 1 0.0095470843086643935 1 1 1 1 1 1 0.0098557782808706453 1 1 1 1 1 1 1 1 1 1 1 1 1 1 1 1 0.014238974385181213 1 1 1 1 1 1 1 1 1 
</DataArray>
</CellData>
</Piece>
</UnstructuredGrid>
</VTKFile>
