<?xml version="1.0"?>
<VTKFile type="UnstructuredGrid" version="0.1" byte_order="LittleEndian">
<UnstructuredGrid>
<Piece NumberOfPoints="29622" NumberOfCells="10370">
<Points>
<DataArray type="Float64" NumberOfComponents="3" format="ascii">
-0.49485421638997129 -0.48903540387187389 0 -0.47966379557855132 -0.48208057761239048 0 -0.45751766390445858 -0.5 0 -0.49485421638997129 -0.48903540387187389 0 -0.48132784707583531 -0.46780503325861211 0 -0.5 -0.39304332915441309 0 -0.49485421638997129 -0.48903540387187389 0 -0.5 -0.5 0 -0.5 -0.39304332915441309 0 -0.49485421638997129 -0.48903540387187389 0 -0.5 -0.5 0 -0.45751766390445858 -0.5 0 -0.49485421638997129 -0.48903540387187389 0 -0.47966379557855132 -0.48208057761239048 0 -0.48132784707583531 -0.46780503325861211 0 -0.49485421638997129 -0.48903540387187389 0 -0.48132784707583531 -0.46780503325861211 0 -0.47966379557855132 -0.48208057761239048 0 -0.47195399330063897 -0.473203497292849 0 -0.48132784707583531 -0.46780503325861211 0 -0.47966379557855132 -0.48208057761239048 0 -0.47195399330063897 -0.473203497292849 0 -0.45751766390445858 -0.5 0 -0.45751766390445858 -0.5 0 -0.42620230597632591 -0.50000000000000089 0 -0.43480942387586652 -0.48036079921444441 0 -0.47195399330063897 -0.473203497292849 0 -0.45305143556040289 -0.47753612750543212 0 -0.45071632046259408 -0.45996853728771042 0 -0.47195399330063897 -0.473203497292849 0 -0.45751766390445858 -0.5 0 -0.45305143556040289 -0.47753612750543212 0 -0.45305143556040289 -0.47753612750543212 0 -0.43480942387586652 -0.48036079921444441 0 -0.43627077375768197 -0.46331343798553171 0 -0.45751766390445858 -0.5 0 -0.45305143556040289 -0.47753612750543212 0 -0.43480942387586652 -0.48036079921444441 0 -0.45047061609287048 -0.44376226569403138 0 -0.44104809386808058 -0.43352676383870747 0 -0.42947864762454918 -0.4467335772825719 0 -0.45047061609287048 -0.44376226569403138 0 -0.45071632046259408 -0.45996853728771042 0 -0.42947864762454918 -0.4467335772825719 0 -0.45305143556040289 -0.47753612750543212 0 -0.45071632046259408 -0.45996853728771042 0 -0.43627077375768197 -0.46331343798553171 0 -0.45071632046259408 -0.45996853728771042 0 -0.42947864762454918 -0.4467335772825719 0 -0.45071632046259408 -0.45996853728771042 0 -0.43627077375768197 -0.46331343798553171 0 -0.42947864762454918 -0.4467335772825719 0 -0.47195399330063897 -0.473203497292849 0 -0.45071632046259408 -0.45996853728771042 0 -0.4676094613981967 -0.46165311892656757 0 -0.47195399330063897 -0.473203497292849 0 -0.45071632046259408 -0.45996853728771042 0 -0.45071632046259408 -0.45996853728771042 0 -0.45984069590491328 -0.45401373694973829 0 -0.4676094613981967 -0.46165311892656757 0 -0.4676094613981967 -0.46165311892656757 0 -0.46780147776169873 -0.44657466264535067 0 -0.45984069590491328 -0.45401373694973829 0 -0.4676094613981967 -0.46165311892656757 0 -0.46780147776169873 -0.44657466264535067 0 -0.45047061609287048 -0.44376226569403138 0 -0.45984069590491328 -0.45401373694973829 0 -0.46780147776169873 -0.44657466264535067 0 -0.45047061609287048 -0.44376226569403138 0 -0.45071632046259408 -0.45996853728771042 0 -0.45984069590491328 -0.45401373694973829 0 -0.45047061609287048 -0.44376226569403138 0 -0.46780147776169873 -0.44657466264535067 0 -0.45349168221317732 -0.42411466204654691 0 -0.46780147776169873 -0.44657466264535067 0 -0.48132784707583531 -0.46780503325861211 0 -0.4676094613981967 -0.46165311892656757 0 -0.46780147776169873 -0.44657466264535067 0 -0.48132784707583531 -0.46780503325861211 0 -0.47195399330063897 -0.473203497292849 0 -0.4676094613981967 -0.46165311892656757 0 -0.48132784707583531 -0.46780503325861211 0 -0.46780147776169873 -0.44657466264535067 0 -0.5 -0.39304332915441309 0 -0.46811911363238717 -0.42163169162870001 0 -0.46780147776169873 -0.44657466264535067 0 -0.48132784707583531 -0.46780503325861211 0 -0.5 -0.39304332915441309 0 -0.5 -0.39304332915441309 0 -0.46843674950307651 -0.39668872061204918 0 -0.46811911363238717 -0.42163169162870001 0 -0.5 -0.39304332915441309 0 -0.46843674950307651 -0.39668872061204918 0 -0.46875438537376568 -0.37174574959539841 0 -0.46843674950307651 -0.39668872061204918 0 -0.46875438537376568 -0.37174574959539841 0 -0.45710457142705352 -0.38504504192178968 0 -0.46843674950307651 -0.39668872061204918 0 -0.46875438537376568 -0.37174574959539841 0 -0.45710457142705352 -0.38504504192178968 0 -0.46843674950307651 -0.39668872061204918 0 -0.45814675552769368 -0.40820001903729841 0 -0.45710457142705352 -0.38504504192178968 0 -0.43918188666465519 -0.40165466144774348 0 -0.45814675552769368 -0.40820001903729841 0 -0.45710457142705352 -0.38504504192178968 0 -0.43918188666465519 -0.40165466144774348 0 -0.44104219080419582 -0.37347083416253418 0 -0.45710457142705352 -0.38504504192178968 0 -0.4572122904922577 -0.36774700747612332 0 -0.44104219080419582 -0.37347083416253418 0 -0.46780147776169873 -0.44657466264535067 0 -0.45349168221317732 -0.42411466204654691 0 -0.46811911363238717 -0.42163169162870001 0 -0.46780147776169873 -0.44657466264535067 0 -0.45349168221317732 -0.42411466204654691 0 -0.46780147776169873 -0.44657466264535067 0 -0.46811911363238717 -0.42163169162870001 0 -0.46843674950307651 -0.39668872061204918 0 -0.46811911363238717 -0.42163169162870001 0 -0.45814675552769368 -0.40820001903729841 0 -0.45349168221317732 -0.42411466204654691 0 -0.46811911363238717 -0.42163169162870001 0 -0.45814675552769368 -0.40820001903729841 0 -0.46843674950307651 -0.39668872061204918 0 -0.46811911363238717 -0.42163169162870001 0 -0.43918188666465519 -0.40165466144774348 0 -0.45349168221317732 -0.42411466204654691 0 -0.43918188666465519 -0.40165466144774348 0 -0.45349168221317732 -0.42411466204654691 0 -0.45814675552769368 -0.40820001903729841 0 -0.43918188666465519 -0.40165466144774348 0 -0.45349168221317732 -0.42411466204654691 0 -0.43003658358618901 -0.42326990374997903 0 -0.45349168221317732 -0.42411466204654691 0 -0.44104809386808058 -0.43352676383870747 0 -0.43003658358618901 -0.42326990374997903 0 -0.45047061609287048 -0.44376226569403138 0 -0.45349168221317732 -0.42411466204654691 0 -0.44104809386808058 -0.43352676383870747 0 -0.44104809386808058 -0.43352676383870747 0 -0.43003658358618901 -0.42326990374997903 0 -0.42947864762454918 -0.4467335772825719 0 -0.43003658358618901 -0.42326990374997903 0 -0.40824097478650417 -0.43349861727743327 0 -0.42947864762454918 -0.4467335772825719 0 -0.43918188666465519 -0.40165466144774348 0 -0.43003658358618901 -0.42326990374997903 0 -0.41939074694921452 -0.39847550860422248 0 -0.40933736888919142 -0.41582472602523213 0 -0.41939074694921452 -0.39847550860422248 0 -0.39691773321276591 -0.40451995308690569 0 -0.43003658358618901 -0.42326990374997903 0 -0.40933736888919142 -0.41582472602523213 0 -0.41939074694921452 -0.39847550860422248 0 -0.43003658358618901 -0.42326990374997903 0 -0.40933736888919142 -0.41582472602523213 0 -0.40824097478650417 -0.43349861727743327 0 -0.43918188666465519 -0.40165466144774348 0 -0.42487209111613222 -0.37919466084894071 0 -0.42487209111613222 -0.37919466084894071 0 -0.44104219080419582 -0.37347083416253418 0 -0.43918188666465519 -0.40165466144774348 0 -0.42487209111613222 -0.37919466084894071 0 -0.44104219080419582 -0.37347083416253418 0 -0.43918188666465519 -0.40165466144774348 0 -0.42487209111613222 -0.37919466084894071 0 -0.41939074694921452 -0.39847550860422248 0 -0.41939074694921452 -0.39847550860422248 0 -0.40300003565967968 -0.38693684284679258 0 -0.39691773321276591 -0.40451995308690569 0 -0.42487209111613222 -0.37919466084894071 0 -0.40300003565967968 -0.38693684284679258 0 -0.42487209111613222 -0.37919466084894071 0 -0.41939074694921452 -0.39847550860422248 0 -0.40300003565967968 -0.38693684284679258 0 -0.42487209111613222 -0.37919466084894071 0 -0.40300003565967968 -0.38693684284679258 0 -0.40034883944948352 -0.37081685356611482 0 -0.40300003565967968 -0.38693684284679258 0 -0.38720811424459922 -0.38269289919929472 0 -0.40034883944948352 -0.37081685356611482 0 -0.40300003565967968 -0.38693684284679258 0 -0.39691773321276591 -0.40451995308690569 0 -0.38112798020322552 -0.39467902484464013 0 -0.40300003565967968 -0.38693684284679258 0 -0.38112798020322552 -0.39467902484464013 0 -0.39691773321276591 -0.40451995308690569 0 -0.38092085950929938 -0.40584578046397218 0 -0.38112798020322552 -0.39467902484464013 0 -0.38092085950929938 -0.40584578046397218 0 -0.38112798020322552 -0.39467902484464013 0 -0.37260182642857559 -0.39831487258102538 0 -0.38112798020322552 -0.39467902484464013 0 -0.3755243739538135 -0.38933559825649589 0 -0.37260182642857559 -0.39831487258102538 0 -0.40300003565967968 -0.38693684284679258 0 -0.38112798020322552 -0.39467902484464013 0 -0.38720811424459922 -0.38269289919929472 0 -0.38112798020322552 -0.39467902484464013 0 -0.38066855662570548 -0.38741133800680971 0 -0.38720811424459922 -0.38269289919929472 0 -0.3755243739538135 -0.38933559825649589 0 -0.37881375810118412 -0.38293782972680801 0 -0.37166373307095851 -0.38075684139963512 0 -0.38066855662570548 -0.38741133800680971 0 -0.37881375810118412 -0.38293782972680801 0 -0.38720811424459922 -0.38269289919929472 0 -0.38112798020322552 -0.39467902484464013 0 -0.38066855662570548 -0.38741133800680971 0 -0.3755243739538135 -0.38933559825649589 0 -0.38066855662570548 -0.38741133800680971 0 -0.3755243739538135 -0.38933559825649589 0 -0.37881375810118412 -0.38293782972680801 0 -0.37881375810118412 -0.38293782972680801 0 -0.37785856937865758 -0.37355414846445112 0 -0.37166373307095851 -0.38075684139963512 0 -0.37881375810118412 -0.38293782972680801 0 -0.38720811424459922 -0.38269289919929472 0 -0.37785856937865758 -0.37355414846445112 0 -0.40824097478650417 -0.43349861727743327 0 -0.38700330194845922 -0.4202636572722947 0 -0.40824097478650417 -0.43349861727743327 0 -0.38700330194845922 -0.4202636572722947 0 -0.38330031069482279 -0.4443361399444733 0 -0.40933736888919142 -0.41582472602523213 0 -0.40824097478650417 -0.43349861727743327 0 -0.38700330194845922 -0.4202636572722947 0 -0.40933736888919142 -0.41582472602523213 0 -0.39691773321276591 -0.40451995308690569 0 -0.38700330194845922 -0.4202636572722947 0 -0.38700330194845922 -0.4202636572722947 0 -0.36576562911041288 -0.40702869726715851 0 -0.39691773321276591 -0.40451995308690569 0 -0.38092085950929938 -0.40584578046397218 0 -0.38700330194845922 -0.4202636572722947 0 -0.38092085950929938 -0.40584578046397218 0 -0.38700330194845922 -0.4202636572722947 0 -0.36576562911041288 -0.40702869726715851 0 -0.38700330194845922 -0.4202636572722947 0 -0.38330031069482279 -0.4443361399444733 0 -0.36899964560098858 -0.42578151992596419 0 -0.38330031069482279 -0.4443361399444733 0 -0.36899964560098858 -0.42578151992596419 0 -0.38330031069482279 -0.4443361399444733 0 -0.37270893307682018 -0.44729025694925029 0 -0.36899964560098858 -0.42578151992596419 0 -0.38330031069482279 -0.4443361399444733 0 -0.39760097578865711 -0.46289075996298262 0 -0.40782041891334347 -0.4503593079750462 0 -0.40824097478650417 -0.43349861727743327 0 -0.38330031069482279 -0.4443361399444733 0 -0.40782041891334347 -0.4503593079750462 0 -0.38330031069482279 -0.4443361399444733 0 -0.37641822055265189 -0.46879899397253638 0 -0.37270893307682018 -0.44729025694925029 0 -0.38330031069482279 -0.4443361399444733 0 -0.39760097578865711 -0.46289075996298262 0 -0.38330031069482279 -0.4443361399444733 0 -0.39760097578865711 -0.46289075996298262 0 -0.37641822055265189 -0.46879899397253638 0 -0.39055325385004619 -0.48262702678340219 0 -0.37641822055265189 -0.46879899397253638 0 -0.36916285269217869 -0.5 0 -0.39760097578865711 -0.46289075996298262 0 -0.39055325385004619 -0.48262702678340219 0 -0.37641822055265189 -0.46879899397253638 0 -0.39055325385004619 -0.48262702678340219 0 -0.39768257933425227 -0.5 0 -0.36916285269217869 -0.5 0 -0.39055325385004619 -0.48262702678340219 0 -0.39768257933425227 -0.5 0 -0.41190164088249132 -0.48144537998149178 0 -0.39760097578865711 -0.46289075996298262 0 -0.39055325385004619 -0.48262702678340219 0 -0.41190164088249132 -0.48144537998149178 0 -0.39760097578865711 -0.46289075996298262 0 -0.41190164088249132 -0.48144537998149178 0 -0.39760097578865711 -0.46289075996298262 0 -0.41190164088249132 -0.48144537998149178 0 -0.42048118567218379 -0.46433744540776978 0 -0.39768257933425227 -0.5 0 -0.41190164088249132 -0.48144537998149178 0 -0.42620230597632591 -0.50000000000000089 0 -0.41190164088249132 -0.48144537998149178 0 -0.42620230597632591 -0.50000000000000089 0 -0.41190164088249132 -0.48144537998149178 0 -0.42620230597632591 -0.50000000000000089 0 -0.43480942387586652 -0.48036079921444441 0 -0.41190164088249132 -0.48144537998149178 0 -0.43480942387586652 -0.48036079921444441 0 -0.42048118567218379 -0.46433744540776978 0 -0.43480942387586652 -0.48036079921444441 0 -0.43627077375768197 -0.46331343798553171 0 -0.42048118567218379 -0.46433744540776978 0 -0.43627077375768197 -0.46331343798553171 0 -0.42947864762454918 -0.4467335772825719 0 -0.42048118567218379 -0.46433744540776978 0 -0.40824097478650417 -0.43349861727743327 0 -0.42947864762454918 -0.4467335772825719 0 -0.40824097478650417 -0.43349861727743327 0 -0.42947864762454918 -0.4467335772825719 0 -0.40782041891334347 -0.4503593079750462 0 -0.42947864762454918 -0.4467335772825719 0 -0.40782041891334347 -0.4503593079750462 0 -0.42048118567218379 -0.46433744540776978 0 -0.39760097578865711 -0.46289075996298262 0 -0.40782041891334347 -0.4503593079750462 0 -0.42048118567218379 -0.46433744540776978 0 -0.44010656732289788 -0.26085838252996851 0 -0.43229081015205362 -0.25417199456554668 0 -0.44919232957202387 -0.24371303005310249 0 -0.44010656732289788 -0.26085838252996851 0 -0.4585662804787824 -0.26837484511018372 0 -0.44919232957202387 -0.24371303005310249 0 -0.4585662804787824 -0.26837484511018372 0 -0.43331385691330632 -0.27523940154096399 0 -0.4585662804787824 -0.26837484511018372 0 -0.44508278518625372 -0.29022146997540149 0 -0.43331385691330632 -0.27523940154096399 0 -0.44010656732289788 -0.26085838252996851 0 -0.4585662804787824 -0.26837484511018372 0 -0.43331385691330632 -0.27523940154096399 0 -0.4585662804787824 -0.26837484511018372 0 -0.47428105998689429 -0.28423500876683627 0 -0.44508278518625372 -0.29022146997540149 0 -0.4585662804787824 -0.26837484511018372 0 -0.47206243562756728 -0.25762347179270151 0 -0.47428105998689429 -0.28423500876683627 0 -0.4585662804787824 -0.26837484511018372 0 -0.47206243562756728 -0.25762347179270151 0 -0.44919232957202387 -0.24371303005310249 0 -0.47206243562756728 -0.25762347179270151 0 -0.5 -0.25346781598992812 0 -0.47428105998689429 -0.28423500876683627 0 -0.5 -0.25346781598992812 0 -0.47428105998689429 -0.28423500876683627 0 -0.5 -0.31254948970543461 0 -0.47428105998689429 -0.28423500876683627 0 -0.45729638832408492 -0.30885946939829773 0 -0.5 -0.31254948970543461 0 -0.47428105998689429 -0.28423500876683627 0 -0.45729638832408492 -0.30885946939829773 0 -0.44508278518625372 -0.29022146997540149 0 -0.45729638832408492 -0.30885946939829773 0 -0.44508278518625372 -0.29022146997540149 0 -0.42853737653284157 -0.30510640683750923 0 -0.45729638832408492 -0.30885946939829773 0 -0.43699745755478858 -0.32306842198357949 0 -0.42853737653284157 -0.30510640683750923 0 -0.5 -0.39304332915441309 0 -0.5 -0.31254948970543461 0 -0.47241259606178537 -0.3558508069929105 0 -0.45729638832408492 -0.30885946939829773 0 -0.45839405500437219 -0.33290437505148701 0 -0.43699745755478858 -0.32306842198357949 0 -0.45839405500437219 -0.33290437505148701 0 -0.43067678219142541 -0.34169949368338881 0 -0.43699745755478858 -0.32306842198357949 0 -0.45839405500437219 -0.33290437505148701 0 -0.45127087866163201 -0.35662662241956261 0 -0.43067678219142541 -0.34169949368338881 0 -0.45729638832408492 -0.30885946939829773 0 -0.45839405500437219 -0.33290437505148701 0 -0.5 -0.31254948970543461 0 -0.45839405500437219 -0.33290437505148701 0 -0.5 -0.31254948970543461 0 -0.47241259606178537 -0.3558508069929105 0 -0.5 -0.39304332915441309 0 -0.47241259606178537 -0.3558508069929105 0 -0.46875438537376568 -0.37174574959539841 0 -0.47241259606178537 -0.3558508069929105 0 -0.46875438537376568 -0.37174574959539841 0 -0.4572122904922577 -0.36774700747612332 0 -0.47241259606178537 -0.3558508069929105 0 -0.4572122904922577 -0.36774700747612332 0 -0.45127087866163201 -0.35662662241956261 0 -0.45710457142705352 -0.38504504192178968 0 -0.46875438537376568 -0.37174574959539841 0 -0.4572122904922577 -0.36774700747612332 0 -0.45839405500437219 -0.33290437505148701 0 -0.47241259606178537 -0.3558508069929105 0 -0.45127087866163201 -0.35662662241956261 0 -0.45127087866163201 -0.35662662241956261 0 -0.43067678219142541 -0.34169949368338881 0 -0.45127087866163201 -0.35662662241956261 0 -0.43987209026751978 -0.36123248436258282 0 -0.43067678219142541 -0.34169949368338881 0 -0.4572122904922577 -0.36774700747612332 0 -0.43987209026751978 -0.36123248436258282 0 -0.44104219080419582 -0.37347083416253418 0 -0.4572122904922577 -0.36774700747612332 0 -0.45127087866163201 -0.35662662241956261 0 -0.43987209026751978 -0.36123248436258282 0 -0.4572122904922577 -0.36774700747612332 0 -0.44104219080419582 -0.37347083416253418 0 -0.42487209111613222 -0.37919466084894071 0 -0.44104219080419582 -0.37347083416253418 0 -0.4275783003043449 -0.36113725079068981 0 -0.43987209026751978 -0.36123248436258282 0 -0.44104219080419582 -0.37347083416253418 0 -0.4275783003043449 -0.36113725079068981 0 -0.4275783003043449 -0.36113725079068981 0 -0.4100686429142083 -0.35595984562379013 0 -0.43067678219142541 -0.34169949368338881 0 -0.43987209026751978 -0.36123248436258282 0 -0.4275783003043449 -0.36113725079068981 0 -0.43067678219142541 -0.34169949368338881 0 -0.4100686429142083 -0.35595984562379013 0 -0.40035709127217922 -0.33926472118523682 0 -0.43067678219142541 -0.34169949368338881 0 -0.42487209111613222 -0.37919466084894071 0 -0.4275783003043449 -0.36113725079068981 0 -0.4100686429142083 -0.35595984562379013 0 -0.42487209111613222 -0.37919466084894071 0 -0.4100686429142083 -0.35595984562379013 0 -0.42487209111613222 -0.37919466084894071 0 -0.4100686429142083 -0.35595984562379013 0 -0.40034883944948352 -0.37081685356611482 0 -0.40034883944948352 -0.37081685356611482 0 -0.38747576214499502 -0.36767407004114872 0 -0.38946839061728628 -0.35244280283672202 0 -0.4100686429142083 -0.35595984562379013 0 -0.40034883944948352 -0.37081685356611482 0 -0.38946839061728628 -0.35244280283672202 0 -0.38720811424459922 -0.38269289919929472 0 -0.40034883944948352 -0.37081685356611482 0 -0.38747576214499502 -0.36767407004114872 0 -0.38720811424459922 -0.38269289919929472 0 -0.38747576214499502 -0.36767407004114872 0 -0.37785856937865758 -0.37355414846445112 0 -0.38747576214499502 -0.36767407004114872 0 -0.3803946439638905 -0.36232002362510379 0 -0.38946839061728628 -0.35244280283672202 0 -0.3803946439638905 -0.36232002362510379 0 -0.37401747194061841 -0.35596288952493021 0 -0.37296559159509202 -0.36681209433909601 0 -0.38747576214499502 -0.36767407004114872 0 -0.3803946439638905 -0.36232002362510379 0 -0.37785856937865758 -0.37355414846445112 0 -0.3803946439638905 -0.36232002362510379 0 -0.37785856937865758 -0.37355414846445112 0 -0.37296559159509202 -0.36681209433909601 0 -0.38946839061728628 -0.35244280283672202 0 -0.38238774798475528 -0.33591035907699268 0 -0.37448260438615971 -0.34426094393418077 0 -0.38946839061728628 -0.35244280283672202 0 -0.37401747194061841 -0.35596288952493021 0 -0.37448260438615971 -0.34426094393418077 0 -0.3803946439638905 -0.36232002362510379 0 -0.38946839061728628 -0.35244280283672202 0 -0.37401747194061841 -0.35596288952493021 0 -0.4100686429142083 -0.35595984562379013 0 -0.38946839061728628 -0.35244280283672202 0 -0.40035709127217922 -0.33926472118523682 0 -0.40035709127217922 -0.33926472118523682 0 -0.38797351392448293 -0.32568087391539041 0 -0.41008268572121848 -0.32677236494721501 0 -0.38946839061728628 -0.35244280283672202 0 -0.40035709127217922 -0.33926472118523682 0 -0.38238774798475528 -0.33591035907699268 0 -0.38238774798475528 -0.33591035907699268 0 -0.38797351392448293 -0.32568087391539041 0 -0.37059884822804079 -0.32608535496615632 0 -0.40035709127217922 -0.33926472118523682 0 -0.38238774798475528 -0.33591035907699268 0 -0.38797351392448293 -0.32568087391539041 0 -0.38238774798475528 -0.33591035907699268 0 -0.37059884822804079 -0.32608535496615632 0 -0.37245731417969702 -0.33680980758053142 0 -0.38238774798475528 -0.33591035907699268 0 -0.37245731417969702 -0.33680980758053142 0 -0.37448260438615971 -0.34426094393418077 0 -0.38797351392448293 -0.32568087391539041 0 -0.37059884822804079 -0.32608535496615632 0 -0.37492612108969181 -0.3142072071057001 0 -0.38797351392448293 -0.32568087391539041 0 -0.38948858925101182 -0.31184523621104121 0 -0.37492612108969181 -0.3142072071057001 0 -0.41008268572121848 -0.32677236494721501 0 -0.40729960469588677 -0.30229803823159662 0 -0.38948858925101182 -0.31184523621104121 0 -0.38797351392448293 -0.32568087391539041 0 -0.41008268572121848 -0.32677236494721501 0 -0.38948858925101182 -0.31184523621104121 0 -0.41008268572121848 -0.32677236494721501 0 -0.38948858925101182 -0.31184523621104121 0 -0.40035709127217922 -0.33926472118523682 0 -0.41008268572121848 -0.32677236494721501 0 -0.43067678219142541 -0.34169949368338881 0 -0.41008268572121848 -0.32677236494721501 0 -0.43067678219142541 -0.34169949368338881 0 -0.41008268572121848 -0.32677236494721501 0 -0.43067678219142541 -0.34169949368338881 0 -0.43699745755478858 -0.32306842198357949 0 -0.41008268572121848 -0.32677236494721501 0 -0.43699745755478858 -0.32306842198357949 0 -0.42853737653284157 -0.30510640683750923 0 -0.44508278518625372 -0.29022146997540149 0 -0.42349010575833401 -0.29031445008222201 0 -0.43331385691330632 -0.27523940154096399 0 -0.44508278518625372 -0.29022146997540149 0 -0.42853737653284157 -0.30510640683750923 0 -0.42349010575833401 -0.29031445008222201 0 -0.42349010575833401 -0.29031445008222201 0 -0.40806143334783002 -0.28210395797174442 0 -0.40729960469588677 -0.30229803823159662 0 -0.42349010575833401 -0.29031445008222201 0 -0.40806143334783002 -0.28210395797174442 0 -0.43331385691330632 -0.27523940154096399 0 -0.41008268572121848 -0.32677236494721501 0 -0.42853737653284157 -0.30510640683750923 0 -0.40729960469588677 -0.30229803823159662 0 -0.42853737653284157 -0.30510640683750923 0 -0.42349010575833401 -0.29031445008222201 0 -0.40729960469588677 -0.30229803823159662 0 -0.40729960469588677 -0.30229803823159662 0 -0.38948858925101182 -0.31184523621104121 0 -0.38280900978235383 -0.28896851440252469 0 -0.38948858925101182 -0.31184523621104121 0 -0.38280900978235383 -0.28896851440252469 0 -0.37406820646594491 -0.30170550445788319 0 -0.38948858925101182 -0.31184523621104121 0 -0.37406820646594491 -0.30170550445788319 0 -0.37492612108969181 -0.3142072071057001 0 -0.40806143334783002 -0.28210395797174442 0 -0.40729960469588677 -0.30229803823159662 0 -0.38280900978235383 -0.28896851440252469 0 -0.40806143334783002 -0.28210395797174442 0 -0.38280900978235383 -0.28896851440252469 0 -0.40806143334783002 -0.28210395797174442 0 -0.38280900978235383 -0.28896851440252469 0 -0.39871185054603869 -0.27677795884715362 0 -0.39871185054603869 -0.27677795884715362 0 -0.39860938059960438 -0.26904337260100453 0 -0.41445257499164462 -0.27057269373934362 0 -0.39860938059960438 -0.26904337260100453 0 -0.39810996818713362 -0.26144843047246158 0 -0.41445257499164462 -0.27057269373934362 0 -0.39860938059960438 -0.26904337260100453 0 -0.38962685400876068 -0.27320125552115049 0 -0.39095110290033352 -0.26488203789557568 0 -0.39871185054603869 -0.27677795884715362 0 -0.39860938059960438 -0.26904337260100453 0 -0.38962685400876068 -0.27320125552115049 0 -0.38280900978235383 -0.28896851440252469 0 -0.38962685400876068 -0.27320125552115049 0 -0.37813623778559691 -0.2757487650759663 0 -0.38280900978235383 -0.28896851440252469 0 -0.39871185054603869 -0.27677795884715362 0 -0.38962685400876068 -0.27320125552115049 0 -0.38962685400876068 -0.27320125552115049 0 -0.38159921527471208 -0.26605342888719852 0 -0.39095110290033352 -0.26488203789557568 0 -0.38962685400876068 -0.27320125552115049 0 -0.38159921527471208 -0.26605342888719852 0 -0.37813623778559691 -0.2757487650759663 0 -0.38159921527471208 -0.26605342888719852 0 -0.37813623778559691 -0.2757487650759663 0 -0.37060646000876091 -0.2656695854631318 0 -0.38095164741168391 -0.2563498561797824 0 -0.3946454953443147 -0.25111581076896788 0 -0.36635813716559879 -0.25495480734123471 0 -0.3946454953443147 -0.25111581076896788 0 -0.36635813716559879 -0.25495480734123471 0 -0.37474812662003493 -0.2480042625025452 0 -0.3946454953443147 -0.25111581076896788 0 -0.36635813716559879 -0.25495480734123471 0 -0.38159921527471208 -0.26605342888719852 0 -0.37438277794060287 -0.2608297426875657 0 -0.37060646000876091 -0.2656695854631318 0 -0.38159921527471208 -0.26605342888719852 0 -0.38095164741168391 -0.2563498561797824 0 -0.37438277794060287 -0.2608297426875657 0 -0.38159921527471208 -0.26605342888719852 0 -0.38625279174344318 -0.26037761955139449 0 -0.39095110290033352 -0.26488203789557568 0 -0.38159921527471208 -0.26605342888719852 0 -0.38095164741168391 -0.2563498561797824 0 -0.38625279174344318 -0.26037761955139449 0 -0.38625279174344318 -0.26037761955139449 0 -0.3885141392956068 -0.25526433030317458 0 -0.39212884756338268 -0.25875179694052691 0 -0.38625279174344318 -0.26037761955139449 0 -0.39095110290033352 -0.26488203789557568 0 -0.39212884756338268 -0.25875179694052691 0 -0.38095164741168391 -0.2563498561797824 0 -0.3885141392956068 -0.25526433030317458 0 -0.3946454953443147 -0.25111581076896788 0 -0.38095164741168391 -0.2563498561797824 0 -0.38625279174344318 -0.26037761955139449 0 -0.3885141392956068 -0.25526433030317458 0 -0.39660955792707342 -0.25084925955993409 0 -0.39810996818713362 -0.26144843047246158 0 -0.41445257499164462 -0.27057269373934362 0 -0.39271725459051021 -0.25513166038481522 0 -0.39558053615873617 -0.25539470352659149 0 -0.3946454953443147 -0.25111581076896788 0 -0.39558053615873617 -0.25539470352659149 0 -0.39660955792707342 -0.25084925955993409 0 -0.39810996818713362 -0.26144843047246158 0 -0.3885141392956068 -0.25526433030317458 0 -0.39271725459051021 -0.25513166038481522 0 -0.3946454953443147 -0.25111581076896788 0 -0.39660955792707342 -0.25084925955993409 0 -0.41445257499164462 -0.27057269373934362 0 -0.3885141392956068 -0.25526433030317458 0 -0.39271725459051021 -0.25513166038481522 0 -0.39212884756338268 -0.25875179694052691 0 -0.39271725459051021 -0.25513166038481522 0 -0.39558053615873617 -0.25539470352659149 0 -0.39212884756338268 -0.25875179694052691 0 -0.39558053615873617 -0.25539470352659149 0 -0.39660955792707342 -0.25084925955993409 0 -0.3946454953443147 -0.25111581076896788 0 -0.39558053615873617 -0.25539470352659149 0 -0.3946454953443147 -0.25111581076896788 0 -0.39660955792707342 -0.25084925955993409 0 -0.3946454953443147 -0.25111581076896788 0 -0.39095110290033352 -0.26488203789557568 0 -0.39212884756338268 -0.25875179694052691 0 -0.39810996818713362 -0.26144843047246158 0 -0.39558053615873617 -0.25539470352659149 0 -0.39212884756338268 -0.25875179694052691 0 -0.39810996818713362 -0.26144843047246158 0 -0.39860938059960438 -0.26904337260100453 0 -0.39095110290033352 -0.26488203789557568 0 -0.39810996818713362 -0.26144843047246158 0 -0.39660955792707342 -0.25084925955993409 0 -0.41544737069407062 -0.25762699815209289 0 -0.41305431339371562 -0.24861747250264279 0 -0.39660955792707342 -0.25084925955993409 0 -0.41544737069407062 -0.25762699815209289 0 -0.41445257499164462 -0.27057269373934362 0 -0.41544737069407062 -0.25762699815209289 0 -0.42440311049531892 -0.25168108644196319 0 -0.41305431339371562 -0.24861747250264279 0 -0.41544737069407062 -0.25762699815209289 0 -0.41445257499164462 -0.27057269373934362 0 -0.42691419670745179 -0.26223096694888948 0 -0.40806143334783002 -0.28210395797174442 0 -0.43331385691330632 -0.27523940154096399 0 -0.40806143334783002 -0.28210395797174442 0 -0.39871185054603869 -0.27677795884715362 0 -0.41445257499164462 -0.27057269373934362 0 -0.40806143334783002 -0.28210395797174442 0 -0.41445257499164462 -0.27057269373934362 0 -0.43331385691330632 -0.27523940154096399 0 -0.41445257499164462 -0.27057269373934362 0 -0.43331385691330632 -0.27523940154096399 0 -0.42691419670745179 -0.26223096694888948 0 -0.44010656732289788 -0.26085838252996851 0 -0.43331385691330632 -0.27523940154096399 0 -0.42691419670745179 -0.26223096694888948 0 -0.44010656732289788 -0.26085838252996851 0 -0.43229081015205362 -0.25417199456554668 0 -0.42691419670745179 -0.26223096694888948 0 -0.43229081015205362 -0.25417199456554668 0 -0.42440311049531892 -0.25168108644196319 0 -0.42691419670745179 -0.26223096694888948 0 -0.41544737069407062 -0.25762699815209289 0 -0.42440311049531892 -0.25168108644196319 0 -0.42691419670745179 -0.26223096694888948 0 -0.43229081015205362 -0.25417199456554668 0 -0.42440311049531892 -0.25168108644196319 0 -0.42949906886035771 -0.2463856854453515 0 -0.32283211294546338 -0.26562263696370042 0 -0.33476312054528728 -0.25708724346025841 0 -0.31524025484529539 -0.24633488066413101 0 -0.32283211294546338 -0.26562263696370042 0 -0.31524025484529539 -0.24633488066413101 0 -0.32283211294546338 -0.26562263696370042 0 -0.30458347269285779 -0.26268955606795308 0 -0.31524025484529539 -0.24633488066413101 0 -0.32283211294546338 -0.26562263696370042 0 -0.3304239710456281 -0.28491039326327122 0 -0.31157618436438339 -0.28029125651555831 0 -0.32283211294546338 -0.26562263696370042 0 -0.3304239710456281 -0.28491039326327122 0 -0.32283211294546338 -0.26562263696370042 0 -0.31157618436438339 -0.28029125651555831 0 -0.30458347269285779 -0.26268955606795308 0 -0.32283211294546338 -0.26562263696370042 0 -0.33604732664861009 -0.27455389337527719 0 -0.3304239710456281 -0.28491039326327122 0 -0.32283211294546338 -0.26562263696370042 0 -0.33526703067793778 -0.26564234312803131 0 -0.33604732664861009 -0.27455389337527719 0 -0.33604732664861009 -0.27455389337527719 0 -0.3369357948806076 -0.28144400949699699 0 -0.3304239710456281 -0.28491039326327122 0 -0.33604732664861009 -0.27455389337527719 0 -0.34671445835268849 -0.26642492479899921 0 -0.3439851661365918 -0.28003850931616381 0 -0.33604732664861009 -0.27455389337527719 0 -0.3439851661365918 -0.28003850931616381 0 -0.3369357948806076 -0.28144400949699699 0 -0.33526703067793778 -0.26564234312803131 0 -0.33604732664861009 -0.27455389337527719 0 -0.34671445835268849 -0.26642492479899921 0 -0.33526703067793778 -0.26564234312803131 0 -0.33476312054528728 -0.25708724346025841 0 -0.34671445835268849 -0.26642492479899921 0 -0.33476312054528728 -0.25708724346025841 0 -0.34801697513192281 -0.25390758607183572 0 -0.34671445835268849 -0.26642492479899921 0 -0.32283211294546338 -0.26562263696370042 0 -0.33526703067793778 -0.26564234312803131 0 -0.33476312054528728 -0.25708724346025841 0 -0.33476312054528728 -0.25708724346025841 0 -0.34801697513192281 -0.25390758607183572 0 -0.33542008743563279 -0.2451751824225199 0 -0.34801697513192281 -0.25390758607183572 0 -0.36075725608683479 -0.25252399222535399 0 -0.35559992002597007 -0.2440154841809076 0 -0.34801697513192281 -0.25390758607183572 0 -0.36075725608683479 -0.25252399222535399 0 -0.34671445835268849 -0.26642492479899921 0 -0.36075725608683479 -0.25252399222535399 0 -0.36635813716559879 -0.25495480734123471 0 -0.37060646000876091 -0.2656695854631318 0 -0.36075725608683479 -0.25252399222535399 0 -0.36635813716559879 -0.25495480734123471 0 -0.36512292251027972 -0.2486019884582186 0 -0.36635813716559879 -0.25495480734123471 0 -0.37438277794060287 -0.2608297426875657 0 -0.37060646000876091 -0.2656695854631318 0 -0.38095164741168391 -0.2563498561797824 0 -0.36635813716559879 -0.25495480734123471 0 -0.37438277794060287 -0.2608297426875657 0 -0.36635813716559879 -0.25495480734123471 0 -0.37474812662003493 -0.2480042625025452 0 -0.36512292251027972 -0.2486019884582186 0 -0.36075725608683479 -0.25252399222535399 0 -0.36129152276450049 -0.28201018559850127 0 -0.36075725608683479 -0.25252399222535399 0 -0.37060646000876091 -0.2656695854631318 0 -0.36129152276450049 -0.28201018559850127 0 -0.37813623778559691 -0.2757487650759663 0 -0.37060646000876091 -0.2656695854631318 0 -0.36129152276450049 -0.28201018559850127 0 -0.36075725608683479 -0.25252399222535399 0 -0.34671445835268849 -0.26642492479899921 0 -0.36129152276450049 -0.28201018559850127 0 -0.34671445835268849 -0.26642492479899921 0 -0.3439851661365918 -0.28003850931616381 0 -0.36129152276450049 -0.28201018559850127 0 -0.34772555594805649 -0.29036259723189622 0 -0.36129152276450049 -0.28201018559850127 0 -0.36182578944216631 -0.31149637897164861 0 -0.3439851661365918 -0.28003850931616381 0 -0.34772555594805649 -0.29036259723189622 0 -0.36129152276450049 -0.28201018559850127 0 -0.34772555594805649 -0.29036259723189622 0 -0.34682914589746999 -0.30153795677248801 0 -0.34101992379458718 -0.29455448865626349 0 -0.38280900978235383 -0.28896851440252469 0 -0.37813623778559691 -0.2757487650759663 0 -0.36129152276450049 -0.28201018559850127 0 -0.38280900978235383 -0.28896851440252469 0 -0.36129152276450049 -0.28201018559850127 0 -0.37406820646594491 -0.30170550445788319 0 -0.36129152276450049 -0.28201018559850127 0 -0.36182578944216631 -0.31149637897164861 0 -0.36129152276450049 -0.28201018559850127 0 -0.37406820646594491 -0.30170550445788319 0 -0.36182578944216631 -0.31149637897164861 0 -0.37406820646594491 -0.30170550445788319 0 -0.36182578944216631 -0.31149637897164861 0 -0.37492612108969181 -0.3142072071057001 0 -0.34772555594805649 -0.29036259723189622 0 -0.36182578944216631 -0.31149637897164861 0 -0.34682914589746999 -0.30153795677248801 0 -0.36182578944216631 -0.31149637897164861 0 -0.34682914589746999 -0.30153795677248801 0 -0.35014837504727508 -0.31097185002676653 0 -0.34682914589746999 -0.30153795677248801 0 -0.35014837504727508 -0.31097185002676653 0 -0.34133000127675289 -0.3117143833911511 0 -0.34133000127675289 -0.3117143833911511 0 -0.33223827764122182 -0.30004415858739392 0 -0.32884587052191733 -0.31289253674887108 0 -0.34682914589746999 -0.30153795677248801 0 -0.33223827764122182 -0.30004415858739392 0 -0.34101992379458718 -0.29455448865626349 0 -0.34682914589746999 -0.30153795677248801 0 -0.34133000127675289 -0.3117143833911511 0 -0.33223827764122182 -0.30004415858739392 0 -0.33223827764122182 -0.30004415858739392 0 -0.33728671569160029 -0.28627324203327592 0 -0.3152297866469731 -0.29827970437485918 0 -0.33223827764122182 -0.30004415858739392 0 -0.34101992379458718 -0.29455448865626349 0 -0.33728671569160029 -0.28627324203327592 0 -0.34772555594805649 -0.29036259723189622 0 -0.34101992379458718 -0.29455448865626349 0 -0.33728671569160029 -0.28627324203327592 0 -0.3439851661365918 -0.28003850931616381 0 -0.34772555594805649 -0.29036259723189622 0 -0.33728671569160029 -0.28627324203327592 0 -0.3439851661365918 -0.28003850931616381 0 -0.33728671569160029 -0.28627324203327592 0 -0.3369357948806076 -0.28144400949699699 0 -0.33728671569160029 -0.28627324203327592 0 -0.3369357948806076 -0.28144400949699699 0 -0.3304239710456281 -0.28491039326327122 0 -0.33728671569160029 -0.28627324203327592 0 -0.3304239710456281 -0.28491039326327122 0 -0.3152297866469731 -0.29827970437485918 0 -0.33728671569160029 -0.28627324203327592 0 -0.3152297866469731 -0.29827970437485918 0 -0.3304239710456281 -0.28491039326327122 0 -0.3152297866469731 -0.29827970437485918 0 -0.31157618436438339 -0.28029125651555831 0 -0.3152297866469731 -0.29827970437485918 0 -0.31422413592869902 -0.31743272776447279 0 -0.32884587052191733 -0.31289253674887108 0 -0.33223827764122182 -0.30004415858739392 0 -0.3152297866469731 -0.29827970437485918 0 -0.32884587052191733 -0.31289253674887108 0 -0.31422413592869902 -0.31743272776447279 0 -0.31927989166815879 -0.33670294927020528 0 -0.32853347472783639 -0.32568834179478451 0 -0.31422413592869902 -0.31743272776447279 0 -0.32853347472783639 -0.32568834179478451 0 -0.32884587052191733 -0.31289253674887108 0 -0.31927989166815879 -0.33670294927020528 0 -0.33456050343839111 -0.33560920325654842 0 -0.32892688952284788 -0.34630243927364579 0 -0.31927989166815879 -0.33670294927020528 0 -0.33456050343839111 -0.33560920325654842 0 -0.32853347472783639 -0.32568834179478451 0 -0.33456050343839111 -0.33560920325654842 0 -0.33929897840474083 -0.32319258203362711 0 -0.32853347472783639 -0.32568834179478451 0 -0.33456050343839111 -0.33560920325654842 0 -0.34063501355090869 -0.34693830561089889 0 -0.32892688952284788 -0.34630243927364579 0 -0.33456050343839111 -0.33560920325654842 0 -0.34504188372250172 -0.33592722246308898 0 -0.34063501355090869 -0.34693830561089889 0 -0.33456050343839111 -0.33560920325654842 0 -0.33929897840474083 -0.32319258203362711 0 -0.34504188372250172 -0.33592722246308898 0 -0.33929897840474083 -0.32319258203362711 0 -0.32853347472783639 -0.32568834179478451 0 -0.32884587052191733 -0.31289253674887108 0 -0.34133000127675289 -0.3117143833911511 0 -0.33929897840474083 -0.32319258203362711 0 -0.35060856357271131 -0.31913868097177861 0 -0.34133000127675289 -0.3117143833911511 0 -0.33929897840474083 -0.32319258203362711 0 -0.32884587052191733 -0.31289253674887108 0 -0.36182578944216631 -0.31149637897164861 0 -0.35060856357271131 -0.31913868097177861 0 -0.36236005611983202 -0.3409825723447959 0 -0.35014837504727508 -0.31097185002676653 0 -0.34133000127675289 -0.3117143833911511 0 -0.35060856357271131 -0.31913868097177861 0 -0.33929897840474083 -0.32319258203362711 0 -0.35060856357271131 -0.31913868097177861 0 -0.34504188372250172 -0.33592722246308898 0 -0.36182578944216631 -0.31149637897164861 0 -0.35014837504727508 -0.31097185002676653 0 -0.35060856357271131 -0.31913868097177861 0 -0.36182578944216631 -0.31149637897164861 0 -0.36236005611983202 -0.3409825723447959 0 -0.36182578944216631 -0.31149637897164861 0 -0.37059884822804079 -0.32608535496615632 0 -0.36236005611983202 -0.3409825723447959 0 -0.36182578944216631 -0.31149637897164861 0 -0.37059884822804079 -0.32608535496615632 0 -0.37492612108969181 -0.3142072071057001 0 -0.37245731417969702 -0.33680980758053142 0 -0.36236005611983202 -0.3409825723447959 0 -0.37448260438615971 -0.34426094393418077 0 -0.37059884822804079 -0.32608535496615632 0 -0.37245731417969702 -0.33680980758053142 0 -0.36236005611983202 -0.3409825723447959 0 -0.35060856357271131 -0.31913868097177861 0 -0.35468203150014871 -0.34275916091433012 0 -0.35060856357271131 -0.31913868097177861 0 -0.35468203150014871 -0.34275916091433012 0 -0.34504188372250172 -0.33592722246308898 0 -0.35060856357271131 -0.31913868097177861 0 -0.36236005611983202 -0.3409825723447959 0 -0.35468203150014871 -0.34275916091433012 0 -0.34504188372250172 -0.33592722246308898 0 -0.34730753831272593 -0.34538685922746698 0 -0.34063501355090869 -0.34693830561089889 0 -0.35468203150014871 -0.34275916091433012 0 -0.34504188372250172 -0.33592722246308898 0 -0.34730753831272593 -0.34538685922746698 0 -0.34730753831272593 -0.34538685922746698 0 -0.34887122447734481 -0.35592274792154999 0 -0.34063501355090869 -0.34693830561089889 0 -0.35468203150014871 -0.34275916091433012 0 -0.34730753831272593 -0.34538685922746698 0 -0.34887122447734481 -0.35592274792154999 0 -0.35468203150014871 -0.34275916091433012 0 -0.34887122447734481 -0.35592274792154999 0 -0.358755499427586 -0.36637964085688163 0 -0.36236005611983202 -0.3409825723447959 0 -0.35468203150014871 -0.34275916091433012 0 -0.358755499427586 -0.36637964085688163 0 -0.35468203150014871 -0.34275916091433012 0 -0.358755499427586 -0.36637964085688163 0 -0.36236005611983202 -0.3409825723447959 0 -0.36289432279749773 -0.37046876571794318 0 -0.358755499427586 -0.36637964085688163 0 -0.36236005611983202 -0.3409825723447959 0 -0.36843861381102688 -0.35291879288046252 0 -0.36289432279749773 -0.37046876571794318 0 -0.36236005611983202 -0.3409825723447959 0 -0.36289432279749773 -0.37046876571794318 0 -0.36236005611983202 -0.3409825723447959 0 -0.36843861381102688 -0.35291879288046252 0 -0.37448260438615971 -0.34426094393418077 0 -0.37401747194061841 -0.35596288952493021 0 -0.36843861381102688 -0.35291879288046252 0 -0.37448260438615971 -0.34426094393418077 0 -0.37401747194061841 -0.35596288952493021 0 -0.36843861381102688 -0.35291879288046252 0 -0.36289432279749773 -0.37046876571794318 0 -0.37785856937865758 -0.37355414846445112 0 -0.37003119626130082 -0.37369109823104057 0 -0.37296559159509202 -0.36681209433909601 0 -0.37003119626130082 -0.37369109823104057 0 -0.37296559159509202 -0.36681209433909601 0 -0.36289432279749773 -0.37046876571794318 0 -0.37401747194061841 -0.35596288952493021 0 -0.37296559159509202 -0.36681209433909601 0 -0.36289432279749773 -0.37046876571794318 0 -0.36289432279749773 -0.37046876571794318 0 -0.358755499427586 -0.36637964085688163 0 -0.36477376446429832 -0.37686364123407801 0 -0.37003119626130082 -0.37369109823104057 0 -0.36289432279749773 -0.37046876571794318 0 -0.36477376446429832 -0.37686364123407801 0 -0.358755499427586 -0.36637964085688163 0 -0.35097894450571637 -0.37083881405636682 0 -0.35437395489609541 -0.37929674451861578 0 -0.358755499427586 -0.36637964085688163 0 -0.34839114446565489 -0.36492314902673528 0 -0.35097894450571637 -0.37083881405636682 0 -0.34887122447734481 -0.35592274792154999 0 -0.358755499427586 -0.36637964085688163 0 -0.34839114446565489 -0.36492314902673528 0 -0.34887122447734481 -0.35592274792154999 0 -0.34839114446565489 -0.36492314902673528 0 -0.33493578144888347 -0.35887016711687841 0 -0.34839114446565489 -0.36492314902673528 0 -0.35097894450571637 -0.37083881405636682 0 -0.34239517923352952 -0.37275572182323441 0 -0.35097894450571637 -0.37083881405636682 0 -0.34239517923352952 -0.37275572182323441 0 -0.35437395489609541 -0.37929674451861578 0 -0.34239517923352952 -0.37275572182323441 0 -0.33493578144888347 -0.35887016711687841 0 -0.31729017267945342 -0.37681960929470648 0 -0.34839114446565489 -0.36492314902673528 0 -0.34239517923352952 -0.37275572182323441 0 -0.33493578144888347 -0.35887016711687841 0 -0.34887122447734481 -0.35592274792154999 0 -0.34063501355090869 -0.34693830561089889 0 -0.33493578144888347 -0.35887016711687841 0 -0.34063501355090869 -0.34693830561089889 0 -0.32892688952284788 -0.34630243927364579 0 -0.33493578144888347 -0.35887016711687841 0 -0.32892688952284788 -0.34630243927364579 0 -0.33493578144888347 -0.35887016711687841 0 -0.31516358625109059 -0.35553384982399189 0 -0.31927989166815879 -0.33670294927020528 0 -0.31516358625109059 -0.35553384982399189 0 -0.30430281764213141 -0.34502201071979538 0 -0.31927989166815879 -0.33670294927020528 0 -0.32892688952284788 -0.34630243927364579 0 -0.31516358625109059 -0.35553384982399189 0 -0.33493578144888347 -0.35887016711687841 0 -0.31516358625109059 -0.35553384982399189 0 -0.31729017267945342 -0.37681960929470648 0 -0.31516358625109059 -0.35553384982399189 0 -0.29425011618554131 -0.36246143415289889 0 -0.31729017267945342 -0.37681960929470648 0 -0.29425011618554131 -0.36246143415289889 0 -0.31729017267945342 -0.37681960929470648 0 -0.29425011618554131 -0.36246143415289889 0 -0.31729017267945342 -0.37681960929470648 0 -0.29953903879506422 -0.38050833176702498 0 -0.31516358625109059 -0.35553384982399189 0 -0.30430281764213141 -0.34502201071979538 0 -0.29425011618554131 -0.36246143415289889 0 -0.29425011618554131 -0.36246143415289889 0 -0.2712100596916297 -0.34810325901109102 0 -0.29079013738089082 -0.34291013415811739 0 -0.30430281764213141 -0.34502201071979538 0 -0.29425011618554131 -0.36246143415289889 0 -0.29079013738089082 -0.34291013415811739 0 -0.29425011618554131 -0.36246143415289889 0 -0.2712100596916297 -0.34810325901109102 0 -0.29425011618554131 -0.36246143415289889 0 -0.27871097237567111 -0.37336117949457481 0 -0.29953903879506422 -0.38050833176702498 0 -0.29425011618554131 -0.36246143415289889 0 -0.27871097237567111 -0.37336117949457481 0 -0.2712100596916297 -0.34810325901109102 0 -0.27871097237567111 -0.37336117949457481 0 -0.26021245460069309 -0.36910979395736082 0 -0.2712100596916297 -0.34810325901109102 0 -0.26021245460069309 -0.36910979395736082 0 -0.25233789448144839 -0.34879846937914188 0 -0.24780058098437621 -0.36906566620035891 0 -0.26021245460069309 -0.36910979395736082 0 -0.25233789448144839 -0.34879846937914188 0 -0.2712100596916297 -0.34810325901109102 0 -0.26021245460069309 -0.36910979395736082 0 -0.2712100596916297 -0.34810325901109102 0 -0.2712100596916297 -0.34810325901109102 0 -0.28362270653440003 -0.32439385159721051 0 -0.2712100596916297 -0.34810325901109102 0 -0.27111592855771849 -0.32229262905802603 0 -0.28362270653440003 -0.32439385159721051 0 -0.25233789448144839 -0.34879846937914188 0 -0.2712100596916297 -0.34810325901109102 0 -0.2490589995130878 -0.33429909139960301 0 -0.27111592855771849 -0.32229262905802603 0 -0.2490589995130878 -0.33429909139960301 0 -0.2712100596916297 -0.34810325901109102 0 -0.2490589995130878 -0.33429909139960301 0 -0.2712100596916297 -0.34810325901109102 0 -0.27111592855771849 -0.32229262905802603 0 -0.2490589995130878 -0.33429909139960301 0 -0.25353646602606589 -0.3209638071760379 0 -0.26211628043869101 -0.31081584409556701 0 -0.2431357343990431 -0.30735227651364311 0 -0.25353646602606589 -0.3209638071760379 0 -0.27111592855771849 -0.32229262905802603 0 -0.2490589995130878 -0.33429909139960301 0 -0.25353646602606589 -0.3209638071760379 0 -0.27111592855771849 -0.32229262905802603 0 -0.26211628043869101 -0.31081584409556701 0 -0.27111592855771849 -0.32229262905802603 0 -0.27661794251674038 -0.31460699177302298 0 -0.26211628043869101 -0.31081584409556701 0 -0.27111592855771849 -0.32229262905802603 0 -0.27661794251674038 -0.31460699177302298 0 -0.29317285760234579 -0.3102861667164426 0 -0.28362270653440003 -0.32439385159721051 0 -0.30203035672497541 -0.32750168619376319 0 -0.29317285760234579 -0.3102861667164426 0 -0.27111592855771849 -0.32229262905802603 0 -0.29317285760234579 -0.3102861667164426 0 -0.27111592855771849 -0.32229262905802603 0 -0.28362270653440003 -0.32439385159721051 0 -0.29317285760234579 -0.3102861667164426 0 -0.2712100596916297 -0.34810325901109102 0 -0.28362270653440003 -0.32439385159721051 0 -0.29079013738089082 -0.34291013415811739 0 -0.28362270653440003 -0.32439385159721051 0 -0.29079013738089082 -0.34291013415811739 0 -0.30203035672497541 -0.32750168619376319 0 -0.30430281764213141 -0.34502201071979538 0 -0.29079013738089082 -0.34291013415811739 0 -0.30203035672497541 -0.32750168619376319 0 -0.31927989166815879 -0.33670294927020528 0 -0.30430281764213141 -0.34502201071979538 0 -0.30203035672497541 -0.32750168619376319 0 -0.31422413592869902 -0.31743272776447279 0 -0.31927989166815879 -0.33670294927020528 0 -0.30203035672497541 -0.32750168619376319 0 -0.31422413592869902 -0.31743272776447279 0 -0.30203035672497541 -0.32750168619376319 0 -0.29317285760234579 -0.3102861667164426 0 -0.3152297866469731 -0.29827970437485918 0 -0.29613246210248317 -0.29180249802625241 0 -0.29317285760234579 -0.3102861667164426 0 -0.3152297866469731 -0.29827970437485918 0 -0.29317285760234579 -0.3102861667164426 0 -0.3152297866469731 -0.29827970437485918 0 -0.31422413592869902 -0.31743272776447279 0 -0.29317285760234579 -0.3102861667164426 0 -0.29613246210248317 -0.29180249802625241 0 -0.29332664111729712 -0.27684364447900273 0 -0.31157618436438339 -0.28029125651555831 0 -0.3152297866469731 -0.29827970437485918 0 -0.29613246210248317 -0.29180249802625241 0 -0.31157618436438339 -0.28029125651555831 0 -0.29613246210248317 -0.29180249802625241 0 -0.27902704863103212 -0.28431712583216789 0 -0.29332664111729712 -0.27684364447900273 0 -0.29613246210248317 -0.29180249802625241 0 -0.2832165339691235 -0.29970507234876209 0 -0.27902704863103212 -0.28431712583216789 0 -0.27661794251674038 -0.31460699177302298 0 -0.29317285760234579 -0.3102861667164426 0 -0.2832165339691235 -0.29970507234876209 0 -0.29613246210248317 -0.29180249802625241 0 -0.29317285760234579 -0.3102861667164426 0 -0.2832165339691235 -0.29970507234876209 0 -0.27661794251674038 -0.31460699177302298 0 -0.2832165339691235 -0.29970507234876209 0 -0.26740689868424322 -0.294207829800534 0 -0.27661794251674038 -0.31460699177302298 0 -0.26740689868424322 -0.294207829800534 0 -0.27661794251674038 -0.31460699177302298 0 -0.26211628043869101 -0.31081584409556701 0 -0.26740689868424322 -0.294207829800534 0 -0.26211628043869101 -0.31081584409556701 0 -0.26740689868424322 -0.294207829800534 0 -0.2431357343990431 -0.30735227651364311 0 -0.26740689868424322 -0.294207829800534 0 -0.24401608157629889 -0.284645358213933 0 -0.2431357343990431 -0.30735227651364311 0 -0.26740689868424322 -0.294207829800534 0 -0.25819585485174579 -0.27380866782804492 0 -0.24401608157629889 -0.284645358213933 0 -0.26740689868424322 -0.294207829800534 0 -0.25819585485174579 -0.27380866782804492 0 -0.27902704863103212 -0.28431712583216789 0 -0.26740689868424322 -0.294207829800534 0 -0.25819585485174579 -0.27380866782804492 0 -0.2832165339691235 -0.29970507234876209 0 -0.27902704863103212 -0.28431712583216789 0 -0.26740689868424322 -0.294207829800534 0 -0.27902704863103212 -0.28431712583216789 0 -0.27588390106130017 -0.26953504251041199 0 -0.25819585485174579 -0.27380866782804492 0 -0.27588390106130017 -0.26953504251041199 0 -0.25819585485174579 -0.27380866782804492 0 -0.2611968910486121 -0.25947921393684831 0 -0.25819585485174579 -0.27380866782804492 0 -0.24898481101924899 -0.25340950585555583 0 -0.24489642875355369 -0.26193843991422289 0 -0.25059524740695288 -0.25004991155547401 0 -0.2611968910486121 -0.25947921393684831 0 -0.27214358321973381 -0.24881156792502829 0 -0.25819585485174579 -0.27380866782804492 0 -0.24898481101924899 -0.25340950585555583 0 -0.25819585485174579 -0.27380866782804492 0 -0.2611968910486121 -0.25947921393684831 0 -0.24898481101924899 -0.25340950585555583 0 -0.25059524740695288 -0.25004991155547401 0 -0.2611968910486121 -0.25947921393684831 0 -0.24898481101924899 -0.25340950585555583 0 -0.27588390106130017 -0.26953504251041199 0 -0.2611968910486121 -0.25947921393684831 0 -0.27214358321973381 -0.24881156792502829 0 -0.27588390106130017 -0.26953504251041199 0 -0.28826843814776892 -0.26152109157517678 0 -0.27214358321973381 -0.24881156792502829 0 -0.28826843814776892 -0.26152109157517678 0 -0.29369191903251463 -0.2475732242945802 0 -0.27214358321973381 -0.24881156792502829 0 -0.28826843814776892 -0.26152109157517678 0 -0.30458347269285779 -0.26268955606795308 0 -0.29369191903251463 -0.2475732242945802 0 -0.27902704863103212 -0.28431712583216789 0 -0.27588390106130017 -0.26953504251041199 0 -0.29332664111729712 -0.27684364447900273 0 -0.27588390106130017 -0.26953504251041199 0 -0.28826843814776892 -0.26152109157517678 0 -0.29332664111729712 -0.27684364447900273 0 -0.28826843814776892 -0.26152109157517678 0 -0.29332664111729712 -0.27684364447900273 0 -0.30458347269285779 -0.26268955606795308 0 -0.29332664111729712 -0.27684364447900273 0 -0.31157618436438339 -0.28029125651555831 0 -0.30458347269285779 -0.26268955606795308 0 -0.30458347269285779 -0.26268955606795308 0 -0.29369191903251463 -0.2475732242945802 0 -0.31524025484529539 -0.24633488066413101 0 -0.33947692408993702 -0.45053900051504248 0 -0.32778880730845378 -0.47199473556850441 0 -0.35127740522716289 -0.4624703186731623 0 -0.33947692408993702 -0.45053900051504248 0 -0.31953952714470613 -0.45844922002762523 0 -0.32778880730845378 -0.47199473556850441 0 -0.33947692408993702 -0.45053900051504248 0 -0.32294378664178652 -0.44509729717026469 0 -0.33264123820424352 -0.43499253865892268 0 -0.33947692408993702 -0.45053900051504248 0 -0.34718654969370999 -0.43624756140549131 0 -0.33264123820424352 -0.43499253865892268 0 -0.32294378664178652 -0.44509729717026469 0 -0.31659593990825941 -0.43140708835283181 0 -0.30928009124943001 -0.44728071794402419 0 -0.33947692408993702 -0.45053900051504248 0 -0.32294378664178652 -0.44509729717026469 0 -0.31953952714470613 -0.45844922002762523 0 -0.32294378664178652 -0.44509729717026469 0 -0.31953952714470613 -0.45844922002762523 0 -0.30928009124943001 -0.44728071794402419 0 -0.31953952714470613 -0.45844922002762523 0 -0.32778880730845378 -0.47199473556850441 0 -0.30254264328530178 -0.46932916331849711 0 -0.32778880730845378 -0.47199473556850441 0 -0.31212339940803158 -0.5 0 -0.30254264328530178 -0.46932916331849711 0 -0.32778880730845378 -0.47199473556850441 0 -0.34064312605010522 -0.5 0 -0.31212339940803158 -0.5 0 -0.32778880730845378 -0.47199473556850441 0 -0.34447798005218327 -0.47834162122385621 0 -0.35127740522716289 -0.4624703186731623 0 -0.32778880730845378 -0.47199473556850441 0 -0.34064312605010522 -0.5 0 -0.34447798005218327 -0.47834162122385621 0 -0.34447798005218327 -0.47834162122385621 0 -0.359564090080012 -0.48132386746754241 0 -0.35127740522716289 -0.4624703186731623 0 -0.34064312605010522 -0.5 0 -0.34447798005218327 -0.47834162122385621 0 -0.359564090080012 -0.48132386746754241 0 -0.34064312605010522 -0.5 0 -0.36916285269217869 -0.5 0 -0.359564090080012 -0.48132386746754241 0 -0.37641822055265189 -0.46879899397253638 0 -0.359564090080012 -0.48132386746754241 0 -0.35127740522716289 -0.4624703186731623 0 -0.37641822055265189 -0.46879899397253638 0 -0.36916285269217869 -0.5 0 -0.359564090080012 -0.48132386746754241 0 -0.37641822055265189 -0.46879899397253638 0 -0.36065266518752542 -0.45176826346095961 0 -0.37270893307682018 -0.44729025694925029 0 -0.37641822055265189 -0.46879899397253638 0 -0.37270893307682018 -0.44729025694925029 0 -0.37641822055265189 -0.46879899397253638 0 -0.35127740522716289 -0.4624703186731623 0 -0.36065266518752542 -0.45176826346095961 0 -0.35127740522716289 -0.4624703186731623 0 -0.35192384534367999 -0.44786557832309892 0 -0.36065266518752542 -0.45176826346095961 0 -0.33947692408993702 -0.45053900051504248 0 -0.35127740522716289 -0.4624703186731623 0 -0.35192384534367999 -0.44786557832309892 0 -0.33947692408993702 -0.45053900051504248 0 -0.35192384534367999 -0.44786557832309892 0 -0.34718654969370999 -0.43624756140549131 0 -0.35192384534367999 -0.44786557832309892 0 -0.36102568252006489 -0.43830274756083881 0 -0.36065266518752542 -0.45176826346095961 0 -0.35192384534367999 -0.44786557832309892 0 -0.36102568252006489 -0.43830274756083881 0 -0.34718654969370999 -0.43624756140549131 0 -0.36102568252006489 -0.43830274756083881 0 -0.36065266518752542 -0.45176826346095961 0 -0.37270893307682018 -0.44729025694925029 0 -0.36102568252006489 -0.43830274756083881 0 -0.37270893307682018 -0.44729025694925029 0 -0.36899964560098858 -0.42578151992596419 0 -0.37270893307682018 -0.44729025694925029 0 -0.36899964560098858 -0.42578151992596419 0 -0.36102568252006489 -0.43830274756083881 0 -0.36899964560098858 -0.42578151992596419 0 -0.35562956941671131 -0.42754794560063653 0 -0.36899964560098858 -0.42578151992596419 0 -0.36286286666808859 -0.41781926079392923 0 -0.35562956941671131 -0.42754794560063653 0 -0.36899964560098858 -0.42578151992596419 0 -0.36576562911041288 -0.40702869726715851 0 -0.36286286666808859 -0.41781926079392923 0 -0.36899964560098858 -0.42578151992596419 0 -0.36576562911041288 -0.40702869726715851 0 -0.38700330194845922 -0.4202636572722947 0 -0.36899964560098858 -0.42578151992596419 0 -0.36576562911041288 -0.40702869726715851 0 -0.36576562911041288 -0.40702869726715851 0 -0.36286286666808859 -0.41781926079392923 0 -0.34980184849645701 -0.40938764120259918 0 -0.36899964560098858 -0.42578151992596419 0 -0.36286286666808859 -0.41781926079392923 0 -0.36286286666808859 -0.41781926079392923 0 -0.34980184849645701 -0.40938764120259918 0 -0.35048864947679492 -0.41947815680734452 0 -0.36286286666808859 -0.41781926079392923 0 -0.35048864947679492 -0.41947815680734452 0 -0.35562956941671131 -0.42754794560063653 0 -0.34980184849645701 -0.40938764120259918 0 -0.35048864947679492 -0.41947815680734452 0 -0.3419802294323292 -0.4160898829575122 0 -0.35048864947679492 -0.41947815680734452 0 -0.34216873337038811 -0.4265460534820455 0 -0.3419802294323292 -0.4160898829575122 0 -0.35048864947679492 -0.41947815680734452 0 -0.35562956941671131 -0.42754794560063653 0 -0.34216873337038811 -0.4265460534820455 0 -0.34718654969370999 -0.43624756140549131 0 -0.35562956941671131 -0.42754794560063653 0 -0.34216873337038811 -0.4265460534820455 0 -0.36102568252006489 -0.43830274756083881 0 -0.34718654969370999 -0.43624756140549131 0 -0.35562956941671131 -0.42754794560063653 0 -0.358755499427586 -0.36637964085688163 0 -0.36477376446429832 -0.37686364123407801 0 -0.36282896735502318 -0.39000012079943303 0 -0.358755499427586 -0.36637964085688163 0 -0.36282896735502318 -0.39000012079943303 0 -0.36477376446429832 -0.37686364123407801 0 -0.37166373307095851 -0.38075684139963512 0 -0.36282896735502318 -0.39000012079943303 0 -0.37785856937865758 -0.37355414846445112 0 -0.37003119626130082 -0.37369109823104057 0 -0.37166373307095851 -0.38075684139963512 0 -0.37003119626130082 -0.37369109823104057 0 -0.36477376446429832 -0.37686364123407801 0 -0.37166373307095851 -0.38075684139963512 0 -0.3755243739538135 -0.38933559825649589 0 -0.36282896735502318 -0.39000012079943303 0 -0.3755243739538135 -0.38933559825649589 0 -0.37166373307095851 -0.38075684139963512 0 -0.36282896735502318 -0.39000012079943303 0 -0.36576562911041288 -0.40702869726715851 0 -0.36282896735502318 -0.39000012079943303 0 -0.36576562911041288 -0.40702869726715851 0 -0.36282896735502318 -0.39000012079943303 0 -0.37260182642857559 -0.39831487258102538 0 -0.3755243739538135 -0.38933559825649589 0 -0.36282896735502318 -0.39000012079943303 0 -0.37260182642857559 -0.39831487258102538 0 -0.38092085950929938 -0.40584578046397218 0 -0.36576562911041288 -0.40702869726715851 0 -0.37260182642857559 -0.39831487258102538 0 -0.36576562911041288 -0.40702869726715851 0 -0.36282896735502318 -0.39000012079943303 0 -0.34033022917336508 -0.3911777844365143 0 -0.36576562911041288 -0.40702869726715851 0 -0.34033022917336508 -0.3911777844365143 0 -0.36576562911041288 -0.40702869726715851 0 -0.34980184849645701 -0.40938764120259918 0 -0.34033022917336508 -0.3911777844365143 0 -0.36282896735502318 -0.39000012079943303 0 -0.35437395489609541 -0.37929674451861578 0 -0.34033022917336508 -0.3911777844365143 0 -0.36282896735502318 -0.39000012079943303 0 -0.34033022917336508 -0.3911777844365143 0 -0.358755499427586 -0.36637964085688163 0 -0.36282896735502318 -0.39000012079943303 0 -0.35437395489609541 -0.37929674451861578 0 -0.34239517923352952 -0.37275572182323441 0 -0.35437395489609541 -0.37929674451861578 0 -0.34033022917336508 -0.3911777844365143 0 -0.34033022917336508 -0.3911777844365143 0 -0.31729017267945342 -0.37681960929470648 0 -0.34239517923352952 -0.37275572182323441 0 -0.34033022917336508 -0.3911777844365143 0 -0.31729017267945342 -0.37681960929470648 0 -0.34980184849645701 -0.40938764120259918 0 -0.34033022917336508 -0.3911777844365143 0 -0.3333434742467295 -0.40564363852146451 0 -0.34033022917336508 -0.3911777844365143 0 -0.3333434742467295 -0.40564363852146451 0 -0.31472092386701139 -0.39251826617316571 0 -0.34033022917336508 -0.3911777844365143 0 -0.31472092386701139 -0.39251826617316571 0 -0.31472092386701139 -0.39251826617316571 0 -0.31949109241072271 -0.40695340025340082 0 -0.30768914942794112 -0.41316184033381442 0 -0.3333434742467295 -0.40564363852146451 0 -0.31472092386701139 -0.39251826617316571 0 -0.31949109241072271 -0.40695340025340082 0 -0.34033022917336508 -0.3911777844365143 0 -0.31472092386701139 -0.39251826617316571 0 -0.31729017267945342 -0.37681960929470648 0 -0.33264123820424352 -0.43499253865892268 0 -0.34216873337038811 -0.4265460534820455 0 -0.32730695913358948 -0.41899907705510958 0 -0.34718654969370999 -0.43624756140549131 0 -0.33264123820424352 -0.43499253865892268 0 -0.34216873337038811 -0.4265460534820455 0 -0.34980184849645701 -0.40938764120259918 0 -0.3333434742467295 -0.40564363852146451 0 -0.3419802294323292 -0.4160898829575122 0 -0.34216873337038811 -0.4265460534820455 0 -0.3419802294323292 -0.4160898829575122 0 -0.32730695913358948 -0.41899907705510958 0 -0.3333434742467295 -0.40564363852146451 0 -0.3419802294323292 -0.4160898829575122 0 -0.32730695913358948 -0.41899907705510958 0 -0.32730695913358948 -0.41899907705510958 0 -0.31949109241072271 -0.40695340025340082 0 -0.30768914942794112 -0.41316184033381442 0 -0.32730695913358948 -0.41899907705510958 0 -0.31659593990825941 -0.43140708835283181 0 -0.30768914942794112 -0.41316184033381442 0 -0.3333434742467295 -0.40564363852146451 0 -0.32730695913358948 -0.41899907705510958 0 -0.31949109241072271 -0.40695340025340082 0 -0.33264123820424352 -0.43499253865892268 0 -0.32730695913358948 -0.41899907705510958 0 -0.31659593990825941 -0.43140708835283181 0 -0.32294378664178652 -0.44509729717026469 0 -0.33264123820424352 -0.43499253865892268 0 -0.31659593990825941 -0.43140708835283181 0 -0.31659593990825941 -0.43140708835283181 0 -0.30116910120875479 -0.4327365399191711 0 -0.30928009124943001 -0.44728071794402419 0 -0.30116910120875479 -0.4327365399191711 0 -0.30768914942794112 -0.41316184033381442 0 -0.29428959114817571 -0.42058968508403138 0 -0.31659593990825941 -0.43140708835283181 0 -0.30116910120875479 -0.4327365399191711 0 -0.30768914942794112 -0.41316184033381442 0 -0.30768914942794112 -0.41316184033381442 0 -0.29428959114817571 -0.42058968508403138 0 -0.28911161856065759 -0.39385874790981679 0 -0.29428959114817571 -0.42058968508403138 0 -0.28911161856065759 -0.39385874790981679 0 -0.28055419517705099 -0.41809716856934698 0 -0.29428959114817571 -0.42058968508403138 0 -0.28191097607081861 -0.43069309412154289 0 -0.28055419517705099 -0.41809716856934698 0 -0.30116910120875479 -0.4327365399191711 0 -0.29428959114817571 -0.42058968508403138 0 -0.28191097607081861 -0.43069309412154289 0 -0.31472092386701139 -0.39251826617316571 0 -0.29953903879506422 -0.38050833176702498 0 -0.28911161856065759 -0.39385874790981679 0 -0.31472092386701139 -0.39251826617316571 0 -0.31729017267945342 -0.37681960929470648 0 -0.29953903879506422 -0.38050833176702498 0 -0.31472092386701139 -0.39251826617316571 0 -0.30768914942794112 -0.41316184033381442 0 -0.28911161856065759 -0.39385874790981679 0 -0.31472092386701139 -0.39251826617316571 0 -0.28911161856065759 -0.39385874790981679 0 -0.28911161856065759 -0.39385874790981679 0 -0.27565146641475752 -0.40371298183943721 0 -0.28055419517705099 -0.41809716856934698 0 -0.27871097237567111 -0.37336117949457481 0 -0.29953903879506422 -0.38050833176702498 0 -0.28911161856065759 -0.39385874790981679 0 -0.27871097237567111 -0.37336117949457481 0 -0.28911161856065759 -0.39385874790981679 0 -0.26900981611120689 -0.38974001894866023 0 -0.27871097237567111 -0.37336117949457481 0 -0.26021245460069309 -0.36910979395736082 0 -0.26900981611120689 -0.38974001894866023 0 -0.28911161856065759 -0.39385874790981679 0 -0.26900981611120689 -0.38974001894866023 0 -0.27565146641475752 -0.40371298183943721 0 -0.26900981611120689 -0.38974001894866023 0 -0.27565146641475752 -0.40371298183943721 0 -0.26115753520571239 -0.40828108158714482 0 -0.26900981611120689 -0.38974001894866023 0 -0.26115753520571239 -0.40828108158714482 0 -0.2492148495097499 -0.39011632890362719 0 -0.26021245460069309 -0.36910979395736082 0 -0.26900981611120689 -0.38974001894866023 0 -0.2492148495097499 -0.39011632890362719 0 -0.26021245460069309 -0.36910979395736082 0 -0.2492148495097499 -0.39011632890362719 0 -0.26021245460069309 -0.36910979395736082 0 -0.2492148495097499 -0.39011632890362719 0 -0.24780058098437621 -0.36906566620035891 0 -0.28191097607081861 -0.43069309412154289 0 -0.2694580369415101 -0.4190999998916532 0 -0.25814706465220311 -0.42981066701586029 0 -0.28191097607081861 -0.43069309412154289 0 -0.25814706465220311 -0.42981066701586029 0 -0.27807688488560028 -0.44849847018182731 0 -0.28191097607081861 -0.43069309412154289 0 -0.28055419517705099 -0.41809716856934698 0 -0.2694580369415101 -0.4190999998916532 0 -0.27565146641475752 -0.40371298183943721 0 -0.28055419517705099 -0.41809716856934698 0 -0.2694580369415101 -0.4190999998916532 0 -0.27565146641475752 -0.40371298183943721 0 -0.2694580369415101 -0.4190999998916532 0 -0.26115753520571239 -0.40828108158714482 0 -0.2694580369415101 -0.4190999998916532 0 -0.26115753520571239 -0.40828108158714482 0 -0.25814706465220311 -0.42981066701586029 0 -0.26115753520571239 -0.40828108158714482 0 -0.25814706465220311 -0.42981066701586029 0 -0.2382172444188061 -0.41112286384989338 0 -0.25814706465220311 -0.42981066701586029 0 -0.25677198870167001 -0.44826044896924988 0 -0.24237122713312539 -0.43352525392010449 0 -0.25814706465220311 -0.42981066701586029 0 -0.25677198870167001 -0.44826044896924988 0 -0.27807688488560028 -0.44849847018182731 0 -0.25677198870167001 -0.44826044896924988 0 -0.2671326616220428 -0.47449578623611888 0 -0.2484527787808474 -0.46609939256093919 0 -0.25677198870167001 -0.44826044896924988 0 -0.27807688488560028 -0.44849847018182731 0 -0.2671326616220428 -0.47449578623611888 0 -0.27807688488560028 -0.44849847018182731 0 -0.28401907426526729 -0.46630226495485272 0 -0.2671326616220428 -0.47449578623611888 0 -0.25814706465220311 -0.42981066701586029 0 -0.27807688488560028 -0.44849847018182731 0 -0.28191097607081861 -0.43069309412154289 0 -0.27807688488560028 -0.44849847018182731 0 -0.2928331284941954 -0.44914004173998578 0 -0.30116910120875479 -0.4327365399191711 0 -0.28191097607081861 -0.43069309412154289 0 -0.2928331284941954 -0.44914004173998578 0 -0.2928331284941954 -0.44914004173998578 0 -0.28401907426526729 -0.46630226495485272 0 -0.30254264328530178 -0.46932916331849711 0 -0.27807688488560028 -0.44849847018182731 0 -0.2928331284941954 -0.44914004173998578 0 -0.28401907426526729 -0.46630226495485272 0 -0.31953952714470613 -0.45844922002762523 0 -0.30928009124943001 -0.44728071794402419 0 -0.30254264328530178 -0.46932916331849711 0 -0.2928331284941954 -0.44914004173998578 0 -0.30928009124943001 -0.44728071794402419 0 -0.30254264328530178 -0.46932916331849711 0 -0.30116910120875479 -0.4327365399191711 0 -0.2928331284941954 -0.44914004173998578 0 -0.30928009124943001 -0.44728071794402419 0 -0.31212339940803158 -0.5 0 -0.30254264328530178 -0.46932916331849711 0 -0.29076093054498031 -0.48323680163013538 0 -0.28401907426526729 -0.46630226495485272 0 -0.30254264328530178 -0.46932916331849711 0 -0.29076093054498031 -0.48323680163013538 0 -0.31212339940803158 -0.5 0 -0.29076093054498031 -0.48323680163013538 0 -0.28360367276595788 -0.5 0 -0.28360367276595788 -0.5 0 -0.2671326616220428 -0.47449578623611888 0 -0.25508394612388419 -0.5 0 -0.29076093054498031 -0.48323680163013538 0 -0.28360367276595788 -0.5 0 -0.2671326616220428 -0.47449578623611888 0 -0.28401907426526729 -0.46630226495485272 0 -0.29076093054498031 -0.48323680163013538 0 -0.2671326616220428 -0.47449578623611888 0 -0.2671326616220428 -0.47449578623611888 0 -0.2375072020822577 -0.48294963976573613 0 -0.2484527787808474 -0.46609939256093919 0 -0.2671326616220428 -0.47449578623611888 0 -0.25508394612388419 -0.5 0 -0.2375072020822577 -0.48294963976573613 0 -0.25508394612388419 -0.5 0 -0.2375072020822577 -0.48294963976573613 0 -0.22656421948181049 -0.5 0 -0.2375072020822577 -0.48294963976573613 0 -0.2484527787808474 -0.46609939256093919 0 -0.22966266026127899 -0.46427005690286782 0 -0.2375072020822577 -0.48294963976573613 0 -0.22966266026127899 -0.46427005690286782 0 -0.2157907941861491 -0.48092628371723189 0 -0.2375072020822577 -0.48294963976573613 0 -0.22656421948181049 -0.5 0 -0.2157907941861491 -0.48092628371723189 0 -0.25677198870167001 -0.44826044896924988 0 -0.23183691400197201 -0.44565973052365931 0 -0.24237122713312539 -0.43352525392010449 0 -0.25677198870167001 -0.44826044896924988 0 -0.24168108543644209 -0.45607240723917902 0 -0.23183691400197201 -0.44565973052365931 0 -0.25677198870167001 -0.44826044896924988 0 -0.23183691400197201 -0.44565973052365931 0 -0.24168108543644209 -0.45607240723917902 0 -0.22966266026127899 -0.46427005690286782 0 -0.23183691400197201 -0.44565973052365931 0 -0.24168108543644209 -0.45607240723917902 0 -0.2484527787808474 -0.46609939256093919 0 -0.22966266026127899 -0.46427005690286782 0 -0.25677198870167001 -0.44826044896924988 0 -0.24168108543644209 -0.45607240723917902 0 -0.2484527787808474 -0.46609939256093919 0 -0.22966266026127899 -0.46427005690286782 0 -0.20812079112521789 -0.46120494929907402 0 -0.22966266026127899 -0.46427005690286782 0 -0.21990961660111219 -0.45332671202555469 0 -0.20812079112521789 -0.46120494929907402 0 -0.22966266026127899 -0.46427005690286782 0 -0.21990961660111219 -0.45332671202555469 0 -0.23183691400197201 -0.44565973052365931 0 -0.23183691400197201 -0.44565973052365931 0 -0.2069018393022739 -0.44305901207807169 0 -0.23183691400197201 -0.44565973052365931 0 -0.2069018393022739 -0.44305901207807169 0 -0.22688292389097589 -0.43277255924186009 0 -0.21990961660111219 -0.45332671202555469 0 -0.23183691400197201 -0.44565973052365931 0 -0.20834480504175951 -0.44512316631436161 0 -0.23183691400197201 -0.44565973052365931 0 -0.2069018393022739 -0.44305901207807169 0 -0.20834480504175951 -0.44512316631436161 0 -0.2069018393022739 -0.44305901207807169 0 -0.20834480504175951 -0.44512316631436161 0 -0.20259304185531979 -0.44760755227314097 0 -0.2069018393022739 -0.44305901207807169 0 -0.20834480504175951 -0.44512316631436161 0 -0.21990961660111219 -0.45332671202555469 0 -0.20834480504175951 -0.44512316631436161 0 -0.21054876038637349 -0.45273407017044481 0 -0.20834480504175951 -0.44512316631436161 0 -0.21054876038637349 -0.45273407017044481 0 -0.20581982877740471 -0.45128145304278922 0 -0.20834480504175951 -0.44512316631436161 0 -0.20581982877740471 -0.45128145304278922 0 -0.20259304185531979 -0.44760755227314097 0 -0.21054876038637349 -0.45273407017044481 0 -0.20581982877740471 -0.45128145304278922 0 -0.20812079112521789 -0.46120494929907402 0 -0.20581982877740471 -0.45128145304278922 0 -0.20812079112521789 -0.46120494929907402 0 -0.19727758863051181 -0.45132336805782258 0 -0.21990961660111219 -0.45332671202555469 0 -0.21054876038637349 -0.45273407017044481 0 -0.20812079112521789 -0.46120494929907402 0 -0.20812079112521789 -0.46120494929907402 0 -0.19484539932659281 -0.47713305633571379 0 -0.18657892198915671 -0.45813984169528021 0 -0.20812079112521789 -0.46120494929907402 0 -0.18657892198915671 -0.45813984169528021 0 -0.20812079112521789 -0.46120494929907402 0 -0.19727758863051181 -0.45132336805782258 0 -0.18657892198915671 -0.45813984169528021 0 -0.2069018393022739 -0.44305901207807169 0 -0.18948635924806881 -0.44124258438489877 0 -0.19727758863051181 -0.45132336805782258 0 -0.18948635924806881 -0.44124258438489877 0 -0.18657892198915671 -0.45813984169528021 0 -0.2069018393022739 -0.44305901207807169 0 -0.20259304185531979 -0.44760755227314097 0 -0.18948635924806881 -0.44124258438489877 0 -0.19727758863051181 -0.45132336805782258 0 -0.20259304185531979 -0.44760755227314097 0 -0.18948635924806881 -0.44124258438489877 0 -0.20581982877740471 -0.45128145304278922 0 -0.19727758863051181 -0.45132336805782258 0 -0.20259304185531979 -0.44760755227314097 0 -0.22656421948181049 -0.5 0 -0.2157907941861491 -0.48092628371723189 0 -0.1980444928397368 -0.5 0 -0.22966266026127899 -0.46427005690286782 0 -0.20812079112521789 -0.46120494929907402 0 -0.2157907941861491 -0.48092628371723189 0 -0.20812079112521789 -0.46120494929907402 0 -0.2157907941861491 -0.48092628371723189 0 -0.19484539932659281 -0.47713305633571379 0 -0.19484539932659281 -0.47713305633571379 0 -0.1980444928397368 -0.5 0 -0.18133194436630659 -0.4863058817101818 0 -0.2157907941861491 -0.48092628371723189 0 -0.19484539932659281 -0.47713305633571379 0 -0.1980444928397368 -0.5 0 -0.18133194436630659 -0.4863058817101818 0 -0.1695247661976631 -0.5 0 -0.1655623192563401 -0.48019343432959077 0 -0.1980444928397368 -0.5 0 -0.18133194436630659 -0.4863058817101818 0 -0.1695247661976631 -0.5 0 -0.1695247661976631 -0.5 0 -0.1655623192563401 -0.48019343432959077 0 -0.15373207664451899 -0.48704269265950229 0 -0.1588703522790284 -0.47172082108655189 0 -0.1655623192563401 -0.48019343432959077 0 -0.15469027776709959 -0.47758850589863322 0 -0.1655623192563401 -0.48019343432959077 0 -0.15373207664451899 -0.48704269265950229 0 -0.15469027776709959 -0.47758850589863322 0 -0.1655623192563401 -0.48019343432959077 0 -0.17868274421120039 -0.4742029178856042 0 -0.1677727641040648 -0.46678462014028038 0 -0.1588703522790284 -0.47172082108655189 0 -0.1655623192563401 -0.48019343432959077 0 -0.1677727641040648 -0.46678462014028038 0 -0.18133194436630659 -0.4863058817101818 0 -0.1655623192563401 -0.48019343432959077 0 -0.17868274421120039 -0.4742029178856042 0 -0.19484539932659281 -0.47713305633571379 0 -0.17868274421120039 -0.4742029178856042 0 -0.18657892198915671 -0.45813984169528021 0 -0.19484539932659281 -0.47713305633571379 0 -0.18133194436630659 -0.4863058817101818 0 -0.17868274421120039 -0.4742029178856042 0 -0.17868274421120039 -0.4742029178856042 0 -0.18657892198915671 -0.45813984169528021 0 -0.1677727641040648 -0.46678462014028038 0 -0.18657892198915671 -0.45813984169528021 0 -0.17829330332104609 -0.44847082921584902 0 -0.16503705285309539 -0.45507473409148691 0 -0.18657892198915671 -0.45813984169528021 0 -0.1677727641040648 -0.46678462014028038 0 -0.16503705285309539 -0.45507473409148691 0 -0.18657892198915671 -0.45813984169528021 0 -0.16503705285309539 -0.45507473409148691 0 -0.18948635924806881 -0.44124258438489877 0 -0.17829330332104609 -0.44847082921584902 0 -0.1720708791938633 -0.43942615669173007 0 -0.18948635924806881 -0.44124258438489877 0 -0.1720708791938633 -0.43942615669173007 0 -0.18948635924806881 -0.44124258438489877 0 -0.18657892198915671 -0.45813984169528021 0 -0.17829330332104609 -0.44847082921584902 0 -0.1720708791938633 -0.43942615669173007 0 -0.14328437306120531 -0.43642373546841429 0 -0.1720708791938633 -0.43942615669173007 0 -0.16503705285309539 -0.45507473409148691 0 -0.14772443677375541 -0.45261139022605001 0 -0.17829330332104609 -0.44847082921584902 0 -0.1720708791938633 -0.43942615669173007 0 -0.16503705285309539 -0.45507473409148691 0 -0.1720708791938633 -0.43942615669173007 0 -0.16503705285309539 -0.45507473409148691 0 -0.16503705285309539 -0.45507473409148691 0 -0.14772443677375541 -0.45261139022605001 0 -0.16503705285309539 -0.45507473409148691 0 -0.15669891229156649 -0.45862054329001511 0 -0.14772443677375541 -0.45261139022605001 0 -0.1677727641040648 -0.46678462014028038 0 -0.16503705285309539 -0.45507473409148691 0 -0.16044499443490109 -0.46120326207285139 0 -0.16503705285309539 -0.45507473409148691 0 -0.15669891229156649 -0.45862054329001511 0 -0.16044499443490109 -0.46120326207285139 0 -0.16044499443490109 -0.46120326207285139 0 -0.16010972716796981 -0.46623042096455219 0 -0.15437703177068021 -0.4648877435743326 0 -0.15669891229156649 -0.45862054329001511 0 -0.16044499443490109 -0.46120326207285139 0 -0.15437703177068021 -0.4648877435743326 0 -0.1588703522790284 -0.47172082108655189 0 -0.1677727641040648 -0.46678462014028038 0 -0.16010972716796981 -0.46623042096455219 0 -0.1677727641040648 -0.46678462014028038 0 -0.16044499443490109 -0.46120326207285139 0 -0.16010972716796981 -0.46623042096455219 0 -0.1588703522790284 -0.47172082108655189 0 -0.16010972716796981 -0.46623042096455219 0 -0.15437703177068021 -0.4648877435743326 0 -0.15669891229156649 -0.45862054329001511 0 -0.15437703177068021 -0.4648877435743326 0 -0.14780827232911209 -0.46234775994295713 0 -0.15437703177068021 -0.4648877435743326 0 -0.14780827232911209 -0.46234775994295713 0 -0.1510232271120267 -0.47198705686418352 0 -0.15669891229156649 -0.45862054329001511 0 -0.14780827232911209 -0.46234775994295713 0 -0.14772443677375541 -0.45261139022605001 0 -0.14780827232911209 -0.46234775994295713 0 -0.14772443677375541 -0.45261139022605001 0 -0.13898271886655961 -0.45915668870203658 0 -0.14780827232911209 -0.46234775994295713 0 -0.1510232271120267 -0.47198705686418352 0 -0.14259214218169039 -0.47170847306594421 0 -0.14780827232911209 -0.46234775994295713 0 -0.13898271886655961 -0.45915668870203658 0 -0.14259214218169039 -0.47170847306594421 0 -0.1720708791938633 -0.43942615669173007 0 -0.14772443677375541 -0.45261139022605001 0 -0.14328437306120531 -0.43642373546841429 0 -0.13041182069441559 -0.45014804636061112 0 -0.14328437306120531 -0.43642373546841429 0 -0.1144978669285472 -0.43342131424510028 0 -0.14772443677375541 -0.45261139022605001 0 -0.13041182069441559 -0.45014804636061112 0 -0.14328437306120531 -0.43642373546841429 0 -0.14772443677375541 -0.45261139022605001 0 -0.13041182069441559 -0.45014804636061112 0 -0.14772443677375541 -0.45261139022605001 0 -0.13041182069441559 -0.45014804636061112 0 -0.13898271886655961 -0.45915668870203658 0 -0.13041182069441559 -0.45014804636061112 0 -0.12812679042635369 -0.4736338620561753 0 -0.1172320913349795 -0.44827275464751171 0 -0.13041182069441559 -0.45014804636061112 0 -0.13898271886655961 -0.45915668870203658 0 -0.12812679042635369 -0.4736338620561753 0 -0.13898271886655961 -0.45915668870203658 0 -0.12812679042635369 -0.4736338620561753 0 -0.14259214218169039 -0.47170847306594421 0 -0.13041182069441559 -0.45014804636061112 0 -0.13898271886655961 -0.45915668870203658 0 -0.12812679042635369 -0.4736338620561753 0 -0.143152537091979 -0.4859470556687811 0 -0.14259214218169039 -0.47170847306594421 0 -0.1283723102502615 -0.49662016383431629 0 -0.13902148951772611 -0.49899496946483962 0 -0.1141883482570055 -0.48641244582059712 0 -0.12812679042635369 -0.4736338620561753 0 -0.13902148951772611 -0.49899496946483962 0 -0.143152537091979 -0.4859470556687811 0 -0.12812679042635369 -0.4736338620561753 0 -0.13902148951772611 -0.49899496946483962 0 -0.1141883482570055 -0.48641244582059712 0 -0.12812679042635369 -0.4736338620561753 0 -0.13902148951772611 -0.49899496946483962 0 -0.13902148951772611 -0.49899496946483962 0 -0.1141883482570055 -0.48641244582059712 0 -0.1283723102502615 -0.49662016383431629 0 -0.13902148951772611 -0.49899496946483962 0 -0.1121559362476179 -0.5 0 -0.13902148951772611 -0.49899496946483962 0 -0.14100503955558941 -0.50000000000000044 0 -0.143152537091979 -0.4859470556687811 0 -0.14100503955558941 -0.50000000000000044 0 -0.15373207664451899 -0.48704269265950229 0 -0.1695247661976631 -0.5 0 -0.14100503955558941 -0.50000000000000044 0 -0.15373207664451899 -0.48704269265950229 0 -0.13902148951772611 -0.49899496946483962 0 -0.143152537091979 -0.4859470556687811 0 -0.14100503955558941 -0.50000000000000044 0 -0.143152537091979 -0.4859470556687811 0 -0.15373207664451899 -0.48704269265950229 0 -0.14845751999844281 -0.47852716006000923 0 -0.15373207664451899 -0.48704269265950229 0 -0.14845751999844281 -0.47852716006000923 0 -0.15469027776709959 -0.47758850589863322 0 -0.1588703522790284 -0.47172082108655189 0 -0.15469027776709959 -0.47758850589863322 0 -0.1510232271120267 -0.47198705686418352 0 -0.1588703522790284 -0.47172082108655189 0 -0.15437703177068021 -0.4648877435743326 0 -0.1510232271120267 -0.47198705686418352 0 -0.14845751999844281 -0.47852716006000923 0 -0.15469027776709959 -0.47758850589863322 0 -0.1510232271120267 -0.47198705686418352 0 -0.14845751999844281 -0.47852716006000923 0 -0.1510232271120267 -0.47198705686418352 0 -0.14259214218169039 -0.47170847306594421 0 -0.143152537091979 -0.4859470556687811 0 -0.14845751999844281 -0.47852716006000923 0 -0.14259214218169039 -0.47170847306594421 0 -0.14949455534407299 -0.39478041726358581 0 -0.1405389847136593 -0.39104956752552578 0 -0.13880704920346371 -0.40200604901074838 0 -0.14949455534407299 -0.39478041726358581 0 -0.13880704920346371 -0.40200604901074838 0 -0.15135329741449929 -0.40658724426120602 0 -0.14949455534407299 -0.39478041726358581 0 -0.15135329741449929 -0.40658724426120602 0 -0.1601455585631284 -0.3996472136052146 0 -0.14949455534407299 -0.39478041726358581 0 -0.1601455585631284 -0.3996472136052146 0 -0.15888012459222869 -0.38924657454195832 0 -0.14949455534407299 -0.39478041726358581 0 -0.14866843321912421 -0.38514223323369201 0 -0.15888012459222869 -0.38924657454195832 0 -0.14866843321912421 -0.38514223323369201 0 -0.15888012459222869 -0.38924657454195832 0 -0.1570820738191932 -0.37179212253355609 0 -0.14866843321912421 -0.38514223323369201 0 -0.13827213961799559 -0.37927114421765912 0 -0.1570820738191932 -0.37179212253355609 0 -0.14866843321912421 -0.38514223323369201 0 -0.13827213961799559 -0.37927114421765912 0 -0.1405389847136593 -0.39104956752552578 0 -0.14949455534407299 -0.39478041726358581 0 -0.14866843321912421 -0.38514223323369201 0 -0.1405389847136593 -0.39104956752552578 0 -0.13827213961799559 -0.37927114421765912 0 -0.12745274618364011 -0.39404799390194339 0 -0.1405389847136593 -0.39104956752552578 0 -0.13827213961799559 -0.37927114421765912 0 -0.12745274618364011 -0.39404799390194339 0 -0.11926597608187289 -0.37271568155493462 0 -0.12745274618364011 -0.39404799390194339 0 -0.13880704920346371 -0.40200604901074838 0 -0.1224189277706723 -0.41116494477443788 0 -0.12745274618364011 -0.39404799390194339 0 -0.1405389847136593 -0.39104956752552578 0 -0.13880704920346371 -0.40200604901074838 0 -0.13880704920346371 -0.40200604901074838 0 -0.14250949578576719 -0.41483478625161702 0 -0.1224189277706723 -0.41116494477443788 0 -0.14328437306120531 -0.43642373546841429 0 -0.14250949578576719 -0.41483478625161702 0 -0.1224189277706723 -0.41116494477443788 0 -0.14328437306120531 -0.43642373546841429 0 -0.1144978669285472 -0.43342131424510028 0 -0.1224189277706723 -0.41116494477443788 0 -0.14328437306120531 -0.43642373546841429 0 -0.1144978669285472 -0.43342131424510028 0 -0.14328437306120531 -0.43642373546841429 0 -0.14250949578576719 -0.41483478625161702 0 -0.1538401288239406 -0.41817954830316928 0 -0.14328437306120531 -0.43642373546841429 0 -0.1538401288239406 -0.41817954830316928 0 -0.16237050573595421 -0.4266171377746083 0 -0.13880704920346371 -0.40200604901074838 0 -0.14250949578576719 -0.41483478625161702 0 -0.15135329741449929 -0.40658724426120602 0 -0.1538401288239406 -0.41817954830316928 0 -0.15135329741449929 -0.40658724426120602 0 -0.16266472323709039 -0.40982412696582948 0 -0.14250949578576719 -0.41483478625161702 0 -0.1538401288239406 -0.41817954830316928 0 -0.15135329741449929 -0.40658724426120602 0 -0.16266472323709039 -0.40982412696582948 0 -0.17159471920116481 -0.41517264710104568 0 -0.16237050573595421 -0.4266171377746083 0 -0.1538401288239406 -0.41817954830316928 0 -0.16266472323709039 -0.40982412696582948 0 -0.16237050573595421 -0.4266171377746083 0 -0.16266472323709039 -0.40982412696582948 0 -0.17159471920116481 -0.41517264710104568 0 -0.16984062357204199 -0.4027421798794113 0 -0.1720708791938633 -0.43942615669173007 0 -0.14328437306120531 -0.43642373546841429 0 -0.16237050573595421 -0.4266171377746083 0 -0.1720708791938633 -0.43942615669173007 0 -0.16237050573595421 -0.4266171377746083 0 -0.17838954088486711 -0.42536864919236977 0 -0.17159471920116481 -0.41517264710104568 0 -0.16237050573595421 -0.4266171377746083 0 -0.17838954088486711 -0.42536864919236977 0 -0.18948635924806881 -0.44124258438489877 0 -0.1720708791938633 -0.43942615669173007 0 -0.17838954088486711 -0.42536864919236977 0 -0.1720708791938633 -0.43942615669173007 0 -0.17838954088486711 -0.42536864919236977 0 -0.17838954088486711 -0.42536864919236977 0 -0.18470820257587231 -0.41131114169301008 0 -0.19580502093907259 -0.42718507688554119 0 -0.17159471920116481 -0.41517264710104568 0 -0.18470820257587231 -0.41131114169301008 0 -0.16984062357204199 -0.4027421798794113 0 -0.17159471920116481 -0.41517264710104568 0 -0.17838954088486711 -0.42536864919236977 0 -0.18470820257587231 -0.41131114169301008 0 -0.17838954088486711 -0.42536864919236977 0 -0.18470820257587231 -0.41131114169301008 0 -0.18470820257587231 -0.41131114169301008 0 -0.18261151890942581 -0.39641190974232232 0 -0.1708951381975343 -0.39155163211328198 0 -0.18470820257587231 -0.41131114169301008 0 -0.1708951381975343 -0.39155163211328198 0 -0.18470820257587231 -0.41131114169301008 0 -0.16984062357204199 -0.4027421798794113 0 -0.1708951381975343 -0.39155163211328198 0 -0.18470820257587231 -0.41131114169301008 0 -0.18261151890942581 -0.39641190974232232 0 -0.1930361487943707 -0.39278345780268159 0 -0.18261151890942581 -0.39641190974232232 0 -0.18126708349718901 -0.38943223257683862 0 -0.1930361487943707 -0.39278345780268159 0 -0.18261151890942581 -0.39641190974232232 0 -0.1708951381975343 -0.39155163211328198 0 -0.18126708349718901 -0.38943223257683862 0 -0.16266472323709039 -0.40982412696582948 0 -0.16984062357204199 -0.4027421798794113 0 -0.1601455585631284 -0.3996472136052146 0 -0.16984062357204199 -0.4027421798794113 0 -0.16494036123123329 -0.39579690003496648 0 -0.1601455585631284 -0.3996472136052146 0 -0.16494036123123329 -0.39579690003496648 0 -0.1708951381975343 -0.39155163211328198 0 -0.15888012459222869 -0.38924657454195832 0 -0.16984062357204199 -0.4027421798794113 0 -0.16494036123123329 -0.39579690003496648 0 -0.1708951381975343 -0.39155163211328198 0 -0.16494036123123329 -0.39579690003496648 0 -0.1601455585631284 -0.3996472136052146 0 -0.15888012459222869 -0.38924657454195832 0 -0.15135329741449929 -0.40658724426120602 0 -0.16266472323709039 -0.40982412696582948 0 -0.1601455585631284 -0.3996472136052146 0 -0.1708951381975343 -0.39155163211328198 0 -0.1570820738191932 -0.37179212253355609 0 -0.1708951381975343 -0.39155163211328198 0 -0.1696236035998403 -0.37902153028438701 0 -0.1570820738191932 -0.37179212253355609 0 -0.1708951381975343 -0.39155163211328198 0 -0.15888012459222869 -0.38924657454195832 0 -0.1570820738191932 -0.37179212253355609 0 -0.1708951381975343 -0.39155163211328198 0 -0.1696236035998403 -0.37902153028438701 0 -0.173806303622073 -0.38828287331052108 0 -0.173806303622073 -0.38828287331052108 0 -0.1836762163825216 -0.3698895365543633 0 -0.1696236035998403 -0.37902153028438701 0 -0.173806303622073 -0.38828287331052108 0 -0.17785286183965521 -0.37305941967268591 0 -0.173806303622073 -0.38828287331052108 0 -0.1827787955229459 -0.38139534737342112 0 -0.1836762163825216 -0.3698895365543633 0 -0.173806303622073 -0.38828287331052108 0 -0.17785286183965521 -0.37305941967268591 0 -0.1836762163825216 -0.3698895365543633 0 -0.173806303622073 -0.38828287331052108 0 -0.18126708349718901 -0.38943223257683862 0 -0.1827787955229459 -0.38139534737342112 0 -0.1708951381975343 -0.39155163211328198 0 -0.173806303622073 -0.38828287331052108 0 -0.18126708349718901 -0.38943223257683862 0 -0.18126708349718901 -0.38943223257683862 0 -0.1827787955229459 -0.38139534737342112 0 -0.18837208506426359 -0.3834251794275656 0 -0.1827787955229459 -0.38139534737342112 0 -0.18967967526701271 -0.37616427390820523 0 -0.1836762163825216 -0.3698895365543633 0 -0.1827787955229459 -0.38139534737342112 0 -0.18967967526701271 -0.37616427390820523 0 -0.18837208506426359 -0.3834251794275656 0 -0.18837208506426359 -0.3834251794275656 0 -0.1930361487943707 -0.39278345780268159 0 -0.20136409501287081 -0.37425577391235409 0 -0.1930361487943707 -0.39278345780268159 0 -0.20136409501287081 -0.37425577391235409 0 -0.18967967526701271 -0.37616427390820523 0 -0.18837208506426359 -0.3834251794275656 0 -0.20136409501287081 -0.37425577391235409 0 -0.1930361487943707 -0.39278345780268159 0 -0.2102212025694806 -0.38564190034223927 0 -0.20136409501287081 -0.37425577391235409 0 -0.18126708349718901 -0.38943223257683862 0 -0.18837208506426359 -0.3834251794275656 0 -0.1930361487943707 -0.39278345780268159 0 -0.18470820257587231 -0.41131114169301008 0 -0.1930361487943707 -0.39278345780268159 0 -0.2006604301287632 -0.41312132268052848 0 -0.18470820257587231 -0.41131114169301008 0 -0.1930361487943707 -0.39278345780268159 0 -0.1930361487943707 -0.39278345780268159 0 -0.20821857834362081 -0.39995782604109342 0 -0.2006604301287632 -0.41312132268052848 0 -0.20821857834362081 -0.39995782604109342 0 -0.2166741382660255 -0.4124389466286949 0 -0.22112052755624231 -0.39509160637891738 0 -0.1930361487943707 -0.39278345780268159 0 -0.20821857834362081 -0.39995782604109342 0 -0.2102212025694806 -0.38564190034223927 0 -0.20821857834362081 -0.39995782604109342 0 -0.2102212025694806 -0.38564190034223927 0 -0.22112052755624231 -0.39509160637891738 0 -0.2102212025694806 -0.38564190034223927 0 -0.20136409501287081 -0.37425577391235409 0 -0.21483622155450341 -0.36952367628306138 0 -0.2102212025694806 -0.38564190034223927 0 -0.22376230573935521 -0.38066889779956109 0 -0.21483622155450341 -0.36952367628306138 0 -0.2102212025694806 -0.38564190034223927 0 -0.22376230573935521 -0.38066889779956109 0 -0.22112052755624231 -0.39509160637891738 0 -0.2069018393022739 -0.44305901207807169 0 -0.18948635924806881 -0.44124258438489877 0 -0.19580502093907259 -0.42718507688554119 0 -0.19580502093907259 -0.42718507688554119 0 -0.2006604301287632 -0.41312132268052848 0 -0.2120035216183084 -0.42760220339130312 0 -0.2069018393022739 -0.44305901207807169 0 -0.19580502093907259 -0.42718507688554119 0 -0.18948635924806881 -0.44124258438489877 0 -0.17838954088486711 -0.42536864919236977 0 -0.19580502093907259 -0.42718507688554119 0 -0.18470820257587231 -0.41131114169301008 0 -0.19580502093907259 -0.42718507688554119 0 -0.2006604301287632 -0.41312132268052848 0 -0.18470820257587231 -0.41131114169301008 0 -0.19580502093907259 -0.42718507688554119 0 -0.20821857834362081 -0.39995782604109342 0 -0.2006604301287632 -0.41312132268052848 0 -0.2166741382660255 -0.4124389466286949 0 -0.2006604301287632 -0.41312132268052848 0 -0.2166741382660255 -0.4124389466286949 0 -0.2120035216183084 -0.42760220339130312 0 -0.2166741382660255 -0.4124389466286949 0 -0.2120035216183084 -0.42760220339130312 0 -0.223444457048529 -0.42098414327793782 0 -0.2069018393022739 -0.44305901207807169 0 -0.19580502093907259 -0.42718507688554119 0 -0.2120035216183084 -0.42760220339130312 0 -0.2069018393022739 -0.44305901207807169 0 -0.2120035216183084 -0.42760220339130312 0 -0.22688292389097589 -0.43277255924186009 0 -0.22688292389097589 -0.43277255924186009 0 -0.2382172444188061 -0.41112286384989338 0 -0.23183691400197201 -0.44565973052365931 0 -0.22688292389097589 -0.43277255924186009 0 -0.24237122713312539 -0.43352525392010449 0 -0.2120035216183084 -0.42760220339130312 0 -0.22688292389097589 -0.43277255924186009 0 -0.223444457048529 -0.42098414327793782 0 -0.22688292389097589 -0.43277255924186009 0 -0.223444457048529 -0.42098414327793782 0 -0.2382172444188061 -0.41112286384989338 0 -0.2166741382660255 -0.4124389466286949 0 -0.223444457048529 -0.42098414327793782 0 -0.2382172444188061 -0.41112286384989338 0 -0.25814706465220311 -0.42981066701586029 0 -0.2382172444188061 -0.41112286384989338 0 -0.22688292389097589 -0.43277255924186009 0 -0.2382172444188061 -0.41112286384989338 0 -0.24237122713312539 -0.43352525392010449 0 -0.25814706465220311 -0.42981066701586029 0 -0.2382172444188061 -0.41112286384989338 0 -0.24237122713312539 -0.43352525392010449 0 -0.22376230573935521 -0.38066889779956109 0 -0.23495883536803999 -0.3919896694380966 0 -0.24035800379935571 -0.37899867172594792 0 -0.22376230573935521 -0.38066889779956109 0 -0.24035800379935571 -0.37899867172594792 0 -0.2313409707555644 -0.37268782953488921 0 -0.22376230573935521 -0.38066889779956109 0 -0.22112052755624231 -0.39509160637891738 0 -0.23495883536803999 -0.3919896694380966 0 -0.2166741382660255 -0.4124389466286949 0 -0.2382172444188061 -0.41112286384989338 0 -0.22112052755624231 -0.39509160637891738 0 -0.2382172444188061 -0.41112286384989338 0 -0.22112052755624231 -0.39509160637891738 0 -0.23495883536803999 -0.3919896694380966 0 -0.2382172444188061 -0.41112286384989338 0 -0.22112052755624231 -0.39509160637891738 0 -0.2382172444188061 -0.41112286384989338 0 -0.2492148495097499 -0.39011632890362719 0 -0.26115753520571239 -0.40828108158714482 0 -0.2382172444188061 -0.41112286384989338 0 -0.2492148495097499 -0.39011632890362719 0 -0.2382172444188061 -0.41112286384989338 0 -0.23495883536803999 -0.3919896694380966 0 -0.2492148495097499 -0.39011632890362719 0 -0.2492148495097499 -0.39011632890362719 0 -0.24035800379935571 -0.37899867172594792 0 -0.24780058098437621 -0.36906566620035891 0 -0.23495883536803999 -0.3919896694380966 0 -0.2492148495097499 -0.39011632890362719 0 -0.24035800379935571 -0.37899867172594792 0 -0.24035800379935571 -0.37899867172594792 0 -0.24780058098437621 -0.36906566620035891 0 -0.24114939352551329 -0.35858624544759571 0 -0.24035800379935571 -0.37899867172594792 0 -0.2313409707555644 -0.37268782953488921 0 -0.24114939352551329 -0.35858624544759571 0 -0.24035800379935571 -0.37899867172594792 0 -0.24114939352551329 -0.35858624544759571 0 -0.22376230573935521 -0.38066889779956109 0 -0.22725128500969399 -0.36246980210424978 0 -0.21483622155450341 -0.36952367628306138 0 -0.22376230573935521 -0.38066889779956109 0 -0.22725128500969399 -0.36246980210424978 0 -0.22376230573935521 -0.38066889779956109 0 -0.2313409707555644 -0.37268782953488921 0 -0.22725128500969399 -0.36246980210424978 0 -0.2313409707555644 -0.37268782953488921 0 -0.22725128500969399 -0.36246980210424978 0 -0.24114939352551329 -0.35858624544759571 0 -0.2307402642800335 -0.3442707064089387 0 -0.20969204123137239 -0.35572809002202721 0 -0.22725128500969399 -0.36246980210424978 0 -0.2307402642800335 -0.3442707064089387 0 -0.24114939352551329 -0.35858624544759571 0 -0.22725128500969399 -0.36246980210424978 0 -0.2307402642800335 -0.3442707064089387 0 -0.22725128500969399 -0.36246980210424978 0 -0.2307402642800335 -0.3442707064089387 0 -0.20969204123137239 -0.35572809002202721 0 -0.2307402642800335 -0.3442707064089387 0 -0.21827489581142101 -0.3366332961360422 0 -0.20969204123137239 -0.35572809002202721 0 -0.2307402642800335 -0.3442707064089387 0 -0.24114939352551329 -0.35858624544759571 0 -0.24194078325166959 -0.33817381916924327 0 -0.24114939352551329 -0.35858624544759571 0 -0.24194078325166959 -0.33817381916924327 0 -0.25233789448144839 -0.34879846937914188 0 -0.24114939352551329 -0.35858624544759571 0 -0.24194078325166959 -0.33817381916924327 0 -0.25233789448144839 -0.34879846937914188 0 -0.24780058098437621 -0.36906566620035891 0 -0.24114939352551329 -0.35858624544759571 0 -0.25233789448144839 -0.34879846937914188 0 -0.2490589995130878 -0.33429909139960301 0 -0.24194078325166959 -0.33817381916924327 0 -0.2307402642800335 -0.3442707064089387 0 -0.24194078325166959 -0.33817381916924327 0 -0.23440292273820301 -0.32516567120676038 0 -0.2490589995130878 -0.33429909139960301 0 -0.24194078325166959 -0.33817381916924327 0 -0.2490589995130878 -0.33429909139960301 0 -0.24225538722178741 -0.33005919481335327 0 -0.24194078325166959 -0.33817381916924327 0 -0.25353646602606589 -0.3209638071760379 0 -0.2490589995130878 -0.33429909139960301 0 -0.24225538722178741 -0.33005919481335327 0 -0.2490589995130878 -0.33429909139960301 0 -0.24225538722178741 -0.33005919481335327 0 -0.24225538722178741 -0.33005919481335327 0 -0.24194078325166959 -0.33817381916924327 0 -0.23440292273820301 -0.32516567120676038 0 -0.24225538722178741 -0.33005919481335327 0 -0.24194078325166959 -0.33817381916924327 0 -0.2307402642800335 -0.3442707064089387 0 -0.24194078325166959 -0.33817381916924327 0 -0.24225538722178741 -0.33005919481335327 0 -0.23440292273820301 -0.32516567120676038 0 -0.2431357343990431 -0.30735227651364311 0 -0.23440292273820301 -0.32516567120676038 0 -0.23830180588682801 -0.30482844876182541 0 -0.24225538722178741 -0.33005919481335327 0 -0.2431357343990431 -0.30735227651364311 0 -0.25353646602606589 -0.3209638071760379 0 -0.24225538722178741 -0.33005919481335327 0 -0.2431357343990431 -0.30735227651364311 0 -0.23440292273820301 -0.32516567120676038 0 -0.23081076188726901 -0.31393467005515402 0 -0.23830180588682801 -0.30482844876182541 0 -0.24225538722178741 -0.33005919481335327 0 -0.23440292273820301 -0.32516567120676038 0 -0.23440292273820301 -0.32516567120676038 0 -0.23081076188726901 -0.31393467005515402 0 -0.2191458530951432 -0.31565772238103917 0 -0.23440292273820301 -0.32516567120676038 0 -0.2191458530951432 -0.31565772238103917 0 -0.23440292273820301 -0.32516567120676038 0 -0.22308789932052661 -0.32632727483083751 0 -0.2191458530951432 -0.31565772238103917 0 -0.2307402642800335 -0.3442707064089387 0 -0.23440292273820301 -0.32516567120676038 0 -0.22308789932052661 -0.32632727483083751 0 -0.2307402642800335 -0.3442707064089387 0 -0.22308789932052661 -0.32632727483083751 0 -0.21827489581142101 -0.3366332961360422 0 -0.2307402642800335 -0.3442707064089387 0 -0.23440292273820301 -0.32516567120676038 0 -0.21159432229445321 -0.31786201249255358 0 -0.1976352693384876 -0.34387577452345852 0 -0.20782003377046809 -0.33928495679867782 0 -0.21159432229445321 -0.31786201249255358 0 -0.1976352693384876 -0.34387577452345852 0 -0.21159432229445321 -0.31786201249255358 0 -0.20084521038754211 -0.32637643156679752 0 -0.1976352693384876 -0.34387577452345852 0 -0.22308789932052661 -0.32632727483083751 0 -0.21827489581142101 -0.3366332961360422 0 -0.20782003377046809 -0.33928495679867782 0 -0.2191458530951432 -0.31565772238103917 0 -0.20782003377046809 -0.33928495679867782 0 -0.21159432229445321 -0.31786201249255358 0 -0.22308789932052661 -0.32632727483083751 0 -0.2191458530951432 -0.31565772238103917 0 -0.20782003377046809 -0.33928495679867782 0 -0.2191458530951432 -0.31565772238103917 0 -0.20782003377046809 -0.33928495679867782 0 -0.21159432229445321 -0.31786201249255358 0 -0.19856833993115061 -0.31574606436282793 0 -0.20084521038754211 -0.32637643156679752 0 -0.19856833993115061 -0.31574606436282793 0 -0.182634461243292 -0.31052356581855423 0 -0.18621423201910001 -0.32345515767940519 0 -0.19856833993115061 -0.31574606436282793 0 -0.20084521038754211 -0.32637643156679752 0 -0.19558290998607691 -0.32802187488834977 0 -0.19856833993115061 -0.31574606436282793 0 -0.19558290998607691 -0.32802187488834977 0 -0.18621423201910001 -0.32345515767940519 0 -0.20084521038754211 -0.32637643156679752 0 -0.19558290998607691 -0.32802187488834977 0 -0.1976352693384876 -0.34387577452345852 0 -0.19558290998607691 -0.32802187488834977 0 -0.18758316108133649 -0.33609703226990822 0 -0.1976352693384876 -0.34387577452345852 0 -0.19558290998607691 -0.32802187488834977 0 -0.18758316108133649 -0.33609703226990822 0 -0.18621423201910001 -0.32345515767940519 0 -0.18758316108133649 -0.33609703226990822 0 -0.1976352693384876 -0.34387577452345852 0 -0.18736904641091279 -0.34363981031361368 0 -0.20782003377046809 -0.33928495679867782 0 -0.19649421444579279 -0.36291219121631629 0 -0.1976352693384876 -0.34387577452345852 0 -0.18278454550253209 -0.35879019720047572 0 -0.185149333404385 -0.35086061955119402 0 -0.1976352693384876 -0.34387577452345852 0 -0.1836762163825216 -0.3698895365543633 0 -0.20782003377046809 -0.33928495679867782 0 -0.1976352693384876 -0.34387577452345852 0 -0.19649421444579279 -0.36291219121631629 0 -0.1976352693384876 -0.34387577452345852 0 -0.1836762163825216 -0.3698895365543633 0 -0.18278454550253209 -0.35879019720047572 0 -0.1976352693384876 -0.34387577452345852 0 -0.185149333404385 -0.35086061955119402 0 -0.18736904641091279 -0.34363981031361368 0 -0.1976352693384876 -0.34387577452345852 0 -0.19649421444579279 -0.36291219121631629 0 -0.1836762163825216 -0.3698895365543633 0 -0.19649421444579279 -0.36291219121631629 0 -0.20969204123137239 -0.35572809002202721 0 -0.19649421444579279 -0.36291219121631629 0 -0.1836762163825216 -0.3698895365543633 0 -0.20136409501287081 -0.37425577391235409 0 -0.19649421444579279 -0.36291219121631629 0 -0.20969204123137239 -0.35572809002202721 0 -0.18967967526701271 -0.37616427390820523 0 -0.1922071843524619 -0.37185553227332208 0 -0.20136409501287081 -0.37425577391235409 0 -0.1922071843524619 -0.37185553227332208 0 -0.19649421444579279 -0.36291219121631629 0 -0.1922071843524619 -0.37185553227332208 0 -0.19649421444579279 -0.36291219121631629 0 -0.1836762163825216 -0.3698895365543633 0 -0.18967967526701271 -0.37616427390820523 0 -0.1922071843524619 -0.37185553227332208 0 -0.1836762163825216 -0.3698895365543633 0 -0.1922071843524619 -0.37185553227332208 0 -0.20136409501287081 -0.37425577391235409 0 -0.19649421444579279 -0.36291219121631629 0 -0.22725128500969399 -0.36246980210424978 0 -0.21483622155450341 -0.36952367628306138 0 -0.20969204123137239 -0.35572809002202721 0 -0.20136409501287081 -0.37425577391235409 0 -0.21483622155450341 -0.36952367628306138 0 -0.20969204123137239 -0.35572809002202721 0 -0.20136409501287081 -0.37425577391235409 0 -0.20969204123137239 -0.35572809002202721 0 -0.20782003377046809 -0.33928495679867782 0 -0.19649421444579279 -0.36291219121631629 0 -0.20969204123137239 -0.35572809002202721 0 -0.21827489581142101 -0.3366332961360422 0 -0.20782003377046809 -0.33928495679867782 0 -0.20969204123137239 -0.35572809002202721 0 -0.21827489581142101 -0.3366332961360422 0 -0.20969204123137239 -0.35572809002202721 0 -0.219880402739211 -0.25181503776220382 0 -0.24489642875355369 -0.26193843991422289 0 -0.22624664466326569 -0.26962876443151218 0 -0.219880402739211 -0.25181503776220382 0 -0.2453456506564767 -0.25035159632384441 0 -0.219880402739211 -0.25181503776220382 0 -0.2453456506564767 -0.25035159632384441 0 -0.24489642875355369 -0.26193843991422289 0 -0.24898481101924899 -0.25340950585555583 0 -0.24489642875355369 -0.26193843991422289 0 -0.2453456506564767 -0.25035159632384441 0 -0.24489642875355369 -0.26193843991422289 0 -0.2453456506564767 -0.25035159632384441 0 -0.24898481101924899 -0.25340950585555583 0 -0.24489642875355369 -0.26193843991422289 0 -0.25059524740695288 -0.25004991155547401 0 -0.24754692042651941 -0.25022509335756632 0 -0.25059524740695288 -0.25004991155547401 0 -0.24898481101924899 -0.25340950585555583 0 -0.24754692042651941 -0.25022509335756632 0 -0.25059524740695288 -0.25004991155547401 0 -0.24898481101924899 -0.25340950585555583 0 -0.24898481101924899 -0.25340950585555583 0 -0.24754692042651941 -0.25022509335756632 0 -0.2453456506564767 -0.25035159632384441 0 -0.24754692042651941 -0.25022509335756632 0 -0.2453456506564767 -0.25035159632384441 0 -0.24898481101924899 -0.25340950585555583 0 -0.24754692042651941 -0.25022509335756632 0 -0.24489642875355369 -0.26193843991422289 0 -0.22624664466326569 -0.26962876443151218 0 -0.23202114092434811 -0.28879808114763089 0 -0.24489642875355369 -0.26193843991422289 0 -0.23202114092434811 -0.28879808114763089 0 -0.25819585485174579 -0.27380866782804492 0 -0.24489642875355369 -0.26193843991422289 0 -0.24401608157629889 -0.284645358213933 0 -0.24489642875355369 -0.26193843991422289 0 -0.24401608157629889 -0.284645358213933 0 -0.24489642875355369 -0.26193843991422289 0 -0.23202114092434811 -0.28879808114763089 0 -0.24401608157629889 -0.284645358213933 0 -0.22624664466326569 -0.26962876443151218 0 -0.23202114092434811 -0.28879808114763089 0 -0.2081886062359489 -0.27596349890199118 0 -0.24401608157629889 -0.284645358213933 0 -0.2431357343990431 -0.30735227651364311 0 -0.23202114092434811 -0.28879808114763089 0 -0.24401608157629889 -0.284645358213933 0 -0.23830180588682801 -0.30482844876182541 0 -0.23440292273820301 -0.32516567120676038 0 -0.2431357343990431 -0.30735227651364311 0 -0.23830180588682801 -0.30482844876182541 0 -0.24401608157629889 -0.284645358213933 0 -0.2431357343990431 -0.30735227651364311 0 -0.23830180588682801 -0.30482844876182541 0 -0.23081076188726901 -0.31393467005515402 0 -0.2191458530951432 -0.31565772238103917 0 -0.23202114092434811 -0.28879808114763089 0 -0.23081076188726901 -0.31393467005515402 0 -0.23202114092434811 -0.28879808114763089 0 -0.23830180588682801 -0.30482844876182541 0 -0.2191458530951432 -0.31565772238103917 0 -0.23202114092434811 -0.28879808114763089 0 -0.2191458530951432 -0.31565772238103917 0 -0.23202114092434811 -0.28879808114763089 0 -0.21304858131753521 -0.29572906277915217 0 -0.2191458530951432 -0.31565772238103917 0 -0.19828662948472919 -0.30265860556031893 0 -0.21304858131753521 -0.29572906277915217 0 -0.2191458530951432 -0.31565772238103917 0 -0.19828662948472919 -0.30265860556031893 0 -0.2191458530951432 -0.31565772238103917 0 -0.21159432229445321 -0.31786201249255358 0 -0.19828662948472919 -0.30265860556031893 0 -0.21159432229445321 -0.31786201249255358 0 -0.19856833993115061 -0.31574606436282793 0 -0.19828662948472919 -0.30265860556031893 0 -0.19856833993115061 -0.31574606436282793 0 -0.19828662948472919 -0.30265860556031893 0 -0.182634461243292 -0.31052356581855423 0 -0.19828662948472919 -0.30265860556031893 0 -0.19381122211527549 -0.28660454560493898 0 -0.17742740587431691 -0.28965948873959563 0 -0.19828662948472919 -0.30265860556031893 0 -0.17742740587431691 -0.28965948873959563 0 -0.19828662948472919 -0.30265860556031893 0 -0.19381122211527549 -0.28660454560493898 0 -0.21304858131753521 -0.29572906277915217 0 -0.19381122211527549 -0.28660454560493898 0 -0.21304858131753521 -0.29572906277915217 0 -0.2081886062359489 -0.27596349890199118 0 -0.23202114092434811 -0.28879808114763089 0 -0.21304858131753521 -0.29572906277915217 0 -0.2081886062359489 -0.27596349890199118 0 -0.219880402739211 -0.25181503776220382 0 -0.22624664466326569 -0.26962876443151218 0 -0.2081886062359489 -0.27596349890199118 0 -0.2081886062359489 -0.27596349890199118 0 -0.19441515482194541 -0.25327847920056412 0 -0.18282627148966149 -0.27097396544033442 0 -0.19381122211527549 -0.28660454560493898 0 -0.2081886062359489 -0.27596349890199118 0 -0.18282627148966149 -0.27097396544033442 0 -0.219880402739211 -0.25181503776220382 0 -0.2081886062359489 -0.27596349890199118 0 -0.19441515482194541 -0.25327847920056412 0 -0.219880402739211 -0.25181503776220382 0 -0.19441515482194541 -0.25327847920056412 0 -0.16894990690467979 -0.25474192063892442 0 -0.15656818226390479 -0.27666037191887233 0 -0.14348465898741411 -0.25620536207728473 0 -0.19441515482194541 -0.25327847920056412 0 -0.16894990690467979 -0.25474192063892442 0 -0.19441515482194541 -0.25327847920056412 0 -0.16894990690467979 -0.25474192063892442 0 -0.18282627148966149 -0.27097396544033442 0 -0.18282627148966149 -0.27097396544033442 0 -0.15656818226390479 -0.27666037191887233 0 -0.17742740587431691 -0.28965948873959563 0 -0.16894990690467979 -0.25474192063892442 0 -0.18282627148966149 -0.27097396544033442 0 -0.15656818226390479 -0.27666037191887233 0 -0.15656818226390479 -0.27666037191887233 0 -0.17742740587431691 -0.28965948873959563 0 -0.15656818226390479 -0.27666037191887233 0 -0.17742740587431691 -0.28965948873959563 0 -0.1559040992964221 -0.29156247966112209 0 -0.17742740587431691 -0.28965948873959563 0 -0.16344550902426419 -0.30516699332867969 0 -0.1559040992964221 -0.29156247966112209 0 -0.19381122211527549 -0.28660454560493898 0 -0.18282627148966149 -0.27097396544033442 0 -0.17742740587431691 -0.28965948873959563 0 -0.19828662948472919 -0.30265860556031893 0 -0.17742740587431691 -0.28965948873959563 0 -0.182634461243292 -0.31052356581855423 0 -0.17742740587431691 -0.28965948873959563 0 -0.182634461243292 -0.31052356581855423 0 -0.16344550902426419 -0.30516699332867969 0 -0.14273596819013359 -0.29857062809825702 0 -0.15271315540044539 -0.317608291493782 0 -0.13792643156609449 -0.31660996118260398 0 -0.16344550902426419 -0.30516699332867969 0 -0.14273596819013359 -0.29857062809825702 0 -0.15271315540044539 -0.317608291493782 0 -0.16344550902426419 -0.30516699332867969 0 -0.14273596819013359 -0.29857062809825702 0 -0.1559040992964221 -0.29156247966112209 0 -0.14273596819013359 -0.29857062809825702 0 -0.1321908221382421 -0.30582848771654703 0 -0.12556006532294811 -0.29665681700128921 0 -0.14273596819013359 -0.29857062809825702 0 -0.1321908221382421 -0.30582848771654703 0 -0.13792643156609449 -0.31660996118260398 0 -0.1321908221382421 -0.30582848771654703 0 -0.12593166682397261 -0.31942180862689562 0 -0.12221250860588311 -0.30764708607330432 0 -0.1321908221382421 -0.30582848771654703 0 -0.12556006532294811 -0.29665681700128921 0 -0.12221250860588311 -0.30764708607330432 0 -0.14273596819013359 -0.29857062809825702 0 -0.12556006532294811 -0.29665681700128921 0 -0.1377810012006534 -0.28646544234369542 0 -0.12556006532294811 -0.29665681700128921 0 -0.1377810012006534 -0.28646544234369542 0 -0.1222197456654929 -0.28728830630709667 0 -0.1377810012006534 -0.28646544234369542 0 -0.1262895362602621 -0.27920804073568761 0 -0.1222197456654929 -0.28728830630709667 0 -0.14273596819013359 -0.29857062809825702 0 -0.1377810012006534 -0.28646544234369542 0 -0.1559040992964221 -0.29156247966112209 0 -0.15656818226390479 -0.27666037191887233 0 -0.1377810012006534 -0.28646544234369542 0 -0.1559040992964221 -0.29156247966112209 0 -0.15656818226390479 -0.27666037191887233 0 -0.1377810012006534 -0.28646544234369542 0 -0.1351894114054103 -0.27531145268354362 0 -0.15656818226390479 -0.27666037191887233 0 -0.1357089586534927 -0.26366125509814908 0 -0.15656818226390479 -0.27666037191887233 0 -0.1351894114054103 -0.27531145268354362 0 -0.1357089586534927 -0.26366125509814908 0 -0.1377810012006534 -0.28646544234369542 0 -0.1351894114054103 -0.27531145268354362 0 -0.1262895362602621 -0.27920804073568761 0 -0.1351894114054103 -0.27531145268354362 0 -0.1262895362602621 -0.27920804073568761 0 -0.1237611880095134 -0.26840005677391637 0 -0.1351894114054103 -0.27531145268354362 0 -0.1357089586534927 -0.26366125509814908 0 -0.1237611880095134 -0.26840005677391637 0 -0.1357089586534927 -0.26366125509814908 0 -0.13138631030816489 -0.25257813007746482 0 -0.1237611880095134 -0.26840005677391637 0 -0.13138631030816489 -0.25257813007746482 0 -0.14348465898741411 -0.25620536207728473 0 -0.14123905081936811 -0.24435887240762211 0 -0.1357089586534927 -0.26366125509814908 0 -0.13138631030816489 -0.25257813007746482 0 -0.14348465898741411 -0.25620536207728473 0 -0.16894990690467979 -0.25474192063892442 0 -0.14348465898741411 -0.25620536207728473 0 -0.15522258220679089 -0.24477908560778669 0 -0.15656818226390479 -0.27666037191887233 0 -0.1357089586534927 -0.26366125509814908 0 -0.14348465898741411 -0.25620536207728473 0 -0.16894990690467979 -0.25474192063892442 0 -0.14348465898741411 -0.25620536207728473 0 -0.17037810915819801 -0.35068825148088778 0 -0.16199611201137559 -0.34558911755691768 0 -0.16217695080494671 -0.35867573078163117 0 -0.17037810915819801 -0.35068825148088778 0 -0.16217695080494671 -0.35867573078163117 0 -0.17354032143367271 -0.36048718159480092 0 -0.17037810915819801 -0.35068825148088778 0 -0.16199611201137559 -0.34558911755691768 0 -0.1686936364859847 -0.33798793824082651 0 -0.16199611201137559 -0.34558911755691768 0 -0.16217695080494671 -0.35867573078163117 0 -0.1502758047480735 -0.34721763595288269 0 -0.16217695080494671 -0.35867573078163117 0 -0.1570820738191932 -0.37179212253355609 0 -0.1697529657756835 -0.36831271757751172 0 -0.16217695080494671 -0.35867573078163117 0 -0.1570820738191932 -0.37179212253355609 0 -0.15112923272941761 -0.35947923890823219 0 -0.1696236035998403 -0.37902153028438701 0 -0.1570820738191932 -0.37179212253355609 0 -0.1697529657756835 -0.36831271757751172 0 -0.16217695080494671 -0.35867573078163117 0 -0.1697529657756835 -0.36831271757751172 0 -0.17354032143367271 -0.36048718159480092 0 -0.1697529657756835 -0.36831271757751172 0 -0.17354032143367271 -0.36048718159480092 0 -0.17752138218681299 -0.36610781051996749 0 -0.17354032143367271 -0.36048718159480092 0 -0.17752138218681299 -0.36610781051996749 0 -0.18278454550253209 -0.35879019720047572 0 -0.1697529657756835 -0.36831271757751172 0 -0.17752138218681299 -0.36610781051996749 0 -0.17785286183965521 -0.37305941967268591 0 -0.1696236035998403 -0.37902153028438701 0 -0.1697529657756835 -0.36831271757751172 0 -0.17785286183965521 -0.37305941967268591 0 -0.17752138218681299 -0.36610781051996749 0 -0.17785286183965521 -0.37305941967268591 0 -0.1836762163825216 -0.3698895365543633 0 -0.17785286183965521 -0.37305941967268591 0 -0.1836762163825216 -0.3698895365543633 0 -0.17752138218681299 -0.36610781051996749 0 -0.1836762163825216 -0.3698895365543633 0 -0.18278454550253209 -0.35879019720047572 0 -0.18278454550253209 -0.35879019720047572 0 -0.17819214626364599 -0.35291041294745051 0 -0.185149333404385 -0.35086061955119402 0 -0.17354032143367271 -0.36048718159480092 0 -0.18278454550253209 -0.35879019720047572 0 -0.17819214626364599 -0.35291041294745051 0 -0.17037810915819801 -0.35068825148088778 0 -0.17354032143367271 -0.36048718159480092 0 -0.17819214626364599 -0.35291041294745051 0 -0.17037810915819801 -0.35068825148088778 0 -0.17819214626364599 -0.35291041294745051 0 -0.17910842181944231 -0.34372581490989401 0 -0.17037810915819801 -0.35068825148088778 0 -0.17910842181944231 -0.34372581490989401 0 -0.1686936364859847 -0.33798793824082651 0 -0.185149333404385 -0.35086061955119402 0 -0.18736904641091279 -0.34363981031361368 0 -0.17910842181944231 -0.34372581490989401 0 -0.17819214626364599 -0.35291041294745051 0 -0.185149333404385 -0.35086061955119402 0 -0.17910842181944231 -0.34372581490989401 0 -0.18758316108133649 -0.33609703226990822 0 -0.18736904641091279 -0.34363981031361368 0 -0.17910842181944231 -0.34372581490989401 0 -0.18758316108133649 -0.33609703226990822 0 -0.17859719495139831 -0.33235523987188531 0 -0.17910842181944231 -0.34372581490989401 0 -0.18758316108133649 -0.33609703226990822 0 -0.17859719495139831 -0.33235523987188531 0 -0.18621423201910001 -0.32345515767940519 0 -0.17859719495139831 -0.33235523987188531 0 -0.16992677759805569 -0.32279649304551977 0 -0.1686936364859847 -0.33798793824082651 0 -0.17859719495139831 -0.33235523987188531 0 -0.17910842181944231 -0.34372581490989401 0 -0.1686936364859847 -0.33798793824082651 0 -0.17859719495139831 -0.33235523987188531 0 -0.18621423201910001 -0.32345515767940519 0 -0.16992677759805569 -0.32279649304551977 0 -0.182634461243292 -0.31052356581855423 0 -0.18621423201910001 -0.32345515767940519 0 -0.16992677759805569 -0.32279649304551977 0 -0.182634461243292 -0.31052356581855423 0 -0.16344550902426419 -0.30516699332867969 0 -0.16992677759805569 -0.32279649304551977 0 -0.16992677759805569 -0.32279649304551977 0 -0.15809177213793091 -0.33284083858764568 0 -0.15271315540044539 -0.317608291493782 0 -0.16344550902426419 -0.30516699332867969 0 -0.16992677759805569 -0.32279649304551977 0 -0.15271315540044539 -0.317608291493782 0 -0.16992677759805569 -0.32279649304551977 0 -0.1686936364859847 -0.33798793824082651 0 -0.15809177213793091 -0.33284083858764568 0 -0.16199611201137559 -0.34558911755691768 0 -0.1686936364859847 -0.33798793824082651 0 -0.15809177213793091 -0.33284083858764568 0 -0.16199611201137559 -0.34558911755691768 0 -0.15809177213793091 -0.33284083858764568 0 -0.1502758047480735 -0.34721763595288269 0 -0.14415247388619379 -0.32966483471998598 0 -0.13615634332810661 -0.34116958560660332 0 -0.1502758047480735 -0.34721763595288269 0 -0.15809177213793091 -0.33284083858764568 0 -0.14415247388619379 -0.32966483471998598 0 -0.1502758047480735 -0.34721763595288269 0 -0.15809177213793091 -0.33284083858764568 0 -0.14415247388619379 -0.32966483471998598 0 -0.15271315540044539 -0.317608291493782 0 -0.14415247388619379 -0.32966483471998598 0 -0.15271315540044539 -0.317608291493782 0 -0.13792643156609449 -0.31660996118260398 0 -0.14415247388619379 -0.32966483471998598 0 -0.13792643156609449 -0.31660996118260398 0 -0.12987213415438151 -0.32916880487111611 0 -0.13792643156609449 -0.31660996118260398 0 -0.12593166682397261 -0.31942180862689562 0 -0.12987213415438151 -0.32916880487111611 0 -0.1321908221382421 -0.30582848771654703 0 -0.13792643156609449 -0.31660996118260398 0 -0.12593166682397261 -0.31942180862689562 0 -0.13615634332810661 -0.34116958560660332 0 -0.12987213415438151 -0.32916880487111611 0 -0.11954797721235751 -0.33951639511172738 0 -0.14415247388619379 -0.32966483471998598 0 -0.13615634332810661 -0.34116958560660332 0 -0.12987213415438151 -0.32916880487111611 0 -0.13615634332810661 -0.34116958560660332 0 -0.12637955156622571 -0.35168175825312581 0 -0.11954797721235751 -0.33951639511172738 0 -0.13615634332810661 -0.34116958560660332 0 -0.12637955156622571 -0.35168175825312581 0 -0.13782642761859251 -0.36183846242912487 0 -0.13615634332810661 -0.34116958560660332 0 -0.1502758047480735 -0.34721763595288269 0 -0.13782642761859251 -0.36183846242912487 0 -0.1502758047480735 -0.34721763595288269 0 -0.15112923272941761 -0.35947923890823219 0 -0.13782642761859251 -0.36183846242912487 0 -0.16217695080494671 -0.35867573078163117 0 -0.1502758047480735 -0.34721763595288269 0 -0.15112923272941761 -0.35947923890823219 0 -0.13827213961799559 -0.37927114421765912 0 -0.1570820738191932 -0.37179212253355609 0 -0.13782642761859251 -0.36183846242912487 0 -0.1570820738191932 -0.37179212253355609 0 -0.15112923272941761 -0.35947923890823219 0 -0.13782642761859251 -0.36183846242912487 0 -0.12637955156622571 -0.35168175825312581 0 -0.13782642761859251 -0.36183846242912487 0 -0.11926597608187289 -0.37271568155493462 0 -0.13827213961799559 -0.37927114421765912 0 -0.13782642761859251 -0.36183846242912487 0 -0.11926597608187289 -0.37271568155493462 0 -0.11926597608187289 -0.37271568155493462 0 -0.1060820800103324 -0.36578765651885892 0 -0.1110792059801058 -0.35138336920792568 0 -0.11926597608187289 -0.37271568155493462 0 -0.1110792059801058 -0.35138336920792568 0 -0.1060820800103324 -0.36578765651885892 0 -0.095171459228352115 -0.35713800915847732 0 -0.093004181173005282 -0.37291375001574001 0 -0.1060820800103324 -0.36578765651885892 0 -0.095171459228352115 -0.35713800915847732 0 -0.1110792059801058 -0.35138336920792568 0 -0.095171459228352115 -0.35713800915847732 0 -0.1110792059801058 -0.35138336920792568 0 -0.091777942701117859 -0.34376785720284381 0 -0.12637955156622571 -0.35168175825312581 0 -0.11926597608187289 -0.37271568155493462 0 -0.1110792059801058 -0.35138336920792568 0 -0.12637955156622571 -0.35168175825312581 0 -0.1110792059801058 -0.35138336920792568 0 -0.11954797721235751 -0.33951639511172738 0 -0.11954797721235751 -0.33951639511172738 0 -0.116486340626912 -0.32757697677472147 0 -0.1028924358783387 -0.3300510568609169 0 -0.1110792059801058 -0.35138336920792568 0 -0.11954797721235751 -0.33951639511172738 0 -0.1028924358783387 -0.3300510568609169 0 -0.12987213415438151 -0.32916880487111611 0 -0.11954797721235751 -0.33951639511172738 0 -0.116486340626912 -0.32757697677472147 0 -0.12593166682397261 -0.31942180862689562 0 -0.11838009758979109 -0.31627115060292121 0 -0.12221250860588311 -0.30764708607330432 0 -0.12593166682397261 -0.31942180862689562 0 -0.12987213415438151 -0.32916880487111611 0 -0.116486340626912 -0.32757697677472147 0 -0.12593166682397261 -0.31942180862689562 0 -0.11838009758979109 -0.31627115060292121 0 -0.116486340626912 -0.32757697677472147 0 -0.11838009758979109 -0.31627115060292121 0 -0.116486340626912 -0.32757697677472147 0 -0.1116923791977463 -0.31422088916290641 0 -0.116486340626912 -0.32757697677472147 0 -0.1116923791977463 -0.31422088916290641 0 -0.1049808524805452 -0.31260104733727578 0 -0.11838009758979109 -0.31627115060292121 0 -0.1116923791977463 -0.31422088916290641 0 -0.1140455259096496 -0.30760619540956868 0 -0.116486340626912 -0.32757697677472147 0 -0.1028924358783387 -0.3300510568609169 0 -0.094705665776571191 -0.30871874451390818 0 -0.1028924358783387 -0.3300510568609169 0 -0.094705665776571191 -0.30871874451390818 0 -0.116486340626912 -0.32757697677472147 0 -0.094705665776571191 -0.30871874451390818 0 -0.116486340626912 -0.32757697677472147 0 -0.1049808524805452 -0.31260104733727578 0 -0.094705665776571191 -0.30871874451390818 0 -0.1028924358783387 -0.3300510568609169 0 -0.09159086228574205 -0.3238046487769044 0 -0.094705665776571191 -0.30871874451390818 0 -0.1110792059801058 -0.35138336920792568 0 -0.1028924358783387 -0.3300510568609169 0 -0.1110792059801058 -0.35138336920792568 0 -0.1028924358783387 -0.3300510568609169 0 -0.091777942701117859 -0.34376785720284381 0 -0.1028924358783387 -0.3300510568609169 0 -0.087432884607917205 -0.33277140194231469 0 -0.091777942701117859 -0.34376785720284381 0 -0.1028924358783387 -0.3300510568609169 0 -0.087432884607917205 -0.33277140194231469 0 -0.09159086228574205 -0.3238046487769044 0 -0.087432884607917205 -0.33277140194231469 0 -0.078543565328609205 -0.33688360785486771 0 -0.082454875737409936 -0.32565735731511603 0 -0.087432884607917205 -0.33277140194231469 0 -0.078543565328609205 -0.33688360785486771 0 -0.091777942701117859 -0.34376785720284381 0 -0.089244310412011585 -0.31503338391868752 0 -0.09159086228574205 -0.3238046487769044 0 -0.084459327098719963 -0.31712614237624642 0 -0.089244310412011585 -0.31503338391868752 0 -0.084459327098719963 -0.31712614237624642 0 -0.084770748604463875 -0.30814549206771941 0 -0.089244310412011585 -0.31503338391868752 0 -0.09159086228574205 -0.3238046487769044 0 -0.094705665776571191 -0.30871874451390818 0 -0.087432884607917205 -0.33277140194231469 0 -0.09159086228574205 -0.3238046487769044 0 -0.082454875737409936 -0.32565735731511603 0 -0.09159086228574205 -0.3238046487769044 0 -0.082454875737409936 -0.32565735731511603 0 -0.084459327098719963 -0.31712614237624642 0 -0.082454875737409936 -0.32565735731511603 0 -0.084459327098719963 -0.31712614237624642 0 -0.073471524642168301 -0.31939959605711188 0 -0.084459327098719963 -0.31712614237624642 0 -0.073471524642168301 -0.31939959605711188 0 -0.077727542558783738 -0.30994760288463952 0 -0.073471524642168301 -0.31939959605711188 0 -0.077727542558783738 -0.30994760288463952 0 -0.062336611832247903 -0.31208955120119669 0 -0.082454875737409936 -0.32565735731511603 0 -0.073471524642168301 -0.31939959605711188 0 -0.072114872135104424 -0.32825924354600461 0 -0.073471524642168301 -0.31939959605711188 0 -0.064475530610396833 -0.32429323910277702 0 -0.072114872135104424 -0.32825924354600461 0 -0.073471524642168301 -0.31939959605711188 0 -0.064475530610396833 -0.32429323910277702 0 -0.062336611832247903 -0.31208955120119669 0 -0.078543565328609205 -0.33688360785486771 0 -0.063589434575338194 -0.33466255525704192 0 -0.078296807874171731 -0.35378815263639091 0 -0.078543565328609205 -0.33688360785486771 0 -0.072114872135104424 -0.32825924354600461 0 -0.063589434575338194 -0.33466255525704192 0 -0.078543565328609205 -0.33688360785486771 0 -0.082454875737409936 -0.32565735731511603 0 -0.072114872135104424 -0.32825924354600461 0 -0.064475530610396833 -0.32429323910277702 0 -0.072114872135104424 -0.32825924354600461 0 -0.063589434575338194 -0.33466255525704192 0 -0.063589434575338194 -0.33466255525704192 0 -0.078296807874171731 -0.35378815263639091 0 -0.064206943221684853 -0.34781599848244271 0 -0.073015040385982166 -0.36583771281757022 0 -0.078296807874171731 -0.35378815263639091 0 -0.064206943221684853 -0.34781599848244271 0 -0.073015040385982166 -0.36583771281757022 0 -0.063589434575338194 -0.33466255525704192 0 -0.064206943221684853 -0.34781599848244271 0 -0.078296807874171731 -0.35378815263639091 0 -0.064206943221684853 -0.34781599848244271 0 -0.073015040385982166 -0.36583771281757022 0 -0.059343590821338728 -0.36097016756253852 0 -0.063683772153077967 -0.37405162642911338 0 -0.073015040385982166 -0.36583771281757022 0 -0.059343590821338728 -0.36097016756253852 0 -0.073015040385982166 -0.36583771281757022 0 -0.08183654068279006 -0.37268954431211709 0 -0.078296807874171731 -0.35378815263639091 0 -0.063683772153077967 -0.37405162642911338 0 -0.073015040385982166 -0.36583771281757022 0 -0.08182313755027848 -0.38385942715269822 0 -0.073015040385982166 -0.36583771281757022 0 -0.08182313755027848 -0.38385942715269822 0 -0.093004181173005282 -0.37291375001574001 0 -0.078296807874171731 -0.35378815263639091 0 -0.073015040385982166 -0.36583771281757022 0 -0.08183654068279006 -0.37268954431211709 0 -0.08182313755027848 -0.38385942715269822 0 -0.08183654068279006 -0.37268954431211709 0 -0.093004181173005282 -0.37291375001574001 0 -0.078296807874171731 -0.35378815263639091 0 -0.095171459228352115 -0.35713800915847732 0 -0.093004181173005282 -0.37291375001574001 0 -0.078296807874171731 -0.35378815263639091 0 -0.08183654068279006 -0.37268954431211709 0 -0.093004181173005282 -0.37291375001574001 0 -0.087242047055254332 -0.37828098002972549 0 -0.095171459228352115 -0.35713800915847732 0 -0.078296807874171731 -0.35378815263639091 0 -0.091777942701117859 -0.34376785720284381 0 -0.078543565328609205 -0.33688360785486771 0 -0.078296807874171731 -0.35378815263639091 0 -0.091777942701117859 -0.34376785720284381 0 -0.093802440156239938 -0.26200710103042618 0 -0.1024803928049134 -0.25248983375176598 0 -0.1060823145455133 -0.27095739139889469 0 -0.1024803928049134 -0.25248983375176598 0 -0.1180516765755087 -0.25804632408857098 0 -0.1060823145455133 -0.27095739139889469 0 -0.1024803928049134 -0.25248983375176598 0 -0.1180516765755087 -0.25804632408857098 0 -0.1132611434474206 -0.2481528401313787 0 -0.13138631030816489 -0.25257813007746482 0 -0.1180516765755087 -0.25804632408857098 0 -0.1237611880095134 -0.26840005677391637 0 -0.13138631030816489 -0.25257813007746482 0 -0.1180516765755087 -0.25804632408857098 0 -0.1227181660842256 -0.2423306863943781 0 -0.1237611880095134 -0.26840005677391637 0 -0.1145524275731418 -0.27961471929158588 0 -0.1060823145455133 -0.27095739139889469 0 -0.1180516765755087 -0.25804632408857098 0 -0.1237611880095134 -0.26840005677391637 0 -0.1060823145455133 -0.27095739139889469 0 -0.1262895362602621 -0.27920804073568761 0 -0.1237611880095134 -0.26840005677391637 0 -0.1145524275731418 -0.27961471929158588 0 -0.093802440156239938 -0.26200710103042618 0 -0.1060823145455133 -0.27095739139889469 0 -0.083276314858250891 -0.27279428841046682 0 -0.1145524275731418 -0.27961471929158588 0 -0.1060823145455133 -0.27095739139889469 0 -0.10137398237269191 -0.28587317497291992 0 -0.1060823145455133 -0.27095739139889469 0 -0.10137398237269191 -0.28587317497291992 0 -0.083276314858250891 -0.27279428841046682 0 -0.10137398237269191 -0.28587317497291992 0 -0.093579799475700512 -0.29624055479368738 0 -0.087430519537899196 -0.28672405617400332 0 -0.10137398237269191 -0.28587317497291992 0 -0.1018969053100278 -0.2961412311035882 0 -0.093579799475700512 -0.29624055479368738 0 -0.10137398237269191 -0.28587317497291992 0 -0.10899089400918111 -0.2955554998316744 0 -0.11295795749360001 -0.28928438147033392 0 -0.10137398237269191 -0.28587317497291992 0 -0.1018969053100278 -0.2961412311035882 0 -0.10899089400918111 -0.2955554998316744 0 -0.1145524275731418 -0.27961471929158588 0 -0.10137398237269191 -0.28587317497291992 0 -0.11295795749360001 -0.28928438147033392 0 -0.1145524275731418 -0.27961471929158588 0 -0.1222197456654929 -0.28728830630709667 0 -0.11295795749360001 -0.28928438147033392 0 -0.1262895362602621 -0.27920804073568761 0 -0.1145524275731418 -0.27961471929158588 0 -0.1222197456654929 -0.28728830630709667 0 -0.12556006532294811 -0.29665681700128921 0 -0.1222197456654929 -0.28728830630709667 0 -0.11295795749360001 -0.28928438147033392 0 -0.12556006532294811 -0.29665681700128921 0 -0.11295795749360001 -0.28928438147033392 0 -0.11569930031593249 -0.29983896524787951 0 -0.10899089400918111 -0.2955554998316744 0 -0.11295795749360001 -0.28928438147033392 0 -0.11569930031593249 -0.29983896524787951 0 -0.10899089400918111 -0.2955554998316744 0 -0.10989777745946309 -0.30308626952527429 0 -0.11569930031593249 -0.29983896524787951 0 -0.10989777745946309 -0.30308626952527429 0 -0.11569930031593249 -0.29983896524787951 0 -0.1140455259096496 -0.30760619540956868 0 -0.12556006532294811 -0.29665681700128921 0 -0.11569930031593249 -0.29983896524787951 0 -0.12221250860588311 -0.30764708607330432 0 -0.11569930031593249 -0.29983896524787951 0 -0.12221250860588311 -0.30764708607330432 0 -0.1140455259096496 -0.30760619540956868 0 -0.11838009758979109 -0.31627115060292121 0 -0.12221250860588311 -0.30764708607330432 0 -0.1140455259096496 -0.30760619540956868 0 -0.10989777745946309 -0.30308626952527429 0 -0.1140455259096496 -0.30760619540956868 0 -0.10741756985083591 -0.30813179182809969 0 -0.1116923791977463 -0.31422088916290641 0 -0.1140455259096496 -0.30760619540956868 0 -0.10741756985083591 -0.30813179182809969 0 -0.1116923791977463 -0.31422088916290641 0 -0.1049808524805452 -0.31260104733727578 0 -0.10741756985083591 -0.30813179182809969 0 -0.1049808524805452 -0.31260104733727578 0 -0.1028312874400335 -0.3075108730856112 0 -0.10741756985083591 -0.30813179182809969 0 -0.1049808524805452 -0.31260104733727578 0 -0.1028312874400335 -0.3075108730856112 0 -0.099420761099714275 -0.30843559445062563 0 -0.1028312874400335 -0.3075108730856112 0 -0.1052857456079538 -0.30483798144159913 0 -0.10741756985083591 -0.30813179182809969 0 -0.1028312874400335 -0.3075108730856112 0 -0.1052857456079538 -0.30483798144159913 0 -0.10158456862130071 -0.30442055772927412 0 -0.10989777745946309 -0.30308626952527429 0 -0.1052857456079538 -0.30483798144159913 0 -0.10741756985083591 -0.30813179182809969 0 -0.10989777745946309 -0.30308626952527429 0 -0.1052857456079538 -0.30483798144159913 0 -0.1046975246681356 -0.30104041503973628 0 -0.10899089400918111 -0.2955554998316744 0 -0.10989777745946309 -0.30308626952527429 0 -0.1046975246681356 -0.30104041503973628 0 -0.1018969053100278 -0.2961412311035882 0 -0.1046975246681356 -0.30104041503973628 0 -0.099246499036775404 -0.30128934732354529 0 -0.1018969053100278 -0.2961412311035882 0 -0.10899089400918111 -0.2955554998316744 0 -0.1046975246681356 -0.30104041503973628 0 -0.1046975246681356 -0.30104041503973628 0 -0.10158456862130071 -0.30442055772927412 0 -0.099246499036775404 -0.30128934732354529 0 -0.1052857456079538 -0.30483798144159913 0 -0.1046975246681356 -0.30104041503973628 0 -0.10158456862130071 -0.30442055772927412 0 -0.1018969053100278 -0.2961412311035882 0 -0.099246499036775404 -0.30128934732354529 0 -0.093579799475700512 -0.29624055479368738 0 -0.10158456862130071 -0.30442055772927412 0 -0.099246499036775404 -0.30128934732354529 0 -0.098181670292714782 -0.30597126045352391 0 -0.099246499036775404 -0.30128934732354529 0 -0.096226029131258092 -0.30335239769558558 0 -0.098181670292714782 -0.30597126045352391 0 -0.096226029131258092 -0.30335239769558558 0 -0.094152164452482145 -0.30727648303799221 0 -0.093579799475700512 -0.29624055479368738 0 -0.099246499036775404 -0.30128934732354529 0 -0.096226029131258092 -0.30335239769558558 0 -0.093579799475700512 -0.29624055479368738 0 -0.096286707423370643 -0.30613231562162407 0 -0.094705665776571191 -0.30871874451390818 0 -0.099420761099714275 -0.30843559445062563 0 -0.096226029131258092 -0.30335239769558558 0 -0.096286707423370643 -0.30613231562162407 0 -0.094152164452482145 -0.30727648303799221 0 -0.1049808524805452 -0.31260104733727578 0 -0.094705665776571191 -0.30871874451390818 0 -0.099420761099714275 -0.30843559445062563 0 -0.096226029131258092 -0.30335239769558558 0 -0.096286707423370643 -0.30613231562162407 0 -0.098181670292714782 -0.30597126045352391 0 -0.096286707423370643 -0.30613231562162407 0 -0.094152164452482145 -0.30727648303799221 0 -0.094705665776571191 -0.30871874451390818 0 -0.094152164452482145 -0.30727648303799221 0 -0.094705665776571191 -0.30871874451390818 0 -0.1028312874400335 -0.3075108730856112 0 -0.098181670292714782 -0.30597126045352391 0 -0.099420761099714275 -0.30843559445062563 0 -0.1028312874400335 -0.3075108730856112 0 -0.10158456862130071 -0.30442055772927412 0 -0.098181670292714782 -0.30597126045352391 0 -0.096286707423370643 -0.30613231562162407 0 -0.098181670292714782 -0.30597126045352391 0 -0.099420761099714275 -0.30843559445062563 0 -0.084770748604463875 -0.30814549206771941 0 -0.077727542558783738 -0.30994760288463952 0 -0.075844124810908131 -0.29238796859574478 0 -0.094152164452482145 -0.30727648303799221 0 -0.094705665776571191 -0.30871874451390818 0 -0.075844124810908131 -0.29238796859574478 0 -0.094152164452482145 -0.30727648303799221 0 -0.075844124810908131 -0.29238796859574478 0 -0.093579799475700512 -0.29624055479368738 0 -0.094705665776571191 -0.30871874451390818 0 -0.084770748604463875 -0.30814549206771941 0 -0.075844124810908131 -0.29238796859574478 0 -0.094705665776571191 -0.30871874451390818 0 -0.075844124810908131 -0.29238796859574478 0 -0.089244310412011585 -0.31503338391868752 0 -0.094705665776571191 -0.30871874451390818 0 -0.084770748604463875 -0.30814549206771941 0 -0.084459327098719963 -0.31712614237624642 0 -0.084770748604463875 -0.30814549206771941 0 -0.077727542558783738 -0.30994760288463952 0 -0.075844124810908131 -0.29238796859574478 0 -0.052651112141914883 -0.29615119430525838 0 -0.062336611832247903 -0.31208955120119669 0 -0.077727542558783738 -0.30994760288463952 0 -0.075844124810908131 -0.29238796859574478 0 -0.062336611832247903 -0.31208955120119669 0 -0.075844124810908131 -0.29238796859574478 0 -0.05698258384524546 -0.27605719267758111 0 -0.10137398237269191 -0.28587317497291992 0 -0.087430519537899196 -0.28672405617400332 0 -0.083276314858250891 -0.27279428841046682 0 -0.075844124810908131 -0.29238796859574478 0 -0.093579799475700512 -0.29624055479368738 0 -0.087430519537899196 -0.28672405617400332 0 -0.075844124810908131 -0.29238796859574478 0 -0.087430519537899196 -0.28672405617400332 0 -0.083276314858250891 -0.27279428841046682 0 -0.075844124810908131 -0.29238796859574478 0 -0.083276314858250891 -0.27279428841046682 0 -0.05698258384524546 -0.27605719267758111 0 -0.083276314858250891 -0.27279428841046682 0 -0.063197998448463549 -0.25457443183096989 0 -0.05698258384524546 -0.27605719267758111 0 -0.083276314858250891 -0.27279428841046682 0 -0.063197998448463549 -0.25457443183096989 0 -0.083370738416282147 -0.2517868905605774 0 -0.093802440156239938 -0.26200710103042618 0 -0.083276314858250891 -0.27279428841046682 0 -0.083370738416282147 -0.2517868905605774 0 -0.093802440156239938 -0.26200710103042618 0 -0.1024803928049134 -0.25248983375176598 0 -0.083370738416282147 -0.2517868905605774 0 -0.041780072468508483 -0.25363654907423799 0 -0.05698258384524546 -0.27605719267758111 0 -0.024991505512592979 -0.26370659804833729 0 -0.05698258384524546 -0.27605719267758111 0 -0.032869283626720917 -0.28996335800272022 0 -0.024991505512592979 -0.26370659804833729 0 -0.063197998448463549 -0.25457443183096989 0 -0.041780072468508483 -0.25363654907423799 0 -0.05698258384524546 -0.27605719267758111 0 -0.05698258384524546 -0.27605719267758111 0 -0.032869283626720917 -0.28996335800272022 0 -0.052651112141914883 -0.29615119430525838 0 -0.075844124810908131 -0.29238796859574478 0 -0.05698258384524546 -0.27605719267758111 0 -0.052651112141914883 -0.29615119430525838 0 -0.052651112141914883 -0.29615119430525838 0 -0.062336611832247903 -0.31208955120119669 0 -0.040747061740848849 -0.31622011795710309 0 -0.032869283626720917 -0.28996335800272022 0 -0.040747061740848849 -0.31622011795710309 0 -0.023873821366405309 -0.31960828034230432 0 -0.032869283626720917 -0.28996335800272022 0 -0.040747061740848849 -0.31622011795710309 0 -0.032869283626720917 -0.28996335800272022 0 -0.052651112141914883 -0.29615119430525838 0 -0.040747061740848849 -0.31622011795710309 0 -0.032869283626720917 -0.28996335800272022 0 -0.010380234539267411 -0.30297895412728532 0 -0.023873821366405309 -0.31960828034230432 0 -0.010380234539267411 -0.30297895412728532 0 -0.01212746403176403 -0.28233099152615038 0 0.00632714377786576 -0.28933751539522412 0 -0.032869283626720917 -0.28996335800272022 0 -0.010380234539267411 -0.30297895412728532 0 -0.01212746403176403 -0.28233099152615038 0 -0.032869283626720917 -0.28996335800272022 0 -0.024991505512592979 -0.26370659804833729 0 -0.032869283626720917 -0.28996335800272022 0 -0.01212746403176403 -0.28233099152615038 0 -0.024991505512592979 -0.26370659804833729 0 -0.01212746403176403 -0.28233099152615038 0 -0.024991505512592979 -0.26370659804833729 0 0.0038049516362545122 -0.26613471529053567 0 -0.01212746403176403 -0.28233099152615038 0 0.00632714377786576 -0.28933751539522412 0 0.0038049516362545122 -0.26613471529053567 0 -0.024991505512592979 -0.26370659804833729 0 -0.00049652130699871766 -0.2473016026161601 0 0.0038049516362545122 -0.26613471529053567 0 -0.024991505512592979 -0.26370659804833729 0 -0.01711372739846502 -0.23744983809395431 0 -0.041780072468508483 -0.25363654907423799 0 -0.024991505512592979 -0.26370659804833729 0 -0.01711372739846502 -0.23744983809395431 0 -0.037407769894206078 -0.34942639868579428 0 -0.045544406755878009 -0.36424382570552738 0 -0.027405041358677992 -0.3544360249819416 0 -0.045544406755878009 -0.36424382570552738 0 -0.027405041358677992 -0.3544360249819416 0 -0.037407769894206078 -0.34942639868579428 0 -0.045544406755878009 -0.36424382570552738 0 -0.050489604534787222 -0.35286193318020342 0 -0.037407769894206078 -0.34942639868579428 0 -0.050489604534787222 -0.35286193318020342 0 -0.050432594506339787 -0.34134194835640469 0 -0.037407769894206078 -0.34942639868579428 0 -0.027405041358677992 -0.3544360249819416 0 -0.045544406755878009 -0.36424382570552738 0 -0.03010399697818127 -0.37225062347596671 0 -0.046028014585890231 -0.37742954090083541 0 -0.045544406755878009 -0.36424382570552738 0 -0.027405041358677992 -0.3544360249819416 0 -0.03010399697818127 -0.37225062347596671 0 -0.063683772153077967 -0.37405162642911338 0 -0.045544406755878009 -0.36424382570552738 0 -0.05582280531847731 -0.3775962731015054 0 -0.063683772153077967 -0.37405162642911338 0 -0.045544406755878009 -0.36424382570552738 0 -0.059343590821338728 -0.36097016756253852 0 -0.063683772153077967 -0.37405162642911338 0 -0.045544406755878009 -0.36424382570552738 0 -0.045544406755878009 -0.36424382570552738 0 -0.046028014585890231 -0.37742954090083541 0 -0.05582280531847731 -0.3775962731015054 0 -0.064206943221684853 -0.34781599848244271 0 -0.059343590821338728 -0.36097016756253852 0 -0.050489604534787222 -0.35286193318020342 0 -0.045544406755878009 -0.36424382570552738 0 -0.059343590821338728 -0.36097016756253852 0 -0.050489604534787222 -0.35286193318020342 0 -0.064206943221684853 -0.34781599848244271 0 -0.050489604534787222 -0.35286193318020342 0 -0.050432594506339787 -0.34134194835640469 0 -0.063589434575338194 -0.33466255525704192 0 -0.064206943221684853 -0.34781599848244271 0 -0.050432594506339787 -0.34134194835640469 0 -0.064475530610396833 -0.32429323910277702 0 -0.063589434575338194 -0.33466255525704192 0 -0.050865209867125352 -0.32705524945252962 0 -0.063589434575338194 -0.33466255525704192 0 -0.050432594506339787 -0.34134194835640469 0 -0.050865209867125352 -0.32705524945252962 0 -0.062336611832247903 -0.31208955120119669 0 -0.050865209867125352 -0.32705524945252962 0 -0.040747061740848849 -0.31622011795710309 0 -0.064475530610396833 -0.32429323910277702 0 -0.062336611832247903 -0.31208955120119669 0 -0.050865209867125352 -0.32705524945252962 0 -0.050865209867125352 -0.32705524945252962 0 -0.040747061740848849 -0.31622011795710309 0 -0.03785822795627293 -0.33194380224465131 0 -0.040747061740848849 -0.31622011795710309 0 -0.03785822795627293 -0.33194380224465131 0 -0.023873821366405309 -0.31960828034230432 0 -0.037407769894206078 -0.34942639868579428 0 -0.050432594506339787 -0.34134194835640469 0 -0.03785822795627293 -0.33194380224465131 0 -0.037407769894206078 -0.34942639868579428 0 -0.03785822795627293 -0.33194380224465131 0 -0.02382291036271221 -0.33801081867377158 0 -0.050432594506339787 -0.34134194835640469 0 -0.050865209867125352 -0.32705524945252962 0 -0.03785822795627293 -0.33194380224465131 0 -0.03785822795627293 -0.33194380224465131 0 -0.02382291036271221 -0.33801081867377158 0 -0.023873821366405309 -0.31960828034230432 0 -0.02382291036271221 -0.33801081867377158 0 -0.023873821366405309 -0.31960828034230432 0 -0.007323121960877416 -0.32432635561407591 0 -0.010380234539267411 -0.30297895412728532 0 -0.023873821366405309 -0.31960828034230432 0 -0.007323121960877416 -0.32432635561407591 0 -0.010380234539267411 -0.30297895412728532 0 -0.007323121960877416 -0.32432635561407591 0 0.0088493359194770065 -0.31254031549991262 0 -0.02382291036271221 -0.33801081867377158 0 -0.007323121960877416 -0.32432635561407591 0 -0.0086474613884536759 -0.3442939608922525 0 -0.007323121960877416 -0.32432635561407591 0 -0.0086474613884536759 -0.3442939608922525 0 0.010110118581770629 -0.33415189680256352 0 -0.0086474613884536759 -0.3442939608922525 0 -0.0062147334033759091 -0.36504868167649229 0 0.0041026344107457603 -0.34763671413703978 0 -0.0086474613884536759 -0.3442939608922525 0 -0.027405041358677992 -0.3544360249819416 0 -0.0062147334033759091 -0.36504868167649229 0 -0.02382291036271221 -0.33801081867377158 0 -0.0086474613884536759 -0.3442939608922525 0 -0.027405041358677992 -0.3544360249819416 0 -0.037407769894206078 -0.34942639868579428 0 -0.02382291036271221 -0.33801081867377158 0 -0.027405041358677992 -0.3544360249819416 0 -0.0086474613884536759 -0.3442939608922525 0 -0.027405041358677992 -0.3544360249819416 0 -0.027405041358677992 -0.3544360249819416 0 -0.03010399697818127 -0.37225062347596671 0 -0.0062147334033759091 -0.36504868167649229 0 -0.027405041358677992 -0.3544360249819416 0 -0.0062147334033759091 -0.36504868167649229 0 -0.0062147334033759091 -0.36504868167649229 0 -0.003054764863230162 -0.38327110372534579 0 -0.02030995257627809 -0.3899269705726256 0 -0.003054764863230162 -0.38327110372534579 0 -0.02030995257627809 -0.3899269705726256 0 0.0043376777961855089 -0.39967183539507678 0 -0.02030995257627809 -0.3899269705726256 0 -0.0072811505478054747 -0.41683981000625953 0 0.0043376777961855089 -0.39967183539507678 0 -0.02030995257627809 -0.3899269705726256 0 -0.036792179302656013 -0.39113431467744841 0 -0.027788927220704779 -0.41378375976204951 0 -0.03010399697818127 -0.37225062347596671 0 -0.0062147334033759091 -0.36504868167649229 0 -0.02030995257627809 -0.3899269705726256 0 -0.03010399697818127 -0.37225062347596671 0 -0.02030995257627809 -0.3899269705726256 0 -0.036792179302656013 -0.39113431467744841 0 -0.046028014585890231 -0.37742954090083541 0 -0.036792179302656013 -0.39113431467744841 0 -0.048024501039917802 -0.40325687323733189 0 -0.03010399697818127 -0.37225062347596671 0 -0.046028014585890231 -0.37742954090083541 0 -0.036792179302656013 -0.39113431467744841 0 -0.036792179302656013 -0.39113431467744841 0 -0.048024501039917802 -0.40325687323733189 0 -0.027788927220704779 -0.41378375976204951 0 -0.048024501039917802 -0.40325687323733189 0 -0.060929648522520141 -0.39303857513418589 0 -0.062743394463583166 -0.41303775614753019 0 -0.046028014585890231 -0.37742954090083541 0 -0.048024501039917802 -0.40325687323733189 0 -0.060929648522520141 -0.39303857513418589 0 -0.060929648522520141 -0.39303857513418589 0 -0.05582280531847731 -0.3775962731015054 0 -0.062928184575020224 -0.37921779733786498 0 -0.046028014585890231 -0.37742954090083541 0 -0.048024501039917802 -0.40325687323733189 0 -0.063683772153077967 -0.37405162642911338 0 -0.05582280531847731 -0.3775962731015054 0 -0.062928184575020224 -0.37921779733786498 0 -0.046028014585890231 -0.37742954090083541 0 -0.060929648522520141 -0.39303857513418589 0 -0.05582280531847731 -0.3775962731015054 0 -0.050020987493945367 -0.42908420557382848 0 -0.062743394463583166 -0.41303775614753019 0 -0.069327824921961753 -0.42871009669915588 0 -0.050020987493945367 -0.42908420557382848 0 -0.067526044786475031 -0.44514553943992691 0 -0.069327824921961753 -0.42871009669915588 0 -0.048024501039917802 -0.40325687323733189 0 -0.050020987493945367 -0.42908420557382848 0 -0.062743394463583166 -0.41303775614753019 0 -0.048024501039917802 -0.40325687323733189 0 -0.050020987493945367 -0.42908420557382848 0 -0.048024501039917802 -0.40325687323733189 0 -0.050020987493945367 -0.42908420557382848 0 -0.038500534625416652 -0.42303351349818491 0 -0.048024501039917802 -0.40325687323733189 0 -0.038500534625416652 -0.42303351349818491 0 -0.027788927220704779 -0.41378375976204951 0 -0.038500534625416652 -0.42303351349818491 0 -0.02759494078112882 -0.43115801006636117 0 -0.027788927220704779 -0.41378375976204951 0 -0.050020987493945367 -0.42908420557382848 0 -0.038500534625416652 -0.42303351349818491 0 -0.039073316591386471 -0.43788471885135299 0 -0.038500534625416652 -0.42303351349818491 0 -0.02759494078112882 -0.43115801006636117 0 -0.039073316591386471 -0.43788471885135299 0 -0.02759494078112882 -0.43115801006636117 0 -0.039073316591386471 -0.43788471885135299 0 -0.032795773121560033 -0.44103683803272331 0 -0.02759494078112882 -0.43115801006636117 0 -0.027788927220704779 -0.41378375976204951 0 -0.0072811505478054747 -0.41683981000625953 0 -0.02030995257627809 -0.3899269705726256 0 -0.027788927220704779 -0.41378375976204951 0 -0.0072811505478054747 -0.41683981000625953 0 -0.02759494078112882 -0.43115801006636117 0 -0.0072811505478054747 -0.41683981000625953 0 -0.0031373934974118531 -0.4372016448190541 0 -0.023301921484060621 -0.45063997583868909 0 -0.010022809886413971 -0.47531998791934532 0 0.0093628688378709132 -0.45459560444918412 0 -0.0031373934974118531 -0.4372016448190541 0 -0.023301921484060621 -0.45063997583868909 0 0.0093628688378709132 -0.45459560444918412 0 -0.0031373934974118531 -0.4372016448190541 0 -0.023301921484060621 -0.45063997583868909 0 -0.023301921484060621 -0.45063997583868909 0 -0.010022809886413971 -0.47531998791934532 0 -0.023301921484060621 -0.45063997583868909 0 -0.010022809886413971 -0.47531998791934532 0 -0.028588796162435679 -0.46954631477412528 0 -0.030811980946986329 -0.45564493628739638 0 -0.023301921484060621 -0.45063997583868909 0 -0.028588796162435679 -0.46954631477412528 0 -0.030811980946986329 -0.45564493628739638 0 -0.023301921484060621 -0.45063997583868909 0 -0.0031373934974118531 -0.4372016448190541 0 -0.026644178688949759 -0.44442819370350972 0 -0.023301921484060621 -0.45063997583868909 0 -0.02759494078112882 -0.43115801006636117 0 -0.0031373934974118531 -0.4372016448190541 0 -0.026644178688949759 -0.44442819370350972 0 -0.030811980946986329 -0.45564493628739638 0 -0.029784360394689069 -0.44964408308371639 0 -0.023301921484060621 -0.45063997583868909 0 -0.029784360394689069 -0.44964408308371639 0 -0.026644178688949759 -0.44442819370350972 0 -0.023301921484060621 -0.45063997583868909 0 -0.026644178688949759 -0.44442819370350972 0 -0.023301921484060621 -0.45063997583868909 0 -0.02759494078112882 -0.43115801006636117 0 -0.026644178688949759 -0.44442819370350972 0 -0.032795773121560033 -0.44103683803272331 0 -0.029784360394689069 -0.44964408308371639 0 -0.026644178688949759 -0.44442819370350972 0 -0.032795773121560033 -0.44103683803272331 0 -0.010022809886413971 -0.47531998791934532 0 0.003256301711233377 -0.50000000000000111 0 -0.010022809886413971 -0.47531998791934532 0 -0.02611534519419911 -0.5 0 0.003256301711233377 -0.50000000000000111 0 -0.010022809886413971 -0.47531998791934532 0 -0.028588796162435679 -0.46954631477412528 0 -0.02611534519419911 -0.5 0 -0.02611534519419911 -0.5 0 -0.039803585313378589 -0.4780562723954907 0 -0.055486992099631538 -0.5 0 -0.028588796162435679 -0.46954631477412528 0 -0.02611534519419911 -0.5 0 -0.039803585313378589 -0.4780562723954907 0 -0.028588796162435679 -0.46954631477412528 0 -0.039803585313378589 -0.4780562723954907 0 -0.039088269560562112 -0.46383055587424182 0 -0.039803585313378589 -0.4780562723954907 0 -0.050315072388500033 -0.46940335593455701 0 -0.039088269560562112 -0.46383055587424182 0 -0.039803585313378589 -0.4780562723954907 0 -0.063367683790456097 -0.48299527729020941 0 -0.039803585313378589 -0.4780562723954907 0 -0.050315072388500033 -0.46940335593455701 0 -0.063367683790456097 -0.48299527729020941 0 -0.050315072388500033 -0.46940335593455701 0 -0.061612426253942823 -0.4710340446509893 0 -0.063367683790456097 -0.48299527729020941 0 -0.039803585313378589 -0.4780562723954907 0 -0.055486992099631538 -0.5 0 -0.063367683790456097 -0.48299527729020941 0 -0.050020987493945367 -0.42908420557382848 0 -0.044212823192734937 -0.45095705621057419 0 -0.039073316591386471 -0.43788471885135299 0 -0.044212823192734937 -0.45095705621057419 0 -0.035491334829979862 -0.44752354400919658 0 -0.037861064916830348 -0.4542976889400574 0 -0.044212823192734937 -0.45095705621057419 0 -0.039073316591386471 -0.43788471885135299 0 -0.035491334829979862 -0.44752354400919658 0 -0.039073316591386471 -0.43788471885135299 0 -0.032795773121560033 -0.44103683803272331 0 -0.035491334829979862 -0.44752354400919658 0 -0.029784360394689069 -0.44964408308371639 0 -0.032795773121560033 -0.44103683803272331 0 -0.035491334829979862 -0.44752354400919658 0 -0.029784360394689069 -0.44964408308371639 0 -0.035491334829979862 -0.44752354400919658 0 -0.037861064916830348 -0.4542976889400574 0 -0.030811980946986329 -0.45564493628739638 0 -0.029784360394689069 -0.44964408308371639 0 -0.037861064916830348 -0.4542976889400574 0 -0.030811980946986329 -0.45564493628739638 0 -0.037861064916830348 -0.4542976889400574 0 -0.039088269560562112 -0.46383055587424182 0 -0.030811980946986329 -0.45564493628739638 0 -0.028588796162435679 -0.46954631477412528 0 -0.039088269560562112 -0.46383055587424182 0 -0.050315072388500033 -0.46940335593455701 0 -0.039088269560562112 -0.46383055587424182 0 -0.045514289833599987 -0.45929623242347523 0 -0.044212823192734937 -0.45095705621057419 0 -0.037861064916830348 -0.4542976889400574 0 -0.045514289833599987 -0.45929623242347523 0 -0.037861064916830348 -0.4542976889400574 0 -0.039088269560562112 -0.46383055587424182 0 -0.045514289833599987 -0.45929623242347523 0 -0.052017473947972938 -0.45491153791032518 0 -0.052504179579060617 -0.46120775297293559 0 -0.070686340472129239 -0.46437073004333929 0 -0.044212823192734937 -0.45095705621057419 0 -0.045514289833599987 -0.45929623242347523 0 -0.052017473947972938 -0.45491153791032518 0 -0.052017473947972938 -0.45491153791032518 0 -0.070686340472129239 -0.46437073004333929 0 -0.061612426253942823 -0.4710340446509893 0 -0.052504179579060617 -0.46120775297293559 0 -0.070686340472129239 -0.46437073004333929 0 -0.045514289833599987 -0.45929623242347523 0 -0.052017473947972938 -0.45491153791032518 0 -0.052504179579060617 -0.46120775297293559 0 -0.052017473947972938 -0.45491153791032518 0 -0.052504179579060617 -0.46120775297293559 0 -0.050315072388500033 -0.46940335593455701 0 -0.045514289833599987 -0.45929623242347523 0 -0.052504179579060617 -0.46120775297293559 0 -0.050315072388500033 -0.46940335593455701 0 -0.061612426253942823 -0.4710340446509893 0 -0.052504179579060617 -0.46120775297293559 0 -0.050020987493945367 -0.42908420557382848 0 -0.052017473947972938 -0.45491153791032518 0 -0.067526044786475031 -0.44514553943992691 0 -0.050020987493945367 -0.42908420557382848 0 -0.052017473947972938 -0.45491153791032518 0 -0.050020987493945367 -0.42908420557382848 0 -0.044212823192734937 -0.45095705621057419 0 -0.052017473947972938 -0.45491153791032518 0 -0.044212823192734937 -0.45095705621057419 0 -0.052017473947972938 -0.45491153791032518 0 -0.067526044786475031 -0.44514553943992691 0 -0.08151789346304511 -0.44100924641631378 0 -0.069327824921961753 -0.42871009669915588 0 -0.067526044786475031 -0.44514553943992691 0 -0.080414484205961589 -0.45540973187285982 0 -0.08151789346304511 -0.44100924641631378 0 -0.052017473947972938 -0.45491153791032518 0 -0.067526044786475031 -0.44514553943992691 0 -0.070686340472129239 -0.46437073004333929 0 -0.067526044786475031 -0.44514553943992691 0 -0.070686340472129239 -0.46437073004333929 0 -0.080414484205961589 -0.45540973187285982 0 -0.092986935311868885 -0.4526932212883662 0 -0.089355206996286032 -0.47382992217635228 0 -0.080414484205961589 -0.45540973187285982 0 -0.092986935311868885 -0.4526932212883662 0 -0.089355206996286032 -0.47382992217635228 0 -0.070686340472129239 -0.46437073004333929 0 -0.080414484205961589 -0.45540973187285982 0 -0.089355206996286032 -0.47382992217635228 0 -0.092986935311868885 -0.4526932212883662 0 -0.08151789346304511 -0.44100924641631378 0 -0.096618663627448031 -0.4315565204003794 0 -0.080414484205961589 -0.45540973187285982 0 -0.092986935311868885 -0.4526932212883662 0 -0.08151789346304511 -0.44100924641631378 0 -0.055486992099631538 -0.5 0 -0.073803126677764133 -0.49188946757381441 0 -0.063367683790456097 -0.48299527729020941 0 -0.055486992099631538 -0.5 0 -0.073803126677764133 -0.49188946757381441 0 -0.084858639005063963 -0.499999999999998 0 -0.073803126677764133 -0.49188946757381441 0 -0.063367683790456097 -0.48299527729020941 0 -0.086931782267533536 -0.48793428218492818 0 -0.063367683790456097 -0.48299527729020941 0 -0.086931782267533536 -0.48793428218492818 0 -0.070686340472129239 -0.46437073004333929 0 -0.074101999623629081 -0.47602366031574511 0 -0.089355206996286032 -0.47382992217635228 0 -0.063367683790456097 -0.48299527729020941 0 -0.074101999623629081 -0.47602366031574511 0 -0.086931782267533536 -0.48793428218492818 0 -0.061612426253942823 -0.4710340446509893 0 -0.063367683790456097 -0.48299527729020941 0 -0.074101999623629081 -0.47602366031574511 0 -0.061612426253942823 -0.4710340446509893 0 -0.070686340472129239 -0.46437073004333929 0 -0.074101999623629081 -0.47602366031574511 0 -0.070686340472129239 -0.46437073004333929 0 -0.089355206996286032 -0.47382992217635228 0 -0.089355206996286032 -0.47382992217635228 0 -0.086931782267533536 -0.48793428218492818 0 -0.074101999623629081 -0.47602366031574511 0 -0.089355206996286032 -0.47382992217635228 0 -0.086931782267533536 -0.48793428218492818 0 -0.086931782267533536 -0.48793428218492818 0 -0.084858639005063963 -0.499999999999998 0 -0.1076520462588975 -0.49227722300962218 0 -0.086931782267533536 -0.48793428218492818 0 -0.084858639005063963 -0.499999999999998 0 -0.073803126677764133 -0.49188946757381441 0 -0.086931782267533536 -0.48793428218492818 0 -0.084858639005063963 -0.499999999999998 0 -0.089355206996286032 -0.47382992217635228 0 -0.086931782267533536 -0.48793428218492818 0 -0.1076520462588975 -0.49227722300962218 0 -0.084858639005063963 -0.499999999999998 0 -0.1076520462588975 -0.49227722300962218 0 -0.1121559362476179 -0.5 0 -0.086931782267533536 -0.48793428218492818 0 -0.1076520462588975 -0.49227722300962218 0 -0.089355206996286032 -0.47382992217635228 0 -0.1141883482570055 -0.48641244582059712 0 -0.102503431311431 -0.46781551435191682 0 -0.089355206996286032 -0.47382992217635228 0 -0.1076520462588975 -0.49227722300962218 0 -0.1141883482570055 -0.48641244582059712 0 -0.089355206996286032 -0.47382992217635228 0 -0.1141883482570055 -0.48641244582059712 0 -0.12812679042635369 -0.4736338620561753 0 -0.1142409773588887 -0.46912588869074728 0 -0.1141883482570055 -0.48641244582059712 0 -0.1142409773588887 -0.46912588869074728 0 -0.1141883482570055 -0.48641244582059712 0 -0.102503431311431 -0.46781551435191682 0 -0.1283723102502615 -0.49662016383431629 0 -0.1076520462588975 -0.49227722300962218 0 -0.1283723102502615 -0.49662016383431629 0 -0.1076520462588975 -0.49227722300962218 0 -0.1141883482570055 -0.48641244582059712 0 -0.1283723102502615 -0.49662016383431629 0 -0.1076520462588975 -0.49227722300962218 0 -0.1121559362476179 -0.5 0 -0.092986935311868885 -0.4526932212883662 0 -0.096618663627448031 -0.4315565204003794 0 -0.092986935311868885 -0.4526932212883662 0 -0.10104056135595731 -0.44320724517296528 0 -0.096618663627448031 -0.4315565204003794 0 -0.10498177350752121 -0.44972284876535878 0 -0.1073781156784173 -0.44413214086210812 0 -0.11301159247096119 -0.44767223650871002 0 -0.10498177350752121 -0.44972284876535878 0 -0.1073781156784173 -0.44413214086210812 0 -0.10104056135595731 -0.44320724517296528 0 -0.11301159247096119 -0.44767223650871002 0 -0.10559250381579049 -0.43249248838871313 0 -0.1073781156784173 -0.44413214086210812 0 -0.11301159247096119 -0.44767223650871002 0 -0.10559250381579049 -0.43249248838871313 0 -0.1073781156784173 -0.44413214086210812 0 -0.10104056135595731 -0.44320724517296528 0 -0.10559250381579049 -0.43249248838871313 0 -0.092986935311868885 -0.4526932212883662 0 -0.10498177350752121 -0.44972284876535878 0 -0.10104056135595731 -0.44320724517296528 0 -0.092986935311868885 -0.4526932212883662 0 -0.102503431311431 -0.46781551435191682 0 -0.1044206743904896 -0.45721822867494682 0 -0.092986935311868885 -0.4526932212883662 0 -0.10498177350752121 -0.44972284876535878 0 -0.1044206743904896 -0.45721822867494682 0 -0.092986935311868885 -0.4526932212883662 0 -0.089355206996286032 -0.47382992217635228 0 -0.102503431311431 -0.46781551435191682 0 -0.102503431311431 -0.46781551435191682 0 -0.1044206743904896 -0.45721822867494682 0 -0.1108844657410331 -0.46082912517593783 0 -0.1142409773588887 -0.46912588869074728 0 -0.102503431311431 -0.46781551435191682 0 -0.1108844657410331 -0.46082912517593783 0 -0.1044206743904896 -0.45721822867494682 0 -0.11183404689138331 -0.45326840560210652 0 -0.1108844657410331 -0.46082912517593783 0 -0.10498177350752121 -0.44972284876535878 0 -0.1044206743904896 -0.45721822867494682 0 -0.11183404689138331 -0.45326840560210652 0 -0.12812679042635369 -0.4736338620561753 0 -0.1169729837674148 -0.45577739940401879 0 -0.1172320913349795 -0.44827275464751171 0 -0.12812679042635369 -0.4736338620561753 0 -0.1172320913349795 -0.44827275464751171 0 -0.11183404689138331 -0.45326840560210652 0 -0.1108844657410331 -0.46082912517593783 0 -0.1169729837674148 -0.45577739940401879 0 -0.12812679042635369 -0.4736338620561753 0 -0.1142409773588887 -0.46912588869074728 0 -0.1169729837674148 -0.45577739940401879 0 -0.1142409773588887 -0.46912588869074728 0 -0.1108844657410331 -0.46082912517593783 0 -0.1169729837674148 -0.45577739940401879 0 -0.13041182069441559 -0.45014804636061112 0 -0.1172320913349795 -0.44827275464751171 0 -0.13041182069441559 -0.45014804636061112 0 -0.1144978669285472 -0.43342131424510028 0 -0.13041182069441559 -0.45014804636061112 0 -0.1172320913349795 -0.44827275464751171 0 -0.1144978669285472 -0.43342131424510028 0 -0.10498177350752121 -0.44972284876535878 0 -0.11183404689138331 -0.45326840560210652 0 -0.11301159247096119 -0.44767223650871002 0 -0.1169729837674148 -0.45577739940401879 0 -0.11301159247096119 -0.44767223650871002 0 -0.11183404689138331 -0.45326840560210652 0 -0.1169729837674148 -0.45577739940401879 0 -0.11301159247096119 -0.44767223650871002 0 -0.1169729837674148 -0.45577739940401879 0 -0.1172320913349795 -0.44827275464751171 0 -0.11301159247096119 -0.44767223650871002 0 -0.1172320913349795 -0.44827275464751171 0 -0.11301159247096119 -0.44767223650871002 0 -0.11301159247096119 -0.44767223650871002 0 -0.11183862654340029 -0.43571763598504071 0 -0.10559250381579049 -0.43249248838871313 0 -0.1172320913349795 -0.44827275464751171 0 -0.11301159247096119 -0.44767223650871002 0 -0.11183862654340029 -0.43571763598504071 0 -0.1172320913349795 -0.44827275464751171 0 -0.11183862654340029 -0.43571763598504071 0 -0.1172320913349795 -0.44827275464751171 0 -0.11183862654340029 -0.43571763598504071 0 -0.1144978669285472 -0.43342131424510028 0 -0.1144978669285472 -0.43342131424510028 0 -0.10559250381579049 -0.43249248838871313 0 -0.11183862654340029 -0.43571763598504071 0 -0.1144978669285472 -0.43342131424510028 0 -0.10559250381579049 -0.43249248838871313 0 -0.1144978669285472 -0.43342131424510028 0 -0.10559250381579049 -0.43249248838871313 0 -0.097118483149437329 -0.41515430774988082 0 -0.10559250381579049 -0.43249248838871313 0 -0.097118483149437329 -0.41515430774988082 0 -0.098465757079053987 -0.42080641510443101 0 -0.10559250381579049 -0.43249248838871313 0 -0.097118483149437329 -0.41515430774988082 0 -0.1144978669285472 -0.43342131424510028 0 -0.097118483149437329 -0.41515430774988082 0 -0.096618663627448031 -0.4315565204003794 0 -0.098465757079053987 -0.42080641510443101 0 -0.10559250381579049 -0.43249248838871313 0 -0.096618663627448031 -0.4315565204003794 0 -0.098465757079053987 -0.42080641510443101 0 -0.096618663627448031 -0.4315565204003794 0 -0.098465757079053987 -0.42080641510443101 0 -0.09131618289263338 -0.42118902075360642 0 -0.10559250381579049 -0.43249248838871313 0 -0.096618663627448031 -0.4315565204003794 0 -0.10104056135595731 -0.44320724517296528 0 -0.10559250381579049 -0.43249248838871313 0 -0.096618663627448031 -0.4315565204003794 0 -0.1087161756486279 -0.40648450735968528 0 -0.097118483149437329 -0.41515430774988082 0 -0.08947081034985839 -0.39950686745128933 0 -0.1144978669285472 -0.43342131424510028 0 -0.1087161756486279 -0.40648450735968528 0 -0.097118483149437329 -0.41515430774988082 0 -0.097118483149437329 -0.41515430774988082 0 -0.098465757079053987 -0.42080641510443101 0 -0.09131618289263338 -0.42118902075360642 0 -0.1144978669285472 -0.43342131424510028 0 -0.1087161756486279 -0.40648450735968528 0 -0.1224189277706723 -0.41116494477443788 0 -0.1224189277706723 -0.41116494477443788 0 -0.10771155447183881 -0.392039347395089 0 -0.12745274618364011 -0.39404799390194339 0 -0.1224189277706723 -0.41116494477443788 0 -0.10771155447183881 -0.392039347395089 0 -0.1087161756486279 -0.40648450735968528 0 -0.1224189277706723 -0.41116494477443788 0 -0.10771155447183881 -0.392039347395089 0 -0.11926597608187289 -0.37271568155493462 0 -0.1060820800103324 -0.36578765651885892 0 -0.10771155447183881 -0.392039347395089 0 -0.12745274618364011 -0.39404799390194339 0 -0.11926597608187289 -0.37271568155493462 0 -0.10771155447183881 -0.392039347395089 0 -0.12745274618364011 -0.39404799390194339 0 -0.11926597608187289 -0.37271568155493462 0 -0.093004181173005282 -0.37291375001574001 0 -0.10771155447183881 -0.392039347395089 0 -0.087242047055254332 -0.37828098002972549 0 -0.1060820800103324 -0.36578765651885892 0 -0.093004181173005282 -0.37291375001574001 0 -0.10771155447183881 -0.392039347395089 0 -0.093004181173005282 -0.37291375001574001 0 -0.10771155447183881 -0.392039347395089 0 -0.10771155447183881 -0.392039347395089 0 -0.08947081034985839 -0.39950686745128933 0 -0.085541473248292144 -0.38586989966653651 0 -0.1087161756486279 -0.40648450735968528 0 -0.10771155447183881 -0.392039347395089 0 -0.08947081034985839 -0.39950686745128933 0 -0.08947081034985839 -0.39950686745128933 0 -0.08182313755027848 -0.38385942715269822 0 -0.097118483149437329 -0.41515430774988082 0 -0.080023333862228777 -0.39718605254387301 0 -0.097118483149437329 -0.41515430774988082 0 -0.080023333862228777 -0.39718605254387301 0 -0.08947081034985839 -0.39950686745128933 0 -0.080023333862228777 -0.39718605254387301 0 -0.08947081034985839 -0.39950686745128933 0 -0.08182313755027848 -0.38385942715269822 0 -0.08947081034985839 -0.39950686745128933 0 -0.08182313755027848 -0.38385942715269822 0 -0.085541473248292144 -0.38586989966653651 0 -0.10771155447183881 -0.392039347395089 0 -0.087242047055254332 -0.37828098002972549 0 -0.085541473248292144 -0.38586989966653651 0 -0.08182313755027848 -0.38385942715269822 0 -0.085541473248292144 -0.38586989966653651 0 -0.08183654068279006 -0.37268954431211709 0 -0.087242047055254332 -0.37828098002972549 0 -0.08182313755027848 -0.38385942715269822 0 -0.087242047055254332 -0.37828098002972549 0 -0.08182313755027848 -0.38385942715269822 0 -0.085541473248292144 -0.38586989966653651 0 -0.063683772153077967 -0.37405162642911338 0 -0.08182313755027848 -0.38385942715269822 0 -0.062928184575020224 -0.37921779733786498 0 -0.063683772153077967 -0.37405162642911338 0 -0.08182313755027848 -0.38385942715269822 0 -0.080023333862228777 -0.39718605254387301 0 -0.08182313755027848 -0.38385942715269822 0 -0.062928184575020224 -0.37921779733786498 0 -0.080023333862228777 -0.39718605254387301 0 -0.062928184575020224 -0.37921779733786498 0 -0.060929648522520141 -0.39303857513418589 0 -0.080023333862228777 -0.39718605254387301 0 -0.062928184575020224 -0.37921779733786498 0 -0.060929648522520141 -0.39303857513418589 0 -0.070916654968999099 -0.40451638211163238 0 -0.062743394463583166 -0.41303775614753019 0 -0.060929648522520141 -0.39303857513418589 0 -0.080023333862228777 -0.39718605254387301 0 -0.070916654968999099 -0.40451638211163238 0 -0.080023333862228777 -0.39718605254387301 0 -0.070916654968999099 -0.40451638211163238 0 -0.079970243027664298 -0.41480314462094048 0 -0.070916654968999099 -0.40451638211163238 0 -0.062743394463583166 -0.41303775614753019 0 -0.079970243027664298 -0.41480314462094048 0 -0.062743394463583166 -0.41303775614753019 0 -0.069327824921961753 -0.42871009669915588 0 -0.079970243027664298 -0.41480314462094048 0 -0.069327824921961753 -0.42871009669915588 0 -0.084407767579563156 -0.42362471589239981 0 -0.079970243027664298 -0.41480314462094048 0 -0.096618663627448031 -0.4315565204003794 0 -0.069327824921961753 -0.42871009669915588 0 -0.084407767579563156 -0.42362471589239981 0 -0.096618663627448031 -0.4315565204003794 0 -0.069327824921961753 -0.42871009669915588 0 -0.08151789346304511 -0.44100924641631378 0 -0.096618663627448031 -0.4315565204003794 0 -0.069327824921961753 -0.42871009669915588 0 -0.096618663627448031 -0.4315565204003794 0 -0.084407767579563156 -0.42362471589239981 0 -0.09131618289263338 -0.42118902075360642 0 -0.097118483149437329 -0.41515430774988082 0 -0.09131618289263338 -0.42118902075360642 0 -0.079970243027664298 -0.41480314462094048 0 -0.097118483149437329 -0.41515430774988082 0 -0.08947081034985839 -0.39950686745128933 0 -0.097118483149437329 -0.41515430774988082 0 -0.080023333862228777 -0.39718605254387301 0 -0.079970243027664298 -0.41480314462094048 0 -0.084407767579563156 -0.42362471589239981 0 -0.09131618289263338 -0.42118902075360642 0 -0.079970243027664298 -0.41480314462094048 0 -0.078240114253452148 -0.083814870570574657 0 -0.084952060431875781 -0.081918205236142905 0 -0.076918039781887007 -0.074479876344429513 0 -0.078240114253452148 -0.083814870570574657 0 -0.084952060431875781 -0.081918205236142905 0 -0.088831131679795894 -0.092209968925990649 0 -0.078240114253452148 -0.083814870570574657 0 -0.088831131679795894 -0.092209968925990649 0 -0.074322129968702189 -0.097867910260506619 0 -0.084952060431875781 -0.081918205236142905 0 -0.093347101542302136 -0.082966039752135901 0 -0.087423914901941721 -0.076120270587583888 0 -0.084952060431875781 -0.081918205236142905 0 -0.088831131679795894 -0.092209968925990649 0 -0.093347101542302136 -0.082966039752135901 0 -0.093347101542302136 -0.082966039752135901 0 -0.087423914901941721 -0.076120270587583888 0 -0.09443149301990876 -0.076262422902199367 0 -0.087423914901941721 -0.076120270587583888 0 -0.084081336985305191 -0.068744388051314054 0 -0.09443149301990876 -0.076262422902199367 0 -0.087423914901941721 -0.076120270587583888 0 -0.084081336985305191 -0.068744388051314054 0 -0.076918039781887007 -0.074479876344429513 0 -0.084952060431875781 -0.081918205236142905 0 -0.087423914901941721 -0.076120270587583888 0 -0.076918039781887007 -0.074479876344429513 0 -0.087423914901941721 -0.076120270587583888 0 -0.084081336985305191 -0.068744388051314054 0 -0.065142029229774162 -0.065774241371869185 0 -0.066660028878948008 -0.071081174214890339 0 -0.057271864652240989 -0.084480758157658542 0 -0.076918039781887007 -0.074479876344429513 0 -0.069859854520757436 -0.066514111767508738 0 -0.066660028878948008 -0.071081174214890339 0 -0.078240114253452148 -0.083814870570574657 0 -0.076918039781887007 -0.074479876344429513 0 -0.066660028878948008 -0.071081174214890339 0 -0.084081336985305191 -0.068744388051314054 0 -0.076918039781887007 -0.074479876344429513 0 -0.069859854520757436 -0.066514111767508738 0 -0.084081336985305191 -0.068744388051314054 0 -0.069859854520757436 -0.066514111767508738 0 -0.077881882477406239 -0.055064393334736547 0 -0.084081336985305191 -0.068744388051314054 0 -0.069859854520757436 -0.066514111767508738 0 -0.069859854520757436 -0.066514111767508738 0 -0.065142029229774162 -0.065774241371869185 0 -0.069859854520757436 -0.066514111767508738 0 -0.065142029229774162 -0.065774241371869185 0 -0.066660028878948008 -0.071081174214890339 0 -0.069859854520757436 -0.066514111767508738 0 -0.066660028878948008 -0.071081174214890339 0 -0.065142029229774162 -0.065774241371869185 0 -0.066660028878948008 -0.071081174214890339 0 -0.066660028878948008 -0.071081174214890339 0 -0.074322129968702189 -0.097867910260506619 0 -0.057271864652240989 -0.084480758157658542 0 -0.078240114253452148 -0.083814870570574657 0 -0.066660028878948008 -0.071081174214890339 0 -0.074322129968702189 -0.097867910260506619 0 -0.074322129968702189 -0.097867910260506619 0 -0.057271864652240989 -0.084480758157658542 0 -0.059068423004080189 -0.095634756723340597 0 -0.066660028878948008 -0.071081174214890339 0 -0.074322129968702189 -0.097867910260506619 0 -0.074322129968702189 -0.097867910260506619 0 -0.057432720535391849 -0.1044541171995559 0 -0.059068423004080189 -0.095634756723340597 0 -0.074322129968702189 -0.097867910260506619 0 -0.079272267848405978 -0.1151736120803752 0 -0.068625317902254998 -0.1079204260031153 0 -0.074322129968702189 -0.097867910260506619 0 -0.057432720535391849 -0.1044541171995559 0 -0.068625317902254998 -0.1079204260031153 0 -0.074322129968702189 -0.097867910260506619 0 -0.079272267848405978 -0.1151736120803752 0 -0.074322129968702189 -0.097867910260506619 0 -0.057432720535391849 -0.1044541171995559 0 -0.06453492198304786 -0.1164467774778781 0 -0.056457006617691111 -0.1219011061966373 0 -0.068622282056706202 -0.12818128688391409 0 -0.068625317902254998 -0.1079204260031153 0 -0.06453492198304786 -0.1164467774778781 0 -0.057432720535391849 -0.1044541171995559 0 -0.068625317902254998 -0.1079204260031153 0 -0.06453492198304786 -0.1164467774778781 0 -0.079272267848405978 -0.1151736120803752 0 -0.06453492198304786 -0.1164467774778781 0 -0.079272267848405978 -0.1151736120803752 0 -0.068622282056706202 -0.12818128688391409 0 -0.079272267848405978 -0.1151736120803752 0 -0.083750381358792675 -0.1284598765970584 0 -0.068622282056706202 -0.12818128688391409 0 -0.079272267848405978 -0.1151736120803752 0 -0.090963634255588843 -0.1194276257715948 0 -0.083750381358792675 -0.1284598765970584 0 -0.079272267848405978 -0.1151736120803752 0 -0.090963634255588843 -0.1194276257715948 0 -0.093777227440389896 -0.107740146163522 0 -0.074322129968702189 -0.097867910260506619 0 -0.079272267848405978 -0.1151736120803752 0 -0.085023576440310777 -0.10221729419281581 0 -0.088831131679795894 -0.092209968925990649 0 -0.074322129968702189 -0.097867910260506619 0 -0.085023576440310777 -0.10221729419281581 0 -0.088831131679795894 -0.092209968925990649 0 -0.074322129968702189 -0.097867910260506619 0 -0.079272267848405978 -0.1151736120803752 0 -0.085023576440310777 -0.10221729419281581 0 -0.093777227440389896 -0.107740146163522 0 -0.085023576440310777 -0.10221729419281581 0 -0.098293155206129218 -0.098546029650168121 0 -0.093777227440389896 -0.107740146163522 0 -0.088831131679795894 -0.092209968925990649 0 -0.085023576440310777 -0.10221729419281581 0 -0.098293155206129218 -0.098546029650168121 0 -0.1098380154193974 -0.1105152781956011 0 -0.1101026952335291 -0.10683031654983 0 -0.1033401333908895 -0.086552027591474345 0 -0.1098380154193974 -0.1105152781956011 0 -0.1033401333908895 -0.086552027591474345 0 -0.098293155206129218 -0.098546029650168121 0 -0.1098380154193974 -0.1105152781956011 0 -0.1033401333908895 -0.086552027591474345 0 -0.098293155206129218 -0.098546029650168121 0 -0.093777227440389896 -0.107740146163522 0 -0.1009492540329095 -0.1084169934097145 0 -0.098293155206129218 -0.098546029650168121 0 -0.1009492540329095 -0.1084169934097145 0 -0.1098380154193974 -0.1105152781956011 0 -0.1013807090463807 -0.1178251212445425 0 -0.1098380154193974 -0.1105152781956011 0 -0.1163358974479053 -0.13447852879972791 0 -0.090963634255588843 -0.1194276257715948 0 -0.1013807090463807 -0.1178251212445425 0 -0.09663758558397495 -0.12793937277247569 0 -0.093777227440389896 -0.107740146163522 0 -0.1009492540329095 -0.1084169934097145 0 -0.1013807090463807 -0.1178251212445425 0 -0.090963634255588843 -0.1194276257715948 0 -0.093777227440389896 -0.107740146163522 0 -0.1013807090463807 -0.1178251212445425 0 -0.1009492540329095 -0.1084169934097145 0 -0.1013807090463807 -0.1178251212445425 0 -0.1098380154193974 -0.1105152781956011 0 -0.1098380154193974 -0.1105152781956011 0 -0.1247589529873689 -0.1193319215051903 0 -0.1163358974479053 -0.13447852879972791 0 -0.1098380154193974 -0.1105152781956011 0 -0.1163358974479053 -0.13447852879972791 0 -0.1247589529873689 -0.1193319215051903 0 -0.1101026952335291 -0.10683031654983 0 -0.1356029041876648 -0.10581244298265 0 -0.1098380154193974 -0.1105152781956011 0 -0.1247589529873689 -0.1193319215051903 0 -0.1101026952335291 -0.10683031654983 0 -0.1101026952335291 -0.10683031654983 0 -0.12838165174081231 -0.096915342677769994 0 -0.1356029041876648 -0.10581244298265 0 -0.1101026952335291 -0.10683031654983 0 -0.1210610733193667 -0.090921918861455023 0 -0.1033401333908895 -0.086552027591474345 0 -0.1101026952335291 -0.10683031654983 0 -0.1210610733193667 -0.090921918861455023 0 -0.12838165174081231 -0.096915342677769994 0 -0.1101026952335291 -0.10683031654983 0 -0.1356029041876648 -0.10581244298265 0 -0.1033401333908895 -0.086552027591474345 0 -0.13038437074479181 -0.076005836238556057 0 -0.1033401333908895 -0.086552027591474345 0 -0.10723285386504799 -0.072375112144938594 0 -0.13038437074479181 -0.076005836238556057 0 -0.1210610733193667 -0.090921918861455023 0 -0.1033401333908895 -0.086552027591474345 0 -0.13038437074479181 -0.076005836238556057 0 -0.1033401333908895 -0.086552027591474345 0 -0.1010125045826788 -0.077968068664576826 0 -0.1033401333908895 -0.086552027591474345 0 -0.1010125045826788 -0.077968068664576826 0 -0.10723285386504799 -0.072375112144938594 0 -0.093347101542302136 -0.082966039752135901 0 -0.1033401333908895 -0.086552027591474345 0 -0.1010125045826788 -0.077968068664576826 0 -0.093347101542302136 -0.082966039752135901 0 -0.09443149301990876 -0.076262422902199367 0 -0.1010125045826788 -0.077968068664576826 0 -0.088831131679795894 -0.092209968925990649 0 -0.093347101542302136 -0.082966039752135901 0 -0.1033401333908895 -0.086552027591474345 0 -0.088831131679795894 -0.092209968925990649 0 -0.098293155206129218 -0.098546029650168121 0 -0.1033401333908895 -0.086552027591474345 0 -0.088831131679795894 -0.092209968925990649 0 -0.1033401333908895 -0.086552027591474345 0 -0.084081336985305191 -0.068744388051314054 0 -0.09443149301990876 -0.076262422902199367 0 -0.10723285386504799 -0.072375112144938594 0 -0.084081336985305191 -0.068744388051314054 0 -0.10723285386504799 -0.072375112144938594 0 -0.084081336985305191 -0.068744388051314054 0 -0.10723285386504799 -0.072375112144938594 0 -0.094158237316760568 -0.056848190050645488 0 -0.09443149301990876 -0.076262422902199367 0 -0.1010125045826788 -0.077968068664576826 0 -0.10723285386504799 -0.072375112144938594 0 -0.10723285386504799 -0.072375112144938594 0 -0.1236295906840658 -0.065414749250661236 0 -0.13038437074479181 -0.076005836238556057 0 -0.10723285386504799 -0.072375112144938594 0 -0.13038437074479181 -0.076005836238556057 0 -0.10723285386504799 -0.072375112144938594 0 -0.1236295906840658 -0.065414749250661236 0 -0.1097148422084304 -0.052972350382792778 0 -0.1097148422084304 -0.052972350382792778 0 -0.1126215772566809 -0.037585222401375823 0 -0.13185584460904631 -0.053058786526185557 0 -0.1236295906840658 -0.065414749250661236 0 -0.1097148422084304 -0.052972350382792778 0 -0.13185584460904631 -0.053058786526185557 0 -0.12475164722507889 -0.033455912091534618 0 -0.1126215772566809 -0.037585222401375823 0 -0.13185584460904631 -0.053058786526185557 0 -0.12475164722507889 -0.033455912091534618 0 -0.1126215772566809 -0.037585222401375823 0 -0.11628392383191311 -0.025306093008944219 0 -0.1097148422084304 -0.052972350382792778 0 -0.1126215772566809 -0.037585222401375823 0 -0.091880271047613468 -0.035084706339442523 0 -0.10723285386504799 -0.072375112144938594 0 -0.1097148422084304 -0.052972350382792778 0 -0.094158237316760568 -0.056848190050645488 0 -0.1097148422084304 -0.052972350382792778 0 -0.094158237316760568 -0.056848190050645488 0 -0.091880271047613468 -0.035084706339442523 0 -0.11764744984111131 -0.013853037656883751 0 -0.1157952204751049 -0.0087421127031452953 0 -0.1198770481880274 0.0048746676511459506 0 -0.1058786596178206 -0.015105019344148469 0 -0.1198770481880274 0.0048746676511459506 0 -0.11764744984111131 -0.013853037656883751 0 -0.1198770481880274 0.0048746676511459506 0 -0.11764744984111131 -0.013853037656883751 0 -0.13185606356650309 -0.00067556194706120819 0 -0.1198770481880274 0.0048746676511459506 0 -0.1157952204751049 -0.0087421127031452953 0 -0.1058786596178206 -0.015105019344148469 0 -0.1198770481880274 0.0048746676511459506 0 -0.11764744984111131 -0.013853037656883751 0 -0.1157952204751049 -0.0087421127031452953 0 -0.1058786596178206 -0.015105019344148469 0 -0.11764744984111131 -0.013853037656883751 0 -0.1157952204751049 -0.0087421127031452953 0 -0.1126215772566809 -0.037585222401375823 0 -0.11628392383191311 -0.025306093008944219 0 -0.1058786596178206 -0.015105019344148469 0 -0.12475164722507889 -0.033455912091534618 0 -0.11764744984111131 -0.013853037656883751 0 -0.11628392383191311 -0.025306093008944219 0 -0.12475164722507889 -0.033455912091534618 0 -0.11764744984111131 -0.013853037656883751 0 -0.11764744984111131 -0.013853037656883751 0 -0.11628392383191311 -0.025306093008944219 0 -0.11764744984111131 -0.013853037656883751 0 -0.11628392383191311 -0.025306093008944219 0 -0.1058786596178206 -0.015105019344148469 0 -0.1126215772566809 -0.037585222401375823 0 -0.1058786596178206 -0.015105019344148469 0 -0.091880271047613468 -0.035084706339442523 0 -0.101304070511976 -0.01810902414694791 0 -0.1058786596178206 -0.015105019344148469 0 -0.091880271047613468 -0.035084706339442523 0 -0.1058786596178206 -0.015105019344148469 0 -0.091880271047613468 -0.035084706339442523 0 -0.101304070511976 -0.01810902414694791 0 -0.088528354562710077 -0.023451096732066079 0 -0.091880271047613468 -0.035084706339442523 0 -0.094619980710139079 -0.00094113599173017482 0 -0.1058786596178206 -0.015105019344148469 0 -0.1198770481880274 0.0048746676511459506 0 -0.101304070511976 -0.01810902414694791 0 -0.094619980710139079 -0.00094113599173017482 0 -0.1058786596178206 -0.015105019344148469 0 -0.094619980710139079 -0.00094113599173017482 0 -0.079819819240501522 -0.01502082105974034 0 -0.071070722981565443 0.00038426089980352529 0 -0.101304070511976 -0.01810902414694791 0 -0.094619980710139079 -0.00094113599173017482 0 -0.079819819240501522 -0.01502082105974034 0 -0.088528354562710077 -0.023451096732066079 0 -0.091880271047613468 -0.035084706339442523 0 -0.068108725223217245 -0.033498505653633957 0 -0.101304070511976 -0.01810902414694791 0 -0.079819819240501522 -0.01502082105974034 0 -0.101304070511976 -0.01810902414694791 0 -0.079819819240501522 -0.01502082105974034 0 -0.088528354562710077 -0.023451096732066079 0 -0.079819819240501522 -0.01502082105974034 0 -0.088528354562710077 -0.023451096732066079 0 -0.068108725223217245 -0.033498505653633957 0 -0.079819819240501522 -0.01502082105974034 0 -0.068108725223217245 -0.033498505653633957 0 -0.058335567969027093 -0.01193261797253198 0 -0.068108725223217245 -0.033498505653633957 0 -0.058335567969027093 -0.01193261797253198 0 -0.079819819240501522 -0.01502082105974034 0 -0.058335567969027093 -0.01193261797253198 0 -0.079819819240501522 -0.01502082105974034 0 -0.058335567969027093 -0.01193261797253198 0 -0.071070722981565443 0.00038426089980352529 0 -0.084081336985305191 -0.068744388051314054 0 -0.094158237316760568 -0.056848190050645488 0 -0.077881882477406239 -0.055064393334736547 0 -0.094158237316760568 -0.056848190050645488 0 -0.091880271047613468 -0.035084706339442523 0 -0.077881882477406239 -0.055064393334736547 0 -0.084081336985305191 -0.068744388051314054 0 -0.077881882477406239 -0.055064393334736547 0 -0.091880271047613468 -0.035084706339442523 0 -0.077881882477406239 -0.055064393334736547 0 -0.091880271047613468 -0.035084706339442523 0 -0.068108725223217245 -0.033498505653633957 0 -0.077881882477406239 -0.055064393334736547 0 -0.068108725223217245 -0.033498505653633957 0 -0.068149302153560409 -0.053888440762525261 0 -0.058276221784171772 -0.041771351090063649 0 -0.068108725223217245 -0.033498505653633957 0 -0.077881882477406239 -0.055064393334736547 0 -0.065142029229774162 -0.065774241371869185 0 -0.068149302153560409 -0.053888440762525261 0 -0.058276221784171772 -0.041771351090063649 0 -0.068108725223217245 -0.033498505653633957 0 -0.068149302153560409 -0.053888440762525261 0 -0.077881882477406239 -0.055064393334736547 0 -0.069859854520757436 -0.066514111767508738 0 -0.068149302153560409 -0.053888440762525261 0 -0.077881882477406239 -0.055064393334736547 0 -0.069859854520757436 -0.066514111767508738 0 -0.077881882477406239 -0.055064393334736547 0 -0.069859854520757436 -0.066514111767508738 0 -0.065142029229774162 -0.065774241371869185 0 -0.068149302153560409 -0.053888440762525261 0 -0.065142029229774162 -0.065774241371869185 0 -0.058276221784171772 -0.041771351090063649 0 -0.065142029229774162 -0.065774241371869185 0 -0.058276221784171772 -0.041771351090063649 0 -0.046067224163580139 -0.047473940467895187 0 -0.065142029229774162 -0.065774241371869185 0 -0.046067224163580139 -0.047473940467895187 0 -0.035482661457512138 -0.061122927087295047 0 -0.058276221784171772 -0.041771351090063649 0 -0.046067224163580139 -0.047473940467895187 0 -0.051410414338568307 -0.01776846080825829 0 -0.046067224163580139 -0.047473940467895187 0 -0.051410414338568307 -0.01776846080825829 0 -0.034695852536791923 -0.03753551971815746 0 -0.046067224163580139 -0.047473940467895187 0 -0.02714471254115159 -0.045547001243098781 0 -0.034695852536791923 -0.03753551971815746 0 -0.046067224163580139 -0.047473940467895187 0 -0.041112453185647768 -0.02923039906365469 0 -0.046067224163580139 -0.047473940467895187 0 -0.051410414338568307 -0.01776846080825829 0 -0.041112453185647768 -0.02923039906365469 0 -0.034695852536791923 -0.03753551971815746 0 -0.033747572190683577 -0.02618519295968106 0 -0.02599530337970353 -0.032274265934476437 0 -0.046067224163580139 -0.047473940467895187 0 -0.035482661457512138 -0.061122927087295047 0 -0.02714471254115159 -0.045547001243098781 0 -0.054129548608327548 -0.002651426771132242 0 -0.058335567969027093 -0.01193261797253198 0 -0.071070722981565443 0.00038426089980352529 0 -0.054129548608327548 -0.002651426771132242 0 -0.052608203043089767 -0.011109351393570071 0 -0.054129548608327548 -0.002651426771132242 0 -0.058335567969027093 -0.01193261797253198 0 -0.054129548608327548 -0.002651426771132242 0 -0.058335567969027093 -0.01193261797253198 0 -0.052608203043089767 -0.011109351393570071 0 -0.058335567969027093 -0.01193261797253198 0 -0.052608203043089767 -0.011109351393570071 0 -0.052608203043089767 -0.011109351393570071 0 -0.049372601051152383 -0.010644257407550961 0 -0.051410414338568307 -0.01776846080825829 0 -0.054129548608327548 -0.002651426771132242 0 -0.052608203043089767 -0.011109351393570071 0 -0.049372601051152383 -0.010644257407550961 0 -0.052608203043089767 -0.011109351393570071 0 -0.051410414338568307 -0.01776846080825829 0 -0.058335567969027093 -0.01193261797253198 0 -0.052608203043089767 -0.011109351393570071 0 -0.051410414338568307 -0.01776846080825829 0 -0.052608203043089767 -0.011109351393570071 0 -0.049372601051152383 -0.010644257407550961 0 -0.049372601051152383 -0.010644257407550961 0 -0.051410414338568307 -0.01776846080825829 0 -0.068108725223217245 -0.033498505653633957 0 -0.058276221784171772 -0.041771351090063649 0 -0.051410414338568307 -0.01776846080825829 0 -0.068108725223217245 -0.033498505653633957 0 -0.058335567969027093 -0.01193261797253198 0 -0.051410414338568307 -0.01776846080825829 0 -0.058276221784171772 -0.041771351090063649 0 -0.051410414338568307 -0.01776846080825829 0 -0.033747572190683577 -0.02618519295968106 0 -0.039332989870129259 -0.017369547087643489 0 -0.02322217411399689 -0.01708313159200809 0 -0.041112453185647768 -0.02923039906365469 0 -0.033747572190683577 -0.02618519295968106 0 -0.039332989870129259 -0.017369547087643489 0 -0.034695852536791923 -0.03753551971815746 0 -0.041112453185647768 -0.02923039906365469 0 -0.033747572190683577 -0.02618519295968106 0 -0.051410414338568307 -0.01776846080825829 0 -0.041112453185647768 -0.02923039906365469 0 -0.039332989870129259 -0.017369547087643489 0 -0.039332989870129259 -0.017369547087643489 0 -0.031594138203677097 -0.0080887341473911793 0 -0.02322217411399689 -0.01708313159200809 0 -0.049372601051152383 -0.010644257407550961 0 -0.031594138203677097 -0.0080887341473911793 0 -0.049372601051152383 -0.010644257407550961 0 -0.031594138203677097 -0.0080887341473911793 0 -0.042202478754792043 0.0144225188092575 0 -0.049372601051152383 -0.010644257407550961 0 -0.039332989870129259 -0.017369547087643489 0 -0.031594138203677097 -0.0080887341473911793 0 -0.049372601051152383 -0.010644257407550961 0 -0.051410414338568307 -0.01776846080825829 0 -0.039332989870129259 -0.017369547087643489 0 -0.031594138203677097 -0.0080887341473911793 0 -0.02322217411399689 -0.01708313159200809 0 -0.01381567535620187 -0.0055332108872310336 0 -0.031594138203677097 -0.0080887341473911793 0 -0.01381567535620187 -0.0055332108872310336 0 -0.02322217411399689 -0.01708313159200809 0 -0.01207603229397454 -0.011910850602099 0 -0.01381567535620187 -0.0055332108872310336 0 -0.02322217411399689 -0.01708313159200809 0 -0.01357688955797188 -0.025580422107468279 0 -0.01207603229397454 -0.011910850602099 0 -0.033747572190683577 -0.02618519295968106 0 -0.02322217411399689 -0.01708313159200809 0 -0.02599530337970353 -0.032274265934476437 0 -0.02322217411399689 -0.01708313159200809 0 -0.01357688955797188 -0.025580422107468279 0 -0.02599530337970353 -0.032274265934476437 0 -0.01357688955797188 -0.025580422107468279 0 -0.000196678936145564 -0.020618198175398689 0 -0.0029404273112356889 -0.033348019466363163 0 -0.01357688955797188 -0.025580422107468279 0 -0.000196678936145564 -0.020618198175398689 0 -0.01207603229397454 -0.011910850602099 0 -0.01207603229397454 -0.011910850602099 0 -0.01381567535620187 -0.0055332108872310336 0 9.2994626588645875e-05 -0.0066853786883017728 0 -0.01207603229397454 -0.011910850602099 0 -0.01381567535620187 -0.0055332108872310336 0 -0.000196678936145564 -0.020618198175398689 0 -0.01207603229397454 -0.011910850602099 0 9.2994626588645875e-05 -0.0066853786883017728 0 -0.01381567535620187 -0.0055332108872310336 0 -0.0039028350278822849 0.007084725468534175 0 9.2994626588645875e-05 -0.0066853786883017728 0 -0.02714471254115159 -0.045547001243098781 0 -0.01509612529506261 -0.03864426431082528 0 -0.0058232936852503636 -0.056471612802719749 0 -0.035482661457512138 -0.061122927087295047 0 -0.02714471254115159 -0.045547001243098781 0 -0.0058232936852503636 -0.056471612802719749 0 -0.035482661457512138 -0.061122927087295047 0 -0.0058232936852503636 -0.056471612802719749 0 -0.034695852536791923 -0.03753551971815746 0 -0.02714471254115159 -0.045547001243098781 0 -0.02599530337970353 -0.032274265934476437 0 -0.01357688955797188 -0.025580422107468279 0 -0.02599530337970353 -0.032274265934476437 0 -0.01509612529506261 -0.03864426431082528 0 -0.02714471254115159 -0.045547001243098781 0 -0.02599530337970353 -0.032274265934476437 0 -0.01509612529506261 -0.03864426431082528 0 -0.01509612529506261 -0.03864426431082528 0 -0.0029404273112356889 -0.033348019466363163 0 -0.0058232936852503636 -0.056471612802719749 0 -0.01357688955797188 -0.025580422107468279 0 -0.01509612529506261 -0.03864426431082528 0 -0.0029404273112356889 -0.033348019466363163 0 -0.0058232936852503636 -0.056471612802719749 0 -0.0055829579384821266 -0.089872009817903206 0 -0.027495091906489459 -0.084288343478106528 0 -0.035482661457512138 -0.061122927087295047 0 -0.0058232936852503636 -0.056471612802719749 0 -0.027495091906489459 -0.084288343478106528 0 -0.035482661457512138 -0.061122927087295047 0 -0.027495091906489459 -0.084288343478106528 0 -0.046655069534311013 -0.078709322439071264 0 -0.027495091906489459 -0.084288343478106528 0 -0.046655069534311013 -0.078709322439071264 0 -0.047883700425536267 -0.097880342100428314 0 -0.046655069534311013 -0.078709322439071264 0 -0.057271864652240989 -0.084480758157658542 0 -0.047883700425536267 -0.097880342100428314 0 -0.057271864652240989 -0.084480758157658542 0 -0.047883700425536267 -0.097880342100428314 0 -0.057271864652240989 -0.084480758157658542 0 -0.059068423004080189 -0.095634756723340597 0 -0.047883700425536267 -0.097880342100428314 0 -0.065142029229774162 -0.065774241371869185 0 -0.046655069534311013 -0.078709322439071264 0 -0.057271864652240989 -0.084480758157658542 0 -0.065142029229774162 -0.065774241371869185 0 -0.035482661457512138 -0.061122927087295047 0 -0.066660028878948008 -0.071081174214890339 0 -0.057271864652240989 -0.084480758157658542 0 -0.065142029229774162 -0.065774241371869185 0 -0.035482661457512138 -0.061122927087295047 0 -0.046655069534311013 -0.078709322439071264 0 -0.051178947470205613 -0.1144995999952141 0 -0.057432720535391849 -0.1044541171995559 0 -0.040543311102081557 -0.1110403241386054 0 -0.051178947470205613 -0.1144995999952141 0 -0.046988208991606717 -0.1248047717112615 0 -0.056457006617691111 -0.1219011061966373 0 -0.051178947470205613 -0.1144995999952141 0 -0.046988208991606717 -0.1248047717112615 0 -0.042591524654458077 -0.11814158285773529 0 -0.06453492198304786 -0.1164467774778781 0 -0.051178947470205613 -0.1144995999952141 0 -0.056457006617691111 -0.1219011061966373 0 -0.06453492198304786 -0.1164467774778781 0 -0.051178947470205613 -0.1144995999952141 0 -0.057432720535391849 -0.1044541171995559 0 -0.057432720535391849 -0.1044541171995559 0 -0.047883700425536267 -0.097880342100428314 0 -0.040543311102081557 -0.1110403241386054 0 -0.057432720535391849 -0.1044541171995559 0 -0.040543311102081557 -0.1110403241386054 0 -0.057432720535391849 -0.1044541171995559 0 -0.059068423004080189 -0.095634756723340597 0 -0.047883700425536267 -0.097880342100428314 0 -0.047883700425536267 -0.097880342100428314 0 -0.035992496864948161 -0.11485247599614699 0 -0.019564200379616679 -0.1074732252651909 0 -0.047883700425536267 -0.097880342100428314 0 -0.035992496864948161 -0.11485247599614699 0 -0.040543311102081557 -0.1110403241386054 0 -0.047883700425536267 -0.097880342100428314 0 -0.035992496864948161 -0.11485247599614699 0 -0.047883700425536267 -0.097880342100428314 0 -0.019564200379616679 -0.1074732252651909 0 -0.027495091906489459 -0.084288343478106528 0 -0.047883700425536267 -0.097880342100428314 0 -0.019564200379616679 -0.1074732252651909 0 -0.035992496864948161 -0.11485247599614699 0 -0.024101293304360751 -0.13182460989186631 0 -0.038254658843448343 -0.12551074244744831 0 -0.051178947470205613 -0.1144995999952141 0 -0.040543311102081557 -0.1110403241386054 0 -0.042591524654458077 -0.11814158285773529 0 -0.035992496864948161 -0.11485247599614699 0 -0.040543311102081557 -0.1110403241386054 0 -0.042591524654458077 -0.11814158285773529 0 -0.046988208991606717 -0.1248047717112615 0 -0.042591524654458077 -0.11814158285773529 0 -0.038254658843448343 -0.12551074244744831 0 -0.035992496864948161 -0.11485247599614699 0 -0.042591524654458077 -0.11814158285773529 0 -0.038254658843448343 -0.12551074244744831 0 -0.035992496864948161 -0.11485247599614699 0 -0.02253313057288104 -0.11949984407074909 0 -0.024101293304360751 -0.13182460989186631 0 -0.02253313057288104 -0.11949984407074909 0 -0.019564200379616679 -0.1074732252651909 0 -0.010474531742598591 -0.1238490651297921 0 -0.035992496864948161 -0.11485247599614699 0 -0.024101293304360751 -0.13182460989186631 0 -0.035992496864948161 -0.11485247599614699 0 -0.02253313057288104 -0.11949984407074909 0 -0.019564200379616679 -0.1074732252651909 0 -0.0055829579384821266 -0.089872009817903206 0 -0.027495091906489459 -0.084288343478106528 0 -0.019564200379616679 -0.1074732252651909 0 -0.0055829579384821266 -0.089872009817903206 0 -0.019564200379616679 -0.1074732252651909 0 0.008755299666303458 -0.11706610842995251 0 -0.010474531742598591 -0.1238490651297921 0 0.0016256503768235129 -0.1281843828229571 0 0.008755299666303458 -0.11706610842995251 0 -0.019564200379616679 -0.1074732252651909 0 0.008755299666303458 -0.11706610842995251 0 -0.019564200379616679 -0.1074732252651909 0 -0.010474531742598591 -0.1238490651297921 0 0.008755299666303458 -0.11706610842995251 0 -0.010474531742598591 -0.1238490651297921 0 -0.0061755514744574747 -0.13939955945566099 0 0.0016256503768235129 -0.1281843828229571 0 -0.010474531742598591 -0.1238490651297921 0 -0.0061755514744574747 -0.13939955945566099 0 -0.024101293304360751 -0.13182460989186631 0 -0.0061755514744574747 -0.13939955945566099 0 -0.024101293304360751 -0.13182460989186631 0 -0.032265036642118862 -0.1482774500291669 0 -0.02253313057288104 -0.11949984407074909 0 -0.010474531742598591 -0.1238490651297921 0 -0.024101293304360751 -0.13182460989186631 0 -0.0061755514744574747 -0.13939955945566099 0 -0.032265036642118862 -0.1482774500291669 0 -0.0061755514744574747 -0.13939955945566099 0 -0.017631658665500999 -0.16273691252173469 0 -0.032265036642118862 -0.1482774500291669 0 -0.0061755514744574747 -0.13939955945566099 0 -0.017631658665500999 -0.16273691252173469 0 0.0065196069439187616 -0.1586795582308056 0 -0.00135817117020914 -0.18493631818518841 0 -0.017631658665500999 -0.16273691252173469 0 0.0065196069439187616 -0.1586795582308056 0 -0.00135817117020914 -0.18493631818518841 0 -0.031231494468976759 -0.18056782706328869 0 -0.017631658665500999 -0.16273691252173469 0 -0.017631658665500999 -0.16273691252173469 0 -0.041279305181162559 -0.1645607621662975 0 -0.032265036642118862 -0.1482774500291669 0 -0.031231494468976759 -0.18056782706328869 0 -0.017631658665500999 -0.16273691252173469 0 -0.041279305181162559 -0.1645607621662975 0 -0.041279305181162559 -0.1645607621662975 0 -0.058354521809780249 -0.15715534060267269 0 -0.032265036642118862 -0.1482774500291669 0 -0.031231494468976759 -0.18056782706328869 0 -0.049044640124178251 -0.17566387998290109 0 -0.049711650640844221 -0.19357316099733629 0 -0.031231494468976759 -0.18056782706328869 0 -0.041279305181162559 -0.1645607621662975 0 -0.049044640124178251 -0.17566387998290109 0 -0.049044640124178251 -0.17566387998290109 0 -0.049711650640844221 -0.19357316099733629 0 -0.064646228520127469 -0.18246230908491001 0 -0.041279305181162559 -0.1645607621662975 0 -0.049044640124178251 -0.17566387998290109 0 -0.058354521809780249 -0.15715534060267269 0 -0.049044640124178251 -0.17566387998290109 0 -0.058354521809780249 -0.15715534060267269 0 -0.064646228520127469 -0.18246230908491001 0 -0.058354521809780249 -0.15715534060267269 0 -0.044727194245541578 -0.13792490225132811 0 -0.064408364707044807 -0.14201504997649891 0 -0.055561102951258851 -0.13150482878756631 0 -0.044727194245541578 -0.13792490225132811 0 -0.064408364707044807 -0.14201504997649891 0 -0.056457006617691111 -0.1219011061966373 0 -0.055561102951258851 -0.13150482878756631 0 -0.068622282056706202 -0.12818128688391409 0 -0.046988208991606717 -0.1248047717112615 0 -0.056457006617691111 -0.1219011061966373 0 -0.055561102951258851 -0.13150482878756631 0 -0.046988208991606717 -0.1248047717112615 0 -0.055561102951258851 -0.13150482878756631 0 -0.044727194245541578 -0.13792490225132811 0 -0.024101293304360751 -0.13182460989186631 0 -0.044727194245541578 -0.13792490225132811 0 -0.032265036642118862 -0.1482774500291669 0 -0.024101293304360751 -0.13182460989186631 0 -0.044727194245541578 -0.13792490225132811 0 -0.038254658843448343 -0.12551074244744831 0 -0.046988208991606717 -0.1248047717112615 0 -0.044727194245541578 -0.13792490225132811 0 -0.038254658843448343 -0.12551074244744831 0 -0.058354521809780249 -0.15715534060267269 0 -0.044727194245541578 -0.13792490225132811 0 -0.032265036642118862 -0.1482774500291669 0 -0.058354521809780249 -0.15715534060267269 0 -0.032265036642118862 -0.1482774500291669 0 -0.024991505512592979 -0.26370659804833729 0 -0.01711372739846502 -0.23744983809395431 0 -0.00049652130699871766 -0.2473016026161601 0 -0.01711372739846502 -0.23744983809395431 0 -0.00049652130699871766 -0.2473016026161601 0 0.0091491673758014591 -0.2336055957509223 0 -0.01711372739846502 -0.23744983809395431 0 -0.0092359492843370593 -0.21119307813957131 0 -0.01711372739846502 -0.23744983809395431 0 -0.0092359492843370593 -0.21119307813957131 0 0.0091491673758014591 -0.2336055957509223 0 -0.01711372739846502 -0.23744983809395431 0 -0.0092359492843370593 -0.21119307813957131 0 -0.034389638829642508 -0.21738151833063341 0 -0.0092359492843370593 -0.21119307813957131 0 -0.025440413837531019 -0.19954238369590491 0 -0.034389638829642508 -0.21738151833063341 0 -0.00135817117020914 -0.18493631818518841 0 -0.0092359492843370593 -0.21119307813957131 0 -0.025440413837531019 -0.19954238369590491 0 -0.00135817117020914 -0.18493631818518841 0 -0.0092359492843370593 -0.21119307813957131 0 -0.00135817117020914 -0.18493631818518841 0 -0.031231494468976759 -0.18056782706328869 0 -0.025440413837531019 -0.19954238369590491 0 -0.031231494468976759 -0.18056782706328869 0 -0.025440413837531019 -0.19954238369590491 0 -0.049711650640844221 -0.19357316099733629 0 -0.049711650640844221 -0.19357316099733629 0 -0.070053956969725439 -0.19825852001767891 0 -0.064646228520127469 -0.18246230908491001 0 -0.049711650640844221 -0.19357316099733629 0 -0.05891793380338059 -0.217278769950395 0 -0.070053956969725439 -0.19825852001767891 0 -0.049711650640844221 -0.19357316099733629 0 -0.05891793380338059 -0.217278769950395 0 -0.034389638829642508 -0.21738151833063341 0 -0.025440413837531019 -0.19954238369590491 0 -0.049711650640844221 -0.19357316099733629 0 -0.034389638829642508 -0.21738151833063341 0 -0.05891793380338059 -0.217278769950395 0 -0.034389638829642508 -0.21738151833063341 0 -0.046614547137775353 -0.2363946847203478 0 -0.01711372739846502 -0.23744983809395431 0 -0.034389638829642508 -0.21738151833063341 0 -0.046614547137775353 -0.2363946847203478 0 -0.05891793380338059 -0.217278769950395 0 -0.046614547137775353 -0.2363946847203478 0 -0.068394407380387184 -0.23487536875765391 0 -0.063197998448463549 -0.25457443183096989 0 -0.046614547137775353 -0.2363946847203478 0 -0.068394407380387184 -0.23487536875765391 0 -0.063197998448463549 -0.25457443183096989 0 -0.041780072468508483 -0.25363654907423799 0 -0.046614547137775353 -0.2363946847203478 0 -0.041780072468508483 -0.25363654907423799 0 -0.01711372739846502 -0.23744983809395431 0 -0.046614547137775353 -0.2363946847203478 0 -0.083370738416282147 -0.2517868905605774 0 -0.068394407380387184 -0.23487536875765391 0 -0.091595874336266328 -0.23322504066893271 0 -0.1024803928049134 -0.25248983375176598 0 -0.083370738416282147 -0.2517868905605774 0 -0.091595874336266328 -0.23322504066893271 0 -0.063197998448463549 -0.25457443183096989 0 -0.083370738416282147 -0.2517868905605774 0 -0.068394407380387184 -0.23487536875765391 0 -0.05891793380338059 -0.217278769950395 0 -0.068394407380387184 -0.23487536875765391 0 -0.079467493443516085 -0.21874619314844909 0 -0.068394407380387184 -0.23487536875765391 0 -0.091595874336266328 -0.23322504066893271 0 -0.079467493443516085 -0.21874619314844909 0 -0.091595874336266328 -0.23322504066893271 0 -0.079467493443516085 -0.21874619314844909 0 -0.095585387280427384 -0.21316117448857089 0 -0.079467493443516085 -0.21874619314844909 0 -0.070053956969725439 -0.19825852001767891 0 -0.088370645944284121 -0.1976845175827309 0 -0.079467493443516085 -0.21874619314844909 0 -0.088370645944284121 -0.1976845175827309 0 -0.095585387280427384 -0.21316117448857089 0 -0.05891793380338059 -0.217278769950395 0 -0.079467493443516085 -0.21874619314844909 0 -0.070053956969725439 -0.19825852001767891 0 -0.070053956969725439 -0.19825852001767891 0 -0.088370645944284121 -0.1976845175827309 0 -0.079209789466200275 -0.17980616934225241 0 -0.088370645944284121 -0.1976845175827309 0 -0.1104003138189916 -0.1969255828543951 0 -0.094738057006563306 -0.1829913446695248 0 -0.088370645944284121 -0.1976845175827309 0 -0.1104003138189916 -0.1969255828543951 0 -0.095585387280427384 -0.21316117448857089 0 -0.1104003138189916 -0.1969255828543951 0 -0.113799354248535 -0.2138306931932509 0 -0.13070414052114429 -0.21031281733319801 0 -0.113799354248535 -0.2138306931932509 0 -0.1226970215924227 -0.22764777181289719 0 -0.13070414052114429 -0.21031281733319801 0 -0.113799354248535 -0.2138306931932509 0 -0.095585387280427384 -0.21316117448857089 0 -0.1054327338998151 -0.2243038262406476 0 -0.1104003138189916 -0.1969255828543951 0 -0.113799354248535 -0.2138306931932509 0 -0.095585387280427384 -0.21316117448857089 0 -0.091595874336266328 -0.23322504066893271 0 -0.095585387280427384 -0.21316117448857089 0 -0.1054327338998151 -0.2243038262406476 0 -0.091595874336266328 -0.23322504066893271 0 -0.1054327338998151 -0.2243038262406476 0 -0.10970668582916381 -0.23818721836705661 0 -0.113799354248535 -0.2138306931932509 0 -0.1054327338998151 -0.2243038262406476 0 -0.1226970215924227 -0.22764777181289719 0 -0.1054327338998151 -0.2243038262406476 0 -0.1226970215924227 -0.22764777181289719 0 -0.10970668582916381 -0.23818721836705661 0 -0.1180516765755087 -0.25804632408857098 0 -0.1227181660842256 -0.2423306863943781 0 -0.1132611434474206 -0.2481528401313787 0 -0.1226970215924227 -0.22764777181289719 0 -0.10970668582916381 -0.23818721836705661 0 -0.1227181660842256 -0.2423306863943781 0 -0.10970668582916381 -0.23818721836705661 0 -0.1227181660842256 -0.2423306863943781 0 -0.1132611434474206 -0.2481528401313787 0 -0.1024803928049134 -0.25248983375176598 0 -0.10970668582916381 -0.23818721836705661 0 -0.1132611434474206 -0.2481528401313787 0 -0.1024803928049134 -0.25248983375176598 0 -0.091595874336266328 -0.23322504066893271 0 -0.10970668582916381 -0.23818721836705661 0 -0.079720317720212736 -0.15147061896928729 0 -0.096968972816658394 -0.15867012347329221 0 -0.095093150283929451 -0.14237019556209621 0 -0.079720317720212736 -0.15147061896928729 0 -0.07875868991760257 -0.14024152349695659 0 -0.095093150283929451 -0.14237019556209621 0 -0.083750381358792675 -0.1284598765970584 0 -0.07875868991760257 -0.14024152349695659 0 -0.095093150283929451 -0.14237019556209621 0 -0.083750381358792675 -0.1284598765970584 0 -0.095093150283929451 -0.14237019556209621 0 -0.09663758558397495 -0.12793937277247569 0 -0.090963634255588843 -0.1194276257715948 0 -0.083750381358792675 -0.1284598765970584 0 -0.09663758558397495 -0.12793937277247569 0 -0.07875868991760257 -0.14024152349695659 0 -0.068622282056706202 -0.12818128688391409 0 -0.064408364707044807 -0.14201504997649891 0 -0.083750381358792675 -0.1284598765970584 0 -0.07875868991760257 -0.14024152349695659 0 -0.068622282056706202 -0.12818128688391409 0 -0.055561102951258851 -0.13150482878756631 0 -0.068622282056706202 -0.12818128688391409 0 -0.064408364707044807 -0.14201504997649891 0 -0.058354521809780249 -0.15715534060267269 0 -0.079720317720212736 -0.15147061896928729 0 -0.064408364707044807 -0.14201504997649891 0 -0.079720317720212736 -0.15147061896928729 0 -0.07875868991760257 -0.14024152349695659 0 -0.064408364707044807 -0.14201504997649891 0 -0.058354521809780249 -0.15715534060267269 0 -0.079720317720212736 -0.15147061896928729 0 -0.084444006977441616 -0.1660332311761786 0 -0.058354521809780249 -0.15715534060267269 0 -0.079209789466200275 -0.17980616934225241 0 -0.084444006977441616 -0.1660332311761786 0 -0.058354521809780249 -0.15715534060267269 0 -0.084444006977441616 -0.1660332311761786 0 -0.058354521809780249 -0.15715534060267269 0 -0.064646228520127469 -0.18246230908491001 0 -0.079209789466200275 -0.17980616934225241 0 -0.070053956969725439 -0.19825852001767891 0 -0.064646228520127469 -0.18246230908491001 0 -0.079209789466200275 -0.17980616934225241 0 -0.088370645944284121 -0.1976845175827309 0 -0.079209789466200275 -0.17980616934225241 0 -0.094738057006563306 -0.1829913446695248 0 -0.079209789466200275 -0.17980616934225241 0 -0.084444006977441616 -0.1660332311761786 0 -0.094738057006563306 -0.1829913446695248 0 -0.079720317720212736 -0.15147061896928729 0 -0.084444006977441616 -0.1660332311761786 0 -0.096968972816658394 -0.15867012347329221 0 -0.084444006977441616 -0.1660332311761786 0 -0.096968972816658394 -0.15867012347329221 0 -0.1105334921451028 -0.1749111217496844 0 -0.084444006977441616 -0.1660332311761786 0 -0.1105334921451028 -0.1749111217496844 0 -0.084444006977441616 -0.1660332311761786 0 -0.094738057006563306 -0.1829913446695248 0 -0.1105334921451028 -0.1749111217496844 0 -0.1104003138189916 -0.1969255828543951 0 -0.094738057006563306 -0.1829913446695248 0 -0.1105334921451028 -0.1749111217496844 0 -0.1105334921451028 -0.1749111217496844 0 -0.12535270337507581 -0.15990724899838751 0 -0.1366229773127641 -0.1837890123231902 0 -0.1104003138189916 -0.1969255828543951 0 -0.1105334921451028 -0.1749111217496844 0 -0.1366229773127641 -0.1837890123231902 0 -0.1105334921451028 -0.1749111217496844 0 -0.1366229773127641 -0.1837890123231902 0 -0.096968972816658394 -0.15867012347329221 0 -0.1228337794764132 -0.1584417794038547 0 -0.12535270337507581 -0.15990724899838751 0 -0.096968972816658394 -0.15867012347329221 0 -0.12535270337507581 -0.15990724899838751 0 -0.096968972816658394 -0.15867012347329221 0 -0.1105334921451028 -0.1749111217496844 0 -0.12535270337507581 -0.15990724899838751 0 -0.1228337794764132 -0.1584417794038547 0 -0.1163358974479053 -0.13447852879972791 0 -0.13372020093396619 -0.14262720508792989 0 -0.1228337794764132 -0.1584417794038547 0 -0.1163358974479053 -0.13447852879972791 0 -0.096968972816658394 -0.15867012347329221 0 -0.1228337794764132 -0.1584417794038547 0 -0.10981797091451211 -0.14910854075688659 0 -0.1228337794764132 -0.1584417794038547 0 -0.10981797091451211 -0.14910854075688659 0 -0.1163358974479053 -0.13447852879972791 0 -0.10981797091451211 -0.14910854075688659 0 -0.095093150283929451 -0.14237019556209621 0 -0.1163358974479053 -0.13447852879972791 0 -0.096968972816658394 -0.15867012347329221 0 -0.10981797091451211 -0.14910854075688659 0 -0.095093150283929451 -0.14237019556209621 0 -0.1013807090463807 -0.1178251212445425 0 -0.09663758558397495 -0.12793937277247569 0 -0.1163358974479053 -0.13447852879972791 0 -0.095093150283929451 -0.14237019556209621 0 -0.09663758558397495 -0.12793937277247569 0 -0.1163358974479053 -0.13447852879972791 0 -0.1247589529873689 -0.1193319215051903 0 -0.1163358974479053 -0.13447852879972791 0 -0.13372020093396619 -0.14262720508792989 0 -0.1247589529873689 -0.1193319215051903 0 -0.14820044177604541 -0.1281571168856622 0 -0.13372020093396619 -0.14262720508792989 0 -0.14820044177604541 -0.1281571168856622 0 -0.1542604279388281 -0.14227891522890679 0 -0.13372020093396619 -0.14262720508792989 0 -0.14820044177604541 -0.1281571168856622 0 -0.1542604279388281 -0.14227891522890679 0 -0.1627185041981529 -0.13219729420462109 0 -0.1542604279388281 -0.14227891522890679 0 -0.13372020093396619 -0.14262720508792989 0 -0.15373643393349321 -0.1611443745234826 0 -0.13372020093396619 -0.14262720508792989 0 -0.12535270337507581 -0.15990724899838751 0 -0.15373643393349321 -0.1611443745234826 0 -0.1228337794764132 -0.1584417794038547 0 -0.13372020093396619 -0.14262720508792989 0 -0.12535270337507581 -0.15990724899838751 0 -0.12535270337507581 -0.15990724899838751 0 -0.15373643393349321 -0.1611443745234826 0 -0.1366229773127641 -0.1837890123231902 0 -0.15373643393349321 -0.1611443745234826 0 -0.1694506002014288 -0.18757524697757899 0 -0.12535270337507581 -0.15990724899838751 0 -0.1366229773127641 -0.1837890123231902 0 -0.15373643393349321 -0.1611443745234826 0 -0.15373643393349321 -0.1611443745234826 0 -0.1821201644919104 -0.16238150004857879 0 -0.15373643393349321 -0.1611443745234826 0 -0.1821201644919104 -0.16238150004857879 0 -0.1694506002014288 -0.18757524697757899 0 -0.1821201644919104 -0.16238150004857879 0 -0.1694506002014288 -0.18757524697757899 0 -0.19379890898413071 -0.17683459307420779 0 -0.1821201644919104 -0.16238150004857879 0 -0.1694506002014288 -0.18757524697757899 0 -0.1821201644919104 -0.16238150004857879 0 -0.17155722826922179 -0.1449761868806855 0 -0.1921146200112992 -0.14250727412609071 0 -0.1821201644919104 -0.16238150004857879 0 -0.1921146200112992 -0.14250727412609071 0 -0.17524671547322351 -0.12786749151049881 0 -0.17155722826922179 -0.1449761868806855 0 -0.1921146200112992 -0.14250727412609071 0 -0.17524671547322351 -0.12786749151049881 0 -0.1921146200112992 -0.14250727412609071 0 -0.18670902145459281 -0.1191040684327469 0 -0.1542604279388281 -0.14227891522890679 0 -0.1627185041981529 -0.13219729420462109 0 -0.17155722826922179 -0.1449761868806855 0 -0.17524671547322351 -0.12786749151049881 0 -0.1627185041981529 -0.13219729420462109 0 -0.17155722826922179 -0.1449761868806855 0 -0.17524671547322351 -0.12786749151049881 0 -0.1627185041981529 -0.13219729420462109 0 -0.16250662366085711 -0.1185952451931863 0 -0.14820044177604541 -0.1281571168856622 0 -0.1627185041981529 -0.13219729420462109 0 -0.16250662366085711 -0.1185952451931863 0 -0.1542604279388281 -0.14227891522890679 0 -0.15373643393349321 -0.1611443745234826 0 -0.17155722826922179 -0.1449761868806855 0 -0.15373643393349321 -0.1611443745234826 0 -0.1821201644919104 -0.16238150004857879 0 -0.17155722826922179 -0.1449761868806855 0 -0.15522258220679089 -0.24477908560778669 0 -0.14333946920790491 -0.2294569886672235 0 -0.16763173603513851 -0.23245613934898821 0 -0.15522258220679089 -0.24477908560778669 0 -0.14123905081936811 -0.24435887240762211 0 -0.14333946920790491 -0.2294569886672235 0 -0.14348465898741411 -0.25620536207728473 0 -0.15522258220679089 -0.24477908560778669 0 -0.14123905081936811 -0.24435887240762211 0 -0.13138631030816489 -0.25257813007746482 0 -0.14123905081936811 -0.24435887240762211 0 -0.13242069041579241 -0.23834026106624051 0 -0.13138631030816489 -0.25257813007746482 0 -0.1227181660842256 -0.2423306863943781 0 -0.13242069041579241 -0.23834026106624051 0 -0.1226970215924227 -0.22764777181289719 0 -0.1227181660842256 -0.2423306863943781 0 -0.13242069041579241 -0.23834026106624051 0 -0.14123905081936811 -0.24435887240762211 0 -0.13242069041579241 -0.23834026106624051 0 -0.14333946920790491 -0.2294569886672235 0 -0.1226970215924227 -0.22764777181289719 0 -0.13242069041579241 -0.23834026106624051 0 -0.14333946920790491 -0.2294569886672235 0 -0.1226970215924227 -0.22764777181289719 0 -0.14333946920790491 -0.2294569886672235 0 -0.13070414052114429 -0.21031281733319801 0 -0.14333946920790491 -0.2294569886672235 0 -0.15678103591094511 -0.21276899390657841 0 -0.16763173603513851 -0.23245613934898821 0 -0.1366229773127641 -0.1837890123231902 0 -0.1694506002014288 -0.18757524697757899 0 -0.15678103591094511 -0.21276899390657841 0 -0.14333946920790491 -0.2294569886672235 0 -0.13070414052114429 -0.21031281733319801 0 -0.15678103591094511 -0.21276899390657841 0 -0.1104003138189916 -0.1969255828543951 0 -0.1366229773127641 -0.1837890123231902 0 -0.13070414052114429 -0.21031281733319801 0 -0.1366229773127641 -0.1837890123231902 0 -0.13070414052114429 -0.21031281733319801 0 -0.15678103591094511 -0.21276899390657841 0 -0.1694506002014288 -0.18757524697757899 0 -0.15678103591094511 -0.21276899390657841 0 -0.1694506002014288 -0.18757524697757899 0 -0.17513217362906811 -0.2073926596223053 0 -0.15678103591094511 -0.21276899390657841 0 -0.1694506002014288 -0.18757524697757899 0 -0.17513217362906811 -0.2073926596223053 0 -0.1939131805847831 -0.19985277271361301 0 -0.1694506002014288 -0.18757524697757899 0 -0.1939131805847831 -0.19985277271361301 0 -0.19379890898413071 -0.17683459307420779 0 -0.17513217362906811 -0.2073926596223053 0 -0.1882628913527345 -0.22281259662362221 0 -0.1939131805847831 -0.19985277271361301 0 -0.17513217362906811 -0.2073926596223053 0 -0.15678103591094511 -0.21276899390657841 0 -0.16763173603513851 -0.23245613934898821 0 -0.17513217362906811 -0.2073926596223053 0 -0.16763173603513851 -0.23245613934898821 0 -0.1882628913527345 -0.22281259662362221 0 -0.19441515482194541 -0.25327847920056412 0 -0.16894990690467979 -0.25474192063892442 0 -0.16763173603513851 -0.23245613934898821 0 -0.19441515482194541 -0.25327847920056412 0 -0.16763173603513851 -0.23245613934898821 0 -0.1882628913527345 -0.22281259662362221 0 -0.16894990690467979 -0.25474192063892442 0 -0.15522258220679089 -0.24477908560778669 0 -0.16763173603513851 -0.23245613934898821 0 -0.219880402739211 -0.25181503776220382 0 -0.19441515482194541 -0.25327847920056412 0 -0.20674722185319511 -0.2345889935936484 0 -0.19441515482194541 -0.25327847920056412 0 -0.20674722185319511 -0.2345889935936484 0 -0.1882628913527345 -0.22281259662362221 0 -0.20674722185319511 -0.2345889935936484 0 -0.1882628913527345 -0.22281259662362221 0 -0.2091315935591978 -0.21662383188908929 0 -0.20674722185319511 -0.2345889935936484 0 -0.2091315935591978 -0.21662383188908929 0 -0.22362799058216651 -0.2245573636333382 0 -0.2091315935591978 -0.21662383188908929 0 -0.1939131805847831 -0.19985277271361301 0 -0.21482891535745621 -0.19991243898374619 0 -0.2091315935591978 -0.21662383188908929 0 -0.21482891535745621 -0.19991243898374619 0 -0.22593877717202199 -0.21180384354955761 0 -0.1882628913527345 -0.22281259662362221 0 -0.2091315935591978 -0.21662383188908929 0 -0.1939131805847831 -0.19985277271361301 0 -0.1939131805847831 -0.19985277271361301 0 -0.19379890898413071 -0.17683459307420779 0 -0.20680906225179341 -0.18721099781699299 0 -0.21482891535745621 -0.19991243898374619 0 -0.20680906225179341 -0.18721099781699299 0 -0.22005095318596091 -0.18388132114826231 0 -0.1939131805847831 -0.19985277271361301 0 -0.21482891535745621 -0.19991243898374619 0 -0.20680906225179341 -0.18721099781699299 0 -0.21482891535745621 -0.19991243898374619 0 -0.23206994554400109 -0.196382068865884 0 -0.22593877717202199 -0.21180384354955761 0 -0.21482891535745621 -0.19991243898374619 0 -0.23206994554400109 -0.196382068865884 0 -0.22005095318596091 -0.18388132114826231 0 -0.23206994554400109 -0.196382068865884 0 -0.24358344246471439 -0.19158045559441569 0 -0.23861870510142411 -0.17727437257379591 0 -0.24358344246471439 -0.19158045559441569 0 -0.24725779665830391 -0.20054974283342891 0 -0.25028721978338742 -0.19371089023616611 0 -0.24358344246471439 -0.19158045559441569 0 -0.2491857197856916 -0.1881539994391043 0 -0.25028721978338742 -0.19371089023616611 0 -0.23206994554400109 -0.196382068865884 0 -0.24725779665830391 -0.20054974283342891 0 -0.24112825112839739 -0.21032916605117341 0 -0.23206994554400109 -0.196382068865884 0 -0.24358344246471439 -0.19158045559441569 0 -0.24725779665830391 -0.20054974283342891 0 -0.24725779665830391 -0.20054974283342891 0 -0.24112825112839739 -0.21032916605117341 0 -0.25521199120448118 -0.20608867607345219 0 -0.24112825112839739 -0.21032916605117341 0 -0.24642641019704661 -0.22247541380929459 0 -0.25392376853803972 -0.21594652707730211 0 -0.2091315935591978 -0.21662383188908929 0 -0.22593877717202199 -0.21180384354955761 0 -0.22362799058216651 -0.2245573636333382 0 -0.24112825112839739 -0.21032916605117341 0 -0.22593877717202199 -0.21180384354955761 0 -0.23523524517534511 -0.22505702465694549 0 -0.23206994554400109 -0.196382068865884 0 -0.24112825112839739 -0.21032916605117341 0 -0.22593877717202199 -0.21180384354955761 0 -0.20674722185319511 -0.2345889935936484 0 -0.22362799058216651 -0.2245573636333382 0 -0.23124900575331131 -0.23885322501217501 0 -0.22362799058216651 -0.2245573636333382 0 -0.23523524517534511 -0.22505702465694549 0 -0.23124900575331131 -0.23885322501217501 0 -0.22593877717202199 -0.21180384354955761 0 -0.22362799058216651 -0.2245573636333382 0 -0.23523524517534511 -0.22505702465694549 0 -0.24642641019704661 -0.22247541380929459 0 -0.24552422698312379 -0.2457455520674697 0 -0.24112825112839739 -0.21032916605117341 0 -0.23523524517534511 -0.22505702465694549 0 -0.24642641019704661 -0.22247541380929459 0 -0.23523524517534511 -0.22505702465694549 0 -0.24642641019704661 -0.22247541380929459 0 -0.2417959214028399 -0.23748869097786729 0 -0.23523524517534511 -0.22505702465694549 0 -0.2417959214028399 -0.23748869097786729 0 -0.23124900575331131 -0.23885322501217501 0 -0.24642641019704661 -0.22247541380929459 0 -0.24552422698312379 -0.2457455520674697 0 -0.25745970649811001 -0.23572969511482039 0 -0.2417959214028399 -0.23748869097786729 0 -0.24552422698312379 -0.2457455520674697 0 -0.23124900575331131 -0.23885322501217501 0 -0.24642641019704661 -0.22247541380929459 0 -0.2417959214028399 -0.23748869097786729 0 -0.24552422698312379 -0.2457455520674697 0 -0.2417959214028399 -0.23748869097786729 0 -0.24552422698312379 -0.2457455520674697 0 -0.25059524740695288 -0.25004991155547401 0 -0.24754692042651941 -0.25022509335756632 0 -0.24552422698312379 -0.2457455520674697 0 -0.2453456506564767 -0.25035159632384441 0 -0.24754692042651941 -0.25022509335756632 0 -0.24552422698312379 -0.2457455520674697 0 -0.24754692042651941 -0.25022509335756632 0 -0.24552422698312379 -0.2457455520674697 0 -0.2453456506564767 -0.25035159632384441 0 -0.24552422698312379 -0.2457455520674697 0 -0.2453456506564767 -0.25035159632384441 0 -0.24552422698312379 -0.2457455520674697 0 -0.23124900575331131 -0.23885322501217501 0 -0.219880402739211 -0.25181503776220382 0 -0.2453456506564767 -0.25035159632384441 0 -0.23124900575331131 -0.23885322501217501 0 -0.219880402739211 -0.25181503776220382 0 -0.20674722185319511 -0.2345889935936484 0 -0.23124900575331131 -0.23885322501217501 0 -0.2160290277721203 -0.1395524278271662 0 -0.1921146200112992 -0.14250727412609071 0 -0.20508583101114591 -0.16338247531478869 0 -0.2160290277721203 -0.1395524278271662 0 -0.20508583101114591 -0.16338247531478869 0 -0.22805149753038129 -0.1643834505809996 0 -0.2160290277721203 -0.1395524278271662 0 -0.1921146200112992 -0.14250727412609071 0 -0.20210907553068599 -0.1226330482036016 0 -0.2160290277721203 -0.1395524278271662 0 -0.21500619943136981 -0.11666867666619091 0 -0.20210907553068599 -0.1226330482036016 0 -0.1921146200112992 -0.14250727412609071 0 -0.20210907553068599 -0.1226330482036016 0 -0.1921146200112992 -0.14250727412609071 0 -0.20210907553068599 -0.1226330482036016 0 -0.18670902145459281 -0.1191040684327469 0 -0.1821201644919104 -0.16238150004857879 0 -0.1921146200112992 -0.14250727412609071 0 -0.20508583101114591 -0.16338247531478869 0 -0.1821201644919104 -0.16238150004857879 0 -0.20508583101114591 -0.16338247531478869 0 -0.1821201644919104 -0.16238150004857879 0 -0.19379890898413071 -0.17683459307420779 0 -0.20508583101114591 -0.16338247531478869 0 -0.19379890898413071 -0.17683459307420779 0 -0.20916977005217979 -0.17540736419247949 0 -0.20508583101114591 -0.16338247531478869 0 -0.19379890898413071 -0.17683459307420779 0 -0.20680906225179341 -0.18721099781699299 0 -0.20916977005217979 -0.17540736419247949 0 -0.20916977005217979 -0.17540736419247949 0 -0.21952497029072451 -0.1684165975116568 0 -0.22005095318596091 -0.18388132114826231 0 -0.20680906225179341 -0.18721099781699299 0 -0.20916977005217979 -0.17540736419247949 0 -0.22005095318596091 -0.18388132114826231 0 -0.20508583101114591 -0.16338247531478869 0 -0.22805149753038129 -0.1643834505809996 0 -0.21952497029072451 -0.1684165975116568 0 -0.20508583101114591 -0.16338247531478869 0 -0.22805149753038129 -0.1643834505809996 0 -0.20916977005217979 -0.17540736419247949 0 -0.20508583101114591 -0.16338247531478869 0 -0.21952497029072451 -0.1684165975116568 0 -0.22805149753038129 -0.1643834505809996 0 -0.21952497029072451 -0.1684165975116568 0 -0.23861870510142411 -0.17727437257379591 0 -0.23206994554400109 -0.196382068865884 0 -0.22005095318596091 -0.18388132114826231 0 -0.23861870510142411 -0.17727437257379591 0 -0.21952497029072451 -0.1684165975116568 0 -0.23861870510142411 -0.17727437257379591 0 -0.21952497029072451 -0.1684165975116568 0 -0.22005095318596091 -0.18388132114826231 0 -0.23861870510142411 -0.17727437257379591 0 -0.23861870510142411 -0.17727437257379591 0 -0.25771243991212323 -0.18613214763593611 0 -0.2491857197856916 -0.1881539994391043 0 -0.23861870510142411 -0.17727437257379591 0 -0.25771243991212323 -0.18613214763593611 0 -0.23861870510142411 -0.17727437257379591 0 -0.25771243991212323 -0.18613214763593611 0 -0.25101716404961671 -0.16538442584721061 0 -0.24358344246471439 -0.19158045559441569 0 -0.2491857197856916 -0.1881539994391043 0 -0.23861870510142411 -0.17727437257379591 0 -0.22805149753038129 -0.1643834505809996 0 -0.25101716404961671 -0.16538442584721061 0 -0.22805149753038129 -0.1643834505809996 0 -0.24252248370888921 -0.13906060170419321 0 -0.25101716404961671 -0.16538442584721061 0 -0.22805149753038129 -0.1643834505809996 0 -0.23861870510142411 -0.17727437257379591 0 -0.25101716404961671 -0.16538442584721061 0 -0.24252248370888921 -0.13906060170419321 0 -0.25101716404961671 -0.16538442584721061 0 -0.25607245445027549 -0.15330591863931409 0 -0.24252248370888921 -0.13906060170419321 0 -0.25101716404961671 -0.16538442584721061 0 -0.2160290277721203 -0.1395524278271662 0 -0.22805149753038129 -0.1643834505809996 0 -0.24252248370888921 -0.13906060170419321 0 -0.2160290277721203 -0.1395524278271662 0 -0.22731348718107061 -0.12823146819429879 0 -0.21500619943136981 -0.11666867666619091 0 -0.2160290277721203 -0.1395524278271662 0 -0.22731348718107061 -0.12823146819429879 0 -0.24252248370888921 -0.13906060170419321 0 -0.22731348718107061 -0.12823146819429879 0 -0.24252248370888921 -0.13906060170419321 0 -0.23402780336816259 -0.11273677756117551 0 -0.24252248370888921 -0.13906060170419321 0 -0.23918338790704849 -0.1157771695894054 0 -0.2519772804193724 -0.12964821717384239 0 -0.24252248370888921 -0.13906060170419321 0 -0.23402780336816259 -0.11273677756117551 0 -0.24252248370888921 -0.13906060170419321 0 -0.25345957737028418 -0.1422243138163761 0 -0.2519772804193724 -0.12964821717384239 0 -0.24589355376940389 -0.1197343415923325 0 -0.23918338790704849 -0.1157771695894054 0 -0.2519772804193724 -0.12964821717384239 0 -0.23918338790704849 -0.1157771695894054 0 -0.2519772804193724 -0.12964821717384239 0 -0.24252248370888921 -0.13906060170419321 0 -0.23918338790704849 -0.1157771695894054 0 -0.23402780336816259 -0.11273677756117551 0 -0.24589355376940389 -0.1197343415923325 0 -0.23918338790704849 -0.1157771695894054 0 -0.24589355376940389 -0.1197343415923325 0 -0.23428392411290661 -0.1051067475620189 0 -0.23918338790704849 -0.1157771695894054 0 -0.23276245469109699 -0.10881563930539349 0 -0.23428392411290661 -0.1051067475620189 0 -0.24589355376940389 -0.1197343415923325 0 -0.23918338790704849 -0.1157771695894054 0 -0.23428392411290661 -0.1051067475620189 0 -0.23918338790704849 -0.1157771695894054 0 -0.23276245469109699 -0.10881563930539349 0 -0.23918338790704849 -0.1157771695894054 0 -0.23276245469109699 -0.10881563930539349 0 -0.23402780336816259 -0.11273677756117551 0 -0.23918338790704849 -0.1157771695894054 0 -0.23402780336816259 -0.11273677756117551 0 -0.24589355376940389 -0.1197343415923325 0 -0.2471185865220428 -0.10611116084315959 0 -0.23428392411290661 -0.1051067475620189 0 -0.2471185865220428 -0.10611116084315959 0 -0.24030469594817791 -0.09630013348455696 0 -0.25043698654984042 -0.09007265746859866 0 -0.24030469594817791 -0.09630013348455696 0 -0.23428392411290661 -0.1051067475620189 0 -0.2312333685779874 -0.09182142569442675 0 -0.2471185865220428 -0.10611116084315959 0 -0.24030469594817791 -0.09630013348455696 0 -0.23428392411290661 -0.1051067475620189 0 -0.23276245469109699 -0.10881563930539349 0 -0.2322542278381117 -0.10724071549824481 0 -0.22105695079066889 -0.096124614939958858 0 -0.23276245469109699 -0.10881563930539349 0 -0.22105695079066889 -0.096124614939958858 0 -0.2197079689344115 -0.1024552813834784 0 -0.23402780336816259 -0.11273677756117551 0 -0.21679093993952619 -0.1025717183395019 0 -0.2322542278381117 -0.10724071549824481 0 -0.23428392411290661 -0.1051067475620189 0 -0.22105695079066889 -0.096124614939958858 0 -0.23402780336816259 -0.11273677756117551 0 -0.21679093993952619 -0.1025717183395019 0 -0.23276245469109699 -0.10881563930539349 0 -0.2197079689344115 -0.1024552813834784 0 -0.23402780336816259 -0.11273677756117551 0 -0.23276245469109699 -0.10881563930539349 0 -0.2322542278381117 -0.10724071549824481 0 -0.23276245469109699 -0.10881563930539349 0 -0.2322542278381117 -0.10724071549824481 0 -0.23428392411290661 -0.1051067475620189 0 -0.23428392411290661 -0.1051067475620189 0 -0.2312333685779874 -0.09182142569442675 0 -0.22267429445640599 -0.090479153531708073 0 -0.23428392411290661 -0.1051067475620189 0 -0.22267429445640599 -0.090479153531708073 0 -0.23428392411290661 -0.1051067475620189 0 -0.22105695079066889 -0.096124614939958858 0 -0.22267429445640599 -0.090479153531708073 0 -0.22105695079066889 -0.096124614939958858 0 -0.2197079689344115 -0.1024552813834784 0 -0.21679093993952619 -0.1025717183395019 0 -0.23276245469109699 -0.10881563930539349 0 -0.22105695079066889 -0.096124614939958858 0 -0.2197079689344115 -0.1024552813834784 0 -0.23402780336816259 -0.11273677756117551 0 -0.21500619943136981 -0.11666867666619091 0 -0.21679093993952619 -0.1025717183395019 0 -0.22731348718107061 -0.12823146819429879 0 -0.23402780336816259 -0.11273677756117551 0 -0.21500619943136981 -0.11666867666619091 0 -0.23276245469109699 -0.10881563930539349 0 -0.23402780336816259 -0.11273677756117551 0 -0.2439945728241126 -0.064939689346654811 0 -0.2297380873970678 -0.067692063896601512 0 -0.2439945728241126 -0.064939689346654811 0 -0.24137888927523499 -0.078755138241854775 0 -0.2439945728241126 -0.064939689346654811 0 -0.24137888927523499 -0.078755138241854775 0 -0.25311922496262851 -0.076102733709373191 0 -0.2439945728241126 -0.064939689346654811 0 -0.24137888927523499 -0.078755138241854775 0 -0.2297380873970678 -0.067692063896601512 0 -0.24137888927523499 -0.078755138241854775 0 -0.23845061397811221 -0.088388675854580795 0 -0.23095344940492971 -0.084091073924781157 0 -0.24137888927523499 -0.078755138241854775 0 -0.25311922496262851 -0.076102733709373191 0 -0.25043698654984042 -0.09007265746859866 0 -0.24137888927523499 -0.078755138241854775 0 -0.23845061397811221 -0.088388675854580795 0 -0.25043698654984042 -0.09007265746859866 0 -0.24030469594817791 -0.09630013348455696 0 -0.23845061397811221 -0.088388675854580795 0 -0.25043698654984042 -0.09007265746859866 0 -0.24030469594817791 -0.09630013348455696 0 -0.23845061397811221 -0.088388675854580795 0 -0.2312333685779874 -0.09182142569442675 0 -0.21998363191120751 -0.087089043722152204 0 -0.2297380873970678 -0.067692063896601512 0 -0.21712915130706961 -0.083492530768668555 0 -0.21998363191120751 -0.087089043722152204 0 -0.23095344940492971 -0.084091073924781157 0 -0.2297380873970678 -0.067692063896601512 0 -0.2312333685779874 -0.09182142569442675 0 -0.22267429445640599 -0.090479153531708073 0 -0.23095344940492971 -0.084091073924781157 0 -0.2312333685779874 -0.09182142569442675 0 -0.22267429445640599 -0.090479153531708073 0 -0.23845061397811221 -0.088388675854580795 0 -0.2312333685779874 -0.09182142569442675 0 -0.23095344940492971 -0.084091073924781157 0 -0.22267429445640599 -0.090479153531708073 0 -0.21998363191120751 -0.087089043722152204 0 -0.23095344940492971 -0.084091073924781157 0 -0.22267429445640599 -0.090479153531708073 0 -0.2186001053592144 -0.089840221033505946 0 -0.22105695079066889 -0.096124614939958858 0 -0.22267429445640599 -0.090479153531708073 0 -0.2186001053592144 -0.089840221033505946 0 -0.22267429445640599 -0.090479153531708073 0 -0.21998363191120751 -0.087089043722152204 0 -0.2186001053592144 -0.089840221033505946 0 -0.21998363191120751 -0.087089043722152204 0 -0.2186001053592144 -0.089840221033505946 0 -0.22267429445640599 -0.090479153531708073 0 -0.21998363191120751 -0.087089043722152204 0 -0.21998363191120751 -0.087089043722152204 0 -0.2297380873970678 -0.067692063896601512 0 -0.24137888927523499 -0.078755138241854775 0 -0.23095344940492971 -0.084091073924781157 0 -0.2297380873970678 -0.067692063896601512 0 -0.2297380873970678 -0.067692063896601512 0 -0.2025820199117199 -0.072934847569037675 0 -0.2297380873970678 -0.067692063896601512 0 -0.2084830181433375 -0.08010491084127612 0 -0.21712915130706961 -0.083492530768668555 0 -0.2297380873970678 -0.067692063896601512 0 -0.2084830181433375 -0.08010491084127612 0 -0.2025820199117199 -0.072934847569037675 0 -0.2186001053592144 -0.089840221033505946 0 -0.20266304943732799 -0.087340900871571078 0 -0.21324825955502349 -0.1004825008863945 0 -0.21712915130706961 -0.083492530768668555 0 -0.2186001053592144 -0.089840221033505946 0 -0.20266304943732799 -0.087340900871571078 0 -0.2186001053592144 -0.089840221033505946 0 -0.20266304943732799 -0.087340900871571078 0 -0.2084830181433375 -0.08010491084127612 0 -0.21712915130706961 -0.083492530768668555 0 -0.20266304943732799 -0.087340900871571078 0 -0.21998363191120751 -0.087089043722152204 0 -0.21712915130706961 -0.083492530768668555 0 -0.21998363191120751 -0.087089043722152204 0 -0.21712915130706961 -0.083492530768668555 0 -0.2186001053592144 -0.089840221033505946 0 -0.20266304943732799 -0.087340900871571078 0 -0.19998712653523509 -0.092662040798007245 0 -0.21324825955502349 -0.1004825008863945 0 -0.20266304943732799 -0.087340900871571078 0 -0.1951760066868399 -0.080679974246598896 0 -0.18672599351544289 -0.084841580709626357 0 -0.20266304943732799 -0.087340900871571078 0 -0.18672599351544289 -0.084841580709626357 0 -0.20266304943732799 -0.087340900871571078 0 -0.19998712653523509 -0.092662040798007245 0 -0.18672599351544289 -0.084841580709626357 0 -0.19998712653523509 -0.092662040798007245 0 -0.18672599351544289 -0.084841580709626357 0 -0.2084830181433375 -0.08010491084127612 0 -0.20266304943732799 -0.087340900871571078 0 -0.1951760066868399 -0.080679974246598896 0 -0.2025820199117199 -0.072934847569037675 0 -0.17542595242637199 -0.078177631241474574 0 -0.1951760066868399 -0.080679974246598896 0 -0.2025820199117199 -0.072934847569037675 0 -0.17542595242637199 -0.078177631241474574 0 -0.2025820199117199 -0.072934847569037675 0 -0.1810019857113119 -0.059274777341667889 0 -0.1974703084310688 -0.055644633873762582 0 -0.2084830181433375 -0.08010491084127612 0 -0.1951760066868399 -0.080679974246598896 0 -0.2025820199117199 -0.072934847569037675 0 -0.2121035310500719 -0.10275882228111199 0 -0.20210907553068599 -0.1226330482036016 0 -0.21500619943136981 -0.11666867666619091 0 -0.2121035310500719 -0.10275882228111199 0 -0.20210907553068599 -0.1226330482036016 0 -0.21500619943136981 -0.11666867666619091 0 -0.21679093993952619 -0.1025717183395019 0 -0.2121035310500719 -0.10275882228111199 0 -0.2197079689344115 -0.1024552813834784 0 -0.21679093993952619 -0.1025717183395019 0 -0.21679093993952619 -0.1025717183395019 0 -0.2121035310500719 -0.10275882228111199 0 -0.21324825955502349 -0.1004825008863945 0 -0.21679093993952619 -0.1025717183395019 0 -0.2121035310500719 -0.10275882228111199 0 -0.2121035310500719 -0.10275882228111199 0 -0.21324825955502349 -0.1004825008863945 0 -0.2186001053592144 -0.089840221033505946 0 -0.21324825955502349 -0.1004825008863945 0 -0.22105695079066889 -0.096124614939958858 0 -0.2186001053592144 -0.089840221033505946 0 -0.21324825955502349 -0.1004825008863945 0 -0.22105695079066889 -0.096124614939958858 0 -0.21679093993952619 -0.1025717183395019 0 -0.21324825955502349 -0.1004825008863945 0 -0.21679093993952619 -0.1025717183395019 0 -0.21324825955502349 -0.1004825008863945 0 -0.19998712653523509 -0.092662040798007245 0 -0.2121035310500719 -0.10275882228111199 0 -0.21324825955502349 -0.1004825008863945 0 -0.19998712653523509 -0.092662040798007245 0 -0.21324825955502349 -0.1004825008863945 0 -0.2121035310500719 -0.10275882228111199 0 -0.18660332209593611 -0.10377669584829 0 -0.19998712653523509 -0.092662040798007245 0 -0.18660332209593611 -0.10377669584829 0 -0.18672599351544289 -0.084841580709626357 0 -0.19998712653523509 -0.092662040798007245 0 -0.2121035310500719 -0.10275882228111199 0 -0.18660332209593611 -0.10377669584829 0 -0.20210907553068599 -0.1226330482036016 0 -0.18670902145459281 -0.1191040684327469 0 -0.18660332209593611 -0.10377669584829 0 -0.2121035310500719 -0.10275882228111199 0 -0.20210907553068599 -0.1226330482036016 0 -0.18660332209593611 -0.10377669584829 0 -0.18670902145459281 -0.1191040684327469 0 -0.17447592483708291 -0.1146042412093445 0 -0.18660332209593611 -0.10377669584829 0 -0.17524671547322351 -0.12786749151049881 0 -0.18670902145459281 -0.1191040684327469 0 -0.17447592483708291 -0.1146042412093445 0 -0.17524671547322351 -0.12786749151049881 0 -0.17447592483708291 -0.1146042412093445 0 -0.16250662366085711 -0.1185952451931863 0 -0.17447592483708291 -0.1146042412093445 0 -0.16250662366085711 -0.1185952451931863 0 -0.16110311314180051 -0.10479456941547 0 -0.16250662366085711 -0.1185952451931863 0 -0.16110311314180051 -0.10479456941547 0 -0.14893166532055069 -0.1137621840903265 0 -0.16110311314180051 -0.10479456941547 0 -0.16148845420001881 -0.091349065989462075 0 -0.14758723569600629 -0.096865398721705756 0 -0.17116085110791349 -0.098304373287820102 0 -0.1754485149938988 -0.093297161898058381 0 -0.16148845420001881 -0.091349065989462075 0 -0.16110311314180051 -0.10479456941547 0 -0.17116085110791349 -0.098304373287820102 0 -0.16148845420001881 -0.091349065989462075 0 -0.16110311314180051 -0.10479456941547 0 -0.18660332209593611 -0.10377669584829 0 -0.16110311314180051 -0.10479456941547 0 -0.17116085110791349 -0.098304373287820102 0 -0.18660332209593611 -0.10377669584829 0 -0.17447592483708291 -0.1146042412093445 0 -0.16110311314180051 -0.10479456941547 0 -0.18660332209593611 -0.10377669584829 0 -0.17116085110791349 -0.098304373287820102 0 -0.18660332209593611 -0.10377669584829 0 -0.1754485149938988 -0.093297161898058381 0 -0.18660332209593611 -0.10377669584829 0 -0.18672599351544289 -0.084841580709626357 0 -0.1754485149938988 -0.093297161898058381 0 -0.18672599351544289 -0.084841580709626357 0 -0.16730086034246211 -0.081795244722262239 0 -0.18672599351544289 -0.084841580709626357 0 -0.1754485149938988 -0.093297161898058381 0 -0.16730086034246211 -0.081795244722262239 0 -0.18672599351544289 -0.084841580709626357 0 -0.17542595242637199 -0.078177631241474574 0 -0.16730086034246211 -0.081795244722262239 0 -0.1951760066868399 -0.080679974246598896 0 -0.18672599351544289 -0.084841580709626357 0 -0.17542595242637199 -0.078177631241474574 0 -0.18672599351544289 -0.084841580709626357 0 -0.17542595242637199 -0.078177631241474574 0 -0.17542595242637199 -0.078177631241474574 0 -0.1687133282451507 -0.079473578693202387 0 -0.1710660263694003 -0.075606461216561713 0 -0.1810019857113119 -0.059274777341667889 0 -0.17542595242637199 -0.078177631241474574 0 -0.1710660263694003 -0.075606461216561713 0 -0.1810019857113119 -0.059274777341667889 0 -0.16795871172158591 -0.065782447586673704 0 -0.1710660263694003 -0.075606461216561713 0 -0.1810019857113119 -0.059274777341667889 0 -0.2025820199117199 -0.072934847569037675 0 -0.17542595242637199 -0.078177631241474574 0 -0.1810019857113119 -0.059274777341667889 0 -0.17542595242637199 -0.078177631241474574 0 -0.1710660263694003 -0.075606461216561713 0 -0.16795871172158591 -0.065782447586673704 0 -0.1710660263694003 -0.075606461216561713 0 -0.1572559069534043 -0.067462248535222535 0 -0.1710660263694003 -0.075606461216561713 0 -0.1572559069534043 -0.067462248535222535 0 -0.17542595242637199 -0.078177631241474574 0 -0.1710660263694003 -0.075606461216561713 0 -0.1687133282451507 -0.079473578693202387 0 -0.1710660263694003 -0.075606461216561713 0 -0.1687133282451507 -0.079473578693202387 0 -0.1572559069534043 -0.067462248535222535 0 -0.1618726483907981 -0.080943968323375054 0 -0.15381040672582261 -0.073183423921576299 0 -0.1710660263694003 -0.075606461216561713 0 -0.1572559069534043 -0.067462248535222535 0 -0.1618726483907981 -0.080943968323375054 0 -0.16795871172158591 -0.065782447586673704 0 -0.1572559069534043 -0.067462248535222535 0 -0.1649445784972505 -0.05776023841684548 0 -0.16730086034246211 -0.081795244722262239 0 -0.16148845420001881 -0.091349065989462075 0 -0.15086427964278501 -0.086519556748622176 0 -0.16730086034246211 -0.081795244722262239 0 -0.1618726483907981 -0.080943968323375054 0 -0.15086427964278501 -0.086519556748622176 0 -0.1754485149938988 -0.093297161898058381 0 -0.16730086034246211 -0.081795244722262239 0 -0.16148845420001881 -0.091349065989462075 0 -0.16730086034246211 -0.081795244722262239 0 -0.16148845420001881 -0.091349065989462075 0 -0.1710660263694003 -0.075606461216561713 0 -0.1687133282451507 -0.079473578693202387 0 -0.1618726483907981 -0.080943968323375054 0 -0.17542595242637199 -0.078177631241474574 0 -0.1687133282451507 -0.079473578693202387 0 -0.16730086034246211 -0.081795244722262239 0 -0.1687133282451507 -0.079473578693202387 0 -0.16730086034246211 -0.081795244722262239 0 -0.16730086034246211 -0.081795244722262239 0 -0.1618726483907981 -0.080943968323375054 0 -0.1687133282451507 -0.079473578693202387 0 -0.1618726483907981 -0.080943968323375054 0 -0.1687133282451507 -0.079473578693202387 0 -0.16730086034246211 -0.081795244722262239 0 -0.1618726483907981 -0.080943968323375054 0 -0.16148845420001881 -0.091349065989462075 0 -0.15086427964278501 -0.086519556748622176 0 -0.14758723569600629 -0.096865398721705756 0 -0.1618726483907981 -0.080943968323375054 0 -0.15086427964278501 -0.086519556748622176 0 -0.140761781760737 -0.077633268099755876 0 -0.1618726483907981 -0.080943968323375054 0 -0.140761781760737 -0.077633268099755876 0 -0.15086427964278501 -0.086519556748622176 0 -0.14261933509966351 -0.082758883688786478 0 -0.140761781760737 -0.077633268099755876 0 -0.14261933509966351 -0.082758883688786478 0 -0.140761781760737 -0.077633268099755876 0 -0.15086427964278501 -0.086519556748622176 0 -0.14261933509966351 -0.082758883688786478 0 -0.14488103531096641 -0.089220910044464613 0 -0.14261933509966351 -0.082758883688786478 0 -0.14488103531096641 -0.089220910044464613 0 -0.13845329080541091 -0.090739801018744085 0 -0.15086427964278501 -0.086519556748622176 0 -0.14488103531096641 -0.089220910044464613 0 -0.14758723569600629 -0.096865398721705756 0 -0.14488103531096641 -0.089220910044464613 0 -0.13845329080541091 -0.090739801018744085 0 -0.14758723569600629 -0.096865398721705756 0 -0.1618726483907981 -0.080943968323375054 0 -0.14882992095385289 -0.07462467747704081 0 -0.140761781760737 -0.077633268099755876 0 -0.1572559069534043 -0.067462248535222535 0 -0.14872051312124379 -0.068855460221435197 0 -0.15381040672582261 -0.073183423921576299 0 -0.1572559069534043 -0.067462248535222535 0 -0.14872051312124379 -0.068855460221435197 0 -0.1434457875374075 -0.059318035853884878 0 -0.1572559069534043 -0.067462248535222535 0 -0.1434457875374075 -0.059318035853884878 0 -0.1618726483907981 -0.080943968323375054 0 -0.15381040672582261 -0.073183423921576299 0 -0.14882992095385289 -0.07462467747704081 0 -0.14872051312124379 -0.068855460221435197 0 -0.15381040672582261 -0.073183423921576299 0 -0.14882992095385289 -0.07462467747704081 0 -0.14882992095385289 -0.07462467747704081 0 -0.140761781760737 -0.077633268099755876 0 -0.13896004199301371 -0.072661660960836441 0 -0.14872051312124379 -0.068855460221435197 0 -0.14882992095385289 -0.07462467747704081 0 -0.13896004199301371 -0.072661660960836441 0 -0.14872051312124379 -0.068855460221435197 0 -0.13896004199301371 -0.072661660960836441 0 -0.14872051312124379 -0.068855460221435197 0 -0.14074554681517781 -0.063473485890585518 0 -0.1434457875374075 -0.059318035853884878 0 -0.14872051312124379 -0.068855460221435197 0 -0.14074554681517781 -0.063473485890585518 0 -0.13896004199301371 -0.072661660960836441 0 -0.1236295906840658 -0.065414749250661236 0 -0.13896004199301371 -0.072661660960836441 0 -0.13185584460904631 -0.053058786526185557 0 -0.13896004199301371 -0.072661660960836441 0 -0.13185584460904631 -0.053058786526185557 0 -0.14074554681517781 -0.063473485890585518 0 -0.13896004199301371 -0.072661660960836441 0 -0.13185584460904631 -0.053058786526185557 0 -0.140761781760737 -0.077633268099755876 0 -0.13038437074479181 -0.076005836238556057 0 -0.13896004199301371 -0.072661660960836441 0 -0.13038437074479181 -0.076005836238556057 0 -0.140761781760737 -0.077633268099755876 0 -0.13896004199301371 -0.072661660960836441 0 -0.13038437074479181 -0.076005836238556057 0 -0.140761781760737 -0.077633268099755876 0 -0.13896004199301371 -0.072661660960836441 0 -0.1236295906840658 -0.065414749250661236 0 -0.13896004199301371 -0.072661660960836441 0 -0.13038437074479181 -0.076005836238556057 0 -0.13845329080541091 -0.090739801018744085 0 -0.1361553754103933 -0.082314778560356572 0 -0.13115371716119459 -0.087080291232536494 0 -0.14261933509966351 -0.082758883688786478 0 -0.13845329080541091 -0.090739801018744085 0 -0.1361553754103933 -0.082314778560356572 0 -0.140761781760737 -0.077633268099755876 0 -0.13038437074479181 -0.076005836238556057 0 -0.1361553754103933 -0.082314778560356572 0 -0.14261933509966351 -0.082758883688786478 0 -0.140761781760737 -0.077633268099755876 0 -0.1361553754103933 -0.082314778560356572 0 -0.1210610733193667 -0.090921918861455023 0 -0.13038437074479181 -0.076005836238556057 0 -0.13115371716119459 -0.087080291232536494 0 -0.13038437074479181 -0.076005836238556057 0 -0.1361553754103933 -0.082314778560356572 0 -0.13115371716119459 -0.087080291232536494 0 -0.13845329080541091 -0.090739801018744085 0 -0.13115371716119459 -0.087080291232536494 0 -0.12838165174081231 -0.096915342677769994 0 -0.1210610733193667 -0.090921918861455023 0 -0.13115371716119459 -0.087080291232536494 0 -0.12838165174081231 -0.096915342677769994 0 -0.13845329080541091 -0.090739801018744085 0 -0.1356029041876648 -0.10581244298265 0 -0.14758723569600629 -0.096865398721705756 0 -0.13845329080541091 -0.090739801018744085 0 -0.12838165174081231 -0.096915342677769994 0 -0.1356029041876648 -0.10581244298265 0 -0.1247589529873689 -0.1193319215051903 0 -0.1356029041876648 -0.10581244298265 0 -0.14893166532055069 -0.1137621840903265 0 -0.1247589529873689 -0.1193319215051903 0 -0.14820044177604541 -0.1281571168856622 0 -0.14893166532055069 -0.1137621840903265 0 -0.14820044177604541 -0.1281571168856622 0 -0.16250662366085711 -0.1185952451931863 0 -0.14893166532055069 -0.1137621840903265 0 -0.16110311314180051 -0.10479456941547 0 -0.1356029041876648 -0.10581244298265 0 -0.16110311314180051 -0.10479456941547 0 -0.1356029041876648 -0.10581244298265 0 -0.14758723569600629 -0.096865398721705756 0 -0.16110311314180051 -0.10479456941547 0 -0.1356029041876648 -0.10581244298265 0 -0.14893166532055069 -0.1137621840903265 0 -0.14358266213150489 -0.02843637399512329 0 -0.15563065601751849 -0.017209070785198739 0 -0.15643813379250829 -0.034416267856934663 0 -0.14358266213150489 -0.02843637399512329 0 -0.15563065601751849 -0.017209070785198739 0 -0.1368713473976361 -0.01376384135295897 0 -0.15563065601751849 -0.017209070785198739 0 -0.1368713473976361 -0.01376384135295897 0 -0.14738187898061639 0.0050318030858907794 0 -0.15563065601751849 -0.017209070785198739 0 -0.1649960424305798 -0.0013444332500506589 0 -0.14738187898061639 0.0050318030858907794 0 -0.13185606356650309 -0.00067556194706120819 0 -0.1368713473976361 -0.01376384135295897 0 -0.14738187898061639 0.0050318030858907794 0 -0.11764744984111131 -0.013853037656883751 0 -0.13185606356650309 -0.00067556194706120819 0 -0.1368713473976361 -0.01376384135295897 0 -0.12475164722507889 -0.033455912091534618 0 -0.14358266213150489 -0.02843637399512329 0 -0.1368713473976361 -0.01376384135295897 0 -0.12475164722507889 -0.033455912091534618 0 -0.11764744984111131 -0.013853037656883751 0 -0.1368713473976361 -0.01376384135295897 0 -0.12475164722507889 -0.033455912091534618 0 -0.14358266213150489 -0.02843637399512329 0 -0.14462690005238821 -0.044139329528078197 0 -0.12475164722507889 -0.033455912091534618 0 -0.13185584460904631 -0.053058786526185557 0 -0.12475164722507889 -0.033455912091534618 0 -0.13185584460904631 -0.053058786526185557 0 -0.14462690005238821 -0.044139329528078197 0 -0.13185584460904631 -0.053058786526185557 0 -0.1434457875374075 -0.059318035853884878 0 -0.14462690005238821 -0.044139329528078197 0 -0.14074554681517781 -0.063473485890585518 0 -0.13185584460904631 -0.053058786526185557 0 -0.1434457875374075 -0.059318035853884878 0 -0.15417653881640489 -0.056417581413079447 0 -0.14462690005238821 -0.044139329528078197 0 -0.16031888698752489 -0.047005087109959223 0 -0.1434457875374075 -0.059318035853884878 0 -0.15417653881640489 -0.056417581413079447 0 -0.14462690005238821 -0.044139329528078197 0 -0.1572559069534043 -0.067462248535222535 0 -0.1434457875374075 -0.059318035853884878 0 -0.15417653881640489 -0.056417581413079447 0 -0.14462690005238821 -0.044139329528078197 0 -0.15643813379250829 -0.034416267856934663 0 -0.16031888698752489 -0.047005087109959223 0 -0.14358266213150489 -0.02843637399512329 0 -0.14462690005238821 -0.044139329528078197 0 -0.15643813379250829 -0.034416267856934663 0 -0.15643813379250829 -0.034416267856934663 0 -0.1696337454181549 -0.038002114069643739 0 -0.16031888698752489 -0.047005087109959223 0 -0.1696337454181549 -0.038002114069643739 0 -0.16031888698752489 -0.047005087109959223 0 -0.17045601678382291 -0.048277338671521529 0 -0.15643813379250829 -0.034416267856934663 0 -0.1696337454181549 -0.038002114069643739 0 -0.16826750378216279 -0.0273174898715817 0 -0.16795871172158591 -0.065782447586673704 0 -0.1649445784972505 -0.05776023841684548 0 -0.1810019857113119 -0.059274777341667889 0 -0.1572559069534043 -0.067462248535222535 0 -0.15417653881640489 -0.056417581413079447 0 -0.1649445784972505 -0.05776023841684548 0 -0.15417653881640489 -0.056417581413079447 0 -0.16031888698752489 -0.047005087109959223 0 -0.1649445784972505 -0.05776023841684548 0 -0.16031888698752489 -0.047005087109959223 0 -0.17045601678382291 -0.048277338671521529 0 -0.1649445784972505 -0.05776023841684548 0 -0.1810019857113119 -0.059274777341667889 0 -0.17945558940118561 -0.0424965762794835 0 -0.1909379450532224 -0.04294309346677333 0 -0.17045601678382291 -0.048277338671521529 0 -0.1649445784972505 -0.05776023841684548 0 -0.1810019857113119 -0.059274777341667889 0 -0.1810019857113119 -0.059274777341667889 0 -0.1909379450532224 -0.04294309346677333 0 -0.17045601678382291 -0.048277338671521529 0 -0.1810019857113119 -0.059274777341667889 0 -0.17945558940118561 -0.0424965762794835 0 -0.1696337454181549 -0.038002114069643739 0 -0.18286634176172509 -0.028499924628381839 0 -0.16826750378216279 -0.0273174898715817 0 -0.1696337454181549 -0.038002114069643739 0 -0.17945558940118561 -0.0424965762794835 0 -0.18286634176172509 -0.028499924628381839 0 -0.1696337454181549 -0.038002114069643739 0 -0.17045601678382291 -0.048277338671521529 0 -0.17945558940118561 -0.0424965762794835 0 -0.17945558940118561 -0.0424965762794835 0 -0.1909379450532224 -0.04294309346677333 0 -0.17945558940118561 -0.0424965762794835 0 -0.18286634176172509 -0.028499924628381839 0 -0.1909379450532224 -0.04294309346677333 0 -0.18286634176172509 -0.028499924628381839 0 -0.1747174137839857 -0.013989881529586501 0 -0.19159911500729959 -0.0090173167708576182 0 -0.18286634176172509 -0.028499924628381839 0 -0.16826750378216279 -0.0273174898715817 0 -0.1747174137839857 -0.013989881529586501 0 -0.15563065601751849 -0.017209070785198739 0 -0.15643813379250829 -0.034416267856934663 0 -0.16826750378216279 -0.0273174898715817 0 -0.15563065601751849 -0.017209070785198739 0 -0.16826750378216279 -0.0273174898715817 0 -0.1747174137839857 -0.013989881529586501 0 -0.15563065601751849 -0.017209070785198739 0 -0.1649960424305798 -0.0013444332500506589 0 -0.1747174137839857 -0.013989881529586501 0 -0.1649960424305798 -0.0013444332500506589 0 -0.1747174137839857 -0.013989881529586501 0 -0.18032818442133461 0.0030944576768450671 0 -0.1747174137839857 -0.013989881529586501 0 -0.19159911500729959 -0.0090173167708576182 0 -0.18032818442133461 0.0030944576768450671 0 -0.19159911500729959 -0.0090173167708576182 0 -0.20221915323356951 -0.024400231183600411 0 -0.20803845558677481 0.00032958680966351309 0 -0.18286634176172509 -0.028499924628381839 0 -0.19159911500729959 -0.0090173167708576182 0 -0.20221915323356951 -0.024400231183600411 0 -0.20221915323356951 -0.024400231183600411 0 -0.2182832628110612 -0.02409044135282308 0 -0.21606949445719531 -0.043920390207273549 0 -0.20221915323356951 -0.024400231183600411 0 -0.2182832628110612 -0.02409044135282308 0 -0.20803845558677481 0.00032958680966351309 0 -0.2182832628110612 -0.02409044135282308 0 -0.2297161767028757 -0.01276427073918516 0 -0.20803845558677481 0.00032958680966351309 0 -0.1974703084310688 -0.055644633873762582 0 -0.1909379450532224 -0.04294309346677333 0 -0.21606949445719531 -0.043920390207273549 0 -0.1810019857113119 -0.059274777341667889 0 -0.1974703084310688 -0.055644633873762582 0 -0.1909379450532224 -0.04294309346677333 0 -0.18286634176172509 -0.028499924628381839 0 -0.20221915323356951 -0.024400231183600411 0 -0.1909379450532224 -0.04294309346677333 0 -0.20221915323356951 -0.024400231183600411 0 -0.1909379450532224 -0.04294309346677333 0 -0.20221915323356951 -0.024400231183600411 0 -0.1909379450532224 -0.04294309346677333 0 -0.21606949445719531 -0.043920390207273549 0 -0.1909379450532224 -0.04294309346677333 0 -0.21606949445719531 -0.043920390207273549 0 -0.2297380873970678 -0.067692063896601512 0 -0.2025820199117199 -0.072934847569037675 0 -0.21606949445719531 -0.043920390207273549 0 -0.2025820199117199 -0.072934847569037675 0 -0.1974703084310688 -0.055644633873762582 0 -0.21606949445719531 -0.043920390207273549 0 -0.2297380873970678 -0.067692063896601512 0 -0.21606949445719531 -0.043920390207273549 0 -0.2412010438611682 -0.04489768694777669 0 -0.2182832628110612 -0.02409044135282308 0 -0.21606949445719531 -0.043920390207273549 0 -0.2347614667351636 -0.032959987100867033 0 -0.21606949445719531 -0.043920390207273549 0 -0.2412010438611682 -0.04489768694777669 0 -0.21606949445719531 -0.043920390207273549 0 -0.2347614667351636 -0.032959987100867033 0 -0.2412010438611682 -0.04489768694777669 0 -0.2440858056658213 -0.034863944644476473 0 -0.24774098130548611 -0.045152007103079442 0 -0.25139389781897659 -0.025858128288033862 0 -0.24774098130548611 -0.045152007103079442 0 -0.25139389781897659 -0.025858128288033862 0 -0.2347614667351636 -0.032959987100867033 0 -0.2440858056658213 -0.034863944644476473 0 -0.24221421249563549 -0.042882975661112668 0 -0.2440858056658213 -0.034863944644476473 0 -0.24221421249563549 -0.042882975661112668 0 -0.24774098130548611 -0.045152007103079442 0 -0.24774098130548611 -0.045152007103079442 0 -0.2412010438611682 -0.04489768694777669 0 -0.24221421249563549 -0.042882975661112668 0 -0.24774098130548611 -0.045152007103079442 0 -0.2412010438611682 -0.04489768694777669 0 -0.2347614667351636 -0.032959987100867033 0 -0.24221421249563549 -0.042882975661112668 0 -0.2412010438611682 -0.04489768694777669 0 -0.24221421249563549 -0.042882975661112668 0 -0.2412010438611682 -0.04489768694777669 0 -0.2439945728241126 -0.064939689346654811 0 -0.24774098130548611 -0.045152007103079442 0 -0.2439945728241126 -0.064939689346654811 0 -0.24774098130548611 -0.045152007103079442 0 -0.25572573773316237 -0.053227125558533442 0 -0.2439945728241126 -0.064939689346654811 0 -0.24774098130548611 -0.045152007103079442 0 -0.2412010438611682 -0.04489768694777669 0 -0.2297380873970678 -0.067692063896601512 0 -0.2412010438611682 -0.04489768694777669 0 -0.2439945728241126 -0.064939689346654811 0 -0.2297380873970678 -0.067692063896601512 0 -0.2412010438611682 -0.04489768694777669 0 -0.2297161767028757 -0.01276427073918516 0 -0.20803845558677481 0.00032958680966351309 0 -0.22774142163249911 0.0091431922092035378 0 -0.2297161767028757 -0.01276427073918516 0 -0.20803845558677481 0.00032958680966351309 0 -0.2297161767028757 -0.01276427073918516 0 -0.24204198335637811 -0.0026304284190125991 0 -0.22774142163249911 0.0091431922092035378 0 -0.2182832628110612 -0.02409044135282308 0 -0.2347614667351636 -0.032959987100867033 0 -0.2297161767028757 -0.01276427073918516 0 -0.2347614667351636 -0.032959987100867033 0 -0.2440858056658213 -0.034863944644476473 0 -0.25139389781897659 -0.025858128288033862 0 -0.2297161767028757 -0.01276427073918516 0 -0.25139389781897659 -0.025858128288033862 0 -0.2347614667351636 -0.032959987100867033 0 -0.2297161767028757 -0.01276427073918516 0 -0.25139389781897659 -0.025858128288033862 0 -0.2297161767028757 -0.01276427073918516 0 -0.24204198335637811 -0.0026304284190125991 0 -0.25139389781897659 -0.025858128288033862 0 -0.24204198335637811 -0.0026304284190125991 0 -0.25139389781897659 -0.025858128288033862 0 -0.25689548211398672 0.003199995621086429 0 -0.25139389781897659 -0.025858128288033862 0 -0.26984759387636559 -0.014041463527519501 0 -0.25689548211398672 0.003199995621086429 0 -0.25139389781897659 -0.025858128288033862 0 -0.25689548211398672 0.003199995621086429 0 -0.25139389781897659 -0.025858128288033862 0 -0.26675773112962292 -0.02552373069298047 0 -0.26727750325299909 -0.035452202582159593 0 -0.25139389781897659 -0.025858128288033862 0 -0.26727750325299909 -0.035452202582159593 0 -0.25139389781897659 -0.025858128288033862 0 -0.26675773112962292 -0.02552373069298047 0 -0.26984759387636559 -0.014041463527519501 0 -0.27851192957014997 -0.026743128374208891 0 -0.26984759387636559 -0.014041463527519501 0 -0.28864607908777817 -0.013410858519567959 0 -0.26675773112962292 -0.02552373069298047 0 -0.27851192957014997 -0.026743128374208891 0 -0.26727750325299909 -0.035452202582159593 0 -0.26675773112962292 -0.02552373069298047 0 -0.27851192957014997 -0.026743128374208891 0 -0.26984759387636559 -0.014041463527519501 0 -0.27990087635976602 -0.003018000538219144 0 -0.26984759387636559 -0.014041463527519501 0 -0.28864607908777817 -0.013410858519567959 0 -0.27990087635976602 -0.003018000538219144 0 -0.26984759387636559 -0.014041463527519501 0 -0.25689548211398672 0.003199995621086429 0 -0.28864607908777817 -0.013410858519567959 0 -0.3032781762320706 -0.0097023071216711578 0 -0.29743804133862511 0.003483344366603097 0 -0.27990087635976602 -0.003018000538219144 0 -0.28864607908777817 -0.013410858519567959 0 -0.29743804133862511 0.003483344366603097 0 -0.27851192957014997 -0.026743128374208891 0 -0.28864607908777817 -0.013410858519567959 0 -0.29885231162422943 -0.028394401401333209 0 -0.29885231162422943 -0.028394401401333209 0 -0.3032781762320706 -0.0097023071216711578 0 -0.31352446129195483 -0.018778397937512389 0 -0.29885231162422943 -0.028394401401333209 0 -0.31352446129195483 -0.018778397937512389 0 -0.31965502108147442 -0.035426996869095777 0 -0.28864607908777817 -0.013410858519567959 0 -0.29885231162422943 -0.028394401401333209 0 -0.3032781762320706 -0.0097023071216711578 0 -0.3032781762320706 -0.0097023071216711578 0 -0.31747393394203732 -0.001863909567955442 0 -0.29743804133862511 0.003483344366603097 0 -0.3032781762320706 -0.0097023071216711578 0 -0.31747393394203732 -0.001863909567955442 0 -0.31352446129195483 -0.018778397937512389 0 -0.30268311159776867 -0.051358972544276273 0 -0.29704198669421772 -0.07108551390525536 0 -0.32085389399589009 -0.060148233214039018 0 -0.29885231162422943 -0.028394401401333209 0 -0.30268311159776867 -0.051358972544276273 0 -0.31965502108147442 -0.035426996869095777 0 -0.27851192957014997 -0.026743128374208891 0 -0.29885231162422943 -0.028394401401333209 0 -0.28316110868702171 -0.045046276876285332 0 -0.29885231162422943 -0.028394401401333209 0 -0.30268311159776867 -0.051358972544276273 0 -0.28316110868702171 -0.045046276876285332 0 -0.30268311159776867 -0.051358972544276273 0 -0.28316110868702171 -0.045046276876285332 0 -0.2855689324071588 -0.060482121324474732 0 -0.30268311159776867 -0.051358972544276273 0 -0.2855689324071588 -0.060482121324474732 0 -0.29704198669421772 -0.07108551390525536 0 -0.2855689324071588 -0.060482121324474732 0 -0.27330184580748867 -0.049790191914642588 0 -0.26999151135174121 -0.059296009121439557 0 -0.28316110868702171 -0.045046276876285332 0 -0.2855689324071588 -0.060482121324474732 0 -0.27330184580748867 -0.049790191914642588 0 -0.27330184580748867 -0.049790191914642588 0 -0.26999151135174121 -0.059296009121439557 0 -0.26370898028782003 -0.05399611679630615 0 -0.27330184580748867 -0.049790191914642588 0 -0.26423017741157101 -0.045793226526082587 0 -0.26370898028782003 -0.05399611679630615 0 -0.28316110868702171 -0.045046276876285332 0 -0.27330184580748867 -0.049790191914642588 0 -0.26727750325299909 -0.035452202582159593 0 -0.28316110868702171 -0.045046276876285332 0 -0.26727750325299909 -0.035452202582159593 0 -0.27851192957014997 -0.026743128374208891 0 -0.28316110868702171 -0.045046276876285332 0 -0.26727750325299909 -0.035452202582159593 0 -0.27330184580748867 -0.049790191914642588 0 -0.26727750325299909 -0.035452202582159593 0 -0.26423017741157101 -0.045793226526082587 0 -0.24774098130548611 -0.045152007103079442 0 -0.26423017741157101 -0.045793226526082587 0 -0.25139389781897659 -0.025858128288033862 0 -0.26727750325299909 -0.035452202582159593 0 -0.25678487252697929 -0.037916338356032801 0 -0.24774098130548611 -0.045152007103079442 0 -0.26423017741157101 -0.045793226526082587 0 -0.25678487252697929 -0.037916338356032801 0 -0.24774098130548611 -0.045152007103079442 0 -0.25139389781897659 -0.025858128288033862 0 -0.25678487252697929 -0.037916338356032801 0 -0.26727750325299909 -0.035452202582159593 0 -0.26423017741157101 -0.045793226526082587 0 -0.25678487252697929 -0.037916338356032801 0 -0.24774098130548611 -0.045152007103079442 0 -0.26423017741157101 -0.045793226526082587 0 -0.25572573773316237 -0.053227125558533442 0 -0.25892856322235341 -0.062056514856587801 0 -0.26370898028782003 -0.05399611679630615 0 -0.25572573773316237 -0.053227125558533442 0 -0.26999151135174121 -0.059296009121439557 0 -0.25892856322235341 -0.062056514856587801 0 -0.26370898028782003 -0.05399611679630615 0 -0.26423017741157101 -0.045793226526082587 0 -0.26370898028782003 -0.05399611679630615 0 -0.25572573773316237 -0.053227125558533442 0 -0.2439945728241126 -0.064939689346654811 0 -0.25892856322235341 -0.062056514856587801 0 -0.25572573773316237 -0.053227125558533442 0 -0.25892856322235341 -0.062056514856587801 0 -0.25311922496262851 -0.076102733709373191 0 -0.2708571129416012 -0.084689668633171261 0 -0.2439945728241126 -0.064939689346654811 0 -0.25892856322235341 -0.062056514856587801 0 -0.25311922496262851 -0.076102733709373191 0 -0.2439945728241126 -0.064939689346654811 0 -0.25892856322235341 -0.062056514856587801 0 -0.25311922496262851 -0.076102733709373191 0 -0.25043698654984042 -0.09007265746859866 0 -0.2708571129416012 -0.084689668633171261 0 -0.25043698654984042 -0.09007265746859866 0 -0.2708571129416012 -0.084689668633171261 0 -0.25943706990829662 -0.10077879803539221 0 -0.2855689324071588 -0.060482121324474732 0 -0.26999151135174121 -0.059296009121439557 0 -0.2708571129416012 -0.084689668633171261 0 -0.26999151135174121 -0.059296009121439557 0 -0.25892856322235341 -0.062056514856587801 0 -0.2708571129416012 -0.084689668633171261 0 -0.26999151135174121 -0.059296009121439557 0 -0.2708571129416012 -0.084689668633171261 0 -0.25704994899653738 -0.1129371750871289 0 -0.27172271453146107 -0.110083328144903 0 -0.25924093494536249 -0.12760566462448369 0 -0.24589355376940389 -0.1197343415923325 0 -0.25704994899653738 -0.1129371750871289 0 -0.25924093494536249 -0.12760566462448369 0 -0.24589355376940389 -0.1197343415923325 0 -0.25924093494536249 -0.12760566462448369 0 -0.24589355376940389 -0.1197343415923325 0 -0.2471185865220428 -0.10611116084315959 0 -0.25704994899653738 -0.1129371750871289 0 -0.2471185865220428 -0.10611116084315959 0 -0.25043698654984042 -0.09007265746859866 0 -0.25943706990829662 -0.10077879803539221 0 -0.25704994899653738 -0.1129371750871289 0 -0.25943706990829662 -0.10077879803539221 0 -0.27172271453146107 -0.110083328144903 0 -0.2471185865220428 -0.10611116084315959 0 -0.25704994899653738 -0.1129371750871289 0 -0.25943706990829662 -0.10077879803539221 0 -0.2708571129416012 -0.084689668633171261 0 -0.25943706990829662 -0.10077879803539221 0 -0.27172271453146107 -0.110083328144903 0 -0.2708571129416012 -0.084689668633171261 0 -0.27172271453146107 -0.110083328144903 0 -0.2708571129416012 -0.084689668633171261 0 -0.27172271453146107 -0.110083328144903 0 -0.28672673625944589 -0.1021220064600224 0 -0.27172271453146107 -0.110083328144903 0 -0.27258831612132128 -0.13547698765663471 0 -0.27172271453146107 -0.110083328144903 0 -0.25924093494536249 -0.12760566462448369 0 -0.27258831612132128 -0.13547698765663471 0 -0.27172271453146107 -0.110083328144903 0 -0.28691958767254833 -0.1243973353974567 0 -0.27258831612132128 -0.13547698765663471 0 -0.28691958767254833 -0.1243973353974567 0 -0.28672673625944589 -0.1021220064600224 0 -0.30088212174597012 -0.1161029123977744 0 -0.27172271453146107 -0.110083328144903 0 -0.28691958767254833 -0.1243973353974567 0 -0.28672673625944589 -0.1021220064600224 0 -0.28672673625944589 -0.1021220064600224 0 -0.30088212174597012 -0.1161029123977744 0 -0.3026482693622623 -0.093063435996171007 0 -0.30088212174597012 -0.1161029123977744 0 -0.3026482693622623 -0.093063435996171007 0 -0.31697768559104722 -0.10979650810583511 0 -0.30088212174597012 -0.1161029123977744 0 -0.31697768559104722 -0.10979650810583511 0 -0.31337406678903817 -0.12870181871927189 0 -0.2855689324071588 -0.060482121324474732 0 -0.2708571129416012 -0.084689668633171261 0 -0.28856860753293723 -0.082288549263818955 0 -0.2855689324071588 -0.060482121324474732 0 -0.28856860753293723 -0.082288549263818955 0 -0.29704198669421772 -0.07108551390525536 0 -0.28672673625944589 -0.1021220064600224 0 -0.28856860753293723 -0.082288549263818955 0 -0.3026482693622623 -0.093063435996171007 0 -0.2708571129416012 -0.084689668633171261 0 -0.28672673625944589 -0.1021220064600224 0 -0.28856860753293723 -0.082288549263818955 0 -0.28856860753293723 -0.082288549263818955 0 -0.3026482693622623 -0.093063435996171007 0 -0.29704198669421772 -0.07108551390525536 0 -0.3026482693622623 -0.093063435996171007 0 -0.29704198669421772 -0.07108551390525536 0 -0.31385725052879498 -0.077435565373216539 0 -0.29704198669421772 -0.07108551390525536 0 -0.31385725052879498 -0.077435565373216539 0 -0.32085389399589009 -0.060148233214039018 0 -0.31385725052879498 -0.077435565373216539 0 -0.32952678568074212 -0.073362134767917184 0 -0.32085389399589009 -0.060148233214039018 0 -0.3026482693622623 -0.093063435996171007 0 -0.31385725052879498 -0.077435565373216539 0 -0.32328085854762778 -0.088614874437333235 0 -0.31385725052879498 -0.077435565373216539 0 -0.32328085854762778 -0.088614874437333235 0 -0.32952678568074212 -0.073362134767917184 0 -0.32328085854762778 -0.088614874437333235 0 -0.34124845310711172 -0.082541008824658355 0 -0.32952678568074212 -0.073362134767917184 0 -0.32328085854762778 -0.088614874437333235 0 -0.34124845310711172 -0.082541008824658355 0 -0.33410343398993619 -0.1070110256589776 0 -0.32952678568074212 -0.073362134767917184 0 -0.34839347222428613 -0.058070991990338737 0 -0.32085389399589009 -0.060148233214039018 0 -0.34124845310711172 -0.082541008824658355 0 -0.32952678568074212 -0.073362134767917184 0 -0.34839347222428613 -0.058070991990338737 0 -0.31697768559104722 -0.10979650810583511 0 -0.32776596992639673 -0.12871535559547581 0 -0.31337406678903817 -0.12870181871927189 0 -0.31697768559104722 -0.10979650810583511 0 -0.33410343398993619 -0.1070110256589776 0 -0.32776596992639673 -0.12871535559547581 0 -0.3026482693622623 -0.093063435996171007 0 -0.32328085854762778 -0.088614874437333235 0 -0.31697768559104722 -0.10979650810583511 0 -0.32328085854762778 -0.088614874437333235 0 -0.31697768559104722 -0.10979650810583511 0 -0.33410343398993619 -0.1070110256589776 0 -0.34124845310711172 -0.082541008824658355 0 -0.33410343398993619 -0.1070110256589776 0 -0.34124845310711172 -0.082541008824658355 0 -0.33410343398993619 -0.1070110256589776 0 -0.34672362387192951 -0.097417856408277576 0 -0.32328085854762778 -0.088614874437333235 0 -0.33410343398993619 -0.1070110256589776 0 -0.33410343398993619 -0.1070110256589776 0 -0.32776596992639673 -0.12871535559547581 0 -0.34828425737083929 -0.13111550732816921 0 -0.33410343398993619 -0.1070110256589776 0 -0.32776596992639673 -0.12871535559547581 0 -0.33410343398993619 -0.1070110256589776 0 -0.34828425737083929 -0.13111550732816921 0 -0.35474955368110678 -0.1110883552882854 0 -0.37069913304914098 -0.1193632437614618 0 -0.34828425737083929 -0.13111550732816921 0 -0.33410343398993619 -0.1070110256589776 0 -0.35474955368110678 -0.1110883552882854 0 -0.34828425737083929 -0.13111550732816921 0 -0.33410343398993619 -0.1070110256589776 0 -0.35474955368110678 -0.1110883552882854 0 -0.34672362387192951 -0.097417856408277576 0 -0.35474955368110678 -0.1110883552882854 0 -0.34672362387192951 -0.097417856408277576 0 -0.36915259797164529 -0.090060442986693245 0 -0.35474955368110678 -0.1110883552882854 0 -0.37069913304914098 -0.1193632437614618 0 -0.36915259797164529 -0.090060442986693245 0 -0.34124845310711172 -0.082541008824658355 0 -0.34839347222428613 -0.058070991990338737 0 -0.34124845310711172 -0.082541008824658355 0 -0.35668696764917701 -0.075630806224267808 0 -0.34839347222428613 -0.058070991990338737 0 -0.35668696764917701 -0.075630806224267808 0 -0.37298475090107491 -0.064843214874260341 0 -0.34839347222428613 -0.058070991990338737 0 -0.34124845310711172 -0.082541008824658355 0 -0.34672362387192951 -0.097417856408277576 0 -0.35668696764917701 -0.075630806224267808 0 -0.34672362387192951 -0.097417856408277576 0 -0.35668696764917701 -0.075630806224267808 0 -0.36915259797164529 -0.090060442986693245 0 -0.35668696764917701 -0.075630806224267808 0 -0.36915259797164529 -0.090060442986693245 0 -0.37298475090107491 -0.064843214874260341 0 -0.37298475090107491 -0.064843214874260341 0 -0.36852919634310399 -0.047257105603825837 0 -0.34839347222428613 -0.058070991990338737 0 -0.34839347222428613 -0.058070991990338737 0 -0.35553849134146043 -0.033600975156019279 0 -0.34839347222428613 -0.058070991990338737 0 -0.35553849134146043 -0.033600975156019279 0 -0.33645411096473232 -0.042906284237312048 0 -0.36852919634310399 -0.047257105603825837 0 -0.34839347222428613 -0.058070991990338737 0 -0.35553849134146043 -0.033600975156019279 0 -0.36852919634310399 -0.047257105603825837 0 -0.35553849134146043 -0.033600975156019279 0 -0.37619206704044378 -0.03054928226226088 0 -0.35553849134146043 -0.033600975156019279 0 -0.36268351045863201 -0.0091309583216990682 0 -0.37619206704044378 -0.03054928226226088 0 -0.36268351045863201 -0.0091309583216990682 0 -0.38509976353395808 -0.012849838875288179 0 -0.37619206704044378 -0.03054928226226088 0 -0.36268351045863201 -0.0091309583216990682 0 -0.38509976353395808 -0.012849838875288179 0 -0.37627368421505869 -0.0010685545029741181 0 -0.36268351045863201 -0.0091309583216990682 0 -0.38509976353395808 -0.012849838875288179 0 -0.36268351045863201 -0.0091309583216990682 0 -0.34463919580281849 -0.0061373870655722172 0 -0.36268351045863201 -0.0091309583216990682 0 -0.34463919580281849 -0.0061373870655722172 0 -0.35332273029837558 0.00088249528103173278 0 -0.36268351045863201 -0.0091309583216990682 0 -0.34463919580281849 -0.0061373870655722172 0 -0.3477260740399486 -0.018112541677388919 0 -0.36268351045863201 -0.0091309583216990682 0 -0.35332273029837558 0.00088249528103173278 0 -0.35978811967700752 0.0064522657015292717 0 -0.34463919580281849 -0.0061373870655722172 0 -0.35332273029837558 0.00088249528103173278 0 -0.34726460473325371 0.0047143686437314822 0 -0.35553849134146043 -0.033600975156019279 0 -0.36268351045863201 -0.0091309583216990682 0 -0.35553849134146043 -0.033600975156019279 0 -0.36268351045863201 -0.0091309583216990682 0 -0.3477260740399486 -0.018112541677388919 0 -0.35553849134146043 -0.033600975156019279 0 -0.3477260740399486 -0.018112541677388919 0 -0.33782967618055049 -0.02728422395706737 0 -0.3477260740399486 -0.018112541677388919 0 -0.33782967618055049 -0.02728422395706737 0 -0.3378903018471634 -0.014739590961638949 0 -0.33782967618055049 -0.02728422395706737 0 -0.3378903018471634 -0.014739590961638949 0 -0.3266449523055181 -0.016969946119117538 0 -0.34463919580281849 -0.0061373870655722172 0 -0.3326116109069811 -0.005193855989048729 0 -0.33994319695020792 0.0081901150208087414 0 -0.34463919580281849 -0.0061373870655722172 0 -0.3477260740399486 -0.018112541677388919 0 -0.3378903018471634 -0.014739590961638949 0 -0.34463919580281849 -0.0061373870655722172 0 -0.3378903018471634 -0.014739590961638949 0 -0.3326116109069811 -0.005193855989048729 0 -0.3378903018471634 -0.014739590961638949 0 -0.3326116109069811 -0.005193855989048729 0 -0.3266449523055181 -0.016969946119117538 0 -0.31747393394203732 -0.001863909567955442 0 -0.31352446129195483 -0.018778397937512389 0 -0.3266449523055181 -0.016969946119117538 0 -0.3326116109069811 -0.005193855989048729 0 -0.31747393394203732 -0.001863909567955442 0 -0.3266449523055181 -0.016969946119117538 0 -0.33782967618055049 -0.02728422395706737 0 -0.3266449523055181 -0.016969946119117538 0 -0.31965502108147442 -0.035426996869095777 0 -0.31352446129195483 -0.018778397937512389 0 -0.3266449523055181 -0.016969946119117538 0 -0.31965502108147442 -0.035426996869095777 0 -0.31965502108147442 -0.035426996869095777 0 -0.32085389399589009 -0.060148233214039018 0 -0.33645411096473232 -0.042906284237312048 0 -0.30268311159776867 -0.051358972544276273 0 -0.31965502108147442 -0.035426996869095777 0 -0.32085389399589009 -0.060148233214039018 0 -0.34839347222428613 -0.058070991990338737 0 -0.32085389399589009 -0.060148233214039018 0 -0.33645411096473232 -0.042906284237312048 0 -0.35553849134146043 -0.033600975156019279 0 -0.33782967618055049 -0.02728422395706737 0 -0.33645411096473232 -0.042906284237312048 0 -0.33782967618055049 -0.02728422395706737 0 -0.31965502108147442 -0.035426996869095777 0 -0.33645411096473232 -0.042906284237312048 0 -0.3085243477061943 -0.2292725517163873 0 -0.29369191903251463 -0.2475732242945802 0 -0.31524025484529539 -0.24633488066413101 0 -0.3085243477061943 -0.2292725517163873 0 -0.31524025484529539 -0.24633488066413101 0 -0.3085243477061943 -0.2292725517163873 0 -0.29268355817580632 -0.2303963642524004 0 -0.29369191903251463 -0.2475732242945802 0 -0.29369191903251463 -0.2475732242945802 0 -0.31524025484529539 -0.24633488066413101 0 -0.3085243477061943 -0.2292725517163873 0 -0.30180844056708989 -0.21221022276864501 0 -0.3085243477061943 -0.2292725517163873 0 -0.29716255850380452 -0.22126142711986721 0 -0.30180844056708989 -0.21221022276864501 0 -0.3085243477061943 -0.2292725517163873 0 -0.29716255850380452 -0.22126142711986721 0 -0.29268355817580632 -0.2303963642524004 0 -0.29716255850380452 -0.22126142711986721 0 -0.29268355817580632 -0.2303963642524004 0 -0.28922522440413762 -0.21489689667812911 0 -0.29268355817580632 -0.2303963642524004 0 -0.27910567481445547 -0.22392715143847061 0 -0.28922522440413762 -0.21489689667812911 0 -0.29268355817580632 -0.2303963642524004 0 -0.28148487981085663 -0.2364808600764359 0 -0.27910567481445547 -0.22392715143847061 0 -0.29268355817580632 -0.2303963642524004 0 -0.28148487981085663 -0.2364808600764359 0 -0.29369191903251463 -0.2475732242945802 0 -0.28148487981085663 -0.2364808600764359 0 -0.29369191903251463 -0.2475732242945802 0 -0.27214358321973381 -0.24881156792502829 0 -0.29369191903251463 -0.2475732242945802 0 -0.27214358321973381 -0.24881156792502829 0 -0.28148487981085663 -0.2364808600764359 0 -0.27214358321973381 -0.24881156792502829 0 -0.26979966381177273 -0.23169599247169989 0 -0.27214358321973381 -0.24881156792502829 0 -0.25745970649811001 -0.23572969511482039 0 -0.26979966381177273 -0.23169599247169989 0 -0.25059524740695288 -0.25004991155547401 0 -0.27214358321973381 -0.24881156792502829 0 -0.25745970649811001 -0.23572969511482039 0 -0.25059524740695288 -0.25004991155547401 0 -0.27214358321973381 -0.24881156792502829 0 -0.25059524740695288 -0.25004991155547401 0 -0.25745970649811001 -0.23572969511482039 0 -0.25059524740695288 -0.25004991155547401 0 -0.24552422698312379 -0.2457455520674697 0 -0.25745970649811001 -0.23572969511482039 0 -0.24642641019704661 -0.22247541380929459 0 -0.26280270753508439 -0.22041879566708961 0 -0.25392376853803972 -0.21594652707730211 0 -0.24642641019704661 -0.22247541380929459 0 -0.25745970649811001 -0.23572969511482039 0 -0.26280270753508439 -0.22041879566708961 0 -0.25745970649811001 -0.23572969511482039 0 -0.26280270753508439 -0.22041879566708961 0 -0.26979966381177273 -0.23169599247169989 0 -0.26280270753508439 -0.22041879566708961 0 -0.26979966381177273 -0.23169599247169989 0 -0.27910567481445547 -0.22392715143847061 0 -0.28148487981085663 -0.2364808600764359 0 -0.26979966381177273 -0.23169599247169989 0 -0.27910567481445547 -0.22392715143847061 0 -0.26280270753508439 -0.22041879566708961 0 -0.27910567481445547 -0.22392715143847061 0 -0.27864958990498762 -0.21186127747667721 0 -0.26280270753508439 -0.22041879566708961 0 -0.27864958990498762 -0.21186127747667721 0 -0.26963823647458091 -0.20762251640780241 0 -0.27864958990498762 -0.21186127747667721 0 -0.26963823647458091 -0.20762251640780241 0 -0.27659761642188579 -0.19489317041072141 0 -0.27864958990498762 -0.21186127747667721 0 -0.27659761642188579 -0.19489317041072141 0 -0.28498880591566472 -0.2063263844377588 0 -0.26280270753508439 -0.22041879566708961 0 -0.26963823647458091 -0.20762251640780241 0 -0.25521199120448118 -0.20608867607345219 0 -0.26963823647458091 -0.20762251640780241 0 -0.25521199120448118 -0.20608867607345219 0 -0.26291631574761742 -0.20223568956292459 0 -0.24112825112839739 -0.21032916605117341 0 -0.25521199120448118 -0.20608867607345219 0 -0.25392376853803972 -0.21594652707730211 0 -0.26280270753508439 -0.22041879566708961 0 -0.25521199120448118 -0.20608867607345219 0 -0.25392376853803972 -0.21594652707730211 0 -0.2491857197856916 -0.1881539994391043 0 -0.25501515517804491 -0.19095376764027111 0 -0.25771243991212323 -0.18613214763593611 0 -0.25501515517804491 -0.19095376764027111 0 -0.25639398483018189 -0.1973164856736104 0 -0.25920039950311308 -0.19272739351284099 0 -0.25501515517804491 -0.19095376764027111 0 -0.25920039950311308 -0.19272739351284099 0 -0.25823202173599702 -0.18774225890687229 0 -0.25501515517804491 -0.19095376764027111 0 -0.25823202173599702 -0.18774225890687229 0 -0.25771243991212323 -0.18613214763593611 0 -0.2491857197856916 -0.1881539994391043 0 -0.25501515517804491 -0.19095376764027111 0 -0.25028721978338742 -0.19371089023616611 0 -0.25501515517804491 -0.19095376764027111 0 -0.25028721978338742 -0.19371089023616611 0 -0.25639398483018189 -0.1973164856736104 0 -0.24725779665830391 -0.20054974283342891 0 -0.25028721978338742 -0.19371089023616611 0 -0.25639398483018189 -0.1973164856736104 0 -0.24725779665830391 -0.20054974283342891 0 -0.25521199120448118 -0.20608867607345219 0 -0.25639398483018189 -0.1973164856736104 0 -0.25521199120448118 -0.20608867607345219 0 -0.25639398483018189 -0.1973164856736104 0 -0.26291631574761742 -0.20223568956292459 0 -0.25639398483018189 -0.1973164856736104 0 -0.26291631574761742 -0.20223568956292459 0 -0.26415737924756189 -0.1938308763412524 0 -0.25639398483018189 -0.1973164856736104 0 -0.26415737924756189 -0.1938308763412524 0 -0.25920039950311308 -0.19272739351284099 0 -0.26415737924756189 -0.1938308763412524 0 -0.25920039950311308 -0.19272739351284099 0 -0.25823202173599702 -0.18774225890687229 0 -0.26415737924756189 -0.1938308763412524 0 -0.25823202173599702 -0.18774225890687229 0 -0.25771243991212323 -0.18613214763593611 0 -0.27659761642188579 -0.19489317041072141 0 -0.26867338761555221 -0.183528203843212 0 -0.25771243991212323 -0.18613214763593611 0 -0.27659761642188579 -0.19489317041072141 0 -0.25771243991212323 -0.18613214763593611 0 -0.26415737924756189 -0.1938308763412524 0 -0.27659761642188579 -0.19489317041072141 0 -0.25771243991212323 -0.18613214763593611 0 -0.26963823647458091 -0.20762251640780241 0 -0.26291631574761742 -0.20223568956292459 0 -0.27659761642188579 -0.19489317041072141 0 -0.26291631574761742 -0.20223568956292459 0 -0.26415737924756189 -0.1938308763412524 0 -0.27659761642188579 -0.19489317041072141 0 -0.28878582660110252 -0.18797366605675611 0 -0.29548279293164792 -0.20365419318550751 0 -0.30176291824961349 -0.18877021426840621 0 -0.27659761642188579 -0.19489317041072141 0 -0.29548279293164792 -0.20365419318550751 0 -0.27659761642188579 -0.19489317041072141 0 -0.28498880591566472 -0.2063263844377588 0 -0.29548279293164792 -0.20365419318550751 0 -0.27659761642188579 -0.19489317041072141 0 -0.28878582660110252 -0.18797366605675611 0 -0.29548279293164792 -0.20365419318550751 0 -0.27910567481445547 -0.22392715143847061 0 -0.27864958990498762 -0.21186127747667721 0 -0.28922522440413762 -0.21489689667812911 0 -0.27864958990498762 -0.21186127747667721 0 -0.28498880591566472 -0.2063263844377588 0 -0.28922522440413762 -0.21489689667812911 0 -0.29716255850380452 -0.22126142711986721 0 -0.28922522440413762 -0.21489689667812911 0 -0.30180844056708989 -0.21221022276864501 0 -0.28922522440413762 -0.21489689667812911 0 -0.29548279293164792 -0.20365419318550751 0 -0.30180844056708989 -0.21221022276864501 0 -0.28498880591566472 -0.2063263844377588 0 -0.28922522440413762 -0.21489689667812911 0 -0.29548279293164792 -0.20365419318550751 0 -0.30180844056708989 -0.21221022276864501 0 -0.30700966831135318 -0.20174849361848499 0 -0.31773218693866928 -0.21073918432407099 0 -0.29548279293164792 -0.20365419318550751 0 -0.30180844056708989 -0.21221022276864501 0 -0.30700966831135318 -0.20174849361848499 0 -0.3085243477061943 -0.2292725517163873 0 -0.30180844056708989 -0.21221022276864501 0 -0.31773218693866928 -0.21073918432407099 0 -0.30700966831135318 -0.20174849361848499 0 -0.30176291824961349 -0.18877021426840621 0 -0.31694374266810132 -0.1934805085965946 0 -0.29548279293164792 -0.20365419318550751 0 -0.30700966831135318 -0.20174849361848499 0 -0.30176291824961349 -0.18877021426840621 0 -0.30176291824961349 -0.18877021426840621 0 -0.31509104179931519 -0.1721240154684717 0 -0.31694374266810132 -0.1934805085965946 0 -0.30176291824961349 -0.18877021426840621 0 -0.29321913079893408 -0.17436233905145371 0 -0.31509104179931519 -0.1721240154684717 0 -0.30382988962468832 -0.15789455923531909 0 -0.29321913079893408 -0.17436233905145371 0 -0.31509104179931519 -0.1721240154684717 0 -0.30382988962468832 -0.15789455923531909 0 -0.29321913079893408 -0.17436233905145371 0 -0.29152014952297101 -0.1544288344440399 0 -0.29321913079893408 -0.17436233905145371 0 -0.27686667460343128 -0.1781884133676914 0 -0.27899515186531532 -0.1589408019048664 0 -0.29321913079893408 -0.17436233905145371 0 -0.27899515186531532 -0.1589408019048664 0 -0.29152014952297101 -0.1544288344440399 0 -0.29321913079893408 -0.17436233905145371 0 -0.27899515186531532 -0.1589408019048664 0 -0.28878582660110252 -0.18797366605675611 0 -0.29321913079893408 -0.17436233905145371 0 -0.27686667460343128 -0.1781884133676914 0 -0.28878582660110252 -0.18797366605675611 0 -0.30176291824961349 -0.18877021426840621 0 -0.29321913079893408 -0.17436233905145371 0 -0.27659761642188579 -0.19489317041072141 0 -0.27686667460343128 -0.1781884133676914 0 -0.26867338761555221 -0.183528203843212 0 -0.27659761642188579 -0.19489317041072141 0 -0.28878582660110252 -0.18797366605675611 0 -0.27686667460343128 -0.1781884133676914 0 -0.27686667460343128 -0.1781884133676914 0 -0.26867338761555221 -0.183528203843212 0 -0.26351681952476841 -0.1748990839584991 0 -0.27686667460343128 -0.1781884133676914 0 -0.26351681952476841 -0.1748990839584991 0 -0.26921393918814718 -0.16713817941902021 0 -0.26351681952476841 -0.1748990839584991 0 -0.25771243991212323 -0.18613214763593611 0 -0.25101716404961671 -0.16538442584721061 0 -0.26867338761555221 -0.183528203843212 0 -0.26351681952476841 -0.1748990839584991 0 -0.25771243991212323 -0.18613214763593611 0 -0.25771243991212323 -0.18613214763593611 0 -0.25101716404961671 -0.16538442584721061 0 -0.25823202173599702 -0.18774225890687229 0 -0.25771243991212323 -0.18613214763593611 0 -0.25101716404961671 -0.16538442584721061 0 -0.26061455107100417 -0.16580273493571951 0 -0.25607245445027549 -0.15330591863931409 0 -0.25101716404961671 -0.16538442584721061 0 -0.26061455107100417 -0.16580273493571951 0 -0.26351681952476841 -0.1748990839584991 0 -0.25101716404961671 -0.16538442584721061 0 -0.26061455107100417 -0.16580273493571951 0 -0.26351681952476841 -0.1748990839584991 0 -0.26061455107100417 -0.16580273493571951 0 -0.26921393918814718 -0.16713817941902021 0 -0.26061455107100417 -0.16580273493571951 0 -0.2660764988762172 -0.1578598629283248 0 -0.26921393918814718 -0.16713817941902021 0 -0.26061455107100417 -0.16580273493571951 0 -0.2660764988762172 -0.1578598629283248 0 -0.25607245445027549 -0.15330591863931409 0 -0.2660764988762172 -0.1578598629283248 0 -0.26921393918814718 -0.16713817941902021 0 -0.27899515186531532 -0.1589408019048664 0 -0.2660764988762172 -0.1578598629283248 0 -0.27899515186531532 -0.1589408019048664 0 -0.26877412714516258 -0.1535196640741652 0 -0.27686667460343128 -0.1781884133676914 0 -0.26921393918814718 -0.16713817941902021 0 -0.27899515186531532 -0.1589408019048664 0 -0.27899515186531532 -0.1589408019048664 0 -0.27292473703945441 -0.14534637600778291 0 -0.2855913858661086 -0.14314526063254729 0 -0.27292473703945441 -0.14534637600778291 0 -0.27258831612132128 -0.13547698765663471 0 -0.2855913858661086 -0.14314526063254729 0 -0.27292473703945441 -0.14534637600778291 0 -0.2678244514333542 -0.1468296076694949 0 -0.26477117293169677 -0.14351926475827911 0 -0.27292473703945441 -0.14534637600778291 0 -0.26477117293169677 -0.14351926475827911 0 -0.27258831612132128 -0.13547698765663471 0 -0.2678244514333542 -0.1468296076694949 0 -0.26477117293169677 -0.14351926475827911 0 -0.27899515186531532 -0.1589408019048664 0 -0.2678244514333542 -0.1468296076694949 0 -0.26877412714516258 -0.1535196640741652 0 -0.27899515186531532 -0.1589408019048664 0 -0.2678244514333542 -0.1468296076694949 0 -0.27899515186531532 -0.1589408019048664 0 -0.27292473703945441 -0.14534637600778291 0 -0.2678244514333542 -0.1468296076694949 0 -0.2678244514333542 -0.1468296076694949 0 -0.26877412714516258 -0.1535196640741652 0 -0.26244631507818761 -0.1502215711395094 0 -0.2660764988762172 -0.1578598629283248 0 -0.26877412714516258 -0.1535196640741652 0 -0.26244631507818761 -0.1502215711395094 0 -0.2660764988762172 -0.1578598629283248 0 -0.26244631507818761 -0.1502215711395094 0 -0.25607245445027549 -0.15330591863931409 0 -0.2678244514333542 -0.1468296076694949 0 -0.26244631507818761 -0.1502215711395094 0 -0.26477117293169677 -0.14351926475827911 0 -0.26244631507818761 -0.1502215711395094 0 -0.26477117293169677 -0.14351926475827911 0 -0.25345957737028418 -0.1422243138163761 0 -0.24252248370888921 -0.13906060170419321 0 -0.25345957737028418 -0.1422243138163761 0 -0.25607245445027549 -0.15330591863931409 0 -0.26244631507818761 -0.1502215711395094 0 -0.25345957737028418 -0.1422243138163761 0 -0.25607245445027549 -0.15330591863931409 0 -0.24589355376940389 -0.1197343415923325 0 -0.2519772804193724 -0.12964821717384239 0 -0.25533236335055048 -0.13162680317530559 0 -0.24589355376940389 -0.1197343415923325 0 -0.25533236335055048 -0.13162680317530559 0 -0.24589355376940389 -0.1197343415923325 0 -0.25533236335055048 -0.13162680317530559 0 -0.25924093494536249 -0.12760566462448369 0 -0.26477117293169677 -0.14351926475827911 0 -0.25345957737028418 -0.1422243138163761 0 -0.2519772804193724 -0.12964821717384239 0 -0.26477117293169677 -0.14351926475827911 0 -0.2519772804193724 -0.12964821717384239 0 -0.25533236335055048 -0.13162680317530559 0 -0.26477117293169677 -0.14351926475827911 0 -0.2519772804193724 -0.12964821717384239 0 -0.26477117293169677 -0.14351926475827911 0 -0.25533236335055048 -0.13162680317530559 0 -0.26477117293169677 -0.14351926475827911 0 -0.25533236335055048 -0.13162680317530559 0 -0.26300902357511358 -0.13487426756197321 0 -0.26300902357511358 -0.13487426756197321 0 -0.25924093494536249 -0.12760566462448369 0 -0.27258831612132128 -0.13547698765663471 0 -0.25533236335055048 -0.13162680317530559 0 -0.26300902357511358 -0.13487426756197321 0 -0.25924093494536249 -0.12760566462448369 0 -0.25924093494536249 -0.12760566462448369 0 -0.27258831612132128 -0.13547698765663471 0 -0.27292473703945441 -0.14534637600778291 0 -0.27258831612132128 -0.13547698765663471 0 -0.26477117293169677 -0.14351926475827911 0 -0.26300902357511358 -0.13487426756197321 0 -0.27258831612132128 -0.13547698765663471 0 -0.27258831612132128 -0.13547698765663471 0 -0.2855913858661086 -0.14314526063254729 0 -0.28691958767254833 -0.1243973353974567 0 -0.27258831612132128 -0.13547698765663471 0 -0.2855913858661086 -0.14314526063254729 0 -0.28691958767254833 -0.1243973353974567 0 -0.2855913858661086 -0.14314526063254729 0 -0.29981605081892121 -0.13847463196530049 0 -0.28691958767254833 -0.1243973353974567 0 -0.30088212174597012 -0.1161029123977744 0 -0.29981605081892121 -0.13847463196530049 0 -0.27899515186531532 -0.1589408019048664 0 -0.2855913858661086 -0.14314526063254729 0 -0.29152014952297101 -0.1544288344440399 0 -0.2855913858661086 -0.14314526063254729 0 -0.29152014952297101 -0.1544288344440399 0 -0.29981605081892121 -0.13847463196530049 0 -0.30382988962468832 -0.15789455923531909 0 -0.29981605081892121 -0.13847463196530049 0 -0.32142850586285587 -0.1504196855319738 0 -0.30382988962468832 -0.15789455923531909 0 -0.29152014952297101 -0.1544288344440399 0 -0.29981605081892121 -0.13847463196530049 0 -0.30088212174597012 -0.1161029123977744 0 -0.29981605081892121 -0.13847463196530049 0 -0.31337406678903817 -0.12870181871927189 0 -0.29981605081892121 -0.13847463196530049 0 -0.31337406678903817 -0.12870181871927189 0 -0.32142850586285587 -0.1504196855319738 0 -0.32776596992639673 -0.12871535559547581 0 -0.32142850586285587 -0.1504196855319738 0 -0.32776596992639673 -0.12871535559547581 0 -0.31337406678903817 -0.12870181871927189 0 -0.32142850586285587 -0.1504196855319738 0 -0.32776596992639673 -0.12871535559547581 0 -0.32142850586285587 -0.1504196855319738 0 -0.33971637632833412 -0.14614911380185799 0 -0.32142850586285587 -0.1504196855319738 0 -0.33971637632833412 -0.14614911380185799 0 -0.33863806772983529 -0.1652750315563106 0 -0.32776596992639673 -0.12871535559547581 0 -0.33971637632833412 -0.14614911380185799 0 -0.34828425737083929 -0.13111550732816921 0 -0.37069913304914098 -0.1193632437614618 0 -0.34828425737083929 -0.13111550732816921 0 -0.37181420420414552 -0.13907949230613811 0 -0.34828425737083929 -0.13111550732816921 0 -0.37181420420414552 -0.13907949230613811 0 -0.36246508075174338 -0.15521998899736059 0 -0.37181420420414552 -0.13907949230613811 0 -0.36246508075174338 -0.15521998899736059 0 -0.37973921558413981 -0.15610333814278929 0 -0.34828425737083929 -0.13111550732816921 0 -0.36246508075174338 -0.15521998899736059 0 -0.33971637632833412 -0.14614911380185799 0 -0.36246508075174338 -0.15521998899736059 0 -0.33863806772983529 -0.1652750315563106 0 -0.33971637632833412 -0.14614911380185799 0 -0.34828425737083929 -0.13111550732816921 0 -0.36246508075174338 -0.15521998899736059 0 -0.36246508075174338 -0.15521998899736059 0 -0.35859449454169079 -0.1739350696739469 0 -0.33863806772983529 -0.1652750315563106 0 -0.36246508075174338 -0.15521998899736059 0 -0.35859449454169079 -0.1739350696739469 0 -0.37664590413264742 -0.17932447066655191 0 -0.36246508075174338 -0.15521998899736059 0 -0.3767367244195971 -0.16916247886528729 0 -0.37973921558413981 -0.15610333814278929 0 -0.36246508075174338 -0.15521998899736059 0 -0.37664590413264742 -0.17932447066655191 0 -0.3767367244195971 -0.16916247886528729 0 -0.36246508075174338 -0.15521998899736059 0 -0.37664590413264742 -0.17932447066655191 0 -0.35859449454169079 -0.1739350696739469 0 -0.36431841656752528 -0.19204025029311059 0 -0.37664590413264742 -0.17932447066655191 0 -0.35859449454169079 -0.1739350696739469 0 -0.34616430869445369 -0.18103341540521681 0 -0.33863806772983529 -0.1652750315563106 0 -0.35859449454169079 -0.1739350696739469 0 -0.34616430869445369 -0.18103341540521681 0 -0.36431841656752528 -0.19204025029311059 0 -0.34616430869445369 -0.18103341540521681 0 -0.33052231421169548 -0.1820648578646408 0 -0.33863806772983529 -0.1652750315563106 0 -0.34616430869445369 -0.18103341540521681 0 -0.33052231421169548 -0.1820648578646408 0 -0.33577441016677179 -0.19841131829661041 0 -0.30382988962468832 -0.15789455923531909 0 -0.32142850586285587 -0.1504196855319738 0 -0.31509104179931519 -0.1721240154684717 0 -0.32142850586285587 -0.1504196855319738 0 -0.31509104179931519 -0.1721240154684717 0 -0.32142850586285587 -0.1504196855319738 0 -0.33863806772983529 -0.1652750315563106 0 -0.31509104179931519 -0.1721240154684717 0 -0.33052231421169548 -0.1820648578646408 0 -0.33863806772983529 -0.1652750315563106 0 -0.31509104179931519 -0.1721240154684717 0 -0.33052231421169548 -0.1820648578646408 0 -0.31509104179931519 -0.1721240154684717 0 -0.31694374266810132 -0.1934805085965946 0 -0.31694374266810132 -0.1934805085965946 0 -0.31773218693866928 -0.21073918432407099 0 -0.33577441016677179 -0.19841131829661041 0 -0.33052231421169548 -0.1820648578646408 0 -0.31694374266810132 -0.1934805085965946 0 -0.33577441016677179 -0.19841131829661041 0 -0.30700966831135318 -0.20174849361848499 0 -0.31694374266810132 -0.1934805085965946 0 -0.31773218693866928 -0.21073918432407099 0 -0.33259532744413378 -0.2166397526803078 0 -0.33577441016677179 -0.19841131829661041 0 -0.35865239293275869 -0.20889191329427259 0 -0.31773218693866928 -0.21073918432407099 0 -0.33259532744413378 -0.2166397526803078 0 -0.33577441016677179 -0.19841131829661041 0 -0.33577441016677179 -0.19841131829661041 0 -0.3512273820903774 -0.19509422432230261 0 -0.35865239293275869 -0.20889191329427259 0 -0.34616430869445369 -0.18103341540521681 0 -0.3512273820903774 -0.19509422432230261 0 -0.36431841656752528 -0.19204025029311059 0 -0.34616430869445369 -0.18103341540521681 0 -0.33577441016677179 -0.19841131829661041 0 -0.3512273820903774 -0.19509422432230261 0 -0.3512273820903774 -0.19509422432230261 0 -0.36431841656752528 -0.19204025029311059 0 -0.35865239293275869 -0.20889191329427259 0 -0.36431841656752528 -0.19204025029311059 0 -0.38247220718319669 -0.19540894349030219 0 -0.37664590413264742 -0.17932447066655191 0 -0.36431841656752528 -0.19204025029311059 0 -0.37485919850859029 -0.21196428797885281 0 -0.38247220718319669 -0.19540894349030219 0 -0.36431841656752528 -0.19204025029311059 0 -0.37485919850859029 -0.21196428797885281 0 -0.35865239293275869 -0.20889191329427259 0 -0.35865239293275869 -0.20889191329427259 0 -0.37629778282157778 -0.22839689301730209 0 -0.37485919850859029 -0.21196428797885281 0 -0.35865239293275869 -0.20889191329427259 0 -0.37629778282157778 -0.22839689301730209 0 -0.33259532744413378 -0.2166397526803078 0 -0.35865239293275869 -0.20889191329427259 0 -0.34735532009705572 -0.230742880243656 0 -0.35865239293275869 -0.20889191329427259 0 -0.34735532009705572 -0.230742880243656 0 -0.36287334423252537 -0.22874608457151449 0 -0.34735532009705572 -0.230742880243656 0 -0.36287334423252537 -0.22874608457151449 0 -0.36176030056738112 -0.23892828214078121 0 -0.35865239293275869 -0.20889191329427259 0 -0.36287334423252537 -0.22874608457151449 0 -0.37629778282157778 -0.22839689301730209 0 -0.36287334423252537 -0.22874608457151449 0 -0.37050008163678078 -0.23809478566740069 0 -0.37629778282157778 -0.22839689301730209 0 -0.36844635146733168 -0.24423300206222681 0 -0.37474812662003493 -0.2480042625025452 0 -0.36512292251027972 -0.2486019884582186 0 -0.36844635146733168 -0.24423300206222681 0 -0.37474812662003493 -0.2480042625025452 0 -0.37341214803636152 -0.24385494685862261 0 -0.37341214803636152 -0.24385494685862261 0 -0.37050008163678078 -0.23809478566740069 0 -0.38063811315252227 -0.24327911894002349 0 -0.36844635146733168 -0.24423300206222681 0 -0.37341214803636152 -0.24385494685862261 0 -0.37050008163678078 -0.23809478566740069 0 -0.36844635146733168 -0.24423300206222681 0 -0.37050008163678078 -0.23809478566740069 0 -0.36176030056738112 -0.23892828214078121 0 -0.36287334423252537 -0.22874608457151449 0 -0.37050008163678078 -0.23809478566740069 0 -0.36176030056738112 -0.23892828214078121 0 -0.36844635146733168 -0.24423300206222681 0 -0.36176030056738112 -0.23892828214078121 0 -0.36512292251027972 -0.2486019884582186 0 -0.36176030056738112 -0.23892828214078121 0 -0.36512292251027972 -0.2486019884582186 0 -0.35559992002597007 -0.2440154841809076 0 -0.36075725608683479 -0.25252399222535399 0 -0.36512292251027972 -0.2486019884582186 0 -0.35559992002597007 -0.2440154841809076 0 -0.35559992002597007 -0.2440154841809076 0 -0.33542008743563279 -0.2451751824225199 0 -0.34735532009705572 -0.230742880243656 0 -0.35559992002597007 -0.2440154841809076 0 -0.33542008743563279 -0.2451751824225199 0 -0.34801697513192281 -0.25390758607183572 0 -0.35559992002597007 -0.2440154841809076 0 -0.33542008743563279 -0.2451751824225199 0 -0.34735532009705572 -0.230742880243656 0 -0.36176030056738112 -0.23892828214078121 0 -0.35559992002597007 -0.2440154841809076 0 -0.33476312054528728 -0.25708724346025841 0 -0.33542008743563279 -0.2451751824225199 0 -0.31524025484529539 -0.24633488066413101 0 -0.34735532009705572 -0.230742880243656 0 -0.33542008743563279 -0.2451751824225199 0 -0.32515391445869052 -0.2317152491961039 0 -0.33259532744413378 -0.2166397526803078 0 -0.34735532009705572 -0.230742880243656 0 -0.32515391445869052 -0.2317152491961039 0 -0.3085243477061943 -0.2292725517163873 0 -0.31773218693866928 -0.21073918432407099 0 -0.32515391445869052 -0.2317152491961039 0 -0.31773218693866928 -0.21073918432407099 0 -0.33259532744413378 -0.2166397526803078 0 -0.32515391445869052 -0.2317152491961039 0 -0.3085243477061943 -0.2292725517163873 0 -0.32515391445869052 -0.2317152491961039 0 -0.31524025484529539 -0.24633488066413101 0 -0.33542008743563279 -0.2451751824225199 0 -0.32515391445869052 -0.2317152491961039 0 -0.31524025484529539 -0.24633488066413101 0 -0.33542008743563279 -0.2451751824225199 0 -0.31524025484529539 -0.24633488066413101 0 -0.43229081015205362 -0.25417199456554668 0 -0.42949906886035771 -0.2463856854453515 0 -0.44919232957202387 -0.24371303005310249 0 -0.42440311049531892 -0.25168108644196319 0 -0.42949906886035771 -0.2463856854453515 0 -0.41305431339371562 -0.24861747250264279 0 -0.42949906886035771 -0.2463856854453515 0 -0.43090836492202811 -0.2254156914142374 0 -0.41976880550626672 -0.23654170350048351 0 -0.42440311049531892 -0.25168108644196319 0 -0.42949906886035771 -0.2463856854453515 0 -0.42949906886035771 -0.2463856854453515 0 -0.43090836492202811 -0.2254156914142374 0 -0.44808406686863028 -0.22707331867833969 0 -0.43090836492202811 -0.2254156914142374 0 -0.41434245556982457 -0.22342157594547499 0 -0.41976880550626672 -0.23654170350048351 0 -0.41434245556982457 -0.22342157594547499 0 -0.41102770256108911 -0.2354723852957778 0 -0.41976880550626672 -0.23654170350048351 0 -0.41434245556982457 -0.22342157594547499 0 -0.40213925663075251 -0.2299401869925714 0 -0.40478845062749969 -0.2067341123509083 0 -0.41434245556982457 -0.22342157594547499 0 -0.41102770256108911 -0.2354723852957778 0 -0.40213925663075251 -0.2299401869925714 0 -0.41102770256108911 -0.2354723852957778 0 -0.41305431339371562 -0.24861747250264279 0 -0.40583368170488648 -0.2388409875377164 0 -0.41102770256108911 -0.2354723852957778 0 -0.40583368170488648 -0.2388409875377164 0 -0.40213925663075251 -0.2299401869925714 0 -0.42949906886035771 -0.2463856854453515 0 -0.41305431339371562 -0.24861747250264279 0 -0.42949906886035771 -0.2463856854453515 0 -0.41976880550626672 -0.23654170350048351 0 -0.41305431339371562 -0.24861747250264279 0 -0.41102770256108911 -0.2354723852957778 0 -0.41976880550626672 -0.23654170350048351 0 -0.41305431339371562 -0.24861747250264279 0 -0.41305431339371562 -0.24861747250264279 0 -0.40130283749760792 -0.2436274715046727 0 -0.40583368170488648 -0.2388409875377164 0 -0.39394317271039653 -0.2479018727403321 0 -0.38820768994679622 -0.2216554081153172 0 -0.39660955792707342 -0.25084925955993409 0 -0.41305431339371562 -0.24861747250264279 0 -0.40130283749760792 -0.2436274715046727 0 -0.40130283749760792 -0.2436274715046727 0 -0.39394317271039653 -0.2479018727403321 0 -0.40213925663075251 -0.2299401869925714 0 -0.39660955792707342 -0.25084925955993409 0 -0.41305431339371562 -0.24861747250264279 0 -0.40130283749760792 -0.2436274715046727 0 -0.40583368170488648 -0.2388409875377164 0 -0.40213925663075251 -0.2299401869925714 0 -0.39660955792707342 -0.25084925955993409 0 -0.40130283749760792 -0.2436274715046727 0 -0.39394317271039653 -0.2479018727403321 0 -0.39660955792707342 -0.25084925955993409 0 -0.3946454953443147 -0.25111581076896788 0 -0.39394317271039653 -0.2479018727403321 0 -0.39660955792707342 -0.25084925955993409 0 -0.39394317271039653 -0.2479018727403321 0 -0.3946454953443147 -0.25111581076896788 0 -0.39394317271039653 -0.2479018727403321 0 -0.3946454953443147 -0.25111581076896788 0 -0.37474812662003493 -0.2480042625025452 0 -0.38063811315252227 -0.24327911894002349 0 -0.39394317271039653 -0.2479018727403321 0 -0.38063811315252227 -0.24327911894002349 0 -0.37629778282157778 -0.22839689301730209 0 -0.3946454953443147 -0.25111581076896788 0 -0.39394317271039653 -0.2479018727403321 0 -0.38063811315252227 -0.24327911894002349 0 -0.39394317271039653 -0.2479018727403321 0 -0.37629778282157778 -0.22839689301730209 0 -0.37050008163678078 -0.23809478566740069 0 -0.38063811315252227 -0.24327911894002349 0 -0.37629778282157778 -0.22839689301730209 0 -0.37474812662003493 -0.2480042625025452 0 -0.37341214803636152 -0.24385494685862261 0 -0.38063811315252227 -0.24327911894002349 0 -0.37485919850859029 -0.21196428797885281 0 -0.38820768994679622 -0.2216554081153172 0 -0.37629778282157778 -0.22839689301730209 0 -0.39394317271039653 -0.2479018727403321 0 -0.38820768994679622 -0.2216554081153172 0 -0.37629778282157778 -0.22839689301730209 0 -0.39394317271039653 -0.2479018727403321 0 -0.38820768994679622 -0.2216554081153172 0 -0.40213925663075251 -0.2299401869925714 0 -0.38820768994679622 -0.2216554081153172 0 -0.40213925663075251 -0.2299401869925714 0 -0.40478845062749969 -0.2067341123509083 0 -0.38820768994679622 -0.2216554081153172 0 -0.40478845062749969 -0.2067341123509083 0 -0.38247220718319669 -0.19540894349030219 0 -0.38820768994679622 -0.2216554081153172 0 -0.38247220718319669 -0.19540894349030219 0 -0.37485919850859029 -0.21196428797885281 0 -0.38820768994679622 -0.2216554081153172 0 -0.38247220718319669 -0.19540894349030219 0 -0.38247220718319669 -0.19540894349030219 0 -0.39957611728302628 -0.18925461860490819 0 -0.3893584796837779 -0.1801063257933235 0 -0.40478845062749969 -0.2067341123509083 0 -0.38247220718319669 -0.19540894349030219 0 -0.39957611728302628 -0.18925461860490819 0 -0.40478845062749969 -0.2067341123509083 0 -0.39957611728302628 -0.18925461860490819 0 -0.41790782839099799 -0.18687570813132681 0 -0.40478845062749969 -0.2067341123509083 0 -0.42722285246329361 -0.20281832621352711 0 -0.41790782839099799 -0.18687570813132681 0 -0.41434245556982457 -0.22342157594547499 0 -0.42722285246329361 -0.20281832621352711 0 -0.41434245556982457 -0.22342157594547499 0 -0.40478845062749969 -0.2067341123509083 0 -0.42722285246329361 -0.20281832621352711 0 -0.43090836492202811 -0.2254156914142374 0 -0.41434245556982457 -0.22342157594547499 0 -0.42722285246329361 -0.20281832621352711 0 -0.43090836492202811 -0.2254156914142374 0 -0.42722285246329361 -0.20281832621352711 0 -0.44635649750603767 -0.20584682125085449 0 -0.42722285246329361 -0.20281832621352711 0 -0.41790782839099799 -0.18687570813132681 0 -0.44010324935676259 -0.18221507648157939 0 -0.42722285246329361 -0.20281832621352711 0 -0.44010324935676259 -0.18221507648157939 0 -0.42490960957689772 -0.16745050732956049 0 -0.41790782839099799 -0.18687570813132681 0 -0.44010324935676259 -0.18221507648157939 0 -0.42490960957689772 -0.16745050732956049 0 -0.42237231764286082 -0.154014229218493 0 -0.43594905591301342 -0.1501197039167933 0 -0.42490960957689772 -0.16745050732956049 0 -0.40898660839310408 -0.1609359868313075 0 -0.42237231764286082 -0.154014229218493 0 -0.42490960957689772 -0.16745050732956049 0 -0.40898660839310408 -0.1609359868313075 0 -0.40370314458026102 -0.1747990384150212 0 -0.39957611728302628 -0.18925461860490819 0 -0.41790782839099799 -0.18687570813132681 0 -0.40370314458026102 -0.1747990384150212 0 -0.42490960957689772 -0.16745050732956049 0 -0.41790782839099799 -0.18687570813132681 0 -0.40370314458026102 -0.1747990384150212 0 -0.40370314458026102 -0.1747990384150212 0 -0.3893584796837779 -0.1801063257933235 0 -0.3877399313372053 -0.1691080993481742 0 -0.39957611728302628 -0.18925461860490819 0 -0.40370314458026102 -0.1747990384150212 0 -0.3893584796837779 -0.1801063257933235 0 -0.38247220718319669 -0.19540894349030219 0 -0.3767367244195971 -0.16916247886528729 0 -0.38247220718319669 -0.19540894349030219 0 -0.37664590413264742 -0.17932447066655191 0 -0.3767367244195971 -0.16916247886528729 0 -0.38247220718319669 -0.19540894349030219 0 -0.3893584796837779 -0.1801063257933235 0 -0.3767367244195971 -0.16916247886528729 0 -0.3893584796837779 -0.1801063257933235 0 -0.3767367244195971 -0.16916247886528729 0 -0.3877399313372053 -0.1691080993481742 0 -0.3767367244195971 -0.16916247886528729 0 -0.3877399313372053 -0.1691080993481742 0 -0.37973921558413981 -0.15610333814278929 0 -0.3877399313372053 -0.1691080993481742 0 -0.39384892446672842 -0.15840286031217821 0 -0.37973921558413981 -0.15610333814278929 0 -0.40370314458026102 -0.1747990384150212 0 -0.3877399313372053 -0.1691080993481742 0 -0.39384892446672842 -0.15840286031217821 0 -0.40898660839310408 -0.1609359868313075 0 -0.40370314458026102 -0.1747990384150212 0 -0.39384892446672842 -0.15840286031217821 0 -0.40898660839310408 -0.1609359868313075 0 -0.39384892446672842 -0.15840286031217821 0 -0.400622329490672 -0.1434388667923569 0 -0.39384892446672842 -0.15840286031217821 0 -0.400622329490672 -0.1434388667923569 0 -0.38636790906492391 -0.1448482036133463 0 -0.39384892446672842 -0.15840286031217821 0 -0.38636790906492391 -0.1448482036133463 0 -0.37973921558413981 -0.15610333814278929 0 -0.37181420420414552 -0.13907949230613811 0 -0.38636790906492391 -0.1448482036133463 0 -0.37973921558413981 -0.15610333814278929 0 -0.37069913304914098 -0.1193632437614618 0 -0.37181420420414552 -0.13907949230613811 0 -0.38639156327270402 -0.1306946385362959 0 -0.37181420420414552 -0.13907949230613811 0 -0.38636790906492391 -0.1448482036133463 0 -0.38639156327270402 -0.1306946385362959 0 -0.400622329490672 -0.1434388667923569 0 -0.41269787721970769 -0.13456076839363251 0 -0.3996357423838563 -0.1236626326443985 0 -0.400622329490672 -0.1434388667923569 0 -0.38639156327270402 -0.1306946385362959 0 -0.3996357423838563 -0.1236626326443985 0 -0.400622329490672 -0.1434388667923569 0 -0.38636790906492391 -0.1448482036133463 0 -0.38639156327270402 -0.1306946385362959 0 -0.41269787721970769 -0.13456076839363251 0 -0.3996357423838563 -0.1236626326443985 0 -0.41405462021182021 -0.12059725103256549 0 -0.41269787721970769 -0.13456076839363251 0 -0.42450029311672888 -0.12854155882879789 0 -0.41405462021182021 -0.12059725103256549 0 -0.41269787721970769 -0.13456076839363251 0 -0.42495234269793047 -0.14141134391851251 0 -0.42450029311672888 -0.12854155882879789 0 -0.40898660839310408 -0.1609359868313075 0 -0.400622329490672 -0.1434388667923569 0 -0.41323096095516237 -0.14893515077839681 0 -0.400622329490672 -0.1434388667923569 0 -0.41269787721970769 -0.13456076839363251 0 -0.41323096095516237 -0.14893515077839681 0 -0.40898660839310408 -0.1609359868313075 0 -0.41323096095516237 -0.14893515077839681 0 -0.42237231764286082 -0.154014229218493 0 -0.41323096095516237 -0.14893515077839681 0 -0.42495234269793047 -0.14141134391851251 0 -0.42237231764286082 -0.154014229218493 0 -0.41269787721970769 -0.13456076839363251 0 -0.41323096095516237 -0.14893515077839681 0 -0.42495234269793047 -0.14141134391851251 0 -0.42495234269793047 -0.14141134391851251 0 -0.43594905591301342 -0.1501197039167933 0 -0.43904704600101191 -0.13168742571601469 0 -0.42495234269793047 -0.14141134391851251 0 -0.42237231764286082 -0.154014229218493 0 -0.43594905591301342 -0.1501197039167933 0 -0.42450029311672888 -0.12854155882879789 0 -0.43904704600101191 -0.13168742571601469 0 -0.43264031305783113 -0.12329188855949889 0 -0.42495234269793047 -0.14141134391851251 0 -0.42450029311672888 -0.12854155882879789 0 -0.43904704600101191 -0.13168742571601469 0 -0.43904704600101191 -0.13168742571601469 0 -0.44967784007147432 -0.142615649217637 0 -0.45454540904941582 -0.1286507126880625 0 -0.43904704600101191 -0.13168742571601469 0 -0.45454540904941582 -0.1286507126880625 0 -0.44322677495513219 -0.1162928483584431 0 -0.43594905591301342 -0.1501197039167933 0 -0.43904704600101191 -0.13168742571601469 0 -0.44967784007147432 -0.142615649217637 0 -0.43594905591301342 -0.1501197039167933 0 -0.44967784007147432 -0.142615649217637 0 -0.45298364625023169 -0.16161182674963159 0 -0.44967784007147432 -0.142615649217637 0 -0.46586404314369878 -0.14100857701768249 0 -0.45298364625023169 -0.16161182674963159 0 -0.46586404314369878 -0.14100857701768249 0 -0.45298364625023169 -0.16161182674963159 0 -0.46586404314369878 -0.14100857701768249 0 -0.46841228250414368 -0.1638265537426784 0 -0.45298364625023169 -0.16161182674963159 0 -0.44967784007147432 -0.142615649217637 0 -0.46586404314369878 -0.14100857701768249 0 -0.45454540904941582 -0.1286507126880625 0 -0.46586404314369878 -0.14100857701768249 0 -0.45454540904941582 -0.1286507126880625 0 -0.46586404314369878 -0.14100857701768249 0 -0.45454540904941582 -0.1286507126880625 0 -0.46949566145170768 -0.12559563250407579 0 -0.46586404314369878 -0.14100857701768249 0 -0.47447595022110539 -0.1272331263346278 0 -0.48723797511055222 -0.13761479044979291 0 -0.46586404314369878 -0.14100857701768249 0 -0.47447595022110539 -0.1272331263346278 0 -0.46949566145170768 -0.12559563250407579 0 -0.46586404314369878 -0.14100857701768249 0 -0.47447595022110539 -0.1272331263346278 0 -0.47447595022110539 -0.1272331263346278 0 -0.48723797511055222 -0.13761479044979291 0 -0.47447595022110539 -0.1272331263346278 0 -0.48723797511055222 -0.13761479044979291 0 -0.48704348572726353 -0.1238492587224552 0 -0.48723797511055222 -0.13761479044979291 0 -0.5 -0.120664021671708 0 -0.48704348572726353 -0.1238492587224552 0 -0.48723797511055222 -0.13761479044979291 0 -0.49999999999999939 -0.14799645456495741 0 -0.5 -0.120664021671708 0 -0.48723797511055222 -0.13761479044979291 0 -0.49999999999999939 -0.14799645456495741 0 -0.48293202157184828 -0.15964366673248431 0 -0.48723797511055222 -0.13761479044979291 0 -0.49999999999999939 -0.14799645456495741 0 -0.46586404314369878 -0.14100857701768249 0 -0.48293202157184828 -0.15964366673248431 0 -0.46586404314369878 -0.14100857701768249 0 -0.48293202157184828 -0.15964366673248431 0 -0.46841228250414368 -0.1638265537426784 0 -0.46586404314369878 -0.14100857701768249 0 -0.48723797511055222 -0.13761479044979291 0 -0.48293202157184828 -0.15964366673248431 0 -0.48293202157184828 -0.15964366673248431 0 -0.47717967655212201 -0.17460343078770479 0 -0.46841228250414368 -0.1638265537426784 0 -0.49999999999999939 -0.14799645456495741 0 -0.48293202157184828 -0.15964366673248431 0 -0.499999999999999 -0.17827875644728519 0 -0.48293202157184828 -0.15964366673248431 0 -0.499999999999999 -0.17827875644728519 0 -0.47717967655212201 -0.17460343078770479 0 -0.48293202157184828 -0.15964366673248431 0 -0.499999999999999 -0.17827875644728519 0 -0.499999999999999 -0.17827875644728519 0 -0.47717967655212201 -0.17460343078770479 0 -0.48525406288517642 -0.18844858514431689 0 -0.47717967655212201 -0.17460343078770479 0 -0.463102025002818 -0.18226526742588861 0 -0.48525406288517642 -0.18844858514431689 0 -0.47717967655212201 -0.17460343078770479 0 -0.463102025002818 -0.18226526742588861 0 -0.46841228250414368 -0.1638265537426784 0 -0.463102025002818 -0.18226526742588861 0 -0.46841228250414368 -0.1638265537426784 0 -0.45298364625023169 -0.16161182674963159 0 -0.42490960957689772 -0.16745050732956049 0 -0.43594905591301342 -0.1501197039167933 0 -0.45298364625023169 -0.16161182674963159 0 -0.42490960957689772 -0.16745050732956049 0 -0.45298364625023169 -0.16161182674963159 0 -0.44010324935676259 -0.18221507648157939 0 -0.463102025002818 -0.18226526742588861 0 -0.45298364625023169 -0.16161182674963159 0 -0.44010324935676259 -0.18221507648157939 0 -0.45298364625023169 -0.16161182674963159 0 -0.44010324935676259 -0.18221507648157939 0 -0.5 -0.25346781598992812 0 -0.499999999999999 -0.17827875644728519 0 -0.48525406288517642 -0.18844858514431689 0 -0.5 -0.25346781598992812 0 -0.48525406288517642 -0.18844858514431689 0 -0.47298981213985369 -0.23236270461467731 0 -0.42722285246329361 -0.20281832621352711 0 -0.44010324935676259 -0.18221507648157939 0 -0.44635649750603767 -0.20584682125085449 0 -0.463102025002818 -0.18226526742588861 0 -0.44010324935676259 -0.18221507648157939 0 -0.44635649750603767 -0.20584682125085449 0 -0.44635649750603767 -0.20584682125085449 0 -0.46666906487690341 -0.20776095191132829 0 -0.44808406686863028 -0.22707331867833969 0 -0.46666906487690341 -0.20776095191132829 0 -0.44808406686863028 -0.22707331867833969 0 -0.463102025002818 -0.18226526742588861 0 -0.44635649750603767 -0.20584682125085449 0 -0.46666906487690341 -0.20776095191132829 0 -0.463102025002818 -0.18226526742588861 0 -0.46666906487690341 -0.20776095191132829 0 -0.48525406288517642 -0.18844858514431689 0 -0.46666906487690341 -0.20776095191132829 0 -0.48525406288517642 -0.18844858514431689 0 -0.47298981213985369 -0.23236270461467731 0 -0.46666906487690341 -0.20776095191132829 0 -0.48525406288517642 -0.18844858514431689 0 -0.47206243562756728 -0.25762347179270151 0 -0.5 -0.25346781598992812 0 -0.47298981213985369 -0.23236270461467731 0 -0.47298981213985369 -0.23236270461467731 0 -0.44808406686863028 -0.22707331867833969 0 -0.44919232957202387 -0.24371303005310249 0 -0.47206243562756728 -0.25762347179270151 0 -0.47298981213985369 -0.23236270461467731 0 -0.44919232957202387 -0.24371303005310249 0 -0.46666906487690341 -0.20776095191132829 0 -0.47298981213985369 -0.23236270461467731 0 -0.44808406686863028 -0.22707331867833969 0 -0.43090836492202811 -0.2254156914142374 0 -0.44635649750603767 -0.20584682125085449 0 -0.44808406686863028 -0.22707331867833969 0 -0.42949906886035771 -0.2463856854453515 0 -0.44808406686863028 -0.22707331867833969 0 -0.42949906886035771 -0.2463856854453515 0 -0.44919232957202387 -0.24371303005310249 0 -0.42949906886035771 -0.2463856854453515 0 -0.44808406686863028 -0.22707331867833969 0 -0.44919232957202387 -0.24371303005310249 0 -0.4183285585446912 -0.050677376356490458 0 -0.41677824504145339 -0.030157427092185642 0 -0.39217805399236938 -0.048582572027588103 0 -0.4183285585446912 -0.050677376356490458 0 -0.39217805399236938 -0.048582572027588103 0 -0.41046995042736062 -0.07516546489608697 0 -0.4183285585446912 -0.050677376356490458 0 -0.43419827487196272 -0.038385605457537629 0 -0.43816022252939402 -0.062245053997655217 0 -0.4183285585446912 -0.050677376356490458 0 -0.43419827487196272 -0.038385605457537629 0 -0.41677824504145339 -0.030157427092185642 0 -0.43419827487196272 -0.038385605457537629 0 -0.42993226968461062 -0.020287599982467111 0 -0.41677824504145339 -0.030157427092185642 0 -0.42993226968461062 -0.020287599982467111 0 -0.4217292346608259 -0.0010425993288985141 0 -0.44472529084816348 -0.00053841260254529528 0 -0.42993226968461062 -0.020287599982467111 0 -0.4217292346608259 -0.0010425993288985141 0 -0.40751601660928438 -0.016568719428877641 0 -0.4217292346608259 -0.0010425993288985141 0 -0.40751601660928438 -0.016568719428877641 0 -0.39837147550330271 0.01448554233248333 0 -0.42993226968461062 -0.020287599982467111 0 -0.41677824504145339 -0.030157427092185642 0 -0.40751601660928438 -0.016568719428877641 0 -0.41677824504145339 -0.030157427092185642 0 -0.40751601660928438 -0.016568719428877641 0 -0.39555282924350182 -0.027741567937240089 0 -0.42993226968461062 -0.020287599982467111 0 -0.40751601660928438 -0.016568719428877641 0 -0.40751601660928438 -0.016568719428877641 0 -0.39555282924350182 -0.027741567937240089 0 -0.38509976353395808 -0.012849838875288179 0 -0.40751601660928438 -0.016568719428877641 0 -0.38509976353395808 -0.012849838875288179 0 -0.39837147550330271 0.01448554233248333 0 -0.40751601660928438 -0.016568719428877641 0 -0.38509976353395808 -0.012849838875288179 0 -0.39555282924350182 -0.027741567937240089 0 -0.38509976353395808 -0.012849838875288179 0 -0.37619206704044378 -0.03054928226226088 0 -0.39555282924350182 -0.027741567937240089 0 -0.37619206704044378 -0.03054928226226088 0 -0.39217805399236938 -0.048582572027588103 0 -0.36852919634310399 -0.047257105603825837 0 -0.37619206704044378 -0.03054928226226088 0 -0.39217805399236938 -0.048582572027588103 0 -0.41677824504145339 -0.030157427092185642 0 -0.39555282924350182 -0.027741567937240089 0 -0.39217805399236938 -0.048582572027588103 0 -0.37298475090107491 -0.064843214874260341 0 -0.36852919634310399 -0.047257105603825837 0 -0.39217805399236938 -0.048582572027588103 0 -0.36915259797164529 -0.090060442986693245 0 -0.37298475090107491 -0.064843214874260341 0 -0.38859594785455343 -0.076761499782944331 0 -0.37298475090107491 -0.064843214874260341 0 -0.39217805399236938 -0.048582572027588103 0 -0.38859594785455343 -0.076761499782944331 0 -0.36915259797164529 -0.090060442986693245 0 -0.38859594785455343 -0.076761499782944331 0 -0.3938439902994742 -0.098804578110610206 0 -0.38859594785455343 -0.076761499782944331 0 -0.3938439902994742 -0.098804578110610206 0 -0.41046995042736062 -0.07516546489608697 0 -0.39217805399236938 -0.048582572027588103 0 -0.38859594785455343 -0.076761499782944331 0 -0.41046995042736062 -0.07516546489608697 0 -0.37069913304914098 -0.1193632437614618 0 -0.38639156327270402 -0.1306946385362959 0 -0.38652360427607652 -0.1131334100122259 0 -0.37069913304914098 -0.1193632437614618 0 -0.36915259797164529 -0.090060442986693245 0 -0.38652360427607652 -0.1131334100122259 0 -0.36915259797164529 -0.090060442986693245 0 -0.38652360427607652 -0.1131334100122259 0 -0.3938439902994742 -0.098804578110610206 0 -0.36915259797164529 -0.090060442986693245 0 -0.3938439902994742 -0.098804578110610206 0 -0.3938439902994742 -0.098804578110610206 0 -0.418535382627303 -0.10754871323452719 0 -0.38639156327270402 -0.1306946385362959 0 -0.38652360427607652 -0.1131334100122259 0 -0.3996357423838563 -0.1236626326443985 0 -0.3938439902994742 -0.098804578110610206 0 -0.3996357423838563 -0.1236626326443985 0 -0.41405462021182021 -0.12059725103256549 0 -0.38652360427607652 -0.1131334100122259 0 -0.3938439902994742 -0.098804578110610206 0 -0.3996357423838563 -0.1236626326443985 0 -0.42450029311672888 -0.12854155882879789 0 -0.41405462021182021 -0.12059725103256549 0 -0.42579023718367398 -0.1185091003833303 0 -0.41405462021182021 -0.12059725103256549 0 -0.418535382627303 -0.10754871323452719 0 -0.42579023718367398 -0.1185091003833303 0 -0.3938439902994742 -0.098804578110610206 0 -0.41405462021182021 -0.12059725103256549 0 -0.418535382627303 -0.10754871323452719 0 -0.3938439902994742 -0.098804578110610206 0 -0.418535382627303 -0.10754871323452719 0 -0.41536644266847561 -0.092437760932901375 0 -0.418535382627303 -0.10754871323452719 0 -0.42399351775955119 -0.098995846600975587 0 -0.41536644266847561 -0.092437760932901375 0 -0.42399351775955119 -0.098995846600975587 0 -0.41536644266847561 -0.092437760932901375 0 -0.43180528369194199 -0.092521352042267274 0 -0.42399351775955119 -0.098995846600975587 0 -0.43247896384948809 -0.1045582176267144 0 -0.43180528369194199 -0.092521352042267274 0 -0.418535382627303 -0.10754871323452719 0 -0.42399351775955119 -0.098995846600975587 0 -0.43247896384948809 -0.1045582176267144 0 -0.43264031305783113 -0.12329188855949889 0 -0.42579023718367398 -0.1185091003833303 0 -0.44322677495513219 -0.1162928483584431 0 -0.418535382627303 -0.10754871323452719 0 -0.42579023718367398 -0.1185091003833303 0 -0.44322677495513219 -0.1162928483584431 0 -0.418535382627303 -0.10754871323452719 0 -0.43247896384948809 -0.1045582176267144 0 -0.44322677495513219 -0.1162928483584431 0 -0.418535382627303 -0.10754871323452719 0 -0.44322677495513219 -0.1162928483584431 0 -0.42450029311672888 -0.12854155882879789 0 -0.43264031305783113 -0.12329188855949889 0 -0.42579023718367398 -0.1185091003833303 0 -0.41046995042736062 -0.07516546489608697 0 -0.41536644266847561 -0.092437760932901375 0 -0.43180528369194199 -0.092521352042267274 0 -0.3938439902994742 -0.098804578110610206 0 -0.41046995042736062 -0.07516546489608697 0 -0.41536644266847561 -0.092437760932901375 0 -0.41046995042736062 -0.07516546489608697 0 -0.43180528369194199 -0.092521352042267274 0 -0.41046995042736062 -0.07516546489608697 0 -0.43648995813264152 -0.079906062499839059 0 -0.43180528369194199 -0.092521352042267274 0 -0.41046995042736062 -0.07516546489608697 0 -0.43648995813264152 -0.079906062499839059 0 -0.43816022252939402 -0.062245053997655217 0 -0.4183285585446912 -0.050677376356490458 0 -0.41046995042736062 -0.07516546489608697 0 -0.43816022252939402 -0.062245053997655217 0 -0.43648995813264152 -0.079906062499839059 0 -0.45247660833398079 -0.07697498198443406 0 -0.43816022252939402 -0.062245053997655217 0 -0.45247660833398079 -0.07697498198443406 0 -0.45998391148668949 -0.061033232064932247 0 -0.43816022252939402 -0.062245053997655217 0 -0.43648995813264152 -0.079906062499839059 0 -0.45247660833398079 -0.07697498198443406 0 -0.44975020751049483 -0.091684997714352082 0 -0.43648995813264152 -0.079906062499839059 0 -0.43180528369194199 -0.092521352042267274 0 -0.44975020751049483 -0.091684997714352082 0 -0.45247660833398079 -0.07697498198443406 0 -0.46240058530078892 -0.088382760712712088 0 -0.46858472143579211 -0.076345476442554461 0 -0.45247660833398079 -0.07697498198443406 0 -0.44975020751049483 -0.091684997714352082 0 -0.46240058530078892 -0.088382760712712088 0 -0.44975020751049483 -0.091684997714352082 0 -0.46240058530078892 -0.088382760712712088 0 -0.46100564658161342 -0.099222672939933351 0 -0.46240058530078892 -0.088382760712712088 0 -0.470045336610033 -0.096901324356569729 0 -0.47379119491292598 -0.086923511790485797 0 -0.46240058530078892 -0.088382760712712088 0 -0.46858472143579211 -0.076345476442554461 0 -0.47379119491292598 -0.086923511790485797 0 -0.45247660833398079 -0.07697498198443406 0 -0.46858472143579211 -0.076345476442554461 0 -0.45998391148668949 -0.061033232064932247 0 -0.43247896384948809 -0.1045582176267144 0 -0.44322677495513219 -0.1162928483584431 0 -0.45314061695652358 -0.1098772391884477 0 -0.45454540904941582 -0.1286507126880625 0 -0.44322677495513219 -0.1162928483584431 0 -0.43904704600101191 -0.13168742571601469 0 -0.43264031305783113 -0.12329188855949889 0 -0.44322677495513219 -0.1162928483584431 0 -0.43247896384948809 -0.1045582176267144 0 -0.44322677495513219 -0.1162928483584431 0 -0.43247896384948809 -0.1045582176267144 0 -0.43180528369194199 -0.092521352042267274 0 -0.45314061695652358 -0.1098772391884477 0 -0.43180528369194199 -0.092521352042267274 0 -0.45314061695652358 -0.1098772391884477 0 -0.43180528369194199 -0.092521352042267274 0 -0.44975020751049483 -0.091684997714352082 0 -0.45314061695652358 -0.1098772391884477 0 -0.44975020751049483 -0.091684997714352082 0 -0.46100564658161342 -0.099222672939933351 0 -0.45314061695652358 -0.1098772391884477 0 -0.46100564658161342 -0.099222672939933351 0 -0.45314061695652358 -0.1098772391884477 0 -0.46979043462457559 -0.1084141131205814 0 -0.46240058530078892 -0.088382760712712088 0 -0.46100564658161342 -0.099222672939933351 0 -0.470045336610033 -0.096901324356569729 0 -0.46100564658161342 -0.099222672939933351 0 -0.46979043462457559 -0.1084141131205814 0 -0.470045336610033 -0.096901324356569729 0 -0.46949566145170768 -0.12559563250407579 0 -0.44322677495513219 -0.1162928483584431 0 -0.47447595022110539 -0.1272331263346278 0 -0.45314061695652358 -0.1098772391884477 0 -0.45454540904941582 -0.1286507126880625 0 -0.46949566145170768 -0.12559563250407579 0 -0.44322677495513219 -0.1162928483584431 0 -0.46949566145170768 -0.12559563250407579 0 -0.44322677495513219 -0.1162928483584431 0 -0.45314061695652358 -0.1098772391884477 0 -0.47447595022110539 -0.1272331263346278 0 -0.45314061695652358 -0.1098772391884477 0 -0.46979043462457559 -0.1084141131205814 0 -0.47447595022110539 -0.1272331263346278 0 -0.46949566145170768 -0.12559563250407579 0 -0.45314061695652358 -0.1098772391884477 0 -0.47447595022110539 -0.1272331263346278 0 -0.48273515638216802 -0.11402184965337719 0 -0.46979043462457559 -0.1084141131205814 0 -0.47447595022110539 -0.1272331263346278 0 -0.48273515638216802 -0.11402184965337719 0 -0.47447595022110539 -0.1272331263346278 0 -0.48273515638216802 -0.11402184965337719 0 -0.48704348572726353 -0.1238492587224552 0 -0.48273515638216802 -0.11402184965337719 0 -0.4797521929583225 -0.1029696953165153 0 -0.46979043462457559 -0.1084141131205814 0 -0.4797521929583225 -0.1029696953165153 0 -0.46979043462457559 -0.1084141131205814 0 -0.470045336610033 -0.096901324356569729 0 -0.4797521929583225 -0.1029696953165153 0 -0.470045336610033 -0.096901324356569729 0 -0.48370535546809312 -0.093205556725595731 0 -0.49099436254322798 -0.1008105729721249 0 -0.48370535546809312 -0.093205556725595731 0 -0.5 -0.093331588778458707 0 -0.49099436254322798 -0.1008105729721249 0 -0.49215460093053193 -0.11053545835962481 0 -0.5 -0.093331588778458707 0 -0.49215460093053193 -0.11053545835962481 0 -0.5 -0.120664021671708 0 -0.5 -0.093331588778458707 0 -0.4797521929583225 -0.1029696953165153 0 -0.49099436254322798 -0.1008105729721249 0 -0.48370535546809312 -0.093205556725595731 0 -0.48273515638216802 -0.11402184965337719 0 -0.49099436254322798 -0.1008105729721249 0 -0.49215460093053193 -0.11053545835962481 0 -0.48273515638216802 -0.11402184965337719 0 -0.4797521929583225 -0.1029696953165153 0 -0.49099436254322798 -0.1008105729721249 0 -0.48273515638216802 -0.11402184965337719 0 -0.49099436254322798 -0.1008105729721249 0 -0.48273515638216802 -0.11402184965337719 0 -0.49215460093053193 -0.11053545835962481 0 -0.48704348572726353 -0.1238492587224552 0 -0.49215460093053193 -0.11053545835962481 0 -0.5 -0.120664021671708 0 -0.48704348572726353 -0.1238492587224552 0 -0.46858472143579211 -0.076345476442554461 0 -0.48421997574992293 -0.079782440714996974 0 -0.48044497950332582 -0.061270677695084208 0 -0.46858472143579211 -0.076345476442554461 0 -0.48044497950332582 -0.061270677695084208 0 -0.45998391148668949 -0.061033232064932247 0 -0.46858472143579211 -0.076345476442554461 0 -0.47379119491292598 -0.086923511790485797 0 -0.48421997574992293 -0.079782440714996974 0 -0.470045336610033 -0.096901324356569729 0 -0.47379119491292598 -0.086923511790485797 0 -0.48370535546809312 -0.093205556725595731 0 -0.47379119491292598 -0.086923511790485797 0 -0.48370535546809312 -0.093205556725595731 0 -0.48421997574992293 -0.079782440714996974 0 -0.48421997574992293 -0.079782440714996974 0 -0.5 -0.093331588778458707 0 -0.5 -0.065999155885209326 0 -0.48370535546809312 -0.093205556725595731 0 -0.48421997574992293 -0.079782440714996974 0 -0.5 -0.093331588778458707 0 -0.48421997574992293 -0.079782440714996974 0 -0.5 -0.065999155885209326 0 -0.48044497950332582 -0.061270677695084208 0 -0.5 -0.065999155885209326 0 -0.5 -0.038666722991960063 0 -0.48044497950332582 -0.061270677695084208 0 -0.5 -0.038666722991960063 0 -0.47046689834211608 -0.042726865572452123 0 -0.47929729555283052 -0.02334250106621874 0 -0.5 -0.038666722991960063 0 -0.47046689834211608 -0.042726865572452123 0 -0.48044497950332582 -0.061270677695084208 0 -0.47046689834211608 -0.042726865572452123 0 -0.48044497950332582 -0.061270677695084208 0 -0.45998391148668949 -0.061033232064932247 0 -0.47046689834211608 -0.042726865572452123 0 -0.45998391148668949 -0.061033232064932247 0 -0.44998252060549349 -0.045697874833013769 0 -0.47046689834211608 -0.042726865572452123 0 -0.44998252060549349 -0.045697874833013769 0 -0.45234852275993692 -0.024006480536056581 0 -0.43419827487196272 -0.038385605457537629 0 -0.44998252060549349 -0.045697874833013769 0 -0.45234852275993692 -0.024006480536056581 0 -0.45998391148668949 -0.061033232064932247 0 -0.44998252060549349 -0.045697874833013769 0 -0.43816022252939402 -0.062245053997655217 0 -0.43419827487196272 -0.038385605457537629 0 -0.44998252060549349 -0.045697874833013769 0 -0.43816022252939402 -0.062245053997655217 0 -0.42993226968461062 -0.020287599982467111 0 -0.44472529084816348 -0.00053841260254529528 0 -0.45234852275993692 -0.024006480536056581 0 -0.42993226968461062 -0.020287599982467111 0 -0.45234852275993692 -0.024006480536056581 0 -0.43419827487196272 -0.038385605457537629 0 -0.42993226968461062 -0.020287599982467111 0 -0.45234852275993692 -0.024006480536056581 0 -0.45234852275993692 -0.024006480536056581 0 -0.47929729555283052 -0.02334250106621874 0 -0.47367105666209941 2.1853868085840558e-05 0 -0.47046689834211608 -0.042726865572452123 0 -0.45234852275993692 -0.024006480536056581 0 -0.47929729555283052 -0.02334250106621874 0 -0.44472529084816348 -0.00053841260254529528 0 -0.45234852275993692 -0.024006480536056581 0 -0.47367105666209941 2.1853868085840558e-05 0 -0.47929729555283052 -0.02334250106621874 0 -0.5 -0.01133429009871079 0 -0.47367105666209941 2.1853868085840558e-05 0 -0.5 -0.038666722991960063 0 -0.47929729555283052 -0.02334250106621874 0 -0.5 -0.01133429009871079 0 -0.5 0.01599814279453832 0 -0.48015582339618701 0.02638953334019609 0 -0.47367105666209941 2.1853868085840558e-05 0 -0.5 -0.01133429009871079 0 -0.5 0.01599814279453832 0 -0.47367105666209941 2.1853868085840558e-05 0 -0.5 0.01599814279453832 0 -0.48015582339618701 0.02638953334019609 0 -0.5 0.043330575687787587 0 -0.48015582339618701 0.02638953334019609 0 -0.4705551822808961 0.038338431380050393 0 -0.45783076581423471 0.02090684374134498 0 -0.48015582339618701 0.02638953334019609 0 -0.47367105666209941 2.1853868085840558e-05 0 -0.45783076581423471 0.02090684374134498 0 -0.48777397088442292 0.055786594568543457 0 -0.5 0.043330575687787587 0 -0.48023569246263331 0.044879306598192087 0 -0.48777397088442292 0.055786594568543457 0 -0.5 0.043330575687787587 0 -0.50000000000000222 0.070663008581036801 0 -0.48015582339618701 0.02638953334019609 0 -0.5 0.043330575687787587 0 -0.48023569246263331 0.044879306598192087 0 -0.48015582339618701 0.02638953334019609 0 -0.4705551822808961 0.038338431380050393 0 -0.48023569246263331 0.044879306598192087 0 -0.4705551822808961 0.038338431380050393 0 -0.48023569246263331 0.044879306598192087 0 -0.46734974919474209 0.048081449201627102 0 -0.47367632274120369 0.056868442993367893 0 -0.46488695305614203 0.063277765304524516 0 -0.48244347652807212 0.06697038694278093 0 -0.48777397088442292 0.055786594568543457 0 -0.48023569246263331 0.044879306598192087 0 -0.47367632274120369 0.056868442993367893 0 -0.48023569246263331 0.044879306598192087 0 -0.47367632274120369 0.056868442993367893 0 -0.46734974919474209 0.048081449201627102 0 -0.47367632274120369 0.056868442993367893 0 -0.46554739673424422 0.054795265591671728 0 -0.46734974919474209 0.048081449201627102 0 -0.48777397088442292 0.055786594568543457 0 -0.47367632274120369 0.056868442993367893 0 -0.48244347652807212 0.06697038694278093 0 -0.46554739673424422 0.054795265591671728 0 -0.46468809112788489 0.061326832094208868 0 -0.45647542387314599 0.052904338077483029 0 -0.47367632274120369 0.056868442993367893 0 -0.46468809112788489 0.061326832094208868 0 -0.46488695305614203 0.063277765304524516 0 -0.46468809112788489 0.061326832094208868 0 -0.45647542387314599 0.052904338077483029 0 -0.46488695305614203 0.063277765304524516 0 -0.47367632274120369 0.056868442993367893 0 -0.46554739673424422 0.054795265591671728 0 -0.46468809112788489 0.061326832094208868 0 -0.46468809112788489 0.061326832094208868 0 -0.46488695305614203 0.063277765304524516 0 -0.46554739673424422 0.054795265591671728 0 -0.46734974919474209 0.048081449201627102 0 -0.45647542387314599 0.052904338077483029 0 -0.4705551822808961 0.038338431380050393 0 -0.45826186879969127 0.039617600366519713 0 -0.45783076581423471 0.02090684374134498 0 -0.46734974919474209 0.048081449201627102 0 -0.45647542387314599 0.052904338077483029 0 -0.45826186879969127 0.039617600366519713 0 -0.4705551822808961 0.038338431380050393 0 -0.46734974919474209 0.048081449201627102 0 -0.45826186879969127 0.039617600366519713 0 -0.45826186879969127 0.039617600366519713 0 -0.45783076581423471 0.02090684374134498 0 -0.43739894592805351 0.038013247457353128 0 -0.45647542387314599 0.052904338077483029 0 -0.45826186879969127 0.039617600366519713 0 -0.43739894592805351 0.038013247457353128 0 -0.45647542387314599 0.052904338077483029 0 -0.43739894592805351 0.038013247457353128 0 -0.43650208655572498 0.057307644146654367 0 -0.43650208655572498 0.057307644146654367 0 -0.46488695305614203 0.063277765304524516 0 -0.45647542387314599 0.052904338077483029 0 -0.43650208655572498 0.057307644146654367 0 -0.46488695305614203 0.063277765304524516 0 -0.44472529084816348 -0.00053841260254529528 0 -0.47367105666209941 2.1853868085840558e-05 0 -0.45783076581423471 0.02090684374134498 0 -0.45783076581423471 0.02090684374134498 0 -0.42810112065876871 0.017696193036914151 0 -0.43739894592805351 0.038013247457353128 0 -0.45783076581423471 0.02090684374134498 0 -0.42810112065876871 0.017696193036914151 0 -0.44472529084816348 -0.00053841260254529528 0 -0.45783076581423471 0.02090684374134498 0 -0.42810112065876871 0.017696193036914151 0 -0.4217292346608259 -0.0010425993288985141 0 -0.44472529084816348 -0.00053841260254529528 0 -0.42810112065876871 0.017696193036914151 0 -0.4217292346608259 -0.0010425993288985141 0 -0.42810112065876871 0.017696193036914151 0 -0.39837147550330271 0.01448554233248333 0 -0.42810112065876871 0.017696193036914151 0 -0.4134002208602563 0.031600176004947141 0 -0.39837147550330271 0.01448554233248333 0 -0.42810112065876871 0.017696193036914151 0 -0.39837147550330271 0.01448554233248333 0 -0.42810112065876871 0.017696193036914151 0 -0.43739894592805351 0.038013247457353128 0 -0.4134002208602563 0.031600176004947141 0 -0.43650208655572498 0.057307644146654367 0 -0.40811722005530809 0.051337522988783253 0 -0.43739894592805351 0.038013247457353128 0 -0.43650208655572498 0.057307644146654367 0 -0.40811722005530809 0.051337522988783253 0 -0.43739894592805351 0.038013247457353128 0 -0.40811722005530809 0.051337522988783253 0 -0.4134002208602563 0.031600176004947141 0 -0.40811722005530809 0.051337522988783253 0 -0.4134002208602563 0.031600176004947141 0 -0.39501234215584841 0.036468374209201841 0 -0.40811722005530809 0.051337522988783253 0 -0.38079950128593132 0.052912066790546428 0 -0.39400540130279299 0.074190555657996579 0 -0.40811722005530809 0.051337522988783253 0 -0.39501234215584841 0.036468374209201841 0 -0.38079950128593132 0.052912066790546428 0 -0.39501234215584841 0.036468374209201841 0 -0.38079950128593132 0.052912066790546428 0 -0.37472066581688562 0.032093479209295617 0 -0.38079950128593132 0.052912066790546428 0 -0.37472066581688562 0.032093479209295617 0 -0.39837147550330271 0.01448554233248333 0 -0.36864183034783748 0.011274891628045611 0 -0.37472066581688562 0.032093479209295617 0 -0.39501234215584841 0.036468374209201841 0 -0.39837147550330271 0.01448554233248333 0 -0.37472066581688562 0.032093479209295617 0 -0.37627368421505869 -0.0010685545029741181 0 -0.39837147550330271 0.01448554233248333 0 -0.36864183034783748 0.011274891628045611 0 -0.39837147550330271 0.01448554233248333 0 -0.36864183034783748 0.011274891628045611 0 -0.38509976353395808 -0.012849838875288179 0 -0.37627368421505869 -0.0010685545029741181 0 -0.39837147550330271 0.01448554233248333 0 -0.4134002208602563 0.031600176004947141 0 -0.39501234215584841 0.036468374209201841 0 -0.39837147550330271 0.01448554233248333 0 -0.39145296570996602 0.11309098128887871 0 -0.38327060378100669 0.092278173504846933 0 -0.39988103148920118 0.093276346401943072 0 -0.39145296570996602 0.11309098128887871 0 -0.39988103148920118 0.093276346401943072 0 -0.41313606586644169 0.1076957363837853 0 -0.39145296570996602 0.11309098128887871 0 -0.41313606586644169 0.1076957363837853 0 -0.39145296570996602 0.11309098128887871 0 -0.41313606586644169 0.1076957363837853 0 -0.39695529262180701 0.12708680222363061 0 -0.39145296570996602 0.11309098128887871 0 -0.39695529262180701 0.12708680222363061 0 -0.39145296570996602 0.11309098128887871 0 -0.39695529262180701 0.12708680222363061 0 -0.379669102532184 0.13122284739794199 0 -0.39145296570996602 0.11309098128887871 0 -0.36648355068506788 0.1193039355354634 0 -0.39145296570996602 0.11309098128887871 0 -0.36882563244243582 0.1020321993621809 0 -0.36648355068506788 0.1193039355354634 0 -0.39145296570996602 0.11309098128887871 0 -0.379669102532184 0.13122284739794199 0 -0.36648355068506788 0.1193039355354634 0 -0.39145296570996602 0.11309098128887871 0 -0.38327060378100669 0.092278173504846933 0 -0.36882563244243582 0.1020321993621809 0 -0.39145296570996602 0.11309098128887871 0 -0.38327060378100669 0.092278173504846933 0 -0.38327060378100669 0.092278173504846933 0 -0.37508824185204731 0.071465365720815188 0 -0.39400540130279299 0.074190555657996579 0 -0.38327060378100669 0.092278173504846933 0 -0.37508824185204731 0.071465365720815188 0 -0.38079950128593132 0.052912066790546428 0 -0.37508824185204731 0.071465365720815188 0 -0.39400540130279299 0.074190555657996579 0 -0.38327060378100669 0.092278173504846933 0 -0.39400540130279299 0.074190555657996579 0 -0.39988103148920118 0.093276346401943072 0 -0.39400540130279299 0.074190555657996579 0 -0.39988103148920118 0.093276346401943072 0 -0.41754012078579822 0.079126285174207889 0 -0.39988103148920118 0.093276346401943072 0 -0.41754012078579822 0.079126285174207889 0 -0.41313606586644169 0.1076957363837853 0 -0.43650208655572498 0.057307644146654367 0 -0.40811722005530809 0.051337522988783253 0 -0.41754012078579822 0.079126285174207889 0 -0.40811722005530809 0.051337522988783253 0 -0.39400540130279299 0.074190555657996579 0 -0.41754012078579822 0.079126285174207889 0 -0.43650208655572498 0.057307644146654367 0 -0.41754012078579822 0.079126285174207889 0 -0.43423535260663682 0.079374684146812577 0 -0.41754012078579822 0.079126285174207889 0 -0.43423535260663682 0.079374684146812577 0 -0.43481916602291709 0.1023004914786908 0 -0.43481916602291709 0.1023004914786908 0 -0.41313606586644169 0.1076957363837853 0 -0.41754012078579822 0.079126285174207889 0 -0.43481916602291709 0.1023004914786908 0 -0.41313606586644169 0.1076957363837853 0 -0.41313606586644169 0.1076957363837853 0 -0.43473565999692898 0.1223644425561199 0 -0.41644872943855782 0.13157481587043729 0 -0.41313606586644169 0.1076957363837853 0 -0.41644872943855782 0.13157481587043729 0 -0.39695529262180701 0.12708680222363061 0 -0.43481916602291709 0.1023004914786908 0 -0.41313606586644169 0.1076957363837853 0 -0.43473565999692898 0.1223644425561199 0 -0.43481916602291709 0.1023004914786908 0 -0.43473565999692898 0.1223644425561199 0 -0.44846069189659771 0.1110290616779081 0 -0.43473565999692898 0.1223644425561199 0 -0.44846069189659771 0.1110290616779081 0 -0.45206676696457071 0.12680712066595459 0 -0.43481916602291709 0.1023004914786908 0 -0.45650226617939249 0.096905246573596324 0 -0.43481916602291709 0.1023004914786908 0 -0.44846069189659771 0.1110290616779081 0 -0.45650226617939249 0.096905246573596324 0 -0.43481916602291709 0.1023004914786908 0 -0.45650226617939249 0.096905246573596324 0 -0.44397270037895448 0.089846133410492551 0 -0.45650226617939249 0.096905246573596324 0 -0.46417960031917871 0.1067680071151791 0 -0.46735854145966671 0.087525261750522831 0 -0.46417960031917871 0.1067680071151791 0 -0.46735854145966671 0.087525261750522831 0 -0.46983012986319023 0.1117727581965213 0 -0.44846069189659771 0.1110290616779081 0 -0.45650226617939249 0.096905246573596324 0 -0.46417960031917871 0.1067680071151791 0 -0.46735854145966671 0.087525261750522831 0 -0.46983012986319023 0.1117727581965213 0 -0.46417960031917871 0.1067680071151791 0 -0.46983012986319023 0.1117727581965213 0 -0.46983012986319023 0.1117727581965213 0 -0.45206676696457071 0.12680712066595459 0 -0.46983012986319023 0.1117727581965213 0 -0.45206676696457071 0.12680712066595459 0 -0.46361584169467968 0.12722256960512759 0 -0.44846069189659771 0.1110290616779081 0 -0.46417960031917871 0.1067680071151791 0 -0.45206676696457071 0.12680712066595459 0 -0.46417960031917871 0.1067680071151791 0 -0.46983012986319023 0.1117727581965213 0 -0.45206676696457071 0.12680712066595459 0 -0.46983012986319023 0.1117727581965213 0 -0.47209760362241832 0.13401778970737471 0 -0.46361584169467968 0.12722256960512759 0 -0.43650208655572498 0.057307644146654367 0 -0.44686727536217002 0.07508838298413914 0 -0.46488695305614203 0.063277765304524516 0 -0.43650208655572498 0.057307644146654367 0 -0.43423535260663682 0.079374684146812577 0 -0.44686727536217002 0.07508838298413914 0 -0.43423535260663682 0.079374684146812577 0 -0.43481916602291709 0.1023004914786908 0 -0.44397270037895448 0.089846133410492551 0 -0.44686727536217002 0.07508838298413914 0 -0.44397270037895448 0.089846133410492551 0 -0.45591754728726502 0.08252855800465525 0 -0.43423535260663682 0.079374684146812577 0 -0.44686727536217002 0.07508838298413914 0 -0.44397270037895448 0.089846133410492551 0 -0.45650226617939249 0.096905246573596324 0 -0.44397270037895448 0.089846133410492551 0 -0.45591754728726502 0.08252855800465525 0 -0.45650226617939249 0.096905246573596324 0 -0.46735854145966671 0.087525261750522831 0 -0.45591754728726502 0.08252855800465525 0 -0.46735854145966671 0.087525261750522831 0 -0.45591754728726502 0.08252855800465525 0 -0.46488695305614203 0.063277765304524516 0 -0.44686727536217002 0.07508838298413914 0 -0.45591754728726502 0.08252855800465525 0 -0.46488695305614203 0.063277765304524516 0 -0.46735854145966671 0.087525261750522831 0 -0.46488695305614203 0.063277765304524516 0 -0.46735854145966671 0.087525261750522831 0 -0.46488695305614203 0.063277765304524516 0 -0.48244347652807212 0.06697038694278093 0 -0.46488695305614203 0.063277765304524516 0 -0.48244347652807212 0.06697038694278093 0 -0.46735854145966671 0.087525261750522831 0 -0.48244347652807212 0.06697038694278093 0 -0.4824565942374478 0.086112947076896332 0 -0.4824565942374478 0.086112947076896332 0 -0.47677873614061311 0.098866870102153712 0 -0.49297858289498131 0.094855161147669717 0 -0.46735854145966671 0.087525261750522831 0 -0.4824565942374478 0.086112947076896332 0 -0.47677873614061311 0.098866870102153712 0 -0.5 0.093273546935895846 0 -0.49272363416390558 0.082347055441354455 0 -0.50000000000000222 0.070663008581036801 0 -0.48244347652807212 0.06697038694278093 0 -0.4824565942374478 0.086112947076896332 0 -0.49272363416390558 0.082347055441354455 0 -0.4824565942374478 0.086112947076896332 0 -0.49272363416390558 0.082347055441354455 0 -0.49297858289498131 0.094855161147669717 0 -0.5 0.093273546935895846 0 -0.49272363416390558 0.082347055441354455 0 -0.49297858289498131 0.094855161147669717 0 -0.48244347652807212 0.06697038694278093 0 -0.49272363416390558 0.082347055441354455 0 -0.50000000000000222 0.070663008581036801 0 -0.48777397088442292 0.055786594568543457 0 -0.48244347652807212 0.06697038694278093 0 -0.50000000000000222 0.070663008581036801 0 -0.48244347652807212 0.06697038694278093 0 -0.50000000000000222 0.070663008581036801 0 -0.46983012986319023 0.1117727581965213 0 -0.48719221879862651 0.1121428381673569 0 -0.48526343076650791 0.1254422432922058 0 -0.46983012986319023 0.1117727581965213 0 -0.48526343076650791 0.1254422432922058 0 -0.47209760362241832 0.13401778970737471 0 -0.46983012986319023 0.1117727581965213 0 -0.47209760362241832 0.13401778970737471 0 -0.46983012986319023 0.1117727581965213 0 -0.48526343076650791 0.1254422432922058 0 -0.46735854145966671 0.087525261750522831 0 -0.46983012986319023 0.1117727581965213 0 -0.47677873614061311 0.098866870102153712 0 -0.46983012986319023 0.1117727581965213 0 -0.47677873614061311 0.098866870102153712 0 -0.49297858289498131 0.094855161147669717 0 -0.46983012986319023 0.1117727581965213 0 -0.49297858289498131 0.094855161147669717 0 -0.46983012986319023 0.1117727581965213 0 -0.49297858289498131 0.094855161147669717 0 -0.48719221879862651 0.1121428381673569 0 -0.5 0.093273546935895846 0 -0.49297858289498131 0.094855161147669717 0 -0.5 0.11588408529075481 0 -0.49297858289498131 0.094855161147669717 0 -0.5 0.11588408529075481 0 -0.48719221879862651 0.1121428381673569 0 -0.5 0.11588408529075481 0 -0.48719221879862651 0.1121428381673569 0 -0.48526343076650791 0.1254422432922058 0 -0.49999999999999922 0.13849462364561391 0 -0.48526343076650791 0.1254422432922058 0 -0.5 0.11588408529075481 0 -0.49999999999999922 0.13849462364561391 0 -0.48526343076650791 0.1254422432922058 0 -0.49999999999999922 0.13849462364561391 0 -0.48526343076650791 0.1254422432922058 0 -0.48632329437955357 0.14259993890234371 0 -0.48526343076650791 0.1254422432922058 0 -0.47209760362241832 0.13401778970737471 0 -0.48632329437955357 0.14259993890234371 0 -0.47209760362241832 0.13401778970737471 0 -0.47425543750884269 0.15518720020368579 0 -0.48632329437955357 0.14259993890234371 0 -0.47209760362241832 0.13401778970737471 0 -0.47425543750884269 0.15518720020368579 0 -0.47425543750884269 0.15518720020368579 0 -0.48632329437955357 0.14259993890234371 0 -0.5 0.15985783766283809 0 -0.49999999999999922 0.13849462364561391 0 -0.48632329437955357 0.14259993890234371 0 -0.5 0.15985783766283809 0 -0.47425543750884269 0.15518720020368579 0 -0.5 0.15985783766283809 0 -0.48990795912038743 0.1705394446714503 0 -0.5 0.15985783766283809 0 -0.48990795912038743 0.1705394446714503 0 -0.49999999999999922 0.18122105168006231 0 -0.49999999999999922 0.18122105168006231 0 -0.47290614754225418 0.17927990625307069 0 -0.48497979531692648 0.1974883378356522 0 -0.49999999999999922 0.18122105168006231 0 -0.47290614754225418 0.17927990625307069 0 -0.48990795912038743 0.1705394446714503 0 -0.49999999999999922 0.18122105168006231 0 -0.47641327139526701 0.176356610699997 0 -0.49999999999999922 0.18122105168006231 0 -0.47641327139526701 0.176356610699997 0 -0.47290614754225418 0.17927990625307069 0 -0.47641327139526701 0.176356610699997 0 -0.47290614754225418 0.17927990625307069 0 -0.46545784383362432 0.16677863491631059 0 -0.47425543750884269 0.15518720020368579 0 -0.48990795912038743 0.1705394446714503 0 -0.47641327139526701 0.176356610699997 0 -0.47425543750884269 0.15518720020368579 0 -0.47641327139526701 0.176356610699997 0 -0.47425543750884269 0.15518720020368579 0 -0.47641327139526701 0.176356610699997 0 -0.46545784383362432 0.16677863491631059 0 -0.46545784383362432 0.16677863491631059 0 -0.43827301213968167 0.16031681849718851 0 -0.45635691166230602 0.14631694619423261 0 -0.47290614754225418 0.17927990625307069 0 -0.46545784383362432 0.16677863491631059 0 -0.44581229508450931 0.17733876082607899 0 -0.47290614754225418 0.17927990625307069 0 -0.44581229508450931 0.17733876082607899 0 -0.47290614754225418 0.17927990625307069 0 -0.44581229508450931 0.17733876082607899 0 -0.45614867868890657 0.19197316531283021 0 -0.44581229508450931 0.17733876082607899 0 -0.45614867868890657 0.19197316531283021 0 -0.44374144972927199 0.19241335606815421 0 -0.46545784383362432 0.16677863491631059 0 -0.44581229508450931 0.17733876082607899 0 -0.43827301213968167 0.16031681849718851 0 -0.43827301213968167 0.16031681849718851 0 -0.45635691166230602 0.14631694619423261 0 -0.43419376419314759 0.14076586212084591 0 -0.43473565999692898 0.1223644425561199 0 -0.45206676696457071 0.12680712066595459 0 -0.43419376419314759 0.14076586212084591 0 -0.45206676696457071 0.12680712066595459 0 -0.43419376419314759 0.14076586212084591 0 -0.45206676696457071 0.12680712066595459 0 -0.45635691166230602 0.14631694619423261 0 -0.43419376419314759 0.14076586212084591 0 -0.47209760362241832 0.13401778970737471 0 -0.4603592264557359 0.1352169888361178 0 -0.45635691166230602 0.14631694619423261 0 -0.45206676696457071 0.12680712066595459 0 -0.4603592264557359 0.1352169888361178 0 -0.45635691166230602 0.14631694619423261 0 -0.45206676696457071 0.12680712066595459 0 -0.4603592264557359 0.1352169888361178 0 -0.46361584169467968 0.12722256960512759 0 -0.47209760362241832 0.13401778970737471 0 -0.4603592264557359 0.1352169888361178 0 -0.46361584169467968 0.12722256960512759 0 -0.47425543750884269 0.15518720020368579 0 -0.46545784383362432 0.16677863491631059 0 -0.45635691166230602 0.14631694619423261 0 -0.47209760362241832 0.13401778970737471 0 -0.47425543750884269 0.15518720020368579 0 -0.45635691166230602 0.14631694619423261 0 -0.4842114785300824 0.2232348278184943 0 -0.46422713089612522 0.2282525573052531 0 -0.47884287989701441 0.25368825908796711 0 -0.50000000000000044 0.2372394198646382 0 -0.4842114785300824 0.2232348278184943 0 -0.47884287989701441 0.25368825908796711 0 -0.50000000000000044 0.2372394198646382 0 -0.47884287989701441 0.25368825908796711 0 -0.50000000000000044 0.2372394198646382 0 -0.4842114785300824 0.2232348278184943 0 -0.5 0.20923023577235031 0 -0.4842114785300824 0.2232348278184943 0 -0.46783613941891072 0.2035485068111971 0 -0.46422713089612522 0.2282525573052531 0 -0.4842114785300824 0.2232348278184943 0 -0.48497979531692648 0.1974883378356522 0 -0.46783613941891072 0.2035485068111971 0 -0.4842114785300824 0.2232348278184943 0 -0.5 0.20923023577235031 0 -0.48497979531692648 0.1974883378356522 0 -0.49999999999999922 0.18122105168006231 0 -0.5 0.20923023577235031 0 -0.48497979531692648 0.1974883378356522 0 -0.47290614754225418 0.17927990625307069 0 -0.48497979531692648 0.1974883378356522 0 -0.46783613941891072 0.2035485068111971 0 -0.45614867868890657 0.19197316531283021 0 -0.45171864386625221 0.20930895315798639 0 -0.46783613941891072 0.2035485068111971 0 -0.47290614754225418 0.17927990625307069 0 -0.45614867868890657 0.19197316531283021 0 -0.46783613941891072 0.2035485068111971 0 -0.45614867868890657 0.19197316531283021 0 -0.44374144972927199 0.19241335606815421 0 -0.45171864386625221 0.20930895315798639 0 -0.44374144972927199 0.19241335606815421 0 -0.43737393303937572 0.21704384845276611 0 -0.44374144972927199 0.19241335606815421 0 -0.45171864386625221 0.20930895315798639 0 -0.43737393303937572 0.21704384845276611 0 -0.45171864386625221 0.20930895315798639 0 -0.46783613941891072 0.2035485068111971 0 -0.46422713089612522 0.2282525573052531 0 -0.45171864386625221 0.20930895315798639 0 -0.46422713089612522 0.2282525573052531 0 -0.44830711687771713 0.234278546739177 0 -0.44830711687771713 0.234278546739177 0 -0.43100641634947701 0.24167434083737749 0 -0.43737393303937572 0.21704384845276611 0 -0.45171864386625221 0.20930895315798639 0 -0.44830711687771713 0.234278546739177 0 -0.43737393303937572 0.21704384845276611 0 -0.44830711687771713 0.234278546739177 0 -0.44297909837068022 0.24897218353138759 0 -0.45228251015878729 0.25175805989612871 0 -0.44830711687771713 0.234278546739177 0 -0.44297909837068022 0.24897218353138759 0 -0.43100641634947701 0.24167434083737749 0 -0.46422713089612522 0.2282525573052531 0 -0.45983336765998739 0.24496354054567571 0 -0.47884287989701441 0.25368825908796711 0 -0.44830711687771713 0.234278546739177 0 -0.45983336765998739 0.24496354054567571 0 -0.45228251015878729 0.25175805989612871 0 -0.46422713089612522 0.2282525573052531 0 -0.44830711687771713 0.234278546739177 0 -0.45983336765998739 0.24496354054567571 0 -0.43100641634947701 0.24167434083737749 0 -0.40872451834440982 0.2280926064960701 0 -0.41006073509768542 0.24458492045944921 0 -0.43100641634947701 0.24167434083737749 0 -0.40872451834440982 0.2280926064960701 0 -0.41006073509768542 0.24458492045944921 0 -0.43100641634947701 0.24167434083737749 0 -0.41990381710569591 0.25159028712561932 0 -0.44297909837068022 0.24897218353138759 0 -0.43100641634947701 0.24167434083737749 0 -0.44297909837068022 0.24897218353138759 0 -0.43100641634947701 0.24167434083737749 0 -0.43649336971806341 0.25688366259484868 0 -0.43100641634947701 0.24167434083737749 0 -0.43737393303937572 0.21704384845276611 0 -0.43100641634947701 0.24167434083737749 0 -0.4247334787167778 0.22593573626773411 0 -0.43737393303937572 0.21704384845276611 0 -0.4247334787167778 0.22593573626773411 0 -0.40872451834440982 0.2280926064960701 0 -0.42193207239344388 0.20583565537034229 0 -0.43100641634947701 0.24167434083737749 0 -0.4247334787167778 0.22593573626773411 0 -0.40872451834440982 0.2280926064960701 0 -0.40872451834440982 0.2280926064960701 0 -0.42193207239344388 0.20583565537034229 0 -0.40119160634636031 0.1977166966573897 0 -0.4247334787167778 0.22593573626773411 0 -0.42193207239344388 0.20583565537034229 0 -0.43737393303937572 0.21704384845276611 0 -0.44374144972927199 0.19241335606815421 0 -0.42193207239344388 0.20583565537034229 0 -0.43737393303937572 0.21704384845276611 0 -0.44374144972927199 0.19241335606815421 0 -0.42193207239344388 0.20583565537034229 0 -0.41871844262676422 0.1753976153990873 0 -0.42193207239344388 0.20583565537034229 0 -0.40119160634636031 0.1977166966573897 0 -0.41871844262676422 0.1753976153990873 0 -0.37970739420518168 0.18900696055198099 0 -0.38644262033934301 0.21451087215476219 0 -0.36416072233427621 0.20092913781345431 0 -0.40119160634636031 0.1977166966573897 0 -0.37970739420518168 0.18900696055198099 0 -0.38644262033934301 0.21451087215476219 0 -0.38644262033934301 0.21451087215476219 0 -0.36416072233427621 0.20092913781345431 0 -0.40872451834440982 0.2280926064960701 0 -0.40119160634636031 0.1977166966573897 0 -0.38644262033934301 0.21451087215476219 0 -0.40872451834440982 0.2280926064960701 0 -0.38644262033934301 0.21451087215476219 0 -0.40872451834440982 0.2280926064960701 0 -0.38644262033934301 0.21451087215476219 0 -0.3964311172149606 0.23682273221504069 0 -0.38644262033934301 0.21451087215476219 0 -0.38097370010591391 0.24384108033322641 0 -0.36817434966301671 0.2262795368339906 0 -0.38644262033934301 0.21451087215476219 0 -0.38097370010591391 0.24384108033322641 0 -0.3964311172149606 0.23682273221504069 0 -0.41006073509768542 0.24458492045944921 0 -0.40872451834440982 0.2280926064960701 0 -0.3964311172149606 0.23682273221504069 0 -0.41006073509768542 0.24458492045944921 0 -0.3964311172149606 0.23682273221504069 0 -0.39595401218745069 0.25308418163169571 0 -0.38097370010591391 0.24384108033322641 0 -0.3964311172149606 0.23682273221504069 0 -0.39595401218745069 0.25308418163169571 0 -0.41632076142172442 0.15472460357573731 0 -0.40240705081793682 0.15997306505504061 0 -0.40120935069159119 0.14372835320249441 0 -0.41632076142172442 0.15472460357573731 0 -0.41644872943855782 0.13157481587043729 0 -0.40120935069159119 0.14372835320249441 0 -0.43473565999692898 0.1223644425561199 0 -0.41644872943855782 0.13157481587043729 0 -0.43419376419314759 0.14076586212084591 0 -0.43827301213968167 0.16031681849718851 0 -0.41632076142172442 0.15472460357573731 0 -0.43419376419314759 0.14076586212084591 0 -0.41632076142172442 0.15472460357573731 0 -0.41644872943855782 0.13157481587043729 0 -0.43419376419314759 0.14076586212084591 0 -0.41632076142172442 0.15472460357573731 0 -0.43419376419314759 0.14076586212084591 0 -0.43827301213968167 0.16031681849718851 0 -0.41632076142172442 0.15472460357573731 0 -0.41871844262676422 0.1753976153990873 0 -0.44581229508450931 0.17733876082607899 0 -0.43827301213968167 0.16031681849718851 0 -0.41871844262676422 0.1753976153990873 0 -0.44581229508450931 0.17733876082607899 0 -0.44374144972927199 0.19241335606815421 0 -0.41871844262676422 0.1753976153990873 0 -0.44581229508450931 0.17733876082607899 0 -0.41871844262676422 0.1753976153990873 0 -0.41632076142172442 0.15472460357573731 0 -0.41871844262676422 0.1753976153990873 0 -0.40240705081793682 0.15997306505504061 0 -0.41871844262676422 0.1753976153990873 0 -0.40240705081793682 0.15997306505504061 0 -0.39162459016901918 0.1734564699720956 0 -0.40240705081793682 0.15997306505504061 0 -0.39162459016901918 0.1734564699720956 0 -0.38536741499785598 0.15004067301348381 0 -0.40119160634636031 0.1977166966573897 0 -0.41871844262676422 0.1753976153990873 0 -0.39162459016901918 0.1734564699720956 0 -0.41871844262676422 0.1753976153990873 0 -0.39162459016901918 0.1734564699720956 0 -0.40119160634636031 0.1977166966573897 0 -0.37970739420518168 0.18900696055198099 0 -0.39162459016901918 0.1734564699720956 0 -0.37970739420518168 0.18900696055198099 0 -0.39162459016901918 0.1734564699720956 0 -0.36453073771127431 0.1715153245451039 0 -0.39162459016901918 0.1734564699720956 0 -0.36453073771127431 0.1715153245451039 0 -0.39162459016901918 0.1734564699720956 0 -0.36453073771127431 0.1715153245451039 0 -0.37388007634436932 0.15886061719439831 0 -0.39162459016901918 0.1734564699720956 0 -0.38536741499785598 0.15004067301348381 0 -0.37388007634436932 0.15886061719439831 0 -0.38536741499785598 0.15004067301348381 0 -0.379669102532184 0.13122284739794199 0 -0.36928559446877668 0.145575504599851 0 -0.38536741499785598 0.15004067301348381 0 -0.36928559446877668 0.145575504599851 0 -0.37388007634436932 0.15886061719439831 0 -0.38536741499785598 0.15004067301348381 0 -0.40120935069159119 0.14372835320249441 0 -0.39080029021085949 0.13801966895938769 0 -0.40240705081793682 0.15997306505504061 0 -0.38536741499785598 0.15004067301348381 0 -0.40120935069159119 0.14372835320249441 0 -0.41644872943855782 0.13157481587043729 0 -0.40120935069159119 0.14372835320249441 0 -0.39695529262180701 0.12708680222363061 0 -0.40120935069159119 0.14372835320249441 0 -0.39080029021085949 0.13801966895938769 0 -0.39695529262180701 0.12708680222363061 0 -0.39080029021085949 0.13801966895938769 0 -0.39695529262180701 0.12708680222363061 0 -0.379669102532184 0.13122284739794199 0 -0.38536741499785598 0.15004067301348381 0 -0.39080029021085949 0.13801966895938769 0 -0.379669102532184 0.13122284739794199 0 -0.379669102532184 0.13122284739794199 0 -0.3611934238837029 0.1324529912677968 0 -0.36928559446877668 0.145575504599851 0 -0.379669102532184 0.13122284739794199 0 -0.3611934238837029 0.1324529912677968 0 -0.36648355068506788 0.1193039355354634 0 -0.3611934238837029 0.1324529912677968 0 -0.35706366321134098 0.14355221341784449 0 -0.36928559446877668 0.145575504599851 0 -0.3611934238837029 0.1324529912677968 0 -0.34972638908252618 0.1374710283842899 0 -0.34477288681553248 0.1256226861480205 0 -0.3611934238837029 0.1324529912677968 0 -0.34972638908252618 0.1374710283842899 0 -0.35706366321134098 0.14355221341784449 0 -0.34972638908252618 0.1374710283842899 0 -0.34646298257701258 0.14658055290642641 0 -0.33924902912652161 0.13750400280457889 0 -0.34972638908252618 0.1374710283842899 0 -0.34477288681553248 0.1256226861480205 0 -0.33924902912652161 0.13750400280457889 0 -0.34646298257701258 0.14658055290642641 0 -0.35864992604468632 0.15568098993085819 0 -0.34304154168103351 0.1576618555078465 0 -0.34972638908252618 0.1374710283842899 0 -0.34646298257701258 0.14658055290642641 0 -0.35706366321134098 0.14355221341784449 0 -0.34646298257701258 0.14658055290642641 0 -0.35706366321134098 0.14355221341784449 0 -0.35864992604468632 0.15568098993085819 0 -0.35706366321134098 0.14355221341784449 0 -0.35864992604468632 0.15568098993085819 0 -0.36928559446877668 0.145575504599851 0 -0.35864992604468632 0.15568098993085819 0 -0.36928559446877668 0.145575504599851 0 -0.37388007634436932 0.15886061719439831 0 -0.35864992604468632 0.15568098993085819 0 -0.36453073771127431 0.1715153245451039 0 -0.37388007634436932 0.15886061719439831 0 -0.37970739420518168 0.18900696055198099 0 -0.36453073771127431 0.1715153245451039 0 -0.36416072233427621 0.20092913781345431 0 -0.36453073771127431 0.1715153245451039 0 -0.34187882432920941 0.18734740347214629 0 -0.36416072233427621 0.20092913781345431 0 -0.36453073771127431 0.1715153245451039 0 -0.33743688525352938 0.1695741791181111 0 -0.34187882432920941 0.18734740347214629 0 -0.35864992604468632 0.15568098993085819 0 -0.36453073771127431 0.1715153245451039 0 -0.34924155587878591 0.16680067727176601 0 -0.36453073771127431 0.1715153245451039 0 -0.33743688525352938 0.1695741791181111 0 -0.36453073771127431 0.1715153245451039 0 -0.34924155587878591 0.16680067727176601 0 -0.33743688525352938 0.1695741791181111 0 -0.35864992604468632 0.15568098993085819 0 -0.34924155587878591 0.16680067727176601 0 -0.34304154168103351 0.1576618555078465 0 -0.34304154168103351 0.1576618555078465 0 -0.33743688525352938 0.1695741791181111 0 -0.33194721327431642 0.15290747255581391 0 -0.33743688525352938 0.1695741791181111 0 -0.32364541471849562 0.15962761808306231 0 -0.33194721327431642 0.15290747255581391 0 -0.33743688525352938 0.1695741791181111 0 -0.31959692632414172 0.17376566913083971 0 -0.34924155587878591 0.16680067727176601 0 -0.34304154168103351 0.1576618555078465 0 -0.33743688525352938 0.1695741791181111 0 -0.34924155587878591 0.16680067727176601 0 -0.33743688525352938 0.1695741791181111 0 -0.34187882432920941 0.18734740347214629 0 -0.31959692632414172 0.17376566913083971 0 -0.33743688525352938 0.1695741791181111 0 -0.34187882432920941 0.18734740347214629 0 -0.31959692632414172 0.17376566913083971 0 -0.34187882432920941 0.18734740347214629 0 -0.31959692632414172 0.17376566913083971 0 -0.31667547461307077 0.19594335853335301 0 -0.32364541471849562 0.15962761808306231 0 -0.31576921428751131 0.14846131991345771 0 -0.30942834605862563 0.1675675007448644 0 -0.33743688525352938 0.1695741791181111 0 -0.31959692632414172 0.17376566913083971 0 -0.30942834605862563 0.1675675007448644 0 -0.33743688525352938 0.1695741791181111 0 -0.32364541471849562 0.15962761808306231 0 -0.30942834605862563 0.1675675007448644 0 -0.33743688525352938 0.1695741791181111 0 -0.30942834605862563 0.1675675007448644 0 -0.31959692632414172 0.17376566913083971 0 -0.30942834605862563 0.1675675007448644 0 -0.32364541471849562 0.15962761808306231 0 -0.31576921428751131 0.14846131991345771 0 -0.33194721327431642 0.15290747255581391 0 -0.31576921428751131 0.14846131991345771 0 -0.32790842931263547 0.13829255145379371 0 -0.33194721327431642 0.15290747255581391 0 -0.31576921428751131 0.14846131991345771 0 -0.31715550376224289 0.1364763582138637 0 -0.32790842931263547 0.13829255145379371 0 -0.31576921428751131 0.14846131991345771 0 -0.31715550376224289 0.1364763582138637 0 -0.30613413606354761 0.13765348904817151 0 -0.31715550376224289 0.1364763582138637 0 -0.30613413606354761 0.13765348904817151 0 -0.31445151658903647 0.1243748783024395 0 -0.31715550376224289 0.1364763582138637 0 -0.3294881304138621 0.12784940930772329 0 -0.31445151658903647 0.1243748783024395 0 -0.31715550376224289 0.1364763582138637 0 -0.32790842931263547 0.13829255145379371 0 -0.3294881304138621 0.12784940930772329 0 -0.32790842931263547 0.13829255145379371 0 -0.3294881304138621 0.12784940930772329 0 -0.33924902912652161 0.13750400280457889 0 -0.34477288681553248 0.1256226861480205 0 -0.3294881304138621 0.12784940930772329 0 -0.33924902912652161 0.13750400280457889 0 -0.34646298257701258 0.14658055290642641 0 -0.33924902912652161 0.13750400280457889 0 -0.33194721327431642 0.15290747255581391 0 -0.34646298257701258 0.14658055290642641 0 -0.34304154168103351 0.1576618555078465 0 -0.33194721327431642 0.15290747255581391 0 -0.32790842931263547 0.13829255145379371 0 -0.33924902912652161 0.13750400280457889 0 -0.33194721327431642 0.15290747255581391 0 -0.34659904806411618 0.22368385912824049 0 -0.33816870206517008 0.2418705494875045 0 -0.36184882001612789 0.25120191596523961 0 -0.38097370010591391 0.24384108033322641 0 -0.36817434966301671 0.2262795368339906 0 -0.36184882001612789 0.25120191596523961 0 -0.36817434966301671 0.2262795368339906 0 -0.34659904806411618 0.22368385912824049 0 -0.36184882001612789 0.25120191596523961 0 -0.34659904806411618 0.22368385912824049 0 -0.36416072233427621 0.20092913781345431 0 -0.33317934538001798 0.2085403678040082 0 -0.38644262033934301 0.21451087215476219 0 -0.36817434966301671 0.2262795368339906 0 -0.36416072233427621 0.20092913781345431 0 -0.36817434966301671 0.2262795368339906 0 -0.34659904806411618 0.22368385912824049 0 -0.36416072233427621 0.20092913781345431 0 -0.34187882432920941 0.18734740347214629 0 -0.36416072233427621 0.20092913781345431 0 -0.33317934538001798 0.2085403678040082 0 -0.34187882432920941 0.18734740347214629 0 -0.36416072233427621 0.20092913781345431 0 -0.34187882432920941 0.18734740347214629 0 -0.31667547461307077 0.19594335853335301 0 -0.33317934538001798 0.2085403678040082 0 -0.31667547461307077 0.19594335853335301 0 -0.33317934538001798 0.2085403678040082 0 -0.3123710375436678 0.21162782865148039 0 -0.33317934538001798 0.2085403678040082 0 -0.31869288595089612 0.22815348218819509 0 -0.3123710375436678 0.21162782865148039 0 -0.34659904806411618 0.22368385912824049 0 -0.33317934538001798 0.2085403678040082 0 -0.31869288595089612 0.22815348218819509 0 -0.34659904806411618 0.22368385912824049 0 -0.31869288595089612 0.22815348218819509 0 -0.34659904806411618 0.22368385912824049 0 -0.31869288595089612 0.22815348218819509 0 -0.33816870206517008 0.2418705494875045 0 -0.31869288595089612 0.22815348218819509 0 -0.3207186543605689 0.24865522219363589 0 -0.33816870206517008 0.2418705494875045 0 -0.31869288595089612 0.22815348218819509 0 -0.3207186543605689 0.24865522219363589 0 -0.30127403803759578 0.24184846254218009 0 -0.3207186543605689 0.24865522219363589 0 -0.33816870206517008 0.2418705494875045 0 -0.34298410193414131 0.25765826796221142 0 -0.2878963225560261 0.23783253116520189 0 -0.30127403803759578 0.24184846254218009 0 -0.30140137628232772 0.25581537921343828 0 -0.28783678584541489 0.24316849743735339 0 -0.2819927719755364 0.24847261411558719 0 -0.30140137628232772 0.25581537921343828 0 -0.28783678584541489 0.24316849743735339 0 -0.2878963225560261 0.23783253116520189 0 -0.30140137628232772 0.25581537921343828 0 -0.2878963225560261 0.23783253116520189 0 -0.30140137628232772 0.25581537921343828 0 -0.2819927719755364 0.24847261411558719 0 -0.2878963225560261 0.23783253116520189 0 -0.28783678584541489 0.24316849743735339 0 -0.2819927719755364 0.24847261411558719 0 -0.2878963225560261 0.23783253116520189 0 -0.2819927719755364 0.24847261411558719 0 -0.2878963225560261 0.23783253116520189 0 -0.27857745300711062 0.24062441390563011 0 -0.28783678584541489 0.24316849743735339 0 -0.2819927719755364 0.24847261411558719 0 -0.2878963225560261 0.23783253116520189 0 -0.28471446003510442 0.23359567647482071 0 -0.27857745300711062 0.24062441390563011 0 -0.2878963225560261 0.23783253116520189 0 -0.2907867238376759 0.2326231052481485 0 -0.28471446003510442 0.23359567647482071 0 -0.2878963225560261 0.23783253116520189 0 -0.28471446003510442 0.23359567647482071 0 -0.2878963225560261 0.23783253116520189 0 -0.30127403803759578 0.24184846254218009 0 -0.2907867238376759 0.2326231052481485 0 -0.2878963225560261 0.23783253116520189 0 -0.2907867238376759 0.2326231052481485 0 -0.3207186543605689 0.24865522219363589 0 -0.30127403803759578 0.24184846254218009 0 -0.30140137628232772 0.25581537921343828 0 -0.31869288595089612 0.22815348218819509 0 -0.2907867238376759 0.2326231052481485 0 -0.31869288595089612 0.22815348218819509 0 -0.29721258455806959 0.221041652669662 0 -0.2907867238376759 0.2326231052481485 0 -0.31869288595089612 0.22815348218819509 0 -0.30127403803759578 0.24184846254218009 0 -0.2907867238376759 0.2326231052481485 0 -0.31869288595089612 0.22815348218819509 0 -0.29721258455806959 0.221041652669662 0 -0.3123710375436678 0.21162782865148039 0 -0.29721258455806959 0.221041652669662 0 -0.2907867238376759 0.2326231052481485 0 -0.28842231769837828 0.22434226086345219 0 -0.29721258455806959 0.221041652669662 0 -0.28842231769837828 0.22434226086345219 0 -0.28891411216950841 0.21567660690904891 0 -0.29721258455806959 0.221041652669662 0 -0.2907867238376759 0.2326231052481485 0 -0.2907867238376759 0.2326231052481485 0 -0.28579583719130069 0.22914878259512519 0 -0.28842231769837828 0.22434226086345219 0 -0.2907867238376759 0.2326231052481485 0 -0.28579583719130069 0.22914878259512519 0 -0.28471446003510442 0.23359567647482071 0 -0.2907867238376759 0.2326231052481485 0 -0.28471446003510442 0.23359567647482071 0 -0.28579583719130069 0.22914878259512519 0 -0.28471446003510442 0.23359567647482071 0 -0.28235458431957922 0.23045335010833209 0 -0.28471446003510442 0.23359567647482071 0 -0.28235458431957922 0.23045335010833209 0 -0.28579583719130069 0.22914878259512519 0 -0.28235458431957922 0.23045335010833209 0 -0.28290652183536641 0.22500922970511361 0 -0.28243250878847792 0.21959182376574421 0 -0.28842231769837828 0.22434226086345219 0 -0.28891411216950841 0.21567660690904891 0 -0.28290652183536641 0.22500922970511361 0 -0.28243250878847792 0.21959182376574421 0 -0.28842231769837828 0.22434226086345219 0 -0.28579583719130069 0.22914878259512519 0 -0.28290652183536641 0.22500922970511361 0 -0.28842231769837828 0.22434226086345219 0 -0.29721258455806959 0.221041652669662 0 -0.29609489721628451 0.20446028206218361 0 -0.28891411216950841 0.21567660690904891 0 -0.29609489721628451 0.20446028206218361 0 -0.28891411216950841 0.21567660690904891 0 -0.28040825258633151 0.2089470151842025 0 -0.28243250878847792 0.21959182376574421 0 -0.28891411216950841 0.21567660690904891 0 -0.28040825258633151 0.2089470151842025 0 -0.29721258455806959 0.221041652669662 0 -0.29609489721628451 0.20446028206218361 0 -0.3123710375436678 0.21162782865148039 0 -0.31667547461307077 0.19594335853335301 0 -0.29609489721628451 0.20446028206218361 0 -0.3123710375436678 0.21162782865148039 0 -0.31667547461307077 0.19594335853335301 0 -0.29609489721628451 0.20446028206218361 0 -0.29762683167750131 0.17892753260007199 0 -0.29609489721628451 0.20446028206218361 0 -0.28357031667792748 0.19521054517927849 0 -0.29762683167750131 0.17892753260007199 0 -0.29609489721628451 0.20446028206218361 0 -0.28357031667792748 0.19521054517927849 0 -0.28040825258633151 0.2089470151842025 0 -0.26806486487865983 0.19962849998063231 0 -0.25649718147556488 0.1935427170433319 0 -0.27565673703086019 0.18408939606930219 0 -0.28357031667792748 0.19521054517927849 0 -0.26806486487865983 0.19962849998063231 0 -0.27565673703086019 0.18408939606930219 0 -0.28357031667792748 0.19521054517927849 0 -0.26806486487865983 0.19962849998063231 0 -0.28040825258633151 0.2089470151842025 0 -0.25649718147556488 0.1935427170433319 0 -0.25368664238421901 0.1892512595385317 0 -0.27565673703086019 0.18408939606930219 0 -0.25649718147556488 0.1935427170433319 0 -0.25368664238421901 0.1892512595385317 0 -0.25649718147556488 0.1935427170433319 0 -0.25040908159511338 0.19002132091412399 0 -0.25368664238421901 0.1892512595385317 0 -0.25040908159511338 0.19002132091412399 0 -0.25368664238421901 0.1892512595385317 0 -0.25649718147556488 0.1935427170433319 0 -0.25040908159511338 0.19002132091412399 0 -0.25560926976635312 0.2035916052873919 0 -0.25649718147556488 0.1935427170433319 0 -0.26103248667566809 0.2006549656895783 0 -0.25560926976635312 0.2035916052873919 0 -0.26806486487865983 0.19962849998063231 0 -0.25649718147556488 0.1935427170433319 0 -0.26103248667566809 0.2006549656895783 0 -0.26806486487865983 0.19962849998063231 0 -0.26103248667566809 0.2006549656895783 0 -0.26313606797396372 0.20575608991571731 0 -0.26313606797396372 0.20575608991571731 0 -0.25560926976635312 0.2035916052873919 0 -0.26025085862406838 0.21284683740767971 0 -0.26313606797396372 0.20575608991571731 0 -0.26025085862406838 0.21284683740767971 0 -0.27072285992506878 0.21205854121330389 0 -0.26103248667566809 0.2006549656895783 0 -0.26313606797396372 0.20575608991571731 0 -0.25560926976635312 0.2035916052873919 0 -0.25560926976635312 0.2035916052873919 0 -0.25194739826678658 0.21444461515785401 0 -0.26025085862406838 0.21284683740767971 0 -0.25194739826678658 0.21444461515785401 0 -0.26025085862406838 0.21284683740767971 0 -0.2551855299144159 0.22331770328677139 0 -0.26025085862406838 0.21284683740767971 0 -0.26379945917494552 0.21942789216232239 0 -0.2551855299144159 0.22331770328677139 0 -0.26025085862406838 0.21284683740767971 0 -0.27072285992506878 0.21205854121330389 0 -0.26379945917494552 0.21942789216232239 0 -0.27072285992506878 0.21205854121330389 0 -0.2762141549422647 0.2171977857798976 0 -0.27018851440145158 0.2214425513639445 0 -0.27072285992506878 0.21205854121330389 0 -0.27018851440145158 0.2214425513639445 0 -0.26379945917494552 0.21942789216232239 0 -0.26806486487865983 0.19962849998063231 0 -0.27072285992506878 0.21205854121330389 0 -0.28040825258633151 0.2089470151842025 0 -0.26806486487865983 0.19962849998063231 0 -0.26313606797396372 0.20575608991571731 0 -0.27072285992506878 0.21205854121330389 0 -0.28243250878847792 0.21959182376574421 0 -0.28040825258633151 0.2089470151842025 0 -0.2762141549422647 0.2171977857798976 0 -0.27072285992506878 0.21205854121330389 0 -0.28040825258633151 0.2089470151842025 0 -0.2762141549422647 0.2171977857798976 0 -0.28235458431957922 0.23045335010833209 0 -0.27190528306925288 0.2277052940984525 0 -0.26660445029023933 0.23649628734503669 0 -0.28471446003510442 0.23359567647482071 0 -0.28235458431957922 0.23045335010833209 0 -0.26660445029023933 0.23649628734503669 0 -0.2762141549422647 0.2171977857798976 0 -0.27731863900999382 0.22394899737229271 0 -0.27018851440145158 0.2214425513639445 0 -0.28243250878847792 0.21959182376574421 0 -0.2762141549422647 0.2171977857798976 0 -0.27731863900999382 0.22394899737229271 0 -0.28290652183536641 0.22500922970511361 0 -0.28243250878847792 0.21959182376574421 0 -0.27731863900999382 0.22394899737229271 0 -0.28235458431957922 0.23045335010833209 0 -0.28290652183536641 0.22500922970511361 0 -0.27731863900999382 0.22394899737229271 0 -0.28235458431957922 0.23045335010833209 0 -0.27731863900999382 0.22394899737229271 0 -0.27190528306925288 0.2277052940984525 0 -0.27190528306925288 0.2277052940984525 0 -0.26306022732500117 0.2261852843026565 0 -0.26660445029023933 0.23649628734503669 0 -0.27190528306925288 0.2277052940984525 0 -0.27018851440145158 0.2214425513639445 0 -0.26306022732500117 0.2261852843026565 0 -0.27731863900999382 0.22394899737229271 0 -0.27190528306925288 0.2277052940984525 0 -0.27018851440145158 0.2214425513639445 0 -0.27018851440145158 0.2214425513639445 0 -0.26379945917494552 0.21942789216232239 0 -0.26306022732500117 0.2261852843026565 0 -0.26379945917494552 0.21942789216232239 0 -0.26306022732500117 0.2261852843026565 0 -0.2551855299144159 0.22331770328677139 0 -0.25194739826678658 0.21444461515785401 0 -0.2551855299144159 0.22331770328677139 0 -0.24648494098598731 0.22005601514351311 0 -0.2551855299144159 0.22331770328677139 0 -0.25669282748587019 0.23259828520318579 0 -0.25087712384573357 0.23287003298724779 0 -0.2551855299144159 0.22331770328677139 0 -0.25087712384573357 0.23287003298724779 0 -0.24644648607505501 0.2281382003786194 0 -0.26306022732500117 0.2261852843026565 0 -0.2551855299144159 0.22331770328677139 0 -0.25669282748587019 0.23259828520318579 0 -0.26306022732500117 0.2261852843026565 0 -0.25669282748587019 0.23259828520318579 0 -0.26660445029023933 0.23649628734503669 0 -0.26305761738569661 0.24901977672961981 0 -0.26660445029023933 0.23649628734503669 0 -0.24910725770640421 0.24333336453792839 0 -0.26660445029023933 0.23649628734503669 0 -0.24849444054537431 0.23939689821525401 0 -0.26660445029023933 0.23649628734503669 0 -0.24910725770640421 0.24333336453792839 0 -0.24849444054537431 0.23939689821525401 0 -0.25669282748587019 0.23259828520318579 0 -0.26660445029023933 0.23649628734503669 0 -0.24849444054537431 0.23939689821525401 0 -0.25669282748587019 0.23259828520318579 0 -0.25087712384573357 0.23287003298724779 0 -0.24849444054537431 0.23939689821525401 0 -0.26305761738569661 0.24901977672961981 0 -0.27170183260557451 0.24576845768534011 0 -0.27087126593366828 0.2513959023754001 0 -0.28471446003510442 0.23359567647482071 0 -0.26660445029023933 0.23649628734503669 0 -0.28471446003510442 0.23359567647482071 0 -0.26660445029023933 0.23649628734503669 0 -0.27857745300711062 0.24062441390563011 0 -0.26305761738569661 0.24901977672961981 0 -0.27170183260557451 0.24576845768534011 0 -0.26660445029023933 0.23649628734503669 0 -0.27170183260557451 0.24576845768534011 0 -0.26660445029023933 0.23649628734503669 0 -0.27857745300711062 0.24062441390563011 0 -0.2819927719755364 0.24847261411558719 0 -0.27170183260557451 0.24576845768534011 0 -0.27087126593366828 0.2513959023754001 0 -0.2819927719755364 0.24847261411558719 0 -0.27170183260557451 0.24576845768534011 0 -0.27857745300711062 0.24062441390563011 0 -0.28518277179751822 0.15278882486671649 0 -0.28766266813640529 0.13625926891107989 0 -0.30106383526101399 0.14893341760148229 0 -0.28766266813640529 0.13625926891107989 0 -0.27158793862335862 0.1232191378894497 0 -0.28657099432327149 0.1233271659253648 0 -0.28766266813640529 0.13625926891107989 0 -0.28657099432327149 0.1233271659253648 0 -0.29945736628912001 0.124267034381024 0 -0.28766266813640529 0.13625926891107989 0 -0.30613413606354761 0.13765348904817151 0 -0.29945736628912001 0.124267034381024 0 -0.30613413606354761 0.13765348904817151 0 -0.29945736628912001 0.124267034381024 0 -0.31445151658903647 0.1243748783024395 0 -0.28766266813640529 0.13625926891107989 0 -0.30613413606354761 0.13765348904817151 0 -0.30106383526101399 0.14893341760148229 0 -0.31576921428751131 0.14846131991345771 0 -0.30106383526101399 0.14893341760148229 0 -0.30942834605862563 0.1675675007448644 0 -0.31576921428751131 0.14846131991345771 0 -0.30613413606354761 0.13765348904817151 0 -0.30106383526101399 0.14893341760148229 0 -0.28518277179751822 0.15278882486671649 0 -0.30942834605862563 0.1675675007448644 0 -0.30942834605862563 0.1675675007448644 0 -0.29762683167750131 0.17892753260007199 0 -0.28496631052191529 0.16581491245971641 0 -0.30942834605862563 0.1675675007448644 0 -0.28496631052191529 0.16581491245971641 0 -0.28518277179751822 0.15278882486671649 0 -0.30106383526101399 0.14893341760148229 0 -0.30942834605862563 0.1675675007448644 0 -0.31959692632414172 0.17376566913083971 0 -0.31667547461307077 0.19594335853335301 0 -0.29762683167750131 0.17892753260007199 0 -0.31959692632414172 0.17376566913083971 0 -0.30942834605862563 0.1675675007448644 0 -0.29762683167750131 0.17892753260007199 0 -0.31959692632414172 0.17376566913083971 0 -0.29762683167750131 0.17892753260007199 0 -0.29762683167750131 0.17892753260007199 0 -0.27565673703086019 0.18408939606930219 0 -0.28357031667792748 0.19521054517927849 0 -0.29762683167750131 0.17892753260007199 0 -0.27565673703086019 0.18408939606930219 0 -0.29762683167750131 0.17892753260007199 0 -0.28496631052191529 0.16581491245971641 0 -0.27565673703086019 0.18408939606930219 0 -0.28518277179751822 0.15278882486671649 0 -0.30942834605862563 0.1675675007448644 0 -0.28496631052191529 0.16581491245971641 0 -0.28496631052191529 0.16581491245971641 0 -0.26267374514664682 0.17816660984174881 0 -0.26050427498520512 0.16406232417456759 0 -0.28518277179751822 0.15278882486671649 0 -0.28496631052191529 0.16581491245971641 0 -0.26050427498520512 0.16406232417456759 0 -0.28496631052191529 0.16581491245971641 0 -0.26050427498520512 0.16406232417456759 0 -0.28496631052191529 0.16581491245971641 0 -0.27565673703086019 0.18408939606930219 0 -0.26267374514664682 0.17816660984174881 0 -0.25368664238421901 0.1892512595385317 0 -0.27565673703086019 0.18408939606930219 0 -0.26267374514664682 0.17816660984174881 0 -0.26267374514664682 0.17816660984174881 0 -0.26050427498520512 0.16406232417456759 0 -0.24486444091635681 0.17578049771397569 0 -0.25368664238421901 0.1892512595385317 0 -0.26267374514664682 0.17816660984174881 0 -0.24486444091635681 0.17578049771397569 0 -0.25368664238421901 0.1892512595385317 0 -0.27565673703086019 0.18408939606930219 0 -0.26050427498520512 0.16406232417456759 0 -0.26093719753641031 0.1380101489885692 0 -0.24107654509340781 0.14443116564150069 0 -0.28518277179751822 0.15278882486671649 0 -0.28766266813640529 0.13625926891107989 0 -0.26093719753641031 0.1380101489885692 0 -0.28518277179751822 0.15278882486671649 0 -0.26093719753641031 0.1380101489885692 0 -0.28518277179751822 0.15278882486671649 0 -0.26050427498520512 0.16406232417456759 0 -0.26093719753641031 0.1380101489885692 0 -0.28766266813640529 0.13625926891107989 0 -0.26093719753641031 0.1380101489885692 0 -0.27158793862335862 0.1232191378894497 0 -0.26093719753641031 0.1380101489885692 0 -0.2544178763525049 0.11356856211053359 0 -0.2366916232753026 0.1232314731104219 0 -0.26093719753641031 0.1380101489885692 0 -0.2544178763525049 0.11356856211053359 0 -0.27158793862335862 0.1232191378894497 0 -0.25330340275947699 0.097640948961847704 0 -0.27264934242637939 0.1050991248953607 0 -0.25981594507570271 0.084526567999776564 0 -0.2544178763525049 0.11356856211053359 0 -0.25330340275947699 0.097640948961847704 0 -0.27264934242637939 0.1050991248953607 0 -0.27264934242637939 0.1050991248953607 0 -0.28914392796916011 0.097088267411390469 0 -0.27732285337025731 0.085859091051527503 0 -0.2544178763525049 0.11356856211053359 0 -0.27264934242637939 0.1050991248953607 0 -0.27158793862335862 0.1232191378894497 0 -0.27264934242637939 0.1050991248953607 0 -0.27158793862335862 0.1232191378894497 0 -0.28657099432327149 0.1233271659253648 0 -0.27264934242637939 0.1050991248953607 0 -0.28657099432327149 0.1233271659253648 0 -0.29288964788521482 0.1099875623263946 0 -0.28657099432327149 0.1233271659253648 0 -0.29288964788521482 0.1099875623263946 0 -0.29945736628912001 0.124267034381024 0 -0.29288964788521482 0.1099875623263946 0 -0.28914392796916011 0.097088267411390469 0 -0.30552967341059017 0.095916531967890101 0 -0.27264934242637939 0.1050991248953607 0 -0.29288964788521482 0.1099875623263946 0 -0.28914392796916011 0.097088267411390469 0 -0.30552967341059017 0.095916531967890101 0 -0.30582849486463859 0.1126967726448716 0 -0.31748883559990448 0.10793760663304031 0 -0.29288964788521482 0.1099875623263946 0 -0.30552967341059017 0.095916531967890101 0 -0.30582849486463859 0.1126967726448716 0 -0.30582849486463859 0.1126967726448716 0 -0.29945736628912001 0.124267034381024 0 -0.31445151658903647 0.1243748783024395 0 -0.29288964788521482 0.1099875623263946 0 -0.30582849486463859 0.1126967726448716 0 -0.29945736628912001 0.124267034381024 0 -0.30589916628940222 0.07606050917594244 0 -0.30792272299738588 0.058980034031233891 0 -0.31510734235460719 0.071010772432459193 0 -0.30589916628940222 0.07606050917594244 0 -0.29237918003016311 0.083423889299875431 0 -0.29322574800932538 0.064451547412265026 0 -0.30589916628940222 0.07606050917594244 0 -0.29322574800932538 0.064451547412265026 0 -0.30792272299738588 0.058980034031233891 0 -0.30552967341059017 0.095916531967890101 0 -0.30589916628940222 0.07606050917594244 0 -0.29237918003016311 0.083423889299875431 0 -0.30552967341059017 0.095916531967890101 0 -0.30589916628940222 0.07606050917594244 0 -0.31846271887825922 0.083342286020994444 0 -0.28914392796916011 0.097088267411390469 0 -0.30552967341059017 0.095916531967890101 0 -0.29237918003016311 0.083423889299875431 0 -0.28914392796916011 0.097088267411390469 0 -0.29237918003016311 0.083423889299875431 0 -0.27732285337025731 0.085859091051527503 0 -0.29237918003016311 0.083423889299875431 0 -0.28194865789219042 0.073029360435535567 0 -0.27732285337025731 0.085859091051527503 0 -0.28194865789219042 0.073029360435535567 0 -0.29322574800932538 0.064451547412265026 0 -0.27821606472516441 0.056334982979923669 0 -0.29237918003016311 0.083423889299875431 0 -0.28194865789219042 0.073029360435535567 0 -0.29322574800932538 0.064451547412265026 0 -0.28194865789219042 0.073029360435535567 0 -0.26749963726242931 0.071561805919426236 0 -0.27821606472516441 0.056334982979923669 0 -0.28194865789219042 0.073029360435535567 0 -0.26749963726242931 0.071561805919426236 0 -0.27732285337025731 0.085859091051527503 0 -0.26749963726242931 0.071561805919426236 0 -0.27732285337025731 0.085859091051527503 0 -0.25981594507570271 0.084526567999776564 0 -0.27264934242637939 0.1050991248953607 0 -0.27732285337025731 0.085859091051527503 0 -0.25981594507570271 0.084526567999776564 0 -0.25330340275947699 0.097640948961847704 0 -0.25981594507570271 0.084526567999776564 0 -0.24212914814080441 0.085811078060409302 0 -0.26749963726242931 0.071561805919426236 0 -0.25981594507570271 0.084526567999776564 0 -0.24469319669088871 0.067914101683764758 0 -0.26749963726242931 0.071561805919426236 0 -0.26011863152298398 0.059255676562700907 0 -0.24469319669088871 0.067914101683764758 0 -0.26011863152298398 0.059255676562700907 0 -0.24933364105965389 0.052640536924998073 0 -0.24469319669088871 0.067914101683764758 0 -0.26011863152298398 0.059255676562700907 0 -0.26302806369437087 0.046859293256697583 0 -0.24933364105965389 0.052640536924998073 0 -0.26620662450804328 0.032312477138676389 0 -0.24410272171733879 0.03737309415361658 0 -0.26302806369437087 0.046859293256697583 0 -0.26620662450804328 0.032312477138676389 0 -0.24410272171733879 0.03737309415361658 0 -0.26302806369437087 0.046859293256697583 0 -0.24410272171733879 0.03737309415361658 0 -0.24933364105965389 0.052640536924998073 0 -0.26302806369437087 0.046859293256697583 0 -0.26620662450804328 0.032312477138676389 0 -0.28019069863304108 0.043238991780269902 0 -0.26620662450804328 0.032312477138676389 0 -0.28019069863304108 0.043238991780269902 0 -0.28135434353481942 0.029995919267577279 0 -0.26011863152298398 0.059255676562700907 0 -0.26302806369437087 0.046859293256697583 0 -0.27821606472516441 0.056334982979923669 0 -0.26749963726242931 0.071561805919426236 0 -0.26011863152298398 0.059255676562700907 0 -0.27821606472516441 0.056334982979923669 0 -0.26302806369437087 0.046859293256697583 0 -0.28019069863304108 0.043238991780269902 0 -0.27821606472516441 0.056334982979923669 0 -0.25689548211398672 0.003199995621086429 0 -0.26357965990100207 0.01851218637870573 0 -0.24720763565175199 0.021624765903760879 0 -0.26620662450804328 0.032312477138676389 0 -0.24720763565175199 0.021624765903760879 0 -0.24410272171733879 0.03737309415361658 0 -0.26620662450804328 0.032312477138676389 0 -0.26357965990100207 0.01851218637870573 0 -0.24720763565175199 0.021624765903760879 0 -0.26357965990100207 0.01851218637870573 0 -0.28032519182805637 0.013170569081568511 0 -0.28135434353481942 0.029995919267577279 0 -0.26620662450804328 0.032312477138676389 0 -0.26357965990100207 0.01851218637870573 0 -0.28135434353481942 0.029995919267577279 0 -0.27990087635976602 -0.003018000538219144 0 -0.25689548211398672 0.003199995621086429 0 -0.28032519182805637 0.013170569081568511 0 -0.25689548211398672 0.003199995621086429 0 -0.26357965990100207 0.01851218637870573 0 -0.28032519182805637 0.013170569081568511 0 -0.28032519182805637 0.013170569081568511 0 -0.30004961895609761 0.02657049449790622 0 -0.29743804133862511 0.003483344366603097 0 -0.27990087635976602 -0.003018000538219144 0 -0.28032519182805637 0.013170569081568511 0 -0.29743804133862511 0.003483344366603097 0 -0.28032519182805637 0.013170569081568511 0 -0.28135434353481942 0.029995919267577279 0 -0.30004961895609761 0.02657049449790622 0 -0.30004961895609761 0.02657049449790622 0 -0.31189304158979342 0.0119659997261742 0 -0.32043564802057051 0.032843585271704688 0 -0.31747393394203732 -0.001863909567955442 0 -0.29743804133862511 0.003483344366603097 0 -0.31189304158979342 0.0119659997261742 0 -0.30004961895609761 0.02657049449790622 0 -0.29743804133862511 0.003483344366603097 0 -0.31189304158979342 0.0119659997261742 0 -0.29322574800932538 0.064451547412265026 0 -0.27821606472516441 0.056334982979923669 0 -0.29319200621210101 0.045762910520291543 0 -0.28019069863304108 0.043238991780269902 0 -0.27821606472516441 0.056334982979923669 0 -0.29319200621210101 0.045762910520291543 0 -0.28135434353481942 0.029995919267577279 0 -0.30004961895609761 0.02657049449790622 0 -0.29319200621210101 0.045762910520291543 0 -0.28019069863304108 0.043238991780269902 0 -0.28135434353481942 0.029995919267577279 0 -0.29319200621210101 0.045762910520291543 0 -0.30004961895609761 0.02657049449790622 0 -0.29319200621210101 0.045762910520291543 0 -0.30939173150839128 0.043758965060423011 0 -0.30004961895609761 0.02657049449790622 0 -0.30939173150839128 0.043758965060423011 0 -0.32043564802057051 0.032843585271704688 0 -0.29322574800932538 0.064451547412265026 0 -0.29319200621210101 0.045762910520291543 0 -0.30792272299738588 0.058980034031233891 0 -0.29319200621210101 0.045762910520291543 0 -0.30939173150839128 0.043758965060423011 0 -0.30792272299738588 0.058980034031233891 0 -0.30792272299738588 0.058980034031233891 0 -0.32897825445134699 0.053721170817235403 0 -0.31510734235460719 0.071010772432459193 0 -0.30939173150839128 0.043758965060423011 0 -0.30792272299738588 0.058980034031233891 0 -0.32897825445134699 0.053721170817235403 0 -0.32043564802057051 0.032843585271704688 0 -0.32897825445134699 0.053721170817235403 0 -0.33079493267916371 0.024263657414093351 0 -0.30939173150839128 0.043758965060423011 0 -0.32043564802057051 0.032843585271704688 0 -0.32897825445134699 0.053721170817235403 0 -0.32043564802057051 0.032843585271704688 0 -0.32897825445134699 0.053721170817235403 0 -0.33988209188044038 0.036822071806506228 0 -0.32897825445134699 0.053721170817235403 0 -0.34410762036403097 0.047605227336887442 0 -0.32897825445134699 0.053721170817235403 0 -0.33079493267916371 0.024263657414093351 0 -0.33988209188044038 0.036822071806506228 0 -0.32897825445134699 0.053721170817235403 0 -0.33079493267916371 0.024263657414093351 0 -0.32897825445134699 0.053721170817235403 0 -0.34736247347057009 0.060964970125011023 0 -0.34410762036403097 0.047605227336887442 0 -0.31747393394203732 -0.001863909567955442 0 -0.31189304158979342 0.0119659997261742 0 -0.33079493267916371 0.024263657414093351 0 -0.3326116109069811 -0.005193855989048729 0 -0.31747393394203732 -0.001863909567955442 0 -0.33079493267916371 0.024263657414093351 0 -0.31189304158979342 0.0119659997261742 0 -0.32043564802057051 0.032843585271704688 0 -0.31189304158979342 0.0119659997261742 0 -0.32043564802057051 0.032843585271704688 0 -0.33079493267916371 0.024263657414093351 0 -0.33079493267916371 0.024263657414093351 0 -0.34046483100669239 0.01737628220880956 0 -0.33994319695020792 0.0081901150208087414 0 -0.33988209188044038 0.036822071806506228 0 -0.33079493267916371 0.024263657414093351 0 -0.34491856651248581 0.024123999524168611 0 -0.33079493267916371 0.024263657414093351 0 -0.34046483100669239 0.01737628220880956 0 -0.34491856651248581 0.024123999524168611 0 -0.3326116109069811 -0.005193855989048729 0 -0.33079493267916371 0.024263657414093351 0 -0.3326116109069811 -0.005193855989048729 0 -0.33079493267916371 0.024263657414093351 0 -0.33994319695020792 0.0081901150208087414 0 -0.34046483100669239 0.01737628220880956 0 -0.33994319695020792 0.0081901150208087414 0 -0.3462026278849123 0.01292735687616753 0 -0.35246316822755502 0.007424380221463728 0 -0.35332273029837558 0.00088249528103173278 0 -0.35978811967700752 0.0064522657015292717 0 -0.34463919580281849 -0.0061373870655722172 0 -0.33994319695020792 0.0081901150208087414 0 -0.34726460473325371 0.0047143686437314822 0 -0.35246316822755502 0.007424380221463728 0 -0.35332273029837558 0.00088249528103173278 0 -0.34726460473325371 0.0047143686437314822 0 -0.35246316822755502 0.007424380221463728 0 -0.3462026278849123 0.01292735687616753 0 -0.35573775854422612 0.01214541460485862 0 -0.35246316822755502 0.007424380221463728 0 -0.34726460473325371 0.0047143686437314822 0 -0.3462026278849123 0.01292735687616753 0 -0.33994319695020792 0.0081901150208087414 0 -0.34726460473325371 0.0047143686437314822 0 -0.3462026278849123 0.01292735687616753 0 -0.3462026278849123 0.01292735687616753 0 -0.35573775854422612 0.01214541460485862 0 -0.35139766506630321 0.017749046711820791 0 -0.35573775854422612 0.01214541460485862 0 -0.35139766506630321 0.017749046711820791 0 -0.36085587607188419 0.015908663982150479 0 -0.35246316822755502 0.007424380221463728 0 -0.35573775854422612 0.01214541460485862 0 -0.35978811967700752 0.0064522657015292717 0 -0.35573775854422612 0.01214541460485862 0 -0.36048435366107051 0.01136043997234731 0 -0.35978811967700752 0.0064522657015292717 0 -0.35573775854422612 0.01214541460485862 0 -0.36085587607188419 0.015908663982150479 0 -0.36048435366107051 0.01136043997234731 0 -0.35656867046685292 0.02317800808744204 0 -0.35139766506630321 0.017749046711820791 0 -0.36085587607188419 0.015908663982150479 0 -0.35656867046685292 0.02317800808744204 0 -0.35139766506630321 0.017749046711820791 0 -0.34491856651248581 0.024123999524168611 0 -0.34046483100669239 0.01737628220880956 0 -0.3462026278849123 0.01292735687616753 0 -0.34491856651248581 0.024123999524168611 0 -0.3462026278849123 0.01292735687616753 0 -0.35139766506630321 0.017749046711820791 0 -0.34491856651248581 0.024123999524168611 0 -0.35656867046685292 0.02317800808744204 0 -0.34491856651248581 0.024123999524168611 0 -0.35061108539517472 0.034396303940146367 0 -0.35656867046685292 0.02317800808744204 0 -0.35061108539517472 0.034396303940146367 0 -0.36178427920393119 0.034389908446534223 0 -0.36864183034783748 0.011274891628045611 0 -0.37472066581688562 0.032093479209295617 0 -0.36594514103599401 0.020237998196823561 0 -0.36864183034783748 0.011274891628045611 0 -0.37472066581688562 0.032093479209295617 0 -0.35656867046685292 0.02317800808744204 0 -0.36594514103599401 0.020237998196823561 0 -0.36178427920393119 0.034389908446534223 0 -0.36594514103599401 0.020237998196823561 0 -0.36178427920393119 0.034389908446534223 0 -0.37472066581688562 0.032093479209295617 0 -0.35656867046685292 0.02317800808744204 0 -0.36594514103599401 0.020237998196823561 0 -0.36085587607188419 0.015908663982150479 0 -0.36594514103599401 0.020237998196823561 0 -0.36085587607188419 0.015908663982150479 0 -0.36516677451691459 0.01458184104466643 0 -0.36268351045863201 -0.0091309583216990682 0 -0.36864183034783748 0.011274891628045611 0 -0.35978811967700752 0.0064522657015292717 0 -0.36268351045863201 -0.0091309583216990682 0 -0.36864183034783748 0.011274891628045611 0 -0.36268351045863201 -0.0091309583216990682 0 -0.37627368421505869 -0.0010685545029741181 0 -0.36864183034783748 0.011274891628045611 0 -0.36522425061194269 0.01090581037164608 0 -0.36864183034783748 0.011274891628045611 0 -0.35978811967700752 0.0064522657015292717 0 -0.36594514103599401 0.020237998196823561 0 -0.36516677451691459 0.01458184104466643 0 -0.36864183034783748 0.011274891628045611 0 -0.36085587607188419 0.015908663982150479 0 -0.36048435366107051 0.01136043997234731 0 -0.36522425061194269 0.01090581037164608 0 -0.36048435366107051 0.01136043997234731 0 -0.36522425061194269 0.01090581037164608 0 -0.35978811967700752 0.0064522657015292717 0 -0.36522425061194269 0.01090581037164608 0 -0.36864183034783748 0.011274891628045611 0 -0.36522425061194269 0.01090581037164608 0 -0.36516677451691459 0.01458184104466643 0 -0.36864183034783748 0.011274891628045611 0 -0.36085587607188419 0.015908663982150479 0 -0.36522425061194269 0.01090581037164608 0 -0.36516677451691459 0.01458184104466643 0 -0.35554162323388289 0.048687639349865863 0 -0.34736247347057009 0.060964970125011023 0 -0.36247840104650259 0.064116868313832731 0 -0.35554162323388289 0.048687639349865863 0 -0.34736247347057009 0.060964970125011023 0 -0.34410762036403097 0.047605227336887442 0 -0.33988209188044038 0.036822071806506228 0 -0.34410762036403097 0.047605227336887442 0 -0.35061108539517472 0.034396303940146367 0 -0.35554162323388289 0.048687639349865863 0 -0.34410762036403097 0.047605227336887442 0 -0.35061108539517472 0.034396303940146367 0 -0.33988209188044038 0.036822071806506228 0 -0.34491856651248581 0.024123999524168611 0 -0.35061108539517472 0.034396303940146367 0 -0.35554162323388289 0.048687639349865863 0 -0.35061108539517472 0.034396303940146367 0 -0.36178427920393119 0.034389908446534223 0 -0.35554162323388289 0.048687639349865863 0 -0.36178427920393119 0.034389908446534223 0 -0.36690587992308782 0.050652557936783422 0 -0.38079950128593132 0.052912066790546428 0 -0.37472066581688562 0.032093479209295617 0 -0.36690587992308782 0.050652557936783422 0 -0.36178427920393119 0.034389908446534223 0 -0.37472066581688562 0.032093479209295617 0 -0.36690587992308782 0.050652557936783422 0 -0.37508824185204731 0.071465365720815188 0 -0.36690587992308782 0.050652557936783422 0 -0.38079950128593132 0.052912066790546428 0 -0.37508824185204731 0.071465365720815188 0 -0.36690587992308782 0.050652557936783422 0 -0.37508824185204731 0.071465365720815188 0 -0.36690587992308782 0.050652557936783422 0 -0.36247840104650259 0.064116868313832731 0 -0.35554162323388289 0.048687639349865863 0 -0.36690587992308782 0.050652557936783422 0 -0.36247840104650259 0.064116868313832731 0 -0.37508824185204731 0.071465365720815188 0 -0.35293968811381582 0.074600340005973972 0 -0.36068926710177318 0.087240413693322513 0 -0.37508824185204731 0.071465365720815188 0 -0.36247840104650259 0.064116868313832731 0 -0.35293968811381582 0.074600340005973972 0 -0.34736247347057009 0.060964970125011023 0 -0.36247840104650259 0.064116868313832731 0 -0.35293968811381582 0.074600340005973972 0 -0.34736247347057009 0.060964970125011023 0 -0.35293968811381582 0.074600340005973972 0 -0.33971664426213272 0.079965110967422301 0 -0.35293968811381582 0.074600340005973972 0 -0.36068926710177318 0.087240413693322513 0 -0.33971664426213272 0.079965110967422301 0 -0.35045503407291778 0.1062090511176096 0 -0.33971664426213272 0.079965110967422301 0 -0.36068926710177318 0.087240413693322513 0 -0.35045503407291778 0.1062090511176096 0 -0.33971664426213272 0.079965110967422301 0 -0.38327060378100669 0.092278173504846933 0 -0.37508824185204731 0.071465365720815188 0 -0.36068926710177318 0.087240413693322513 0 -0.36068926710177318 0.087240413693322513 0 -0.36882563244243582 0.1020321993621809 0 -0.35045503407291778 0.1062090511176096 0 -0.38327060378100669 0.092278173504846933 0 -0.36068926710177318 0.087240413693322513 0 -0.36882563244243582 0.1020321993621809 0 -0.36882563244243582 0.1020321993621809 0 -0.36648355068506788 0.1193039355354634 0 -0.35045503407291778 0.1062090511176096 0 -0.3611934238837029 0.1324529912677968 0 -0.36648355068506788 0.1193039355354634 0 -0.35045503407291778 0.1062090511176096 0 -0.3611934238837029 0.1324529912677968 0 -0.34477288681553248 0.1256226861480205 0 -0.35045503407291778 0.1062090511176096 0 -0.3611934238837029 0.1324529912677968 0 -0.35045503407291778 0.1062090511176096 0 -0.34477288681553248 0.1256226861480205 0 -0.35045503407291778 0.1062090511176096 0 -0.33703318514701491 0.116151022179193 0 -0.35045503407291778 0.1062090511176096 0 -0.33163233184354513 0.10610573984508299 0 -0.33479649005511292 0.094972993816952234 0 -0.33163233184354513 0.10610573984508299 0 -0.33479649005511292 0.094972993816952234 0 -0.32275951837705508 0.09631742949025715 0 -0.35045503407291778 0.1062090511176096 0 -0.33163233184354513 0.10610573984508299 0 -0.33703318514701491 0.116151022179193 0 -0.34477288681553248 0.1256226861480205 0 -0.3294881304138621 0.12784940930772329 0 -0.33703318514701491 0.116151022179193 0 -0.33163233184354513 0.10610573984508299 0 -0.33703318514701491 0.116151022179193 0 -0.32640758876675519 0.1161196544077667 0 -0.3294881304138621 0.12784940930772329 0 -0.33703318514701491 0.116151022179193 0 -0.32640758876675519 0.1161196544077667 0 -0.32640758876675519 0.1161196544077667 0 -0.31445151658903647 0.1243748783024395 0 -0.31748883559990448 0.10793760663304031 0 -0.30582849486463859 0.1126967726448716 0 -0.31445151658903647 0.1243748783024395 0 -0.31748883559990448 0.10793760663304031 0 -0.3294881304138621 0.12784940930772329 0 -0.32640758876675519 0.1161196544077667 0 -0.31445151658903647 0.1243748783024395 0 -0.33163233184354513 0.10610573984508299 0 -0.32640758876675519 0.1161196544077667 0 -0.31748883559990448 0.10793760663304031 0 -0.30552967341059017 0.095916531967890101 0 -0.32275951837705508 0.09631742949025715 0 -0.31748883559990448 0.10793760663304031 0 -0.33163233184354513 0.10610573984508299 0 -0.32275951837705508 0.09631742949025715 0 -0.31748883559990448 0.10793760663304031 0 -0.30552967341059017 0.095916531967890101 0 -0.32275951837705508 0.09631742949025715 0 -0.31846271887825922 0.083342286020994444 0 -0.32275951837705508 0.09631742949025715 0 -0.31846271887825922 0.083342286020994444 0 -0.3287012427267782 0.08557944669761558 0 -0.31846271887825922 0.083342286020994444 0 -0.32777084206133128 0.073299413192451784 0 -0.3287012427267782 0.08557944669761558 0 -0.30589916628940222 0.07606050917594244 0 -0.31846271887825922 0.083342286020994444 0 -0.31510734235460719 0.071010772432459193 0 -0.32897825445134699 0.053721170817235403 0 -0.31510734235460719 0.071010772432459193 0 -0.32777084206133128 0.073299413192451784 0 -0.31846271887825922 0.083342286020994444 0 -0.31510734235460719 0.071010772432459193 0 -0.32777084206133128 0.073299413192451784 0 -0.32897825445134699 0.053721170817235403 0 -0.34736247347057009 0.060964970125011023 0 -0.33971664426213272 0.079965110967422301 0 -0.32897825445134699 0.053721170817235403 0 -0.32777084206133128 0.073299413192451784 0 -0.32897825445134699 0.053721170817235403 0 -0.32777084206133128 0.073299413192451784 0 -0.33971664426213272 0.079965110967422301 0 -0.32897825445134699 0.053721170817235403 0 -0.33971664426213272 0.079965110967422301 0 -0.35045503407291778 0.1062090511176096 0 -0.33479649005511292 0.094972993816952234 0 -0.33971664426213272 0.079965110967422301 0 -0.33479649005511292 0.094972993816952234 0 -0.33971664426213272 0.079965110967422301 0 -0.3287012427267782 0.08557944669761558 0 -0.33479649005511292 0.094972993816952234 0 -0.32275951837705508 0.09631742949025715 0 -0.3287012427267782 0.08557944669761558 0 -0.32777084206133128 0.073299413192451784 0 -0.33971664426213272 0.079965110967422301 0 -0.3287012427267782 0.08557944669761558 0 -0.40067356616371252 0.48351111893332371 0 -0.38253549143817611 0.48438608730432547 0 -0.39695806363988451 0.46214950852748182 0 -0.40067356616371252 0.48351111893332371 0 -0.39695806363988451 0.46214950852748182 0 -0.41904752031168452 0.47101999883481133 0 -0.40067356616371252 0.48351111893332371 0 -0.39277428390472641 0.49999999999999989 0 -0.38253549143817611 0.48438608730432547 0 -0.40067356616371252 0.48351111893332371 0 -0.39277428390472641 0.49999999999999989 0 -0.41205247152409069 0.49999999999999761 0 -0.39277428390472641 0.49999999999999989 0 -0.38253549143817611 0.48438608730432547 0 -0.36402130909824609 0.5 0 -0.39277428390472641 0.49999999999999989 0 -0.38253549143817611 0.48438608730432547 0 -0.38253549143817611 0.48438608730432547 0 -0.37229669897162648 0.4687721746086505 0 -0.38253549143817611 0.48438608730432547 0 -0.39695806363988451 0.46214950852748182 0 -0.37229669897162648 0.4687721746086505 0 -0.37879172645040482 0.44364845171245471 0 -0.39695806363988451 0.46214950852748182 0 -0.37229669897162648 0.4687721746086505 0 -0.37879172645040482 0.44364845171245471 0 -0.37229669897162648 0.4687721746086505 0 -0.37879172645040482 0.44364845171245471 0 -0.39695806363988451 0.46214950852748182 0 -0.4024327882672406 0.43348095578955143 0 -0.39695806363988451 0.46214950852748182 0 -0.42604256909927868 0.44203999766962487 0 -0.41904752031168452 0.47101999883481133 0 -0.39695806363988451 0.46214950852748182 0 -0.42604256909927868 0.44203999766962487 0 -0.4024327882672406 0.43348095578955143 0 -0.42842480172933528 0.44592182297560679 0 -0.44600894537299901 0.4432307514916336 0 -0.42604256909927868 0.44203999766962487 0 -0.42842480172933528 0.44592182297560679 0 -0.41904752031168452 0.47101999883481133 0 -0.42604256909927868 0.44203999766962487 0 -0.42842480172933528 0.44592182297560679 0 -0.43952328162993609 0.42814537399803632 0 -0.42842480172933528 0.44592182297560679 0 -0.43765618428259162 0.45905454182207189 0 -0.44600894537299901 0.4432307514916336 0 -0.41904752031168452 0.47101999883481133 0 -0.44302590200759018 0.4756576523492132 0 -0.43765618428259162 0.45905454182207189 0 -0.42604256909927868 0.44203999766962487 0 -0.41904752031168452 0.47101999883481133 0 -0.42842480172933528 0.44592182297560679 0 -0.41904752031168452 0.47101999883481133 0 -0.43765618428259162 0.45905454182207189 0 -0.41205247152409069 0.49999999999999761 0 -0.43445777005926389 0.48666941279600612 0 -0.46370518639369063 0.5 0 -0.41904752031168452 0.47101999883481133 0 -0.43445777005926389 0.48666941279600612 0 -0.44302590200759018 0.4756576523492132 0 -0.41904752031168452 0.47101999883481133 0 -0.41205247152409069 0.49999999999999761 0 -0.40067356616371252 0.48351111893332371 0 -0.41904752031168452 0.47101999883481133 0 -0.41205247152409069 0.49999999999999761 0 -0.41904752031168452 0.47101999883481133 0 -0.41205247152409069 0.49999999999999761 0 -0.43445777005926389 0.48666941279600612 0 -0.43445777005926389 0.48666941279600612 0 -0.44302590200759018 0.4756576523492132 0 -0.46370518639369063 0.5 0 -0.5 0.5 0 -0.48152573983579389 0.47841675341781892 0 -0.49999999999999861 0.43496797848199992 0 -0.44302590200759018 0.4756576523492132 0 -0.46047530971867789 0.47687889850634618 0 -0.4532421275458377 0.46005482499899009 0 -0.44302590200759018 0.4756576523492132 0 -0.46047530971867789 0.47687889850634618 0 -0.46370518639369063 0.5 0 -0.46047530971867789 0.47687889850634618 0 -0.46370518639369063 0.5 0 -0.48152573983579389 0.47841675341781892 0 -0.46370518639369063 0.5 0 -0.5 0.5 0 -0.48152573983579389 0.47841675341781892 0 -0.46047530971867789 0.47687889850634618 0 -0.48152573983579389 0.47841675341781892 0 -0.47404147688173132 0.45877769711928851 0 -0.48152573983579389 0.47841675341781892 0 -0.47404147688173132 0.45877769711928851 0 -0.49999999999999861 0.43496797848199992 0 -0.47404147688173132 0.45877769711928851 0 -0.47300447268649859 0.43909936498681651 0 -0.49999999999999861 0.43496797848199992 0 -0.47300447268649859 0.43909936498681651 0 -0.44600894537299901 0.4432307514916336 0 -0.47404147688173132 0.45877769711928851 0 -0.47300447268649859 0.43909936498681651 0 -0.4532421275458377 0.46005482499899009 0 -0.47300447268649859 0.43909936498681651 0 -0.4532421275458377 0.46005482499899009 0 -0.44600894537299901 0.4432307514916336 0 -0.46047530971867789 0.47687889850634618 0 -0.4532421275458377 0.46005482499899009 0 -0.46047530971867789 0.47687889850634618 0 -0.47404147688173132 0.45877769711928851 0 -0.4532421275458377 0.46005482499899009 0 -0.44302590200759018 0.4756576523492132 0 -0.4532421275458377 0.46005482499899009 0 -0.43765618428259162 0.45905454182207189 0 -0.4532421275458377 0.46005482499899009 0 -0.43765618428259162 0.45905454182207189 0 -0.44600894537299901 0.4432307514916336 0 -0.42842480172933528 0.44592182297560679 0 -0.44600894537299901 0.4432307514916336 0 -0.43952328162993609 0.42814537399803632 0 -0.4532421275458377 0.46005482499899009 0 -0.44600894537299901 0.4432307514916336 0 -0.44600894537299901 0.4432307514916336 0 -0.43952328162993609 0.42814537399803632 0 -0.45581542413768023 0.42623856022075401 0 -0.43952328162993609 0.42814537399803632 0 -0.44654720290637773 0.41617238323721678 0 -0.45581542413768023 0.42623856022075401 0 -0.44600894537299901 0.4432307514916336 0 -0.43952328162993609 0.42814537399803632 0 -0.44654720290637773 0.41617238323721678 0 -0.44536218619284912 0.40503933037591783 0 -0.433037617886874 0.4130599965044387 0 -0.43952328162993609 0.42814537399803632 0 -0.44654720290637773 0.41617238323721678 0 -0.433037617886874 0.4130599965044387 0 -0.44654720290637773 0.41617238323721678 0 -0.4589975046845487 0.40837865508693749 0 -0.44536218619284912 0.40503933037591783 0 -0.44654720290637773 0.41617238323721678 0 -0.4589975046845487 0.40837865508693749 0 -0.45581542413768023 0.42623856022075401 0 -0.4589975046845487 0.40837865508693749 0 -0.45581542413768023 0.42623856022075401 0 -0.47079660892660619 0.41994866275354642 0 -0.47300447268649859 0.43909936498681651 0 -0.45581542413768023 0.42623856022075401 0 -0.47079660892660619 0.41994866275354642 0 -0.47300447268649859 0.43909936498681651 0 -0.44600894537299901 0.4432307514916336 0 -0.45581542413768023 0.42623856022075401 0 -0.47300447268649859 0.43909936498681651 0 -0.47079660892660619 0.41994866275354642 0 -0.48735858571426499 0.42108071737065228 0 -0.4589975046845487 0.40837865508693749 0 -0.47079660892660619 0.41994866275354642 0 -0.47880705741003848 0.40494601610257169 0 -0.47079660892660619 0.41994866275354642 0 -0.48735858571426499 0.42108071737065228 0 -0.47880705741003848 0.40494601610257169 0 -0.48735858571426499 0.42108071737065228 0 -0.5 0.40672104153666239 0 -0.49999999999999861 0.43496797848199992 0 -0.48735858571426499 0.42108071737065228 0 -0.5 0.40672104153666239 0 -0.47880705741003848 0.40494601610257169 0 -0.47300447268649859 0.43909936498681651 0 -0.48735858571426499 0.42108071737065228 0 -0.49999999999999861 0.43496797848199992 0 -0.47300447268649859 0.43909936498681651 0 -0.49999999999999861 0.43496797848199992 0 -0.48759301942355299 0.38660344682398889 0 -0.5 0.37847410459132502 0 -0.48497654676430202 0.36858712537786309 0 -0.5 0.40672104153666239 0 -0.48759301942355299 0.38660344682398889 0 -0.5 0.37847410459132502 0 -0.5 0.40672104153666239 0 -0.48759301942355299 0.38660344682398889 0 -0.47880705741003848 0.40494601610257169 0 -0.48759301942355299 0.38660344682398889 0 -0.47880705741003848 0.40494601610257169 0 -0.46509879223416778 0.38539952922257892 0 -0.48759301942355299 0.38660344682398889 0 -0.47097298633584589 0.37246782307339332 0 -0.48497654676430202 0.36858712537786309 0 -0.48759301942355299 0.38660344682398889 0 -0.46509879223416778 0.38539952922257892 0 -0.47097298633584589 0.37246782307339332 0 -0.48759301942355299 0.38660344682398889 0 -0.46509879223416778 0.38539952922257892 0 -0.46509879223416778 0.38539952922257892 0 -0.45516113638809502 0.37554365339565737 0 -0.47097298633584589 0.37246782307339332 0 -0.46509879223416778 0.38539952922257892 0 -0.45170657017234939 0.39464155691132619 0 -0.44260456504478252 0.38419561162116889 0 -0.46509879223416778 0.38539952922257892 0 -0.45516113638809502 0.37554365339565737 0 -0.44260456504478252 0.38419561162116889 0 -0.46509879223416778 0.38539952922257892 0 -0.44260456504478252 0.38419561162116889 0 -0.4589975046845487 0.40837865508693749 0 -0.46509879223416778 0.38539952922257892 0 -0.45170657017234939 0.39464155691132619 0 -0.4589975046845487 0.40837865508693749 0 -0.47880705741003848 0.40494601610257169 0 -0.46509879223416778 0.38539952922257892 0 -0.44536218619284912 0.40503933037591783 0 -0.43805625259809527 0.39226814155171741 0 -0.433037617886874 0.4130599965044387 0 -0.4589975046845487 0.40837865508693749 0 -0.44536218619284912 0.40503933037591783 0 -0.45170657017234939 0.39464155691132619 0 -0.44536218619284912 0.40503933037591783 0 -0.45170657017234939 0.39464155691132619 0 -0.43805625259809527 0.39226814155171741 0 -0.45516113638809502 0.37554365339565737 0 -0.44260456504478252 0.38419561162116889 0 -0.44379931899009001 0.37275614437304871 0 -0.45170657017234939 0.39464155691132619 0 -0.43805625259809527 0.39226814155171741 0 -0.44260456504478252 0.38419561162116889 0 -0.44260456504478252 0.38419561162116889 0 -0.4332419136325939 0.37585794920747412 0 -0.44379931899009001 0.37275614437304871 0 -0.44260456504478252 0.38419561162116889 0 -0.42011033785539731 0.38299169401975891 0 -0.44260456504478252 0.38419561162116889 0 -0.4309717540609197 0.38902388575296881 0 -0.42011033785539731 0.38299169401975891 0 -0.44260456504478252 0.38419561162116889 0 -0.4332419136325939 0.37585794920747412 0 -0.42011033785539731 0.38299169401975891 0 -0.43805625259809527 0.39226814155171741 0 -0.44260456504478252 0.38419561162116889 0 -0.4309717540609197 0.38902388575296881 0 -0.42011033785539731 0.38299169401975891 0 -0.42657397787113599 0.39802584526209861 0 -0.4309717540609197 0.38902388575296881 0 -0.42011033785539731 0.38299169401975891 0 -0.42657397787113599 0.39802584526209861 0 -0.4332419136325939 0.37585794920747412 0 -0.42011033785539731 0.38299169401975891 0 -0.42476453611520593 0.37481923681794371 0 -0.41698191574550769 0.37571511750320852 0 -0.42011033785539731 0.38299169401975891 0 -0.40994474469894909 0.3824476194700186 0 -0.42011033785539731 0.38299169401975891 0 -0.40994474469894909 0.3824476194700186 0 -0.41698191574550769 0.37571511750320852 0 -0.42011033785539731 0.38299169401975891 0 -0.42476453611520593 0.37481923681794371 0 -0.41698191574550769 0.37571511750320852 0 -0.42011033785539731 0.38299169401975891 0 -0.42011033785539731 0.38299169401975891 0 -0.40994474469894909 0.3824476194700186 0 -0.41398701511740699 0.39398381300239049 0 -0.40994474469894909 0.3824476194700186 0 -0.41398701511740699 0.39398381300239049 0 -0.40457020093533591 0.39078522019452933 0 -0.40994474469894909 0.3824476194700186 0 -0.40333648762801688 0.37943455076916022 0 -0.41120187551229548 0.37225199562280759 0 -0.41698191574550769 0.37571511750320852 0 -0.40994474469894909 0.3824476194700186 0 -0.41120187551229548 0.37225199562280759 0 -0.41398701511740699 0.39398381300239049 0 -0.4179489725523704 0.40704735461542257 0 -0.40330023522236402 0.40333372069611378 0 -0.41398701511740699 0.39398381300239049 0 -0.40457020093533591 0.39078522019452933 0 -0.40330023522236402 0.40333372069611378 0 -0.42011033785539731 0.38299169401975891 0 -0.41398701511740699 0.39398381300239049 0 -0.42657397787113599 0.39802584526209861 0 -0.41398701511740699 0.39398381300239049 0 -0.42657397787113599 0.39802584526209861 0 -0.4179489725523704 0.40704735461542257 0 -0.42657397787113599 0.39802584526209861 0 -0.433037617886874 0.4130599965044387 0 -0.4179489725523704 0.40704735461542257 0 -0.43805625259809527 0.39226814155171741 0 -0.42657397787113599 0.39802584526209861 0 -0.433037617886874 0.4130599965044387 0 -0.43805625259809527 0.39226814155171741 0 -0.433037617886874 0.4130599965044387 0 -0.43805625259809527 0.39226814155171741 0 -0.4309717540609197 0.38902388575296881 0 -0.42657397787113599 0.39802584526209861 0 -0.42657397787113599 0.39802584526209861 0 -0.433037617886874 0.4130599965044387 0 -0.433037617886874 0.4130599965044387 0 -0.41713772703953911 0.42237770124141139 0 -0.4179489725523704 0.40704735461542257 0 -0.43952328162993609 0.42814537399803632 0 -0.433037617886874 0.4130599965044387 0 -0.42604256909927868 0.44203999766962487 0 -0.43952328162993609 0.42814537399803632 0 -0.433037617886874 0.4130599965044387 0 -0.42604256909927868 0.44203999766962487 0 -0.433037617886874 0.4130599965044387 0 -0.42604256909927868 0.44203999766962487 0 -0.433037617886874 0.4130599965044387 0 -0.41713772703953911 0.42237770124141139 0 -0.42604256909927868 0.44203999766962487 0 -0.41713772703953911 0.42237770124141139 0 -0.4024327882672406 0.43348095578955143 0 -0.41713772703953911 0.42237770124141139 0 -0.40622668739193057 0.41626020162801952 0 -0.4024327882672406 0.43348095578955143 0 -0.41713772703953911 0.42237770124141139 0 -0.4179489725523704 0.40704735461542257 0 -0.40622668739193057 0.41626020162801952 0 -0.4179489725523704 0.40704735461542257 0 -0.40622668739193057 0.41626020162801952 0 -0.40330023522236402 0.40333372069611378 0 -0.40622668739193057 0.41626020162801952 0 -0.38528675392918182 0.41852472881625852 0 -0.40330023522236402 0.40333372069611378 0 -0.40622668739193057 0.41626020162801952 0 -0.4024327882672406 0.43348095578955143 0 -0.38528675392918182 0.41852472881625852 0 -0.37879172645040482 0.44364845171245471 0 -0.38528675392918182 0.41852472881625852 0 -0.36396462051856848 0.426382225859054 0 -0.37879172645040482 0.44364845171245471 0 -0.38528675392918182 0.41852472881625852 0 -0.37879172645040482 0.44364845171245471 0 -0.4024327882672406 0.43348095578955143 0 -0.38528675392918182 0.41852472881625852 0 -0.38528675392918182 0.41852472881625852 0 -0.39178178140795861 0.39340100592006239 0 -0.38528675392918182 0.41852472881625852 0 -0.39178178140795861 0.39340100592006239 0 -0.3705907680975018 0.39216637407158789 0 -0.39178178140795861 0.39340100592006239 0 -0.37735541314810322 0.37355832329676608 0 -0.3705907680975018 0.39216637407158789 0 -0.39178178140795861 0.39340100592006239 0 -0.39827680888673561 0.36827728302386642 0 -0.37735541314810322 0.37355832329676608 0 -0.40333648762801688 0.37943455076916022 0 -0.39178178140795861 0.39340100592006239 0 -0.39827680888673561 0.36827728302386642 0 -0.39178178140795861 0.39340100592006239 0 -0.39827680888673561 0.36827728302386642 0 -0.40333648762801688 0.37943455076916022 0 -0.40457020093533591 0.39078522019452933 0 -0.39178178140795861 0.39340100592006239 0 -0.40994474469894909 0.3824476194700186 0 -0.40333648762801688 0.37943455076916022 0 -0.40457020093533591 0.39078522019452933 0 -0.38528675392918182 0.41852472881625852 0 -0.40330023522236402 0.40333372069611378 0 -0.39178178140795861 0.39340100592006239 0 -0.40457020093533591 0.39078522019452933 0 -0.40330023522236402 0.40333372069611378 0 -0.39178178140795861 0.39340100592006239 0 -0.39827680888673561 0.36827728302386642 0 -0.38248166547526619 0.35205518551514609 0 -0.40477183636551339 0.34315356012767051 0 -0.39827680888673561 0.36827728302386642 0 -0.40477183636551339 0.34315356012767051 0 -0.4056318303917083 0.36846033693423041 0 -0.39827680888673561 0.36827728302386642 0 -0.40477183636551339 0.34315356012767051 0 -0.40333648762801688 0.37943455076916022 0 -0.4056318303917083 0.36846033693423041 0 -0.39827680888673561 0.36827728302386642 0 -0.39827680888673561 0.36827728302386642 0 -0.37735541314810322 0.37355832329676608 0 -0.38248166547526619 0.35205518551514609 0 -0.38248166547526619 0.35205518551514609 0 -0.38563026577647619 0.3313931589374407 0 -0.36831654614497472 0.33922749996314738 0 -0.38563026577647619 0.3313931589374407 0 -0.36648869518743882 0.319632757747211 0 -0.38563026577647619 0.3313931589374407 0 -0.39645007197498561 0.30901776319555341 0 -0.37888913402897179 0.30882046751300102 0 -0.38563026577647619 0.3313931589374407 0 -0.37888913402897179 0.30882046751300102 0 -0.36648869518743882 0.319632757747211 0 -0.38563026577647619 0.3313931589374407 0 -0.41021282969149597 0.32210699657597858 0 -0.39645007197498561 0.30901776319555341 0 -0.38563026577647619 0.3313931589374407 0 -0.40477183636551339 0.34315356012767051 0 -0.41021282969149597 0.32210699657597858 0 -0.38248166547526619 0.35205518551514609 0 -0.38563026577647619 0.3313931589374407 0 -0.40477183636551339 0.34315356012767051 0 -0.38563026577647619 0.3313931589374407 0 -0.40477183636551339 0.34315356012767051 0 -0.40477183636551339 0.34315356012767051 0 -0.41813821838802578 0.33626007791251827 0 -0.41021282969149597 0.32210699657597858 0 -0.40477183636551339 0.34315356012767051 0 -0.41021282969149597 0.32210699657597858 0 -0.40477183636551339 0.34315356012767051 0 -0.41813821838802578 0.33626007791251827 0 -0.41340155824742031 0.34845558020064699 0 -0.41813821838802578 0.33626007791251827 0 -0.41340155824742031 0.34845558020064699 0 -0.41813821838802578 0.33626007791251827 0 -0.41689602070275311 0.3186602554684026 0 -0.41813821838802578 0.33626007791251827 0 -0.41689602070275311 0.3186602554684026 0 -0.42797359809348362 0.31093687714616408 0 -0.41813821838802578 0.33626007791251827 0 -0.41021282969149597 0.32210699657597858 0 -0.41689602070275311 0.3186602554684026 0 -0.41021282969149597 0.32210699657597858 0 -0.41689602070275311 0.3186602554684026 0 -0.41565382301747938 0.30106043302428698 0 -0.41813821838802578 0.33626007791251827 0 -0.43573491087122762 0.32688718291909052 0 -0.42797359809348362 0.31093687714616408 0 -0.41813821838802578 0.33626007791251827 0 -0.42797359809348362 0.31093687714616408 0 -0.43573491087122762 0.32688718291909052 0 -0.43808794526156081 0.31425745264435428 0 -0.42797359809348362 0.31093687714616408 0 -0.41813821838802578 0.33626007791251827 0 -0.43573491087122762 0.32688718291909052 0 -0.42969251446259538 0.33986909514241681 0 -0.41813821838802578 0.33626007791251827 0 -0.42969251446259538 0.33986909514241681 0 -0.42358902273627702 0.34701337957534162 0 -0.43573491087122762 0.32688718291909052 0 -0.42969251446259538 0.33986909514241681 0 -0.43975988195290899 0.34094323140910299 0 -0.42969251446259538 0.33986909514241681 0 -0.43124053836453691 0.34824160389603021 0 -0.43975988195290899 0.34094323140910299 0 -0.43124053836453691 0.34824160389603021 0 -0.4398349538841132 0.35280219620347197 0 -0.43975988195290899 0.34094323140910299 0 -0.43052883938495973 0.35769297271248618 0 -0.43620106627449062 0.36191944848166191 0 -0.4398349538841132 0.35280219620347197 0 -0.43124053836453691 0.34824160389603021 0 -0.43052883938495973 0.35769297271248618 0 -0.4398349538841132 0.35280219620347197 0 -0.43124053836453691 0.34824160389603021 0 -0.43052883938495973 0.35769297271248618 0 -0.42618367420238951 0.35197799545256381 0 -0.43052883938495973 0.35769297271248618 0 -0.42618367420238951 0.35197799545256381 0 -0.42549522536366668 0.35719506563207071 0 -0.43052883938495973 0.35769297271248618 0 -0.42549522536366668 0.35719506563207071 0 -0.42439962717236229 0.36152118667824612 0 -0.42618367420238951 0.35197799545256381 0 -0.42385680342061949 0.35454116325657481 0 -0.42549522536366668 0.35719506563207071 0 -0.42618367420238951 0.35197799545256381 0 -0.42385680342061949 0.35454116325657481 0 -0.42105538769889622 0.35315802113004757 0 -0.42385680342061949 0.35454116325657481 0 -0.42254347040605511 0.35669123220289378 0 -0.42105538769889622 0.35315802113004757 0 -0.42549522536366668 0.35719506563207071 0 -0.42254347040605511 0.35669123220289378 0 -0.42439962717236229 0.36152118667824612 0 -0.42254347040605511 0.35669123220289378 0 -0.41973439341517838 0.35887515552910332 0 -0.42439962717236229 0.36152118667824612 0 -0.42385680342061949 0.35454116325657481 0 -0.42549522536366668 0.35719506563207071 0 -0.42254347040605511 0.35669123220289378 0 -0.42969251446259538 0.33986909514241681 0 -0.43124053836453691 0.34824160389603021 0 -0.42358902273627702 0.34701337957534162 0 -0.43124053836453691 0.34824160389603021 0 -0.42618367420238951 0.35197799545256381 0 -0.42358902273627702 0.34701337957534162 0 -0.42618367420238951 0.35197799545256381 0 -0.42358902273627702 0.34701337957534162 0 -0.42105538769889622 0.35315802113004757 0 -0.4056318303917083 0.36846033693423041 0 -0.40477183636551339 0.34315356012767051 0 -0.41340155824742031 0.34845558020064699 0 -0.41813821838802578 0.33626007791251827 0 -0.42358902273627702 0.34701337957534162 0 -0.41925270629352529 0.35205047060556688 0 -0.41813821838802578 0.33626007791251827 0 -0.41925270629352529 0.35205047060556688 0 -0.41813821838802578 0.33626007791251827 0 -0.41925270629352529 0.35205047060556688 0 -0.41340155824742031 0.34845558020064699 0 -0.4056318303917083 0.36846033693423041 0 -0.41340155824742031 0.34845558020064699 0 -0.4056318303917083 0.36846033693423041 0 -0.41340155824742031 0.34845558020064699 0 -0.41430572976780561 0.36068170798046328 0 -0.41925270629352529 0.35205047060556688 0 -0.41340155824742031 0.34845558020064699 0 -0.42358902273627702 0.34701337957534162 0 -0.42105538769889622 0.35315802113004757 0 -0.41925270629352529 0.35205047060556688 0 -0.42105538769889622 0.35315802113004757 0 -0.41925270629352529 0.35205047060556688 0 -0.41973439341517838 0.35887515552910332 0 -0.41925270629352529 0.35205047060556688 0 -0.41973439341517838 0.35887515552910332 0 -0.41667359693098233 0.3550157285789447 0 -0.41925270629352529 0.35205047060556688 0 -0.41973439341517838 0.35887515552910332 0 -0.41667359693098233 0.3550157285789447 0 -0.41340155824742031 0.34845558020064699 0 -0.41430572976780561 0.36068170798046328 0 -0.42105538769889622 0.35315802113004757 0 -0.41925270629352529 0.35205047060556688 0 -0.42254347040605511 0.35669123220289378 0 -0.42105538769889622 0.35315802113004757 0 -0.41973439341517838 0.35887515552910332 0 -0.41973439341517838 0.35887515552910332 0 -0.41667359693098233 0.3550157285789447 0 -0.41430572976780561 0.36068170798046328 0 -0.41925270629352529 0.35205047060556688 0 -0.41667359693098233 0.3550157285789447 0 -0.41340155824742031 0.34845558020064699 0 -0.40477183636551339 0.34315356012767051 0 -0.41340155824742031 0.34845558020064699 0 -0.40333648762801688 0.37943455076916022 0 -0.4056318303917083 0.36846033693423041 0 -0.41120187551229548 0.37225199562280759 0 -0.4056318303917083 0.36846033693423041 0 -0.41120187551229548 0.37225199562280759 0 -0.41371623408349251 0.36713683205729952 0 -0.4056318303917083 0.36846033693423041 0 -0.41371623408349251 0.36713683205729952 0 -0.41430572976780561 0.36068170798046328 0 -0.41371623408349251 0.36713683205729952 0 -0.41430572976780561 0.36068170798046328 0 -0.41919805439329699 0.36448469177205078 0 -0.41973439341517838 0.35887515552910332 0 -0.41430572976780561 0.36068170798046328 0 -0.41919805439329699 0.36448469177205078 0 -0.41973439341517838 0.35887515552910332 0 -0.41919805439329699 0.36448469177205078 0 -0.42439962717236229 0.36152118667824612 0 -0.41919805439329699 0.36448469177205078 0 -0.41842814973084658 0.37035723971385698 0 -0.42460419219009732 0.36833602867333592 0 -0.41371623408349251 0.36713683205729952 0 -0.41919805439329699 0.36448469177205078 0 -0.41842814973084658 0.37035723971385698 0 -0.41120187551229548 0.37225199562280759 0 -0.41371623408349251 0.36713683205729952 0 -0.41842814973084658 0.37035723971385698 0 -0.41698191574550769 0.37571511750320852 0 -0.41120187551229548 0.37225199562280759 0 -0.41842814973084658 0.37035723971385698 0 -0.41698191574550769 0.37571511750320852 0 -0.41842814973084658 0.37035723971385698 0 -0.42476453611520593 0.37481923681794371 0 -0.4332419136325939 0.37585794920747412 0 -0.42476453611520593 0.37481923681794371 0 -0.43085454109293481 0.37139703037274291 0 -0.41842814973084658 0.37035723971385698 0 -0.42476453611520593 0.37481923681794371 0 -0.42460419219009732 0.36833602867333592 0 -0.42460419219009732 0.36833602867333592 0 -0.43057684868567919 0.3652771468155363 0 -0.43085454109293481 0.37139703037274291 0 -0.42476453611520593 0.37481923681794371 0 -0.42460419219009732 0.36833602867333592 0 -0.43085454109293481 0.37139703037274291 0 -0.41919805439329699 0.36448469177205078 0 -0.42460419219009732 0.36833602867333592 0 -0.42439962717236229 0.36152118667824612 0 -0.42460419219009732 0.36833602867333592 0 -0.42439962717236229 0.36152118667824612 0 -0.43057684868567919 0.3652771468155363 0 -0.43052883938495973 0.35769297271248618 0 -0.42439962717236229 0.36152118667824612 0 -0.43057684868567919 0.3652771468155363 0 -0.43052883938495973 0.35769297271248618 0 -0.43057684868567919 0.3652771468155363 0 -0.43620106627449062 0.36191944848166191 0 -0.43057684868567919 0.3652771468155363 0 -0.43620106627449062 0.36191944848166191 0 -0.43731818269715339 0.36898797804018202 0 -0.43057684868567919 0.3652771468155363 0 -0.43085454109293481 0.37139703037274291 0 -0.43731818269715339 0.36898797804018202 0 -0.4332419136325939 0.37585794920747412 0 -0.43085454109293481 0.37139703037274291 0 -0.43731818269715339 0.36898797804018202 0 -0.43731818269715339 0.36898797804018202 0 -0.44379931899009001 0.37275614437304871 0 -0.44265618552374419 0.36116025670372259 0 -0.4332419136325939 0.37585794920747412 0 -0.43731818269715339 0.36898797804018202 0 -0.44379931899009001 0.37275614437304871 0 -0.43620106627449062 0.36191944848166191 0 -0.43731818269715339 0.36898797804018202 0 -0.44265618552374419 0.36116025670372259 0 -0.44379931899009001 0.37275614437304871 0 -0.44265618552374419 0.36116025670372259 0 -0.45029031788544371 0.36645504575150628 0 -0.44265618552374419 0.36116025670372259 0 -0.45029031788544371 0.36645504575150628 0 -0.45152020091724399 0.35679874803420908 0 -0.45516113638809502 0.37554365339565737 0 -0.44379931899009001 0.37275614437304871 0 -0.45029031788544371 0.36645504575150628 0 -0.4398349538841132 0.35280219620347197 0 -0.45455305507013283 0.34414873326753348 0 -0.43975988195290899 0.34094323140910299 0 -0.44265618552374419 0.36116025670372259 0 -0.4398349538841132 0.35280219620347197 0 -0.45152020091724399 0.35679874803420908 0 -0.43620106627449062 0.36191944848166191 0 -0.44265618552374419 0.36116025670372259 0 -0.4398349538841132 0.35280219620347197 0 -0.4398349538841132 0.35280219620347197 0 -0.45152020091724399 0.35679874803420908 0 -0.45455305507013283 0.34414873326753348 0 -0.45152020091724399 0.35679874803420908 0 -0.45455305507013283 0.34414873326753348 0 -0.47136751487766992 0.3559004803153713 0 -0.45455305507013283 0.34414873326753348 0 -0.47136751487766992 0.3559004803153713 0 -0.46827010060429758 0.34146334075454909 0 -0.45516113638809502 0.37554365339565737 0 -0.45966206836015971 0.36594139168439438 0 -0.47097298633584589 0.37246782307339332 0 -0.45152020091724399 0.35679874803420908 0 -0.45966206836015971 0.36594139168439438 0 -0.47136751487766992 0.3559004803153713 0 -0.45966206836015971 0.36594139168439438 0 -0.47097298633584589 0.37246782307339332 0 -0.47136751487766992 0.3559004803153713 0 -0.45516113638809502 0.37554365339565737 0 -0.45029031788544371 0.36645504575150628 0 -0.45966206836015971 0.36594139168439438 0 -0.45029031788544371 0.36645504575150628 0 -0.45152020091724399 0.35679874803420908 0 -0.45966206836015971 0.36594139168439438 0 -0.47097298633584589 0.37246782307339332 0 -0.47136751487766992 0.3559004803153713 0 -0.48497654676430202 0.36858712537786309 0 -0.47136751487766992 0.3559004803153713 0 -0.48247057578093139 0.33684730615825148 0 -0.46827010060429758 0.34146334075454909 0 -0.47136751487766992 0.3559004803153713 0 -0.5 0.35022716764598749 0 -0.48247057578093139 0.33684730615825148 0 -0.47136751487766992 0.3559004803153713 0 -0.5 0.35022716764598749 0 -0.48497654676430202 0.36858712537786309 0 -0.5 0.37847410459132502 0 -0.5 0.35022716764598749 0 -0.48497654676430202 0.36858712537786309 0 -0.5 0.32198023070065002 0 -0.48247057578093139 0.33684730615825148 0 -0.47936474650191702 0.31456155803709152 0 -0.5 0.35022716764598749 0 -0.5 0.32198023070065002 0 -0.48247057578093139 0.33684730615825148 0 -0.48247057578093139 0.33684730615825148 0 -0.46827010060429758 0.34146334075454909 0 -0.46327443309614369 0.32841806490852388 0 -0.48247057578093139 0.33684730615825148 0 -0.47936474650191702 0.31456155803709152 0 -0.46327443309614369 0.32841806490852388 0 -0.47936474650191702 0.31456155803709152 0 -0.46327608079231353 0.31352750182929501 0 -0.46327443309614369 0.32841806490852388 0 -0.46327443309614369 0.32841806490852388 0 -0.44873552068661737 0.33240310975860088 0 -0.44864605222647702 0.31351333773164852 0 -0.46327608079231353 0.31352750182929501 0 -0.46327443309614369 0.32841806490852388 0 -0.44864605222647702 0.31351333773164852 0 -0.45455305507013283 0.34414873326753348 0 -0.46327443309614369 0.32841806490852388 0 -0.44873552068661737 0.33240310975860088 0 -0.45455305507013283 0.34414873326753348 0 -0.46827010060429758 0.34146334075454909 0 -0.46327443309614369 0.32841806490852388 0 -0.45455305507013283 0.34414873326753348 0 -0.44873552068661737 0.33240310975860088 0 -0.43975988195290899 0.34094323140910299 0 -0.43573491087122762 0.32688718291909052 0 -0.44873552068661737 0.33240310975860088 0 -0.43975988195290899 0.34094323140910299 0 -0.43573491087122762 0.32688718291909052 0 -0.44873552068661737 0.33240310975860088 0 -0.44864605222647702 0.31351333773164852 0 -0.43573491087122762 0.32688718291909052 0 -0.44864605222647702 0.31351333773164852 0 -0.43808794526156081 0.31425745264435428 0 -0.44864605222647702 0.31351333773164852 0 -0.43808794526156081 0.31425745264435428 0 -0.44080567390058989 0.30452695217572601 0 -0.44864605222647702 0.31351333773164852 0 -0.44080567390058989 0.30452695217572601 0 -0.45151179612248588 0.29831341697665331 0 -0.45151179612248588 0.29831341697665331 0 -0.4378089777989419 0.28561367637981011 0 -0.45489093769062222 0.28632024649794913 0 -0.44080567390058989 0.30452695217572601 0 -0.45151179612248588 0.29831341697665331 0 -0.4378089777989419 0.28561367637981011 0 -0.45489093769062222 0.28632024649794913 0 -0.46503821843502058 0.29860857676631353 0 -0.47025313536858621 0.28020931326609821 0 -0.45151179612248588 0.29831341697665331 0 -0.45489093769062222 0.28632024649794913 0 -0.46503821843502058 0.29860857676631353 0 -0.46327608079231353 0.31352750182929501 0 -0.44864605222647702 0.31351333773164852 0 -0.45151179612248588 0.29831341697665331 0 -0.46327608079231353 0.31352750182929501 0 -0.45151179612248588 0.29831341697665331 0 -0.46503821843502058 0.29860857676631353 0 -0.47936474650191702 0.31456155803709152 0 -0.46327608079231353 0.31352750182929501 0 -0.46503821843502058 0.29860857676631353 0 -0.47936474650191702 0.31456155803709152 0 -0.46503821843502058 0.29860857676631353 0 -0.47978171178701229 0.29434232664216209 0 -0.47978171178701229 0.29434232664216209 0 -0.48527930460781921 0.2781593722909021 0 -0.47025313536858621 0.28020931326609821 0 -0.46503821843502058 0.29860857676631353 0 -0.47978171178701229 0.29434232664216209 0 -0.47025313536858621 0.28020931326609821 0 -0.47978171178701229 0.29434232664216209 0 -0.5 0.29373329375531271 0 -0.48527930460781921 0.2781593722909021 0 -0.5 0.32198023070065002 0 -0.47936474650191702 0.31456155803709152 0 -0.5 0.29373329375531271 0 -0.47936474650191702 0.31456155803709152 0 -0.47978171178701229 0.29434232664216209 0 -0.5 0.29373329375531271 0 -0.50000000000000044 0.2372394198646382 0 -0.5 0.26548635680997551 0 -0.47884287989701441 0.25368825908796711 0 -0.5 0.29373329375531271 0 -0.5 0.26548635680997551 0 -0.48527930460781921 0.2781593722909021 0 -0.5 0.26548635680997551 0 -0.48527930460781921 0.2781593722909021 0 -0.47884287989701441 0.25368825908796711 0 -0.48527930460781921 0.2781593722909021 0 -0.47025313536858621 0.28020931326609821 0 -0.47884287989701441 0.25368825908796711 0 -0.47025313536858621 0.28020931326609821 0 -0.47884287989701441 0.25368825908796711 0 -0.45768575979402831 0.27013709831129579 0 -0.47884287989701441 0.25368825908796711 0 -0.45925777500284348 0.25616748669090472 0 -0.45768575979402831 0.27013709831129579 0 -0.45983336765998739 0.24496354054567571 0 -0.47884287989701441 0.25368825908796711 0 -0.45925777500284348 0.25616748669090472 0 -0.47884287989701441 0.25368825908796711 0 -0.45768575979402831 0.27013709831129579 0 -0.45925777500284348 0.25616748669090472 0 -0.45768575979402831 0.27013709831129579 0 -0.44764435750440029 0.26029047561345597 0 -0.45983336765998739 0.24496354054567571 0 -0.45925777500284348 0.25616748669090472 0 -0.45228251015878729 0.25175805989612871 0 -0.45489093769062222 0.28632024649794913 0 -0.47025313536858621 0.28020931326609821 0 -0.45768575979402831 0.27013709831129579 0 -0.4378089777989419 0.28561367637981011 0 -0.45768575979402831 0.27013709831129579 0 -0.44764435750440029 0.26029047561345597 0 -0.4378089777989419 0.28561367637981011 0 -0.45489093769062222 0.28632024649794913 0 -0.45768575979402831 0.27013709831129579 0 -0.4378089777989419 0.28561367637981011 0 -0.44764435750440029 0.26029047561345597 0 -0.43407187523460827 0.26993511494778011 0 -0.4378089777989419 0.28561367637981011 0 -0.44764435750440029 0.26029047561345597 0 -0.44297909837068022 0.24897218353138759 0 -0.45228251015878729 0.25175805989612871 0 -0.44764435750440029 0.26029047561345597 0 -0.45925777500284348 0.25616748669090472 0 -0.45228251015878729 0.25175805989612871 0 -0.44764435750440029 0.26029047561345597 0 -0.44764435750440029 0.26029047561345597 0 -0.43649336971806341 0.25688366259484868 0 -0.43407187523460827 0.26993511494778011 0 -0.44297909837068022 0.24897218353138759 0 -0.44764435750440029 0.26029047561345597 0 -0.43649336971806341 0.25688366259484868 0 -0.43100641634947701 0.24167434083737749 0 -0.43649336971806341 0.25688366259484868 0 -0.42588888523881269 0.26146970489968108 0 -0.43100641634947701 0.24167434083737749 0 -0.42588888523881269 0.26146970489968108 0 -0.41990381710569591 0.25159028712561932 0 -0.43100641634947701 0.24167434083737749 0 -0.42588888523881269 0.26146970489968108 0 -0.43649336971806341 0.25688366259484868 0 -0.42588888523881269 0.26146970489968108 0 -0.43407187523460827 0.26993511494778011 0 -0.42588888523881269 0.26146970489968108 0 -0.41990381710569591 0.25159028712561932 0 -0.4126592317368088 0.25863218230596863 0 -0.41006073509768542 0.24458492045944921 0 -0.41990381710569591 0.25159028712561932 0 -0.4126592317368088 0.25863218230596863 0 -0.4126592317368088 0.25863218230596863 0 -0.40214819026000093 0.26240218607919452 0 -0.40480584153975258 0.27070836109974722 0 -0.4126592317368088 0.25863218230596863 0 -0.41415652737714409 0.27984630766512791 0 -0.40480584153975258 0.27070836109974722 0 -0.4126592317368088 0.25863218230596863 0 -0.41415652737714409 0.27984630766512791 0 -0.42588888523881269 0.26146970489968108 0 -0.4126592317368088 0.25863218230596863 0 -0.41415652737714409 0.27984630766512791 0 -0.42588888523881269 0.26146970489968108 0 -0.41415652737714409 0.27984630766512791 0 -0.42077135412814609 0.28126506896198411 0 -0.41415652737714409 0.27984630766512791 0 -0.40054515752516928 0.28304380033632598 0 -0.40480584153975258 0.27070836109974722 0 -0.42588888523881269 0.26146970489968108 0 -0.42077135412814609 0.28126506896198411 0 -0.42588888523881269 0.26146970489968108 0 -0.43407187523460827 0.26993511494778011 0 -0.42077135412814609 0.28126506896198411 0 -0.4378089777989419 0.28561367637981011 0 -0.43407187523460827 0.26993511494778011 0 -0.42077135412814609 0.28126506896198411 0 -0.4378089777989419 0.28561367637981011 0 -0.42555193825951282 0.29471901387806132 0 -0.42077135412814609 0.28126506896198411 0 -0.4378089777989419 0.28561367637981011 0 -0.42555193825951282 0.29471901387806132 0 -0.42797359809348362 0.31093687714616408 0 -0.44080567390058989 0.30452695217572601 0 -0.4378089777989419 0.28561367637981011 0 -0.42797359809348362 0.31093687714616408 0 -0.42555193825951282 0.29471901387806132 0 -0.42797359809348362 0.31093687714616408 0 -0.41565382301747938 0.30106043302428698 0 -0.4378089777989419 0.28561367637981011 0 -0.42797359809348362 0.31093687714616408 0 -0.43808794526156081 0.31425745264435428 0 -0.44080567390058989 0.30452695217572601 0 -0.42797359809348362 0.31093687714616408 0 -0.41021282969149597 0.32210699657597858 0 -0.41565382301747938 0.30106043302428698 0 -0.39645007197498561 0.30901776319555341 0 -0.41021282969149597 0.32210699657597858 0 -0.41565382301747938 0.30106043302428698 0 -0.41689602070275311 0.3186602554684026 0 -0.42797359809348362 0.31093687714616408 0 -0.41565382301747938 0.30106043302428698 0 -0.41689602070275311 0.3186602554684026 0 -0.41565382301747938 0.30106043302428698 0 -0.41565382301747938 0.30106043302428698 0 -0.42077135412814609 0.28126506896198411 0 -0.41415652737714409 0.27984630766512791 0 -0.41565382301747938 0.30106043302428698 0 -0.42077135412814609 0.28126506896198411 0 -0.41415652737714409 0.27984630766512791 0 -0.41565382301747938 0.30106043302428698 0 -0.40824015049685258 0.2900282837297265 0 -0.42555193825951282 0.29471901387806132 0 -0.41565382301747938 0.30106043302428698 0 -0.42077135412814609 0.28126506896198411 0 -0.41415652737714409 0.27984630766512791 0 -0.41565382301747938 0.30106043302428698 0 -0.41565382301747938 0.30106043302428698 0 -0.40824015049685258 0.2900282837297265 0 -0.40260509406761741 0.29616259389316513 0 -0.41415652737714409 0.27984630766512791 0 -0.40824015049685258 0.2900282837297265 0 -0.40054515752516928 0.28304380033632598 0 -0.40824015049685258 0.2900282837297265 0 -0.40054515752516928 0.28304380033632598 0 -0.40260509406761741 0.29616259389316513 0 -0.40054515752516928 0.28304380033632598 0 -0.40260509406761741 0.29616259389316513 0 -0.38722126892495312 0.29566695789377329 0 -0.41565382301747938 0.30106043302428698 0 -0.40260509406761741 0.29616259389316513 0 -0.39645007197498561 0.30901776319555341 0 -0.40260509406761741 0.29616259389316513 0 -0.39645007197498561 0.30901776319555341 0 -0.38722126892495312 0.29566695789377329 0 -0.39645007197498561 0.30901776319555341 0 -0.37888913402897179 0.30882046751300102 0 -0.38722126892495312 0.29566695789377329 0 -0.37888913402897179 0.30882046751300102 0 -0.38722126892495312 0.29566695789377329 0 -0.36731795597254913 0.2948988268655951 0 -0.38722126892495312 0.29566695789377329 0 -0.38350766283175891 0.27974301010140118 0 -0.36731795597254913 0.2948988268655951 0 -0.40054515752516928 0.28304380033632598 0 -0.38722126892495312 0.29566695789377329 0 -0.38350766283175891 0.27974301010140118 0 -0.38350766283175891 0.27974301010140118 0 -0.38215157852943832 0.26052960854459489 0 -0.37045715575636762 0.27229609101379082 0 -0.38350766283175891 0.27974301010140118 0 -0.38215157852943832 0.26052960854459489 0 -0.39445705337947939 0.26985205957136771 0 -0.38097370010591391 0.24384108033322641 0 -0.38215157852943832 0.26052960854459489 0 -0.39595401218745069 0.25308418163169571 0 -0.38215157852943832 0.26052960854459489 0 -0.39595401218745069 0.25308418163169571 0 -0.39445705337947939 0.26985205957136771 0 -0.39595401218745069 0.25308418163169571 0 -0.40214819026000093 0.26240218607919452 0 -0.39445705337947939 0.26985205957136771 0 -0.41006073509768542 0.24458492045944921 0 -0.4126592317368088 0.25863218230596863 0 -0.39595401218745069 0.25308418163169571 0 -0.4126592317368088 0.25863218230596863 0 -0.39595401218745069 0.25308418163169571 0 -0.40214819026000093 0.26240218607919452 0 -0.40214819026000093 0.26240218607919452 0 -0.40480584153975258 0.27070836109974722 0 -0.39445705337947939 0.26985205957136771 0 -0.40054515752516928 0.28304380033632598 0 -0.38350766283175891 0.27974301010140118 0 -0.39445705337947939 0.26985205957136771 0 -0.40054515752516928 0.28304380033632598 0 -0.40480584153975258 0.27070836109974722 0 -0.39445705337947939 0.26985205957136771 0 -0.35664097757162078 0.26597687880548521 0 -0.34957274239822811 0.28046876386523811 0 -0.34298410193414131 0.25765826796221142 0 -0.35664097757162078 0.26597687880548521 0 -0.34957274239822811 0.28046876386523811 0 -0.37045715575636762 0.27229609101379082 0 -0.35664097757162078 0.26597687880548521 0 -0.36184882001612789 0.25120191596523961 0 -0.34298410193414131 0.25765826796221142 0 -0.33816870206517008 0.2418705494875045 0 -0.36184882001612789 0.25120191596523961 0 -0.34298410193414131 0.25765826796221142 0 -0.38215157852943832 0.26052960854459489 0 -0.36184882001612789 0.25120191596523961 0 -0.37045715575636762 0.27229609101379082 0 -0.35664097757162078 0.26597687880548521 0 -0.36184882001612789 0.25120191596523961 0 -0.37045715575636762 0.27229609101379082 0 -0.38097370010591391 0.24384108033322641 0 -0.38215157852943832 0.26052960854459489 0 -0.36184882001612789 0.25120191596523961 0 -0.38350766283175891 0.27974301010140118 0 -0.37045715575636762 0.27229609101379082 0 -0.36731795597254913 0.2948988268655951 0 -0.34957274239822811 0.28046876386523811 0 -0.37045715575636762 0.27229609101379082 0 -0.36731795597254913 0.2948988268655951 0 -0.37888913402897179 0.30882046751300102 0 -0.36731795597254913 0.2948988268655951 0 -0.36648869518743882 0.319632757747211 0 -0.36731795597254913 0.2948988268655951 0 -0.34734712459840128 0.30787235655698142 0 -0.36648869518743882 0.319632757747211 0 -0.34957274239822811 0.28046876386523811 0 -0.36731795597254913 0.2948988268655951 0 -0.34734712459840128 0.30787235655698142 0 -0.32841148373493029 0.29178107530991132 0 -0.31490643000862889 0.2737982272616748 0 -0.30665365494612579 0.3053325213699854 0 -0.32841148373493029 0.29178107530991132 0 -0.30665365494612579 0.3053325213699854 0 -0.32424347818983662 0.32428338992552769 0 -0.34734712459840128 0.30787235655698142 0 -0.32841148373493029 0.29178107530991132 0 -0.32424347818983662 0.32428338992552769 0 -0.34957274239822811 0.28046876386523811 0 -0.34734712459840128 0.30787235655698142 0 -0.32841148373493029 0.29178107530991132 0 -0.32841148373493029 0.29178107530991132 0 -0.31490643000862889 0.2737982272616748 0 -0.32841148373493029 0.29178107530991132 0 -0.31490643000862889 0.2737982272616748 0 -0.33240494457099151 0.27113728792867298 0 -0.34957274239822811 0.28046876386523811 0 -0.33240494457099151 0.27113728792867298 0 -0.34298410193414131 0.25765826796221142 0 -0.34957274239822811 0.28046876386523811 0 -0.32841148373493029 0.29178107530991132 0 -0.33240494457099151 0.27113728792867298 0 -0.3207186543605689 0.24865522219363589 0 -0.33240494457099151 0.27113728792867298 0 -0.34298410193414131 0.25765826796221142 0 -0.3207186543605689 0.24865522219363589 0 -0.31490643000862889 0.2737982272616748 0 -0.33240494457099151 0.27113728792867298 0 -0.31490643000862889 0.2737982272616748 0 -0.30140137628232772 0.25581537921343828 0 -0.3207186543605689 0.24865522219363589 0 -0.31490643000862889 0.2737982272616748 0 -0.30140137628232772 0.25581537921343828 0 -0.31490643000862889 0.2737982272616748 0 -0.29826768631164657 0.27007613452148871 0 -0.28906383170241512 0.28638165281444322 0 -0.31490643000862889 0.2737982272616748 0 -0.30140137628232772 0.25581537921343828 0 -0.29826768631164657 0.27007613452148871 0 -0.29826768631164657 0.27007613452148871 0 -0.28769910725321468 0.26430927879639832 0 -0.28906383170241512 0.28638165281444322 0 -0.28769910725321468 0.26430927879639832 0 -0.27147400845870401 0.26743078425890138 0 -0.28906383170241512 0.28638165281444322 0 -0.2819927719755364 0.24847261411558719 0 -0.30140137628232772 0.25581537921343828 0 -0.28769910725321468 0.26430927879639832 0 -0.30140137628232772 0.25581537921343828 0 -0.29826768631164657 0.27007613452148871 0 -0.28769910725321468 0.26430927879639832 0 -0.2819927719755364 0.24847261411558719 0 -0.28769910725321468 0.26430927879639832 0 -0.27147400845870401 0.26743078425890138 0 -0.2819927719755364 0.24847261411558719 0 -0.26673284176786372 0.26232276097105561 0 -0.27147400845870401 0.26743078425890138 0 -0.2819927719755364 0.24847261411558719 0 -0.27147400845870401 0.26743078425890138 0 -0.2819927719755364 0.24847261411558719 0 -0.26673284176786372 0.26232276097105561 0 -0.26305761738569661 0.24901977672961981 0 -0.27087126593366828 0.2513959023754001 0 -0.26673284176786372 0.26232276097105561 0 -0.2819927719755364 0.24847261411558719 0 -0.27087126593366828 0.2513959023754001 0 -0.26673284176786372 0.26232276097105561 0 -0.26673284176786372 0.26232276097105561 0 -0.27147400845870401 0.26743078425890138 0 -0.27147400845870401 0.26743078425890138 0 -0.27384995914705029 0.28772299094850651 0 -0.28906383170241512 0.28638165281444322 0 -0.27147400845870401 0.26743078425890138 0 -0.28906383170241512 0.28638165281444322 0 -0.27147400845870401 0.26743078425890138 0 -0.2577691295514532 0.29213135155480158 0 -0.24641767816760121 0.28076111523790659 0 -0.26673284176786372 0.26232276097105561 0 -0.27147400845870401 0.26743078425890138 0 -0.24641767816760121 0.28076111523790659 0 -0.27147400845870401 0.26743078425890138 0 -0.2577691295514532 0.29213135155480158 0 -0.26673284176786372 0.26232276097105561 0 -0.24641767816760121 0.28076111523790659 0 -0.26673284176786372 0.26232276097105561 0 -0.25432553353194348 0.26385770201985209 0 -0.24641767816760121 0.28076111523790659 0 -0.25432553353194348 0.26385770201985209 0 -0.25189002896290491 0.25449239892481551 0 -0.24739154241544459 0.26250245805921452 0 -0.26673284176786372 0.26232276097105561 0 -0.24910725770640421 0.24333336453792839 0 -0.26305761738569661 0.24901977672961981 0 -0.26673284176786372 0.26232276097105561 0 -0.24910725770640421 0.24333336453792839 0 -0.26673284176786372 0.26232276097105561 0 -0.25189002896290491 0.25449239892481551 0 -0.24910725770640421 0.24333336453792839 0 -0.26673284176786372 0.26232276097105561 0 -0.25432553353194348 0.26385770201985209 0 -0.25189002896290491 0.25449239892481551 0 -0.26025347529761189 0.30833635846033691 0 -0.2474845913036233 0.31861885933040518 0 -0.2476054777775257 0.29980943081764161 0 -0.26025347529761189 0.30833635846033691 0 -0.2577691295514532 0.29213135155480158 0 -0.2476054777775257 0.29980943081764161 0 -0.26025347529761189 0.30833635846033691 0 -0.2577691295514532 0.29213135155480158 0 -0.2770928668756294 0.3049481751658798 0 -0.2577691295514532 0.29213135155480158 0 -0.2476054777775257 0.29980943081764161 0 -0.24641767816760121 0.28076111523790659 0 -0.27384995914705029 0.28772299094850651 0 -0.2770928668756294 0.3049481751658798 0 -0.28906383170241512 0.28638165281444322 0 -0.27147400845870401 0.26743078425890138 0 -0.2577691295514532 0.29213135155480158 0 -0.27384995914705029 0.28772299094850651 0 -0.2577691295514532 0.29213135155480158 0 -0.27384995914705029 0.28772299094850651 0 -0.2770928668756294 0.3049481751658798 0 -0.2770928668756294 0.3049481751658798 0 -0.30665365494612579 0.3053325213699854 0 -0.29573619118454608 0.32704356339758789 0 -0.31490643000862889 0.2737982272616748 0 -0.28906383170241512 0.28638165281444322 0 -0.30665365494612579 0.3053325213699854 0 -0.2770928668756294 0.3049481751658798 0 -0.28906383170241512 0.28638165281444322 0 -0.30665365494612579 0.3053325213699854 0 -0.28906383170241512 0.28638165281444322 0 -0.30665365494612579 0.3053325213699854 0 -0.30665365494612579 0.3053325213699854 0 -0.29573619118454608 0.32704356339758789 0 -0.32424347818983662 0.32428338992552769 0 -0.31137527589909297 0.34130405556528448 0 -0.29573619118454608 0.32704356339758789 0 -0.32424347818983662 0.32428338992552769 0 -0.31137527589909297 0.34130405556528448 0 -0.29573619118454608 0.32704356339758789 0 -0.29390108869993609 0.3492127352265384 0 -0.29573619118454608 0.32704356339758789 0 -0.27514800456924271 0.34480206363462912 0 -0.29390108869993609 0.3492127352265384 0 -0.26025347529761189 0.30833635846033691 0 -0.2770928668756294 0.3049481751658798 0 -0.27067316357892951 0.32517853376558797 0 -0.2770928668756294 0.3049481751658798 0 -0.29573619118454608 0.32704356339758789 0 -0.27067316357892951 0.32517853376558797 0 -0.27067316357892951 0.32517853376558797 0 -0.25411148794662869 0.34053150761902601 0 -0.27514800456924271 0.34480206363462912 0 -0.29573619118454608 0.32704356339758789 0 -0.27067316357892951 0.32517853376558797 0 -0.27514800456924271 0.34480206363462912 0 -0.26025347529761189 0.30833635846033691 0 -0.27067316357892951 0.32517853376558797 0 -0.2474845913036233 0.31861885933040518 0 -0.27067316357892951 0.32517853376558797 0 -0.25411148794662869 0.34053150761902601 0 -0.2474845913036233 0.31861885933040518 0 -0.25603590710798729 0.37305638900933402 0 -0.26687867341608801 0.35948450620500177 0 -0.24766031851708539 0.35885006558086252 0 -0.25411148794662869 0.34053150761902601 0 -0.26687867341608801 0.35948450620500177 0 -0.24766031851708539 0.35885006558086252 0 -0.25411148794662869 0.34053150761902601 0 -0.27514800456924271 0.34480206363462912 0 -0.26687867341608801 0.35948450620500177 0 -0.27514800456924271 0.34480206363462912 0 -0.26687867341608801 0.35948450620500177 0 -0.28363872999075079 0.36179349279583811 0 -0.26687867341608801 0.35948450620500177 0 -0.28363872999075079 0.36179349279583811 0 -0.27619646508053303 0.37812041123877238 0 -0.25603590710798729 0.37305638900933402 0 -0.26687867341608801 0.35948450620500177 0 -0.27619646508053303 0.37812041123877238 0 -0.28363872999075079 0.36179349279583811 0 -0.30750285598447252 0.37357749987930849 0 -0.27619646508053303 0.37812041123877238 0 -0.31137527589909297 0.34130405556528448 0 -0.29390108869993609 0.3492127352265384 0 -0.30750285598447252 0.37357749987930849 0 -0.28363872999075079 0.36179349279583811 0 -0.29390108869993609 0.3492127352265384 0 -0.30750285598447252 0.37357749987930849 0 -0.27514800456924271 0.34480206363462912 0 -0.28363872999075079 0.36179349279583811 0 -0.29390108869993609 0.3492127352265384 0 -0.30750285598447252 0.37357749987930849 0 -0.3278264572968515 0.35191620365504728 0 -0.30750285598447252 0.37357749987930849 0 -0.3278264572968515 0.35191620365504728 0 -0.32494574219010353 0.38476642951700452 0 -0.34287435709736841 0.37357678416617901 0 -0.3278264572968515 0.35191620365504728 0 -0.32494574219010353 0.38476642951700452 0 -0.31137527589909297 0.34130405556528448 0 -0.30750285598447252 0.37357749987930849 0 -0.3278264572968515 0.35191620365504728 0 -0.31137527589909297 0.34130405556528448 0 -0.3278264572968515 0.35191620365504728 0 -0.32424347818983662 0.32428338992552769 0 -0.30665365494612579 0.3053325213699854 0 -0.32424347818983662 0.32428338992552769 0 -0.34734712459840128 0.30787235655698142 0 -0.32424347818983662 0.32428338992552769 0 -0.34858101156742421 0.33575809805576051 0 -0.3278264572968515 0.35191620365504728 0 -0.32424347818983662 0.32428338992552769 0 -0.34858101156742421 0.33575809805576051 0 -0.34734712459840128 0.30787235655698142 0 -0.36648869518743882 0.319632757747211 0 -0.34734712459840128 0.30787235655698142 0 -0.34858101156742421 0.33575809805576051 0 -0.36648869518743882 0.319632757747211 0 -0.34858101156742421 0.33575809805576051 0 -0.36648869518743882 0.319632757747211 0 -0.36831654614497472 0.33922749996314738 0 -0.38563026577647619 0.3313931589374407 0 -0.36648869518743882 0.319632757747211 0 -0.36831654614497472 0.33922749996314738 0 -0.34858101156742421 0.33575809805576051 0 -0.36831654614497472 0.33922749996314738 0 -0.36133159075318749 0.35786573637866592 0 -0.34287435709736841 0.37357678416617901 0 -0.3278264572968515 0.35191620365504728 0 -0.36133159075318749 0.35786573637866592 0 -0.38248166547526619 0.35205518551514609 0 -0.36831654614497472 0.33922749996314738 0 -0.36133159075318749 0.35786573637866592 0 -0.3278264572968515 0.35191620365504728 0 -0.34858101156742421 0.33575809805576051 0 -0.36133159075318749 0.35786573637866592 0 -0.37735541314810322 0.37355832329676608 0 -0.36133159075318749 0.35786573637866592 0 -0.35958967878116049 0.37797977590378112 0 -0.37735541314810322 0.37355832329676608 0 -0.38248166547526619 0.35205518551514609 0 -0.36133159075318749 0.35786573637866592 0 -0.34287435709736841 0.37357678416617901 0 -0.36133159075318749 0.35786573637866592 0 -0.35958967878116049 0.37797977590378112 0 -0.344656989413055 0.39834980363564859 0 -0.3705907680975018 0.39216637407158789 0 -0.36075531476205741 0.40892232906522741 0 -0.344656989413055 0.39834980363564859 0 -0.3705907680975018 0.39216637407158789 0 -0.34287435709736841 0.37357678416617901 0 -0.344656989413055 0.39834980363564859 0 -0.35958967878116049 0.37797977590378112 0 -0.344656989413055 0.39834980363564859 0 -0.35958967878116049 0.37797977590378112 0 -0.3705907680975018 0.39216637407158789 0 -0.37735541314810322 0.37355832329676608 0 -0.35958967878116049 0.37797977590378112 0 -0.3705907680975018 0.39216637407158789 0 -0.38528675392918182 0.41852472881625852 0 -0.3705907680975018 0.39216637407158789 0 -0.36075531476205741 0.40892232906522741 0 -0.38528675392918182 0.41852472881625852 0 -0.36075531476205741 0.40892232906522741 0 -0.36396462051856848 0.426382225859054 0 -0.36396462051856848 0.426382225859054 0 -0.34208099476743509 0.42349446288123138 0 -0.35787936464341402 0.44678608589355318 0 -0.344656989413055 0.39834980363564859 0 -0.36075531476205741 0.40892232906522741 0 -0.34208099476743509 0.42349446288123138 0 -0.36075531476205741 0.40892232906522741 0 -0.36396462051856848 0.426382225859054 0 -0.34208099476743509 0.42349446288123138 0 -0.34208099476743509 0.42349446288123138 0 -0.32490495155579618 0.43104093205947408 0 -0.3187232107286081 0.40453323319970919 0 -0.344656989413055 0.39834980363564859 0 -0.34208099476743509 0.42349446288123138 0 -0.3187232107286081 0.40453323319970919 0 -0.34208099476743509 0.42349446288123138 0 -0.32490495155579618 0.43104093205947408 0 -0.33766624559627711 0.44585438502440111 0 -0.32490495155579618 0.43104093205947408 0 -0.30861843000121492 0.4275684324193989 0 -0.32025633733125858 0.44917601012113001 0 -0.32490495155579618 0.43104093205947408 0 -0.3187232107286081 0.40453323319970919 0 -0.30861843000121492 0.4275684324193989 0 -0.3187232107286081 0.40453323319970919 0 -0.32494574219010353 0.38476642951700452 0 -0.30622809912388771 0.39376652429267239 0 -0.344656989413055 0.39834980363564859 0 -0.3187232107286081 0.40453323319970919 0 -0.344656989413055 0.39834980363564859 0 -0.3187232107286081 0.40453323319970919 0 -0.32494574219010353 0.38476642951700452 0 -0.34287435709736841 0.37357678416617901 0 -0.344656989413055 0.39834980363564859 0 -0.32494574219010353 0.38476642951700452 0 -0.30750285598447252 0.37357749987930849 0 -0.32494574219010353 0.38476642951700452 0 -0.30622809912388771 0.39376652429267239 0 -0.30750285598447252 0.37357749987930849 0 -0.28717925467209338 0.39523879610356971 0 -0.27619646508053303 0.37812041123877238 0 -0.30750285598447252 0.37357749987930849 0 -0.28717925467209338 0.39523879610356971 0 -0.30750285598447252 0.37357749987930849 0 -0.30622809912388771 0.39376652429267239 0 -0.28717925467209338 0.39523879610356971 0 -0.3187232107286081 0.40453323319970919 0 -0.30622809912388771 0.39376652429267239 0 -0.29278943204416119 0.41071666276376989 0 -0.30622809912388771 0.39376652429267239 0 -0.28717925467209338 0.39523879610356971 0 -0.29278943204416119 0.41071666276376989 0 -0.27619646508053303 0.37812041123877238 0 -0.27237725663709722 0.39370545346873698 0 -0.25945176674183212 0.38958852722716247 0 -0.28717925467209338 0.39523879610356971 0 -0.27619646508053303 0.37812041123877238 0 -0.27237725663709722 0.39370545346873698 0 -0.28717925467209338 0.39523879610356971 0 -0.2668556533597144 0.41690009232783071 0 -0.28717925467209338 0.39523879610356971 0 -0.27237725663709722 0.39370545346873698 0 -0.26682886638103409 0.40702136218459167 0 -0.27237725663709722 0.39370545346873698 0 -0.26238475457985239 0.39980741464863301 0 -0.26682886638103409 0.40702136218459167 0 -0.27237725663709722 0.39370545346873698 0 -0.26238475457985239 0.39980741464863301 0 -0.25945176674183212 0.38958852722716247 0 -0.26238475457985239 0.39980741464863301 0 -0.25544095751842583 0.3990828612310845 0 -0.25945176674183212 0.38958852722716247 0 -0.26238475457985239 0.39980741464863301 0 -0.25811305719074251 0.4075177426720682 0 -0.26682886638103409 0.40702136218459167 0 -0.26238475457985239 0.39980741464863301 0 -0.25544095751842583 0.3990828612310845 0 -0.25811305719074251 0.4075177426720682 0 -0.25544095751842583 0.3990828612310845 0 -0.24728759806371159 0.39461320975121428 0 -0.24996761101599069 0.40388741185634452 0 -0.25544095751842583 0.3990828612310845 0 -0.25811305719074251 0.4075177426720682 0 -0.24996761101599069 0.40388741185634452 0 -0.25544095751842583 0.3990828612310845 0 -0.25945176674183212 0.38958852722716247 0 -0.24728759806371159 0.39461320975121428 0 -0.25945176674183212 0.38958852722716247 0 -0.24736677536366869 0.38332155873877438 0 -0.24728759806371159 0.39461320975121428 0 -0.25603590710798729 0.37305638900933402 0 -0.25945176674183212 0.38958852722716247 0 -0.24736677536366869 0.38332155873877438 0 -0.25603590710798729 0.37305638900933402 0 -0.27619646508053303 0.37812041123877238 0 -0.25945176674183212 0.38958852722716247 0 -0.25162714099927308 0.43313094198012242 0 -0.26516771327521332 0.41730255040183001 0 -0.2668556533597144 0.41690009232783071 0 -0.25162714099927308 0.43313094198012242 0 -0.2668556533597144 0.41690009232783071 0 -0.25162714099927308 0.43313094198012242 0 -0.2668556533597144 0.41690009232783071 0 -0.26903950997900872 0.43420854679031179 0 -0.25162714099927308 0.43313094198012242 0 -0.25552926770382778 0.42125497322787692 0 -0.26516771327521332 0.41730255040183001 0 -0.25162714099927308 0.43313094198012242 0 -0.25552926770382778 0.42125497322787692 0 -0.24736710289600669 0.4223094275503243 0 -0.25552926770382778 0.42125497322787692 0 -0.25015397653610649 0.41360124968575279 0 -0.24736710289600669 0.4223094275503243 0 -0.25769237476815943 0.41443611510736889 0 -0.25552926770382778 0.42125497322787692 0 -0.25015397653610649 0.41360124968575279 0 -0.25769237476815943 0.41443611510736889 0 -0.25015397653610649 0.41360124968575279 0 -0.25811305719074251 0.4075177426720682 0 -0.25015397653610649 0.41360124968575279 0 -0.25811305719074251 0.4075177426720682 0 -0.24996761101599069 0.40388741185634452 0 -0.25811305719074251 0.4075177426720682 0 -0.26201877747646413 0.411671337890537 0 -0.26682886638103409 0.40702136218459167 0 -0.25769237476815943 0.41443611510736889 0 -0.26201877747646413 0.411671337890537 0 -0.26101613453252848 0.41591838526476088 0 -0.25769237476815943 0.41443611510736889 0 -0.25811305719074251 0.4075177426720682 0 -0.26201877747646413 0.411671337890537 0 -0.26201877747646413 0.411671337890537 0 -0.26465809341301522 0.41389186087957258 0 -0.26682886638103409 0.40702136218459167 0 -0.26201877747646413 0.411671337890537 0 -0.26465809341301522 0.41389186087957258 0 -0.26101613453252848 0.41591838526476088 0 -0.25552926770382778 0.42125497322787692 0 -0.26101613453252848 0.41591838526476088 0 -0.26516771327521332 0.41730255040183001 0 -0.25769237476815943 0.41443611510736889 0 -0.25552926770382778 0.42125497322787692 0 -0.26101613453252848 0.41591838526476088 0 -0.26465809341301522 0.41389186087957258 0 -0.26101613453252848 0.41591838526476088 0 -0.26516771327521332 0.41730255040183001 0 -0.26465809341301522 0.41389186087957258 0 -0.26516771327521332 0.41730255040183001 0 -0.2668556533597144 0.41690009232783071 0 -0.28717925467209338 0.39523879610356971 0 -0.2668556533597144 0.41690009232783071 0 -0.26682886638103409 0.40702136218459167 0 -0.2668556533597144 0.41690009232783071 0 -0.28216729923377049 0.42298468612274021 0 -0.29278943204416119 0.41071666276376989 0 -0.2668556533597144 0.41690009232783071 0 -0.29278943204416119 0.41071666276376989 0 -0.26516771327521332 0.41730255040183001 0 -0.2668556533597144 0.41690009232783071 0 -0.26465809341301522 0.41389186087957258 0 -0.2668556533597144 0.41690009232783071 0 -0.26682886638103409 0.40702136218459167 0 -0.2668556533597144 0.41690009232783071 0 -0.27416026217943412 0.42647048038595647 0 -0.28216729923377049 0.42298468612274021 0 -0.2668556533597144 0.41690009232783071 0 -0.26903950997900872 0.43420854679031179 0 -0.27416026217943412 0.42647048038595647 0 -0.27416026217943412 0.42647048038595647 0 -0.28531052824988551 0.43746733211922018 0 -0.28216729923377049 0.42298468612274021 0 -0.26903950997900872 0.43420854679031179 0 -0.27416026217943412 0.42647048038595647 0 -0.28531052824988551 0.43746733211922018 0 -0.28531052824988551 0.43746733211922018 0 -0.29396979543201113 0.42849206708430132 0 -0.30117665700608132 0.44183583249311181 0 -0.28531052824988551 0.43746733211922018 0 -0.28216729923377049 0.42298468612274021 0 -0.29396979543201113 0.42849206708430132 0 -0.28216729923377049 0.42298468612274021 0 -0.29396979543201113 0.42849206708430132 0 -0.29278943204416119 0.41071666276376989 0 -0.28717925467209338 0.39523879610356971 0 -0.2668556533597144 0.41690009232783071 0 -0.29278943204416119 0.41071666276376989 0 -0.3187232107286081 0.40453323319970919 0 -0.29278943204416119 0.41071666276376989 0 -0.30861843000121492 0.4275684324193989 0 -0.3187232107286081 0.40453323319970919 0 -0.29278943204416119 0.41071666276376989 0 -0.29396979543201113 0.42849206708430132 0 -0.29278943204416119 0.41071666276376989 0 -0.30861843000121492 0.4275684324193989 0 -0.29396979543201113 0.42849206708430132 0 -0.30861843000121492 0.4275684324193989 0 -0.30117665700608132 0.44183583249311181 0 -0.30117665700608132 0.44183583249311181 0 -0.29875236701631458 0.45741585110583449 0 -0.32025633733125858 0.44917601012113001 0 -0.30861843000121492 0.4275684324193989 0 -0.30117665700608132 0.44183583249311181 0 -0.32025633733125858 0.44917601012113001 0 -0.29875236701631458 0.45741585110583449 0 -0.28147893504566751 0.46774744049975719 0 -0.27402677104993262 0.44858413500633382 0 -0.28531052824988551 0.43746733211922018 0 -0.29875236701631458 0.45741585110583449 0 -0.27402677104993262 0.44858413500633382 0 -0.28531052824988551 0.43746733211922018 0 -0.30117665700608132 0.44183583249311181 0 -0.29875236701631458 0.45741585110583449 0 -0.26903950997900872 0.43420854679031179 0 -0.28531052824988551 0.43746733211922018 0 -0.27402677104993262 0.44858413500633382 0 -0.26903950997900872 0.43420854679031179 0 -0.27402677104993262 0.44858413500633382 0 -0.25983221871567602 0.45406546637528622 0 -0.28147893504566751 0.46774744049975719 0 -0.25983221871567602 0.45406546637528622 0 -0.26538539509673231 0.47714445785281961 0 -0.28147893504566751 0.46774744049975719 0 -0.27402677104993262 0.44858413500633382 0 -0.25983221871567602 0.45406546637528622 0 -0.28147893504566751 0.46774744049975719 0 -0.25983221871567602 0.45406546637528622 0 -0.25983221871567602 0.45406546637528622 0 -0.26538539509673231 0.47714445785281961 0 -0.24973180031732389 0.46352068888914938 0 -0.25162714099927308 0.43313094198012242 0 -0.26903950997900872 0.43420854679031179 0 -0.25983221871567602 0.45406546637528622 0 -0.26538539509673231 0.47714445785281961 0 -0.27634494053915287 0.49221742461179752 0 -0.24974264262107879 0.4872741300196356 0 -0.26218357898232331 0.49437500411430541 0 -0.27634494053915287 0.49221742461179752 0 -0.24974264262107879 0.4872741300196356 0 -0.27634494053915287 0.49221742461179752 0 -0.24974264262107879 0.4872741300196356 0 -0.26218357898232331 0.49437500411430541 0 -0.27776238467880549 0.5 0 -0.24900940987232539 0.5 0 -0.26218357898232331 0.49437500411430541 0 -0.24974264262107879 0.4872741300196356 0 -0.24900940987232539 0.5 0 -0.26538539509673231 0.47714445785281961 0 -0.25225366216692757 0.47603039887722431 0 -0.24973180031732389 0.46352068888914938 0 -0.26538539509673231 0.47714445785281961 0 -0.25225366216692757 0.47603039887722431 0 -0.24974264262107879 0.4872741300196356 0 -0.26538539509673231 0.47714445785281961 0 -0.27634494053915287 0.49221742461179752 0 -0.28321994737953848 0.48190464693468987 0 -0.28147893504566751 0.46774744049975719 0 -0.26538539509673231 0.47714445785281961 0 -0.28321994737953848 0.48190464693468987 0 -0.26218357898232331 0.49437500411430541 0 -0.27634494053915287 0.49221742461179752 0 -0.27776238467880549 0.5 0 -0.289764814840481 0.49098449708484698 0 -0.28321994737953848 0.48190464693468987 0 -0.30312565137565878 0.48142941462422839 0 -0.27776238467880549 0.5 0 -0.289764814840481 0.49098449708484698 0 -0.30651535948528569 0.5 0 -0.27634494053915287 0.49221742461179752 0 -0.27776238467880549 0.5 0 -0.289764814840481 0.49098449708484698 0 -0.27634494053915287 0.49221742461179752 0 -0.289764814840481 0.49098449708484698 0 -0.28321994737953848 0.48190464693468987 0 -0.29875236701631458 0.45741585110583449 0 -0.28147893504566751 0.46774744049975719 0 -0.30312565137565878 0.48142941462422839 0 -0.28147893504566751 0.46774744049975719 0 -0.30312565137565878 0.48142941462422839 0 -0.28147893504566751 0.46774744049975719 0 -0.28321994737953848 0.48190464693468987 0 -0.30312565137565878 0.48142941462422839 0 -0.29875236701631458 0.45741585110583449 0 -0.30312565137565878 0.48142941462422839 0 -0.32610505843077592 0.47378340337379482 0 -0.289764814840481 0.49098449708484698 0 -0.30312565137565878 0.48142941462422839 0 -0.30651535948528569 0.5 0 -0.30312565137565878 0.48142941462422839 0 -0.30651535948528569 0.5 0 -0.31867016172473639 0.48818671525875318 0 -0.30651535948528569 0.5 0 -0.31867016172473639 0.48818671525875318 0 -0.33526833429176589 0.5 0 -0.31867016172473639 0.48818671525875318 0 -0.33526833429176589 0.5 0 -0.32610505843077592 0.47378340337379482 0 -0.33526833429176589 0.5 0 -0.32610505843077592 0.47378340337379482 0 -0.35058502927755819 0.48471158174014828 0 -0.32610505843077592 0.47378340337379482 0 -0.34512903209738383 0.46546589871991267 0 -0.35058502927755819 0.48471158174014828 0 -0.30312565137565878 0.48142941462422839 0 -0.31867016172473639 0.48818671525875318 0 -0.32610505843077592 0.47378340337379482 0 -0.29875236701631458 0.45741585110583449 0 -0.32610505843077592 0.47378340337379482 0 -0.32025633733125858 0.44917601012113001 0 -0.32610505843077592 0.47378340337379482 0 -0.32025633733125858 0.44917601012113001 0 -0.33325450001756379 0.45932240607520702 0 -0.32490495155579618 0.43104093205947408 0 -0.32025633733125858 0.44917601012113001 0 -0.33766624559627711 0.44585438502440111 0 -0.32025633733125858 0.44917601012113001 0 -0.33766624559627711 0.44585438502440111 0 -0.33325450001756379 0.45932240607520702 0 -0.33766624559627711 0.44585438502440111 0 -0.33325450001756379 0.45932240607520702 0 -0.34512903209738383 0.46546589871991267 0 -0.32610505843077592 0.47378340337379482 0 -0.33325450001756379 0.45932240607520702 0 -0.34512903209738383 0.46546589871991267 0 -0.34512903209738383 0.46546589871991267 0 -0.35787936464341402 0.44678608589355318 0 -0.35893455593530849 0.46962015128503332 0 -0.33766624559627711 0.44585438502440111 0 -0.34512903209738383 0.46546589871991267 0 -0.35787936464341402 0.44678608589355318 0 -0.34208099476743509 0.42349446288123138 0 -0.33766624559627711 0.44585438502440111 0 -0.35787936464341402 0.44678608589355318 0 -0.37879172645040482 0.44364845171245471 0 -0.36396462051856848 0.426382225859054 0 -0.35787936464341402 0.44678608589355318 0 -0.37879172645040482 0.44364845171245471 0 -0.35787936464341402 0.44678608589355318 0 -0.37229669897162648 0.4687721746086505 0 -0.35787936464341402 0.44678608589355318 0 -0.37229669897162648 0.4687721746086505 0 -0.35893455593530849 0.46962015128503332 0 -0.35787936464341402 0.44678608589355318 0 -0.37229669897162648 0.4687721746086505 0 -0.37229669897162648 0.4687721746086505 0 -0.36878265468656041 0.48236501546290123 0 -0.36878265468656041 0.48236501546290123 0 -0.35058502927755819 0.48471158174014828 0 -0.35893455593530849 0.46962015128503332 0 -0.37229669897162648 0.4687721746086505 0 -0.36878265468656041 0.48236501546290123 0 -0.35893455593530849 0.46962015128503332 0 -0.38253549143817611 0.48438608730432547 0 -0.37229669897162648 0.4687721746086505 0 -0.36878265468656041 0.48236501546290123 0 -0.36878265468656041 0.48236501546290123 0 -0.36402130909824609 0.5 0 -0.35058502927755819 0.48471158174014828 0 -0.38253549143817611 0.48438608730432547 0 -0.36878265468656041 0.48236501546290123 0 -0.36402130909824609 0.5 0 -0.33526833429176589 0.5 0 -0.36402130909824609 0.5 0 -0.35058502927755819 0.48471158174014828 0 -0.34512903209738383 0.46546589871991267 0 -0.35058502927755819 0.48471158174014828 0 -0.35893455593530849 0.46962015128503332 0 -0.14807688072685751 0.47947349251630139 0 -0.1449031746491653 0.47114953353165789 0 -0.13298722322834031 0.47728340512472189 0 -0.14807688072685751 0.47947349251630139 0 -0.1449031746491653 0.47114953353165789 0 -0.15270516116541211 0.46684956727063598 0 -0.14807688072685751 0.47947349251630139 0 -0.13297312164065109 0.499999999999997 0 -0.1627504854528852 0.49999999999999961 0 -0.14807688072685751 0.47947349251630139 0 -0.13297312164065109 0.499999999999997 0 -0.1276316110634213 0.48932083876329607 0 -0.14807688072685751 0.47947349251630139 0 -0.1276316110634213 0.48932083876329607 0 -0.13297312164065109 0.499999999999997 0 -0.1276316110634213 0.48932083876329607 0 -0.1276316110634213 0.48932083876329607 0 -0.13298722322834031 0.47728340512472189 0 -0.1199335769996305 0.47393033344009028 0 -0.14807688072685751 0.47947349251630139 0 -0.1276316110634213 0.48932083876329607 0 -0.13298722322834031 0.47728340512472189 0 -0.1449031746491653 0.47114953353165789 0 -0.13298722322834031 0.47728340512472189 0 -0.13513601027615291 0.46842494278327468 0 -0.13298722322834031 0.47728340512472189 0 -0.13513601027615291 0.46842494278327468 0 -0.1199335769996305 0.47393033344009028 0 -0.1271705947214293 0.45485077653965988 0 -0.13513601027615291 0.46842494278327468 0 -0.15292405211001839 0.46405277265753447 0 -0.1271705947214293 0.45485077653965988 0 -0.15292405211001839 0.46405277265753447 0 -0.1271705947214293 0.45485077653965988 0 -0.13513601027615291 0.46842494278327468 0 -0.1199335769996305 0.47393033344009028 0 -0.1271705947214293 0.45485077653965988 0 -0.1387583029552025 0.43670156837406171 0 -0.1203882308634798 0.43633692869159008 0 -0.1271705947214293 0.45485077653965988 0 -0.15416612135790611 0.44818271193928838 0 -0.1387583029552025 0.43670156837406171 0 -0.15416612135790611 0.44818271193928838 0 -0.15567339304536021 0.42892412934459351 0 -0.1387583029552025 0.43670156837406171 0 -0.15416612135790611 0.44818271193928838 0 -0.15567339304536021 0.42892412934459351 0 -0.1271705947214293 0.45485077653965988 0 -0.15416612135790611 0.44818271193928838 0 -0.1271705947214293 0.45485077653965988 0 -0.15416612135790611 0.44818271193928838 0 -0.15292405211001839 0.46405277265753447 0 -0.15416612135790611 0.44818271193928838 0 -0.15292405211001839 0.46405277265753447 0 -0.1449031746491653 0.47114953353165789 0 -0.13513601027615291 0.46842494278327468 0 -0.15292405211001839 0.46405277265753447 0 -0.1449031746491653 0.47114953353165789 0 -0.15292405211001839 0.46405277265753447 0 -0.15270516116541211 0.46684956727063598 0 -0.15292405211001839 0.46405277265753447 0 -0.15270516116541211 0.46684956727063598 0 -0.15416612135790611 0.44818271193928838 0 -0.15292405211001839 0.46405277265753447 0 -0.17078632046734629 0.45663165130832062 0 -0.15292405211001839 0.46405277265753447 0 -0.16852215039029239 0.46962614626930421 0 -0.15292405211001839 0.46405277265753447 0 -0.17078632046734629 0.45663165130832062 0 -0.16852215039029239 0.46962614626930421 0 -0.15292405211001839 0.46405277265753447 0 -0.15270516116541211 0.46684956727063598 0 -0.16852215039029239 0.46962614626930421 0 -0.15416612135790611 0.44818271193928838 0 -0.17078632046734629 0.45663165130832062 0 -0.17914767152504801 0.44201211217380781 0 -0.15416612135790611 0.44818271193928838 0 -0.17914767152504801 0.44201211217380781 0 -0.15416612135790611 0.44818271193928838 0 -0.17914767152504801 0.44201211217380781 0 -0.16728667621743029 0.43291446567770703 0 -0.17078632046734629 0.45663165130832062 0 -0.17914767152504801 0.44201211217380781 0 -0.18750313500962471 0.45322271881058451 0 -0.17914767152504801 0.44201211217380781 0 -0.18750313500962471 0.45322271881058451 0 -0.19381626646914471 0.43178512195899288 0 -0.17078632046734629 0.45663165130832062 0 -0.1807613848145202 0.46373118957968201 0 -0.18750313500962471 0.45322271881058451 0 -0.1807613848145202 0.46373118957968201 0 -0.16852215039029239 0.46962614626930421 0 -0.17078632046734629 0.45663165130832062 0 -0.1807613848145202 0.46373118957968201 0 -0.16852215039029239 0.46962614626930421 0 -0.1807613848145202 0.46373118957968201 0 -0.18750313500962471 0.45322271881058451 0 -0.1888244645561897 0.46726779201889462 0 -0.185064519553402 0.47553691834633532 0 -0.17683457512210879 0.48056765551261732 0 -0.16852215039029239 0.46962614626930421 0 -0.1807613848145202 0.46373118957968201 0 -0.185064519553402 0.47553691834633532 0 -0.1888244645561897 0.46726779201889462 0 -0.1807613848145202 0.46373118957968201 0 -0.185064519553402 0.47553691834633532 0 -0.16852215039029239 0.46962614626930421 0 -0.185064519553402 0.47553691834633532 0 -0.16852215039029239 0.46962614626930421 0 -0.185064519553402 0.47553691834633532 0 -0.17683457512210879 0.48056765551261732 0 -0.19004123358867511 0.47731515349905218 0 -0.17683457512210879 0.48056765551261732 0 -0.18484172694490761 0.48510232966131261 0 -0.19004123358867511 0.47731515349905218 0 -0.17683457512210879 0.48056765551261732 0 -0.1669425702058801 0.48360312835117208 0 -0.17484995925240801 0.48867667840018542 0 -0.14807688072685751 0.47947349251630139 0 -0.16852215039029239 0.46962614626930421 0 -0.14807688072685751 0.47947349251630139 0 -0.15270516116541211 0.46684956727063598 0 -0.16852215039029239 0.46962614626930421 0 -0.14807688072685751 0.47947349251630139 0 -0.16852215039029239 0.46962614626930421 0 -0.1669425702058801 0.48360312835117208 0 -0.17683457512210879 0.48056765551261732 0 -0.16852215039029239 0.46962614626930421 0 -0.1669425702058801 0.48360312835117208 0 -0.1669425702058801 0.48360312835117208 0 -0.1627504854528852 0.49999999999999961 0 -0.17484995925240801 0.48867667840018542 0 -0.14807688072685751 0.47947349251630139 0 -0.1669425702058801 0.48360312835117208 0 -0.1627504854528852 0.49999999999999961 0 -0.1627504854528852 0.49999999999999961 0 -0.18288043853625829 0.49411027847582478 0 -0.1627504854528852 0.49999999999999961 0 -0.17484995925240801 0.48867667840018542 0 -0.18288043853625829 0.49411027847582478 0 -0.1627504854528852 0.49999999999999961 0 -0.18288043853625829 0.49411027847582478 0 -0.19150346025936529 0.5 0 -0.17683457512210879 0.48056765551261732 0 -0.17484995925240801 0.48867667840018542 0 -0.18484172694490761 0.48510232966131261 0 -0.18484172694490761 0.48510232966131261 0 -0.18288043853625829 0.49411027847582478 0 -0.1913315810410455 0.48600827469168728 0 -0.17484995925240801 0.48867667840018542 0 -0.18484172694490761 0.48510232966131261 0 -0.18288043853625829 0.49411027847582478 0 -0.18288043853625829 0.49411027847582478 0 -0.20301039161963161 0.48822055695165051 0 -0.18288043853625829 0.49411027847582478 0 -0.1913315810410455 0.48600827469168728 0 -0.20301039161963161 0.48822055695165051 0 -0.18288043853625829 0.49411027847582478 0 -0.19150346025936529 0.5 0 -0.20301039161963161 0.48822055695165051 0 -0.185064519553402 0.47553691834633532 0 -0.20414957770848621 0.47880193141797339 0 -0.185064519553402 0.47553691834633532 0 -0.1958945293915231 0.47097100025090177 0 -0.20414957770848621 0.47880193141797339 0 -0.185064519553402 0.47553691834633532 0 -0.19004123358867511 0.47731515349905218 0 -0.20414957770848621 0.47880193141797339 0 -0.19004123358867511 0.47731515349905218 0 -0.2117529692095293 0.48566261023440122 0 -0.20301039161963161 0.48822055695165051 0 -0.19004123358867511 0.47731515349905218 0 -0.2117529692095293 0.48566261023440122 0 -0.19004123358867511 0.47731515349905218 0 -0.20414957770848621 0.47880193141797339 0 -0.2117529692095293 0.48566261023440122 0 -0.185064519553402 0.47553691834633532 0 -0.1958945293915231 0.47097100025090177 0 -0.1888244645561897 0.46726779201889462 0 -0.185064519553402 0.47553691834633532 0 -0.19004123358867511 0.47731515349905218 0 -0.1913315810410455 0.48600827469168728 0 -0.20301039161963161 0.48822055695165051 0 -0.19004123358867511 0.47731515349905218 0 -0.18484172694490761 0.48510232966131261 0 -0.1913315810410455 0.48600827469168728 0 -0.19004123358867511 0.47731515349905218 0 -0.1958945293915231 0.47097100025090177 0 -0.2040031131447777 0.46920934458907798 0 -0.20414957770848621 0.47880193141797339 0 -0.20414957770848621 0.47880193141797339 0 -0.22314034470300451 0.48233083542747479 0 -0.20414957770848621 0.47880193141797339 0 -0.2144100740489786 0.47003149160489721 0 -0.22314034470300451 0.48233083542747479 0 -0.20414957770848621 0.47880193141797339 0 -0.2117529692095293 0.48566261023440122 0 -0.22314034470300451 0.48233083542747479 0 -0.2040031131447777 0.46920934458907798 0 -0.20414957770848621 0.47880193141797339 0 -0.2144100740489786 0.47003149160489721 0 -0.2117529692095293 0.48566261023440122 0 -0.22314034470300451 0.48233083542747479 0 -0.20301039161963161 0.48822055695165051 0 -0.2117529692095293 0.48566261023440122 0 -0.2202564350658455 0.5 0 -0.2117529692095293 0.48566261023440122 0 -0.2202564350658455 0.5 0 -0.22314034470300451 0.48233083542747479 0 -0.19150346025936529 0.5 0 -0.20301039161963161 0.48822055695165051 0 -0.2202564350658455 0.5 0 -0.20301039161963161 0.48822055695165051 0 -0.2117529692095293 0.48566261023440122 0 -0.2202564350658455 0.5 0 -0.22314034470300451 0.48233083542747479 0 -0.2355372080655635 0.4924012413617776 0 -0.22314034470300451 0.48233083542747479 0 -0.24415481063257569 0.47618231874729311 0 -0.22314034470300451 0.48233083542747479 0 -0.22899168016783969 0.47016270923010511 0 -0.24415481063257569 0.47618231874729311 0 -0.2144100740489786 0.47003149160489721 0 -0.22314034470300451 0.48233083542747479 0 -0.22899168016783969 0.47016270923010511 0 -0.22314034470300451 0.48233083542747479 0 -0.24415481063257569 0.47618231874729311 0 -0.24974264262107879 0.4872741300196356 0 -0.22899168016783969 0.47016270923010511 0 -0.24415481063257569 0.47618231874729311 0 -0.23988025581223121 0.46722588797679793 0 -0.24415481063257569 0.47618231874729311 0 -0.24973180031732389 0.46352068888914938 0 -0.23988025581223121 0.46722588797679793 0 -0.25225366216692757 0.47603039887722431 0 -0.24415481063257569 0.47618231874729311 0 -0.24973180031732389 0.46352068888914938 0 -0.25225366216692757 0.47603039887722431 0 -0.24415481063257569 0.47618231874729311 0 -0.24974264262107879 0.4872741300196356 0 -0.22314034470300451 0.48233083542747479 0 -0.24974264262107879 0.4872741300196356 0 -0.22314034470300451 0.48233083542747479 0 -0.24974264262107879 0.4872741300196356 0 -0.2355372080655635 0.4924012413617776 0 -0.2202564350658455 0.5 0 -0.24900940987232539 0.5 0 -0.2355372080655635 0.4924012413617776 0 -0.24974264262107879 0.4872741300196356 0 -0.24900940987232539 0.5 0 -0.2355372080655635 0.4924012413617776 0 -0.25983221871567602 0.45406546637528622 0 -0.2381855023856847 0.44038349225081519 0 -0.25162714099927308 0.43313094198012242 0 -0.25983221871567602 0.45406546637528622 0 -0.2381855023856847 0.44038349225081519 0 -0.25983221871567602 0.45406546637528622 0 -0.2381855023856847 0.44038349225081519 0 -0.24973180031732389 0.46352068888914938 0 -0.2381855023856847 0.44038349225081519 0 -0.24973180031732389 0.46352068888914938 0 -0.23664273213118581 0.45903783504064399 0 -0.22899168016783969 0.47016270923010511 0 -0.23988025581223121 0.46722588797679793 0 -0.23664273213118581 0.45903783504064399 0 -0.24973180031732389 0.46352068888914938 0 -0.23988025581223121 0.46722588797679793 0 -0.23664273213118581 0.45903783504064399 0 -0.22899168016783969 0.47016270923010511 0 -0.23664273213118581 0.45903783504064399 0 -0.22788094279175 0.45344564289647982 0 -0.22899168016783969 0.47016270923010511 0 -0.22788094279175 0.45344564289647982 0 -0.21805477149307831 0.45683502676601417 0 -0.2144100740489786 0.47003149160489721 0 -0.22899168016783969 0.47016270923010511 0 -0.21805477149307831 0.45683502676601417 0 -0.2381855023856847 0.44038349225081519 0 -0.23664273213118581 0.45903783504064399 0 -0.22788094279175 0.45344564289647982 0 -0.22788094279175 0.45344564289647982 0 -0.22414550221029539 0.44374574346049078 0 -0.21805477149307831 0.45683502676601417 0 -0.2381855023856847 0.44038349225081519 0 -0.22788094279175 0.45344564289647982 0 -0.22414550221029539 0.44374574346049078 0 -0.2381855023856847 0.44038349225081519 0 -0.22414550221029539 0.44374574346049078 0 -0.22829381963932999 0.43315874053998449 0 -0.22414550221029539 0.44374574346049078 0 -0.213625154132904 0.44681211164378321 0 -0.2175273822316153 0.43359730136944008 0 -0.213625154132904 0.44681211164378321 0 -0.20530116546611649 0.43594882638892779 0 -0.2175273822316153 0.43359730136944008 0 -0.22414550221029539 0.44374574346049078 0 -0.213625154132904 0.44681211164378321 0 -0.21805477149307831 0.45683502676601417 0 -0.213625154132904 0.44681211164378321 0 -0.20821364344324311 0.45912655978809069 0 -0.20185206700552599 0.44756847830468288 0 -0.213625154132904 0.44681211164378321 0 -0.20185206700552599 0.44756847830468288 0 -0.20530116546611649 0.43594882638892779 0 -0.2144100740489786 0.47003149160489721 0 -0.21805477149307831 0.45683502676601417 0 -0.20821364344324311 0.45912655978809069 0 -0.213625154132904 0.44681211164378321 0 -0.21805477149307831 0.45683502676601417 0 -0.20821364344324311 0.45912655978809069 0 -0.2040031131447777 0.46920934458907798 0 -0.20821364344324311 0.45912655978809069 0 -0.19733377022959861 0.46356268632971059 0 -0.2040031131447777 0.46920934458907798 0 -0.2144100740489786 0.47003149160489721 0 -0.20821364344324311 0.45912655978809069 0 -0.19733377022959861 0.46356268632971059 0 -0.18750313500962471 0.45322271881058451 0 -0.20185206700552599 0.44756847830468288 0 -0.20821364344324311 0.45912655978809069 0 -0.19733377022959861 0.46356268632971059 0 -0.20185206700552599 0.44756847830468288 0 -0.1958945293915231 0.47097100025090177 0 -0.2040031131447777 0.46920934458907798 0 -0.19733377022959861 0.46356268632971059 0 -0.1958945293915231 0.47097100025090177 0 -0.19733377022959861 0.46356268632971059 0 -0.1888244645561897 0.46726779201889462 0 -0.19733377022959861 0.46356268632971059 0 -0.18750313500962471 0.45322271881058451 0 -0.1888244645561897 0.46726779201889462 0 -0.18750313500962471 0.45322271881058451 0 -0.20185206700552599 0.44756847830468288 0 -0.19381626646914471 0.43178512195899288 0 -0.20185206700552599 0.44756847830468288 0 -0.19381626646914471 0.43178512195899288 0 -0.20530116546611649 0.43594882638892779 0 -0.19381626646914471 0.43178512195899288 0 -0.19726033340213539 0.41283384163233872 0 -0.2084851022910918 0.42426364808126121 0 -0.19381626646914471 0.43178512195899288 0 -0.19726033340213539 0.41283384163233872 0 -0.17953344721115591 0.42233992952084481 0 -0.19381626646914471 0.43178512195899288 0 -0.20530116546611649 0.43594882638892779 0 -0.2084851022910918 0.42426364808126121 0 -0.19726033340213539 0.41283384163233872 0 -0.2151098326628002 0.40946325634109132 0 -0.2084851022910918 0.42426364808126121 0 -0.19726033340213539 0.41283384163233872 0 -0.2151098326628002 0.40946325634109132 0 -0.2051206920519669 0.40137257985042268 0 -0.2151098326628002 0.40946325634109132 0 -0.2084851022910918 0.42426364808126121 0 -0.22290482443213569 0.42244465655520791 0 -0.20530116546611649 0.43594882638892779 0 -0.2084851022910918 0.42426364808126121 0 -0.2175273822316153 0.43359730136944008 0 -0.2084851022910918 0.42426364808126121 0 -0.2175273822316153 0.43359730136944008 0 -0.22290482443213569 0.42244465655520791 0 -0.2175273822316153 0.43359730136944008 0 -0.22829381963932999 0.43315874053998449 0 -0.22290482443213569 0.42244465655520791 0 -0.22414550221029539 0.44374574346049078 0 -0.2175273822316153 0.43359730136944008 0 -0.22829381963932999 0.43315874053998449 0 -0.22829381963932999 0.43315874053998449 0 -0.22290482443213569 0.42244465655520791 0 -0.23731366459728331 0.42598014284537578 0 -0.2151098326628002 0.40946325634109132 0 -0.22290482443213569 0.42244465655520791 0 -0.22986549373675241 0.41331747390699192 0 -0.2151098326628002 0.40946325634109132 0 -0.22986549373675241 0.41331747390699192 0 -0.22577084424675131 0.40113668062901991 0 -0.22986549373675241 0.41331747390699192 0 -0.2390989833788395 0.40685193226120769 0 -0.22577084424675131 0.40113668062901991 0 -0.22290482443213569 0.42244465655520791 0 -0.22986549373675241 0.41331747390699192 0 -0.23731366459728331 0.42598014284537578 0 -0.24146376637850719 0.41647703918263768 0 -0.24736710289600669 0.4223094275503243 0 -0.23731366459728331 0.42598014284537578 0 -0.22986549373675241 0.41331747390699192 0 -0.24146376637850719 0.41647703918263768 0 -0.23731366459728331 0.42598014284537578 0 -0.22986549373675241 0.41331747390699192 0 -0.24146376637850719 0.41647703918263768 0 -0.2390989833788395 0.40685193226120769 0 -0.25015397653610649 0.41360124968575279 0 -0.24146376637850719 0.41647703918263768 0 -0.2390989833788395 0.40685193226120769 0 -0.25015397653610649 0.41360124968575279 0 -0.2390989833788395 0.40685193226120769 0 -0.24996761101599069 0.40388741185634452 0 -0.25015397653610649 0.41360124968575279 0 -0.24146376637850719 0.41647703918263768 0 -0.24736710289600669 0.4223094275503243 0 -0.25162714099927308 0.43313094198012242 0 -0.24736710289600669 0.4223094275503243 0 -0.23731366459728331 0.42598014284537578 0 -0.25162714099927308 0.43313094198012242 0 -0.2381855023856847 0.44038349225081519 0 -0.23731366459728331 0.42598014284537578 0 -0.2381855023856847 0.44038349225081519 0 -0.22829381963932999 0.43315874053998449 0 -0.23731366459728331 0.42598014284537578 0 -0.2352837567006657 0.38939990339278657 0 -0.24736677536366869 0.38332155873877438 0 -0.24023151385980299 0.37366827368057831 0 -0.25603590710798729 0.37305638900933402 0 -0.24736677536366869 0.38332155873877438 0 -0.24023151385980299 0.37366827368057831 0 -0.2352837567006657 0.38939990339278657 0 -0.24736677536366869 0.38332155873877438 0 -0.24728759806371159 0.39461320975121428 0 -0.2390989833788395 0.40685193226120769 0 -0.2352837567006657 0.38939990339278657 0 -0.24728759806371159 0.39461320975121428 0 -0.2390989833788395 0.40685193226120769 0 -0.24728759806371159 0.39461320975121428 0 -0.24996761101599069 0.40388741185634452 0 -0.2390989833788395 0.40685193226120769 0 -0.2352837567006657 0.38939990339278657 0 -0.22577084424675131 0.40113668062901991 0 -0.2352837567006657 0.38939990339278657 0 -0.22577084424675131 0.40113668062901991 0 -0.22126551632750011 0.38931942786076817 0 -0.22577084424675131 0.40113668062901991 0 -0.22126551632750011 0.38931942786076817 0 -0.2149115378542826 0.39841288740056191 0 -0.2352837567006657 0.38939990339278657 0 -0.22722229138628661 0.37601898593369398 0 -0.24023151385980299 0.37366827368057831 0 -0.2352837567006657 0.38939990339278657 0 -0.22126551632750011 0.38931942786076817 0 -0.22722229138628661 0.37601898593369398 0 -0.22126551632750011 0.38931942786076817 0 -0.22722229138628661 0.37601898593369398 0 -0.21294061143102069 0.37752938087720322 0 -0.22126551632750011 0.38931942786076817 0 -0.21294061143102069 0.37752938087720322 0 -0.20570032944347491 0.38989169809616059 0 -0.21294061143102069 0.37752938087720322 0 -0.20570032944347491 0.38989169809616059 0 -0.19958728981380711 0.37773036496356061 0 -0.2151098326628002 0.40946325634109132 0 -0.22577084424675131 0.40113668062901991 0 -0.2149115378542826 0.39841288740056191 0 -0.2151098326628002 0.40946325634109132 0 -0.2149115378542826 0.39841288740056191 0 -0.2051206920519669 0.40137257985042268 0 -0.22126551632750011 0.38931942786076817 0 -0.20570032944347491 0.38989169809616059 0 -0.2149115378542826 0.39841288740056191 0 -0.20570032944347491 0.38989169809616059 0 -0.2149115378542826 0.39841288740056191 0 -0.2051206920519669 0.40137257985042268 0 -0.19417661485771179 0.39976102513947448 0 -0.18768350879825721 0.38801929709545568 0 -0.18240018693966481 0.40588328750748459 0 -0.20570032944347491 0.38989169809616059 0 -0.19417661485771179 0.39976102513947448 0 -0.18768350879825721 0.38801929709545568 0 -0.19726033340213539 0.41283384163233872 0 -0.2051206920519669 0.40137257985042268 0 -0.19417661485771179 0.39976102513947448 0 -0.20570032944347491 0.38989169809616059 0 -0.2051206920519669 0.40137257985042268 0 -0.19417661485771179 0.39976102513947448 0 -0.19726033340213539 0.41283384163233872 0 -0.19417661485771179 0.39976102513947448 0 -0.18240018693966481 0.40588328750748459 0 -0.19958728981380711 0.37773036496356061 0 -0.18768350879825721 0.38801929709545568 0 -0.18417900128138401 0.36852583523541682 0 -0.20570032944347491 0.38989169809616059 0 -0.19958728981380711 0.37773036496356061 0 -0.18768350879825721 0.38801929709545568 0 -0.18768350879825721 0.38801929709545568 0 -0.17300353561448839 0.3807401998027613 0 -0.18417900128138401 0.36852583523541682 0 -0.18768350879825721 0.38801929709545568 0 -0.17300353561448839 0.3807401998027613 0 -0.17359673725256289 0.39422873006977988 0 -0.15891303182435049 0.38753089445435102 0 -0.16064539891588761 0.36539624215880318 0 -0.17300353561448839 0.3807401998027613 0 -0.15891303182435049 0.38753089445435102 0 -0.16064539891588761 0.36539624215880318 0 -0.17300353561448839 0.3807401998027613 0 -0.15891303182435049 0.38753089445435102 0 -0.17359673725256289 0.39422873006977988 0 -0.15891303182435049 0.38753089445435102 0 -0.15718066473281209 0.40966554674989852 0 -0.15891303182435049 0.38753089445435102 0 -0.17359673725256289 0.39422873006977988 0 -0.16585643081078649 0.40819486622669332 0 -0.15891303182435049 0.38753089445435102 0 -0.16585643081078649 0.40819486622669332 0 -0.15718066473281209 0.40966554674989852 0 -0.18768350879825721 0.38801929709545568 0 -0.17359673725256289 0.39422873006977988 0 -0.18240018693966481 0.40588328750748459 0 -0.17359673725256289 0.39422873006977988 0 -0.18240018693966481 0.40588328750748459 0 -0.16585643081078649 0.40819486622669332 0 -0.18240018693966481 0.40588328750748459 0 -0.17497057039015201 0.41306706500518992 0 -0.17953344721115591 0.42233992952084481 0 -0.18240018693966481 0.40588328750748459 0 -0.17497057039015201 0.41306706500518992 0 -0.16585643081078649 0.40819486622669332 0 -0.19726033340213539 0.41283384163233872 0 -0.18240018693966481 0.40588328750748459 0 -0.17953344721115591 0.42233992952084481 0 -0.17497057039015201 0.41306706500518992 0 -0.17953344721115591 0.42233992952084481 0 -0.1668396240586982 0.41948657311229642 0 -0.17914767152504801 0.44201211217380781 0 -0.17953344721115591 0.42233992952084481 0 -0.16728667621743029 0.43291446567770703 0 -0.17914767152504801 0.44201211217380781 0 -0.19381626646914471 0.43178512195899288 0 -0.17953344721115591 0.42233992952084481 0 -0.15416612135790611 0.44818271193928838 0 -0.16728667621743029 0.43291446567770703 0 -0.15567339304536021 0.42892412934459351 0 -0.17953344721115591 0.42233992952084481 0 -0.16728667621743029 0.43291446567770703 0 -0.1668396240586982 0.41948657311229642 0 -0.16728667621743029 0.43291446567770703 0 -0.1668396240586982 0.41948657311229642 0 -0.15567339304536021 0.42892412934459351 0 -0.1668396240586982 0.41948657311229642 0 -0.15718066473281209 0.40966554674989852 0 -0.15567339304536021 0.42892412934459351 0 -0.15718066473281209 0.40966554674989852 0 -0.15567339304536021 0.42892412934459351 0 -0.17497057039015201 0.41306706500518992 0 -0.16585643081078649 0.40819486622669332 0 -0.1668396240586982 0.41948657311229642 0 -0.16585643081078649 0.40819486622669332 0 -0.1668396240586982 0.41948657311229642 0 -0.15718066473281209 0.40966554674989852 0 -0.16585643081078649 0.40819486622669332 0 -0.15718066473281209 0.40966554674989852 0 -0.15718066473281209 0.40966554674989852 0 -0.1329627898010563 0.41377086225233162 0 -0.1448966717939866 0.39792441111683519 0 -0.15718066473281209 0.40966554674989852 0 -0.15567339304536021 0.42892412934459351 0 -0.1329627898010563 0.41377086225233162 0 -0.15718066473281209 0.40966554674989852 0 -0.1329627898010563 0.41377086225233162 0 -0.15567339304536021 0.42892412934459351 0 -0.1387583029552025 0.43670156837406171 0 -0.1329627898010563 0.41377086225233162 0 -0.1387583029552025 0.43670156837406171 0 -0.1329627898010563 0.41377086225233162 0 -0.1203882308634798 0.43633692869159008 0 -0.1329627898010563 0.41377086225233162 0 -0.13094926167676699 0.39478334172728408 0 -0.1448966717939866 0.39792441111683519 0 -0.1329627898010563 0.41377086225233162 0 -0.13094926167676699 0.39478334172728408 0 -0.1193851387197131 0.39849800689121151 0 -0.13094926167676699 0.39478334172728408 0 -0.1408357907688387 0.38540513936188131 0 -0.1448966717939866 0.39792441111683519 0 -0.12602955525595369 0.37680376999551191 0 -0.1408357907688387 0.38540513936188131 0 -0.1433904332931358 0.3699832795154242 0 -0.13094926167676699 0.39478334172728408 0 -0.12602955525595369 0.37680376999551191 0 -0.1408357907688387 0.38540513936188131 0 -0.15891303182435049 0.38753089445435102 0 -0.1408357907688387 0.38540513936188131 0 -0.1433904332931358 0.3699832795154242 0 -0.15891303182435049 0.38753089445435102 0 -0.1408357907688387 0.38540513936188131 0 -0.1448966717939866 0.39792441111683519 0 -0.15891303182435049 0.38753089445435102 0 -0.15718066473281209 0.40966554674989852 0 -0.1448966717939866 0.39792441111683519 0 -0.14604381628922719 0.35245234702349482 0 -0.1433904332931358 0.3699832795154242 0 -0.16064539891588761 0.36539624215880318 0 -0.15891303182435049 0.38753089445435102 0 -0.1433904332931358 0.3699832795154242 0 -0.16064539891588761 0.36539624215880318 0 -0.14604381628922719 0.35245234702349482 0 -0.1433904332931358 0.3699832795154242 0 -0.1278801081378303 0.35799638876066958 0 -0.12602955525595369 0.37680376999551191 0 -0.1433904332931358 0.3699832795154242 0 -0.1278801081378303 0.35799638876066958 0 -0.1278801081378303 0.35799638876066958 0 -0.1332764167575646 0.34008422556405582 0 -0.1191358251029557 0.34509040958496617 0 -0.14604381628922719 0.35245234702349482 0 -0.1278801081378303 0.35799638876066958 0 -0.1332764167575646 0.34008422556405582 0 -0.1332764167575646 0.34008422556405582 0 -0.13414491179038621 0.3221688422441279 0 -0.149097402247829 0.33199455609819362 0 -0.1332764167575646 0.34008422556405582 0 -0.13414491179038621 0.3221688422441279 0 -0.1209462960797151 0.33049831654010609 0 -0.13414491179038621 0.3221688422441279 0 -0.14903711053068841 0.3129659749123318 0 -0.1312441600897393 0.30442200943926179 0 -0.13414491179038621 0.3221688422441279 0 -0.1312441600897393 0.30442200943926179 0 -0.12039393490326571 0.31543344305833698 0 -0.13414491179038621 0.3221688422441279 0 -0.12039393490326571 0.31543344305833698 0 -0.1209462960797151 0.33049831654010609 0 -0.14903711053068841 0.3129659749123318 0 -0.149097402247829 0.33199455609819362 0 -0.16970439211168289 0.32103435698189631 0 -0.13414491179038621 0.3221688422441279 0 -0.14903711053068841 0.3129659749123318 0 -0.149097402247829 0.33199455609819362 0 -0.14604381628922719 0.35245234702349482 0 -0.149097402247829 0.33199455609819362 0 -0.16237776600742471 0.3432615898632555 0 -0.14604381628922719 0.35245234702349482 0 -0.1332764167575646 0.34008422556405582 0 -0.149097402247829 0.33199455609819362 0 -0.149097402247829 0.33199455609819362 0 -0.16237776600742471 0.3432615898632555 0 -0.16970439211168289 0.32103435698189631 0 -0.16970439211168289 0.32103435698189631 0 -0.1840332998067031 0.33767801969545108 0 -0.1935325581598441 0.32115059057925233 0 -0.16970439211168289 0.32103435698189631 0 -0.1935325581598441 0.32115059057925233 0 -0.1862025567418 0.29943612281466803 0 -0.16237776600742471 0.3432615898632555 0 -0.16970439211168289 0.32103435698189631 0 -0.1840332998067031 0.33767801969545108 0 -0.16237776600742471 0.3432615898632555 0 -0.1840332998067031 0.33767801969545108 0 -0.17650089764242879 0.35241468022081718 0 -0.17650089764242879 0.35241468022081718 0 -0.18417900128138401 0.36852583523541682 0 -0.19628913354291369 0.35211581094441408 0 -0.1840332998067031 0.33767801969545108 0 -0.17650089764242879 0.35241468022081718 0 -0.19628913354291369 0.35211581094441408 0 -0.16237776600742471 0.3432615898632555 0 -0.17650089764242879 0.35241468022081718 0 -0.16064539891588761 0.36539624215880318 0 -0.16237776600742471 0.3432615898632555 0 -0.16064539891588761 0.36539624215880318 0 -0.14604381628922719 0.35245234702349482 0 -0.16237776600742471 0.3432615898632555 0 -0.16064539891588761 0.36539624215880318 0 -0.17650089764242879 0.35241468022081718 0 -0.16064539891588761 0.36539624215880318 0 -0.18417900128138401 0.36852583523541682 0 -0.17300353561448839 0.3807401998027613 0 -0.16064539891588761 0.36539624215880318 0 -0.18417900128138401 0.36852583523541682 0 -0.18417900128138401 0.36852583523541682 0 -0.19628913354291369 0.35211581094441408 0 -0.20484751868458539 0.36497065947662771 0 -0.19958728981380711 0.37773036496356061 0 -0.18417900128138401 0.36852583523541682 0 -0.20484751868458539 0.36497065947662771 0 -0.19628913354291369 0.35211581094441408 0 -0.21700779554990349 0.347434176127279 0 -0.20082311092677091 0.33644836961762348 0 -0.19628913354291369 0.35211581094441408 0 -0.21700779554990349 0.347434176127279 0 -0.20484751868458539 0.36497065947662771 0 -0.21700779554990349 0.347434176127279 0 -0.20484751868458539 0.36497065947662771 0 -0.21908128048848341 0.36648838871189238 0 -0.21294061143102069 0.37752938087720322 0 -0.19958728981380711 0.37773036496356061 0 -0.20484751868458539 0.36497065947662771 0 -0.21294061143102069 0.37752938087720322 0 -0.20484751868458539 0.36497065947662771 0 -0.21908128048848341 0.36648838871189238 0 -0.22722229138628661 0.37601898593369398 0 -0.21294061143102069 0.37752938087720322 0 -0.21908128048848341 0.36648838871189238 0 -0.22722229138628661 0.37601898593369398 0 -0.2311049069376685 0.35999782571952299 0 -0.24023151385980299 0.37366827368057831 0 -0.22722229138628661 0.37601898593369398 0 -0.2311049069376685 0.35999782571952299 0 -0.21908128048848341 0.36648838871189238 0 -0.21700779554990349 0.347434176127279 0 -0.2311049069376685 0.35999782571952299 0 -0.23782904778635369 0.34729541058485669 0 -0.21700779554990349 0.347434176127279 0 -0.2311049069376685 0.35999782571952299 0 -0.21908128048848341 0.36648838871189238 0 -0.25411148794662869 0.34053150761902601 0 -0.24766031851708539 0.35885006558086252 0 -0.23782904778635369 0.34729541058485669 0 -0.2311049069376685 0.35999782571952299 0 -0.24766031851708539 0.35885006558086252 0 -0.23782904778635369 0.34729541058485669 0 -0.25603590710798729 0.37305638900933402 0 -0.24766031851708539 0.35885006558086252 0 -0.24023151385980299 0.37366827368057831 0 -0.2311049069376685 0.35999782571952299 0 -0.24766031851708539 0.35885006558086252 0 -0.24023151385980299 0.37366827368057831 0 -0.2474845913036233 0.31861885933040518 0 -0.23258854463823039 0.32928636820757923 0 -0.22610251456733871 0.29919946950475762 0 -0.25411148794662869 0.34053150761902601 0 -0.23782904778635369 0.34729541058485669 0 -0.23258854463823039 0.32928636820757923 0 -0.25411148794662869 0.34053150761902601 0 -0.2474845913036233 0.31861885933040518 0 -0.23258854463823039 0.32928636820757923 0 -0.21700779554990349 0.347434176127279 0 -0.23258854463823039 0.32928636820757923 0 -0.2129958306755344 0.32263878607915042 0 -0.21700779554990349 0.347434176127279 0 -0.23782904778635369 0.34729541058485669 0 -0.23258854463823039 0.32928636820757923 0 -0.23258854463823039 0.32928636820757923 0 -0.2129958306755344 0.32263878607915042 0 -0.22610251456733871 0.29919946950475762 0 -0.2129958306755344 0.32263878607915042 0 -0.1935325581598441 0.32115059057925233 0 -0.20488749033937509 0.30089524562449321 0 -0.21700779554990349 0.347434176127279 0 -0.2129958306755344 0.32263878607915042 0 -0.20082311092677091 0.33644836961762348 0 -0.1840332998067031 0.33767801969545108 0 -0.19628913354291369 0.35211581094441408 0 -0.20082311092677091 0.33644836961762348 0 -0.1840332998067031 0.33767801969545108 0 -0.20082311092677091 0.33644836961762348 0 -0.1935325581598441 0.32115059057925233 0 -0.2129958306755344 0.32263878607915042 0 -0.20082311092677091 0.33644836961762348 0 -0.1935325581598441 0.32115059057925233 0 -0.1935325581598441 0.32115059057925233 0 -0.20488749033937509 0.30089524562449321 0 -0.1862025567418 0.29943612281466803 0 -0.20488749033937509 0.30089524562449321 0 -0.19669891299047751 0.28014248750320359 0 -0.1862025567418 0.29943612281466803 0 -0.213792568901256 0.28280401726592741 0 -0.20488749033937509 0.30089524562449321 0 -0.19669891299047751 0.28014248750320359 0 -0.213792568901256 0.28280401726592741 0 -0.20488749033937509 0.30089524562449321 0 -0.22610251456733871 0.29919946950475762 0 -0.2129958306755344 0.32263878607915042 0 -0.20488749033937509 0.30089524562449321 0 -0.22610251456733871 0.29919946950475762 0 -0.22610251456733871 0.29919946950475762 0 -0.24641767816760121 0.28076111523790659 0 -0.22958460858223939 0.27254113672421421 0 -0.213792568901256 0.28280401726592741 0 -0.22610251456733871 0.29919946950475762 0 -0.22958460858223939 0.27254113672421421 0 -0.22610251456733871 0.29919946950475762 0 -0.24641767816760121 0.28076111523790659 0 -0.22610251456733871 0.29919946950475762 0 -0.2476054777775257 0.29980943081764161 0 -0.24641767816760121 0.28076111523790659 0 -0.2474845913036233 0.31861885933040518 0 -0.22610251456733871 0.29919946950475762 0 -0.2476054777775257 0.29980943081764161 0 -0.23831975441867309 0.26251664814473158 0 -0.24739154241544459 0.26250245805921452 0 -0.24042839589598961 0.26958033954151672 0 -0.23831975441867309 0.26251664814473158 0 -0.2421275510198525 0.25237273480976591 0 -0.2301111411242979 0.25415493550153279 0 -0.25189002896290491 0.25449239892481551 0 -0.2421275510198525 0.25237273480976591 0 -0.24739154241544459 0.26250245805921452 0 -0.25189002896290491 0.25449239892481551 0 -0.2421275510198525 0.25237273480976591 0 -0.24647525832179051 0.24874251272968301 0 -0.23831975441867309 0.26251664814473158 0 -0.2421275510198525 0.25237273480976591 0 -0.24739154241544459 0.26250245805921452 0 -0.24641767816760121 0.28076111523790659 0 -0.24042839589598961 0.26958033954151672 0 -0.22958460858223939 0.27254113672421421 0 -0.25432553353194348 0.26385770201985209 0 -0.24739154241544459 0.26250245805921452 0 -0.24641767816760121 0.28076111523790659 0 -0.24739154241544459 0.26250245805921452 0 -0.24641767816760121 0.28076111523790659 0 -0.24042839589598961 0.26958033954151672 0 -0.23831975441867309 0.26251664814473158 0 -0.24042839589598961 0.26958033954151672 0 -0.22958460858223939 0.27254113672421421 0 -0.2301111411242979 0.25415493550153279 0 -0.21119725768121819 0.26093741649149621 0 -0.2211268732449827 0.23855303841785169 0 -0.22958460858223939 0.27254113672421421 0 -0.2301111411242979 0.25415493550153279 0 -0.21119725768121819 0.26093741649149621 0 -0.23831975441867309 0.26251664814473158 0 -0.22958460858223939 0.27254113672421421 0 -0.2301111411242979 0.25415493550153279 0 -0.213792568901256 0.28280401726592741 0 -0.21119725768121819 0.26093741649149621 0 -0.19669891299047751 0.28014248750320359 0 -0.213792568901256 0.28280401726592741 0 -0.22958460858223939 0.27254113672421421 0 -0.21119725768121819 0.26093741649149621 0 -0.21119725768121819 0.26093741649149621 0 -0.19669891299047751 0.28014248750320359 0 -0.1851657792507185 0.25669063751337651 0 -0.21119725768121819 0.26093741649149621 0 -0.1851657792507185 0.25669063751337651 0 -0.20129010394299149 0.24443847017185061 0 -0.16508023407272601 0.2503971719826491 0 -0.16497351800655671 0.27048237190323782 0 -0.1463982144264159 0.25542208648772902 0 -0.1851657792507185 0.25669063751337651 0 -0.16508023407272601 0.2503971719826491 0 -0.16497351800655671 0.27048237190323782 0 -0.19669891299047751 0.28014248750320359 0 -0.1851657792507185 0.25669063751337651 0 -0.1785336448831126 0.28118970112568997 0 -0.1851657792507185 0.25669063751337651 0 -0.16497351800655671 0.27048237190323782 0 -0.1785336448831126 0.28118970112568997 0 -0.1785336448831126 0.28118970112568997 0 -0.1862025567418 0.29943612281466803 0 -0.1670682161741659 0.29661865599902898 0 -0.19669891299047751 0.28014248750320359 0 -0.1785336448831126 0.28118970112568997 0 -0.1862025567418 0.29943612281466803 0 -0.16970439211168289 0.32103435698189631 0 -0.1862025567418 0.29943612281466803 0 -0.1670682161741659 0.29661865599902898 0 -0.14903711053068841 0.3129659749123318 0 -0.16970439211168289 0.32103435698189631 0 -0.1670682161741659 0.29661865599902898 0 -0.16497351800655671 0.27048237190323782 0 -0.1785336448831126 0.28118970112568997 0 -0.1670682161741659 0.29661865599902898 0 -0.16497351800655671 0.27048237190323782 0 -0.1670682161741659 0.29661865599902898 0 -0.14908104489959589 0.29118630183640343 0 -0.14908104489959589 0.29118630183640343 0 -0.13301461501949449 0.28445719444771922 0 -0.1450622376265491 0.27391868512351242 0 -0.14903711053068841 0.3129659749123318 0 -0.1670682161741659 0.29661865599902898 0 -0.14908104489959589 0.29118630183640343 0 -0.14903711053068841 0.3129659749123318 0 -0.14908104489959589 0.29118630183640343 0 -0.1312441600897393 0.30442200943926179 0 -0.14908104489959589 0.29118630183640343 0 -0.1312441600897393 0.30442200943926179 0 -0.13301461501949449 0.28445719444771922 0 -0.1312441600897393 0.30442200943926179 0 -0.13301461501949449 0.28445719444771922 0 -0.1213785856987941 0.29313728666284122 0 -0.13301461501949449 0.28445719444771922 0 -0.13204106992365919 0.26838285043895482 0 -0.11450201459557589 0.27632777785735069 0 -0.13301461501949449 0.28445719444771922 0 -0.13204106992365919 0.26838285043895482 0 -0.1450622376265491 0.27391868512351242 0 -0.13204106992365919 0.26838285043895482 0 -0.1463982144264159 0.25542208648772902 0 -0.1229484984770164 0.25473045748778822 0 -0.16497351800655671 0.27048237190323782 0 -0.14908104489959589 0.29118630183640343 0 -0.1450622376265491 0.27391868512351242 0 -0.16497351800655671 0.27048237190323782 0 -0.1463982144264159 0.25542208648772902 0 -0.1450622376265491 0.27391868512351242 0 -0.13204106992365919 0.26838285043895482 0 -0.1463982144264159 0.25542208648772902 0 -0.1450622376265491 0.27391868512351242 0 -0.097506140953614345 0.27357735958971208 0 -0.11450201459557589 0.27632777785735069 0 -0.1005958202823611 0.28523198992827592 0 -0.097506140953614345 0.27357735958971208 0 -0.099646555744896198 0.25564887823787741 0 -0.11450201459557589 0.27632777785735069 0 -0.099646555744896198 0.25564887823787741 0 -0.1229484984770164 0.25473045748778822 0 -0.11450201459557589 0.27632777785735069 0 -0.13204106992365919 0.26838285043895482 0 -0.1229484984770164 0.25473045748778822 0 -0.11450201459557589 0.27632777785735069 0 -0.13301461501949449 0.28445719444771922 0 -0.11450201459557589 0.27632777785735069 0 -0.1213785856987941 0.29313728666284122 0 -0.11450201459557589 0.27632777785735069 0 -0.1213785856987941 0.29313728666284122 0 -0.1089316332599535 0.29466597401633449 0 -0.1312441600897393 0.30442200943926179 0 -0.11820539787815321 0.30404355150868811 0 -0.12039393490326571 0.31543344305833698 0 -0.1312441600897393 0.30442200943926179 0 -0.1213785856987941 0.29313728666284122 0 -0.11820539787815321 0.30404355150868811 0 -0.1213785856987941 0.29313728666284122 0 -0.11820539787815321 0.30404355150868811 0 -0.1089316332599535 0.29466597401633449 0 -0.11820539787815321 0.30404355150868811 0 -0.1070884601369058 0.30901919227696262 0 -0.1089316332599535 0.29466597401633449 0 -0.11820539787815321 0.30404355150868811 0 -0.1070884601369058 0.30901919227696262 0 -0.12039393490326571 0.31543344305833698 0 -0.1070884601369058 0.30901919227696262 0 -0.097959971888745778 0.29814614799193651 0 -0.1089316332599535 0.29466597401633449 0 -0.1070884601369058 0.30901919227696262 0 -0.097959971888745778 0.29814614799193651 0 -0.094407296445989219 0.31061545818147662 0 -0.11450201459557589 0.27632777785735069 0 -0.1089316332599535 0.29466597401633449 0 -0.1005958202823611 0.28523198992827592 0 -0.097959971888745778 0.29814614799193651 0 -0.1089316332599535 0.29466597401633449 0 -0.1005958202823611 0.28523198992827592 0 -0.097959971888745778 0.29814614799193651 0 -0.1005958202823611 0.28523198992827592 0 -0.091138696253227222 0.28755167415197158 0 -0.097506140953614345 0.27357735958971208 0 -0.1005958202823611 0.28523198992827592 0 -0.091138696253227222 0.28755167415197158 0 -0.085091117115928344 0.30297092681191518 0 -0.075687235297425118 0.29161501572410392 0 -0.076185800972680198 0.27687930596318261 0 -0.091138696253227222 0.28755167415197158 0 -0.085091117115928344 0.30297092681191518 0 -0.076185800972680198 0.27687930596318261 0 -0.085091117115928344 0.30297092681191518 0 -0.076185800972680198 0.27687930596318261 0 -0.097959971888745778 0.29814614799193651 0 -0.091138696253227222 0.28755167415197158 0 -0.085091117115928344 0.30297092681191518 0 -0.094407296445989219 0.31061545818147662 0 -0.085091117115928344 0.30297092681191518 0 -0.082391381917863715 0.31197418606063448 0 -0.097959971888745778 0.29814614799193651 0 -0.094407296445989219 0.31061545818147662 0 -0.085091117115928344 0.30297092681191518 0 -0.085091117115928344 0.30297092681191518 0 -0.075012876351560814 0.30473059711732697 0 -0.075564419789306309 0.2995049384650989 0 -0.085091117115928344 0.30297092681191518 0 -0.075564419789306309 0.2995049384650989 0 -0.075687235297425118 0.29161501572410392 0 -0.085091117115928344 0.30297092681191518 0 -0.082391381917863715 0.31197418606063448 0 -0.075012876351560814 0.30473059711732697 0 -0.082391381917863715 0.31197418606063448 0 -0.075012876351560814 0.30473059711732697 0 -0.066623612710285759 0.30828946155969872 0 -0.075012876351560814 0.30473059711732697 0 -0.075564419789306309 0.2995049384650989 0 -0.066466450392310999 0.29870321420704948 0 -0.075012876351560814 0.30473059711732697 0 -0.066466450392310999 0.29870321420704948 0 -0.066623612710285759 0.30828946155969872 0 -0.075687235297425118 0.29161501572410392 0 -0.065540326975263935 0.28717931263297752 0 -0.076185800972680198 0.27687930596318261 0 -0.075564419789306309 0.2995049384650989 0 -0.066466450392310999 0.29870321420704948 0 -0.075687235297425118 0.29161501572410392 0 -0.066466450392310999 0.29870321420704948 0 -0.075687235297425118 0.29161501572410392 0 -0.065540326975263935 0.28717931263297752 0 -0.076185800972680198 0.27687930596318261 0 -0.06728048482943233 0.25078768511444982 0 -0.062144651919816857 0.27663869588969409 0 -0.065540326975263935 0.28717931263297752 0 -0.076185800972680198 0.27687930596318261 0 -0.062144651919816857 0.27663869588969409 0 -0.097506140953614345 0.27357735958971208 0 -0.076185800972680198 0.27687930596318261 0 -0.082393312891523449 0.26218252235208078 0 -0.097506140953614345 0.27357735958971208 0 -0.091138696253227222 0.28755167415197158 0 -0.076185800972680198 0.27687930596318261 0 -0.097506140953614345 0.27357735958971208 0 -0.082393312891523449 0.26218252235208078 0 -0.097506140953614345 0.27357735958971208 0 -0.099646555744896198 0.25564887823787741 0 -0.082393312891523449 0.26218252235208078 0 -0.099646555744896198 0.25564887823787741 0 -0.082393312891523449 0.26218252235208078 0 -0.079604061573677359 0.25020061160159762 0 -0.062144651919816857 0.27663869588969409 0 -0.063201019833232619 0.2477118319744985 0 -0.06728048482943233 0.25078768511444982 0 -0.062144651919816857 0.27663869588969409 0 -0.063201019833232619 0.2477118319744985 0 -0.076185800972680198 0.27687930596318261 0 -0.06728048482943233 0.25078768511444982 0 -0.082393312891523449 0.26218252235208078 0 -0.06728048482943233 0.25078768511444982 0 -0.082393312891523449 0.26218252235208078 0 -0.079604061573677359 0.25020061160159762 0 -0.06728048482943233 0.25078768511444982 0 -0.076185800972680198 0.27687930596318261 0 -0.082393312891523449 0.26218252235208078 0 -0.06728048482943233 0.25078768511444982 0 -0.052670894119925198 0.2621338954628199 0 -0.046174889000908118 0.25024759087299597 0 -0.063201019833232619 0.2477118319744985 0 -0.052670894119925198 0.2621338954628199 0 -0.062144651919816857 0.27663869588969409 0 -0.063201019833232619 0.2477118319744985 0 -0.050636800000998787 0.27336074496108898 0 -0.042290773846081701 0.2803352869404378 0 -0.052037363173394198 0.28938650457885068 0 -0.062144651919816857 0.27663869588969409 0 -0.050636800000998787 0.27336074496108898 0 -0.052037363173394198 0.28938650457885068 0 -0.052670894119925198 0.2621338954628199 0 -0.062144651919816857 0.27663869588969409 0 -0.050636800000998787 0.27336074496108898 0 -0.052670894119925198 0.2621338954628199 0 -0.050636800000998787 0.27336074496108898 0 -0.038663690321401843 0.2647885192072118 0 -0.050636800000998787 0.27336074496108898 0 -0.042290773846081701 0.2803352869404378 0 -0.038663690321401843 0.2647885192072118 0 -0.042290773846081701 0.2803352869404378 0 -0.038663690321401843 0.2647885192072118 0 -0.030343510299921609 0.2770225127625589 0 -0.046174889000908118 0.25024759087299597 0 -0.038663690321401843 0.2647885192072118 0 -0.02691154068192704 0.2457704794931268 0 -0.052670894119925198 0.2621338954628199 0 -0.046174889000908118 0.25024759087299597 0 -0.038663690321401843 0.2647885192072118 0 -0.020204103131508739 0.26759377154468461 0 -0.0013581205314274699 0.25585075003031849 0 -0.02691154068192704 0.2457704794931268 0 -0.038663690321401843 0.2647885192072118 0 -0.020204103131508739 0.26759377154468461 0 -0.02691154068192704 0.2457704794931268 0 -0.020204103131508739 0.26759377154468461 0 -0.030343510299921609 0.2770225127625589 0 -0.0197649152644182 0.2856210321304512 0 -0.038663690321401843 0.2647885192072118 0 -0.020204103131508739 0.26759377154468461 0 -0.030343510299921609 0.2770225127625589 0 -0.020204103131508739 0.26759377154468461 0 -0.0041828416899563313 0.27650933564444069 0 -0.0013581205314274699 0.25585075003031849 0 -0.020204103131508739 0.26759377154468461 0 -0.0041828416899563313 0.27650933564444069 0 -0.0197649152644182 0.2856210321304512 0 -0.0047650251177795587 0.29780240569285532 0 -0.0019245325289174609 0.31603531092320553 0 -0.013064777442417901 0.31398139259097563 0 -0.0047650251177795587 0.29780240569285532 0 -0.02628724335858041 0.30484070601801461 0 -0.013064777442417901 0.31398139259097563 0 -0.0041828416899563313 0.27650933564444069 0 -0.0047650251177795587 0.29780240569285532 0 -0.0197649152644182 0.2856210321304512 0 -0.0041828416899563313 0.27650933564444069 0 -0.0047650251177795587 0.29780240569285532 0 0.0074937284318593164 0.28700854176367141 0 -0.0197649152644182 0.2856210321304512 0 -0.02628724335858041 0.30484070601801461 0 -0.03458620034715007 0.29039950694007161 0 -0.0047650251177795587 0.29780240569285532 0 -0.0197649152644182 0.2856210321304512 0 -0.02628724335858041 0.30484070601801461 0 -0.030343510299921609 0.2770225127625589 0 -0.0197649152644182 0.2856210321304512 0 -0.03458620034715007 0.29039950694007161 0 -0.02628724335858041 0.30484070601801461 0 -0.041487782834895862 0.3017320504465606 0 -0.04135706227185703 0.31202505730698171 0 -0.02628724335858041 0.30484070601801461 0 -0.041487782834895862 0.3017320504465606 0 -0.03458620034715007 0.29039950694007161 0 -0.041487782834895862 0.3017320504465606 0 -0.04135706227185703 0.31202505730698171 0 -0.053170198792703627 0.30629560755473989 0 -0.042290773846081701 0.2803352869404378 0 -0.03458620034715007 0.29039950694007161 0 -0.052037363173394198 0.28938650457885068 0 -0.041487782834895862 0.3017320504465606 0 -0.03458620034715007 0.29039950694007161 0 -0.052037363173394198 0.28938650457885068 0 -0.042290773846081701 0.2803352869404378 0 -0.030343510299921609 0.2770225127625589 0 -0.03458620034715007 0.29039950694007161 0 -0.066466450392310999 0.29870321420704948 0 -0.065540326975263935 0.28717931263297752 0 -0.052037363173394198 0.28938650457885068 0 -0.065540326975263935 0.28717931263297752 0 -0.062144651919816857 0.27663869588969409 0 -0.052037363173394198 0.28938650457885068 0 -0.066466450392310999 0.29870321420704948 0 -0.052037363173394198 0.28938650457885068 0 -0.053170198792703627 0.30629560755473989 0 -0.041487782834895862 0.3017320504465606 0 -0.052037363173394198 0.28938650457885068 0 -0.053170198792703627 0.30629560755473989 0 -0.066466450392310999 0.29870321420704948 0 -0.066623612710285759 0.30828946155969872 0 -0.053170198792703627 0.30629560755473989 0 -0.066623612710285759 0.30828946155969872 0 -0.053170198792703627 0.30629560755473989 0 -0.056077156096989621 0.3197437028587426 0 -0.056077156096989621 0.3197437028587426 0 -0.059729247639768987 0.33055763215683892 0 -0.066963522222955513 0.3231996821449617 0 -0.04135706227185703 0.31202505730698171 0 -0.053170198792703627 0.30629560755473989 0 -0.056077156096989621 0.3197437028587426 0 -0.059729247639768987 0.33055763215683892 0 -0.055926789985129462 0.34705318753610459 0 -0.065225769655604754 0.3447694682662672 0 -0.059729247639768987 0.33055763215683892 0 -0.055926789985129462 0.34705318753610459 0 -0.056077156096989621 0.3197437028587426 0 -0.059729247639768987 0.33055763215683892 0 -0.044075580276336693 0.33563527922769132 0 -0.059729247639768987 0.33055763215683892 0 -0.044075580276336693 0.33563527922769132 0 -0.055926789985129462 0.34705318753610459 0 -0.044075580276336693 0.33563527922769132 0 -0.02976293027611562 0.3275132196568506 0 -0.02778651839286576 0.34941573968516459 0 -0.056077156096989621 0.3197437028587426 0 -0.044075580276336693 0.33563527922769132 0 -0.02976293027611562 0.3275132196568506 0 -0.056077156096989621 0.3197437028587426 0 -0.02976293027611562 0.3275132196568506 0 -0.04135706227185703 0.31202505730698171 0 -0.056077156096989621 0.3197437028587426 0 -0.02976293027611562 0.3275132196568506 0 -0.02628724335858041 0.30484070601801461 0 -0.04135706227185703 0.31202505730698171 0 -0.02976293027611562 0.3275132196568506 0 -0.02976293027611562 0.3275132196568506 0 -0.0069815985525329702 0.32549611739668738 0 -0.013064777442417901 0.31398139259097563 0 -0.02628724335858041 0.30484070601801461 0 -0.02976293027611562 0.3275132196568506 0 -0.013064777442417901 0.31398139259097563 0 -0.02976293027611562 0.3275132196568506 0 -0.003448704455241456 0.33528273645495882 0 -0.02778651839286576 0.34941573968516459 0 -0.02976293027611562 0.3275132196568506 0 -0.003448704455241456 0.33528273645495882 0 -0.003448704455241456 0.33528273645495882 0 -0.02778651839286576 0.34941573968516459 0 -0.003448704455241456 0.33528273645495882 0 -0.001494834127354011 0.33585963461024471 0 -0.013221042063291839 0.35857098833758122 0 -0.02976293027611562 0.3275132196568506 0 -0.003448704455241456 0.33528273645495882 0 -0.0069815985525329702 0.32549611739668738 0 -0.003448704455241456 0.33528273645495882 0 -0.00023275053750003791 0.33341522743281798 0 -0.0069815985525329702 0.32549611739668738 0 -0.003448704455241456 0.33528273645495882 0 -0.001494834127354011 0.33585963461024471 0 -0.003448704455241456 0.33528273645495882 0 -0.00023275053750003791 0.33341522743281798 0 -0.001494834127354011 0.33585963461024471 0 -0.00023275053750003791 0.33341522743281798 0 -0.003448704455241456 0.33528273645495882 0 -0.001494834127354011 0.33585963461024471 0 -0.00023275053750003791 0.33341522743281798 0 -0.00023275053750003791 0.33341522743281798 0 -0.0069815985525329702 0.32549611739668738 0 -0.0019245325289174609 0.31603531092320553 0 -0.0069815985525329702 0.32549611739668738 0 -0.0019245325289174609 0.31603531092320553 0 -0.013064777442417901 0.31398139259097563 0 -0.0012915132074347089 0.36652510761091239 0 -0.013221042063291839 0.35857098833758122 0 -0.024947249999229031 0.3812823420649179 0 -0.0012915132074347089 0.36652510761091239 0 -0.013221042063291839 0.35857098833758122 0 0.0059313923409791804 0.35407678938915937 0 -0.003448704455241456 0.33528273645495882 0 -0.013221042063291839 0.35857098833758122 0 -0.02778651839286576 0.34941573968516459 0 -0.001494834127354011 0.33585963461024471 0 -0.013221042063291839 0.35857098833758122 0 0.0059313923409791804 0.35407678938915937 0 -0.001494834127354011 0.33585963461024471 0 -0.013221042063291839 0.35857098833758122 0 -0.013221042063291839 0.35857098833758122 0 -0.02778651839286576 0.34941573968516459 0 -0.033860659237465812 0.3667946383354056 0 -0.013221042063291839 0.35857098833758122 0 -0.033860659237465812 0.3667946383354056 0 -0.024947249999229031 0.3812823420649179 0 -0.013221042063291839 0.35857098833758122 0 -0.024947249999229031 0.3812823420649179 0 -0.02778651839286576 0.34941573968516459 0 -0.033860659237465812 0.3667946383354056 0 -0.05212433233049002 0.36354874291537043 0 -0.033860659237465812 0.3667946383354056 0 -0.05212433233049002 0.36354874291537043 0 -0.046597117989434958 0.38752651690706719 0 -0.02778651839286576 0.34941573968516459 0 -0.05212433233049002 0.36354874291537043 0 -0.02778651839286576 0.34941573968516459 0 -0.044978305246205483 0.34891323734108282 0 -0.05212433233049002 0.36354874291537043 0 -0.044075580276336693 0.33563527922769132 0 -0.02778651839286576 0.34941573968516459 0 -0.044978305246205483 0.34891323734108282 0 -0.055926789985129462 0.34705318753610459 0 -0.05212433233049002 0.36354874291537043 0 -0.044978305246205483 0.34891323734108282 0 -0.055926789985129462 0.34705318753610459 0 -0.05212433233049002 0.36354874291537043 0 -0.062025794295453761 0.35815661373732322 0 -0.055926789985129462 0.34705318753610459 0 -0.05212433233049002 0.36354874291537043 0 -0.044075580276336693 0.33563527922769132 0 -0.044978305246205483 0.34891323734108282 0 -0.055926789985129462 0.34705318753610459 0 -0.062025794295453761 0.35815661373732322 0 -0.055926789985129462 0.34705318753610459 0 -0.065225769655604754 0.3447694682662672 0 -0.062025794295453761 0.35815661373732322 0 -0.05212433233049002 0.36354874291537043 0 -0.068610387930261807 0.37312221889156388 0 -0.05212433233049002 0.36354874291537043 0 -0.068610387930261807 0.37312221889156388 0 -0.05845407793649602 0.3780147395893434 0 -0.05212433233049002 0.36354874291537043 0 -0.068610387930261807 0.37312221889156388 0 -0.062025794295453761 0.35815661373732322 0 -0.068610387930261807 0.37312221889156388 0 -0.072421621171135361 0.37894075518739551 0 -0.062025794295453761 0.35815661373732322 0 -0.073764051181587159 0.36578581781650771 0 -0.072421621171135361 0.37894075518739551 0 -0.062025794295453761 0.35815661373732322 0 -0.072421621171135361 0.37894075518739551 0 -0.062025794295453761 0.35815661373732322 0 -0.073764051181587159 0.36578581781650771 0 -0.071664612621772719 0.35642206867668641 0 -0.073764051181587159 0.36578581781650771 0 -0.084257614734243813 0.36010707374992368 0 -0.071664612621772719 0.35642206867668641 0 -0.073764051181587159 0.36578581781650771 0 -0.079248693987463148 0.37333765007022218 0 -0.072421621171135361 0.37894075518739551 0 -0.073764051181587159 0.36578581781650771 0 -0.079248693987463148 0.37333765007022218 0 -0.083100684515001716 0.36782694369441932 0 -0.079248693987463148 0.37333765007022218 0 -0.083100684515001716 0.36782694369441932 0 -0.087095098248418101 0.37484103249908413 0 -0.084257614734243813 0.36010707374992368 0 -0.092970032978188399 0.36766192810357867 0 -0.10083344411740611 0.35909289021782281 0 -0.073764051181587159 0.36578581781650771 0 -0.083100684515001716 0.36782694369441932 0 -0.084257614734243813 0.36010707374992368 0 -0.083100684515001716 0.36782694369441932 0 -0.084257614734243813 0.36010707374992368 0 -0.092970032978188399 0.36766192810357867 0 -0.092970032978188399 0.36766192810357867 0 -0.087095098248418101 0.37484103249908413 0 -0.098335812096802866 0.37605223254572018 0 -0.083100684515001716 0.36782694369441932 0 -0.092970032978188399 0.36766192810357867 0 -0.087095098248418101 0.37484103249908413 0 -0.084257614734243813 0.36010707374992368 0 -0.092213497407263492 0.34888617576895148 0 -0.10083344411740611 0.35909289021782281 0 -0.092213497407263492 0.34888617576895148 0 -0.082321215684666993 0.35096521279102949 0 -0.083402660234667997 0.33955061809103509 0 -0.084257614734243813 0.36010707374992368 0 -0.092213497407263492 0.34888617576895148 0 -0.082321215684666993 0.35096521279102949 0 -0.084257614734243813 0.36010707374992368 0 -0.082321215684666993 0.35096521279102949 0 -0.071664612621772719 0.35642206867668641 0 -0.082321215684666993 0.35096521279102949 0 -0.074147294426801333 0.34787716455871998 0 -0.083402660234667997 0.33955061809103509 0 -0.074147294426801333 0.34787716455871998 0 -0.071664612621772719 0.35642206867668641 0 -0.065225769655604754 0.3447694682662672 0 -0.082321215684666993 0.35096521279102949 0 -0.074147294426801333 0.34787716455871998 0 -0.071664612621772719 0.35642206867668641 0 -0.062025794295453761 0.35815661373732322 0 -0.071664612621772719 0.35642206867668641 0 -0.065225769655604754 0.3447694682662672 0 -0.074147294426801333 0.34787716455871998 0 -0.065225769655604754 0.3447694682662672 0 -0.070679380424207877 0.33624261551679341 0 -0.059729247639768987 0.33055763215683892 0 -0.065225769655604754 0.3447694682662672 0 -0.070679380424207877 0.33624261551679341 0 -0.059729247639768987 0.33055763215683892 0 -0.070679380424207877 0.33624261551679341 0 -0.066963522222955513 0.3231996821449617 0 -0.070679380424207877 0.33624261551679341 0 -0.066963522222955513 0.3231996821449617 0 -0.074819007119805922 0.3259152251718469 0 -0.070679380424207877 0.33624261551679341 0 -0.083402660234667997 0.33955061809103509 0 -0.079626419039122598 0.33168489565450071 0 -0.070679380424207877 0.33624261551679341 0 -0.074819007119805922 0.3259152251718469 0 -0.079626419039122598 0.33168489565450071 0 -0.074147294426801333 0.34787716455871998 0 -0.070679380424207877 0.33624261551679341 0 -0.083402660234667997 0.33955061809103509 0 -0.082391381917863715 0.31197418606063448 0 -0.066623612710285759 0.30828946155969872 0 -0.056077156096989621 0.3197437028587426 0 -0.082391381917863715 0.31197418606063448 0 -0.056077156096989621 0.3197437028587426 0 -0.082391381917863715 0.31197418606063448 0 -0.056077156096989621 0.3197437028587426 0 -0.066963522222955513 0.3231996821449617 0 -0.066963522222955513 0.3231996821449617 0 -0.074819007119805922 0.3259152251718469 0 -0.079600010999884618 0.32034356960950688 0 -0.082391381917863715 0.31197418606063448 0 -0.066963522222955513 0.3231996821449617 0 -0.079600010999884618 0.32034356960950688 0 -0.082391381917863715 0.31197418606063448 0 -0.079600010999884618 0.32034356960950688 0 -0.088390554208926525 0.31707450632996498 0 -0.084622330378217009 0.32449126642693721 0 -0.079600010999884618 0.32034356960950688 0 -0.088390554208926525 0.31707450632996498 0 -0.074819007119805922 0.3259152251718469 0 -0.084622330378217009 0.32449126642693721 0 -0.079600010999884618 0.32034356960950688 0 -0.074819007119805922 0.3259152251718469 0 -0.084622330378217009 0.32449126642693721 0 -0.079626419039122598 0.33168489565450071 0 -0.084622330378217009 0.32449126642693721 0 -0.089572399036651665 0.33097115946744149 0 -0.097028107374737022 0.32244573818796168 0 -0.084622330378217009 0.32449126642693721 0 -0.088390554208926525 0.31707450632996498 0 -0.097028107374737022 0.32244573818796168 0 -0.094407296445989219 0.31061545818147662 0 -0.082391381917863715 0.31197418606063448 0 -0.088390554208926525 0.31707450632996498 0 -0.094407296445989219 0.31061545818147662 0 -0.088390554208926525 0.31707450632996498 0 -0.097028107374737022 0.32244573818796168 0 -0.083402660234667997 0.33955061809103509 0 -0.079626419039122598 0.33168489565450071 0 -0.089572399036651665 0.33097115946744149 0 -0.084622330378217009 0.32449126642693721 0 -0.079626419039122598 0.33168489565450071 0 -0.089572399036651665 0.33097115946744149 0 -0.083402660234667997 0.33955061809103509 0 -0.089572399036651665 0.33097115946744149 0 -0.097144569707708822 0.33626261654485712 0 -0.092213497407263492 0.34888617576895148 0 -0.083402660234667997 0.33955061809103509 0 -0.097144569707708822 0.33626261654485712 0 -0.089572399036651665 0.33097115946744149 0 -0.097144569707708822 0.33626261654485712 0 -0.097028107374737022 0.32244573818796168 0 -0.097144569707708822 0.33626261654485712 0 -0.1088393388736841 0.3249899697028818 0 -0.1104346650397722 0.33628051160906652 0 -0.097144569707708822 0.33626261654485712 0 -0.1104346650397722 0.33628051160906652 0 -0.1052454620262661 0.34695626100005977 0 -0.1070884601369058 0.30901919227696262 0 -0.097028107374737022 0.32244573818796168 0 -0.1088393388736841 0.3249899697028818 0 -0.1070884601369058 0.30901919227696262 0 -0.094407296445989219 0.31061545818147662 0 -0.097028107374737022 0.32244573818796168 0 -0.097144569707708822 0.33626261654485712 0 -0.097028107374737022 0.32244573818796168 0 -0.1088393388736841 0.3249899697028818 0 -0.1070884601369058 0.30901919227696262 0 -0.1088393388736841 0.3249899697028818 0 -0.12039393490326571 0.31543344305833698 0 -0.1088393388736841 0.3249899697028818 0 -0.12039393490326571 0.31543344305833698 0 -0.1209462960797151 0.33049831654010609 0 -0.1104346650397722 0.33628051160906652 0 -0.1191358251029557 0.34509040958496617 0 -0.1052454620262661 0.34695626100005977 0 -0.1104346650397722 0.33628051160906652 0 -0.1209462960797151 0.33049831654010609 0 -0.1191358251029557 0.34509040958496617 0 -0.1088393388736841 0.3249899697028818 0 -0.1104346650397722 0.33628051160906652 0 -0.1209462960797151 0.33049831654010609 0 -0.1332764167575646 0.34008422556405582 0 -0.1209462960797151 0.33049831654010609 0 -0.1191358251029557 0.34509040958496617 0 -0.1191358251029557 0.34509040958496617 0 -0.113931051666154 0.35492302143148119 0 -0.1052454620262661 0.34695626100005977 0 -0.1278801081378303 0.35799638876066958 0 -0.113931051666154 0.35492302143148119 0 -0.1130588292176835 0.36517389599749639 0 -0.1278801081378303 0.35799638876066958 0 -0.1191358251029557 0.34509040958496617 0 -0.113931051666154 0.35492302143148119 0 -0.12602955525595369 0.37680376999551191 0 -0.1278801081378303 0.35799638876066958 0 -0.1130588292176835 0.36517389599749639 0 -0.12602955525595369 0.37680376999551191 0 -0.1130588292176835 0.36517389599749639 0 -0.1110989337988916 0.37665361374022799 0 -0.1130588292176835 0.36517389599749639 0 -0.1039058502774186 0.36876326987364072 0 -0.10083344411740611 0.35909289021782281 0 -0.113931051666154 0.35492302143148119 0 -0.1130588292176835 0.36517389599749639 0 -0.10083344411740611 0.35909289021782281 0 -0.1130588292176835 0.36517389599749639 0 -0.1039058502774186 0.36876326987364072 0 -0.1110989337988916 0.37665361374022799 0 -0.1039058502774186 0.36876326987364072 0 -0.098335812096802866 0.37605223254572018 0 -0.1110989337988916 0.37665361374022799 0 -0.092970032978188399 0.36766192810357867 0 -0.1039058502774186 0.36876326987364072 0 -0.098335812096802866 0.37605223254572018 0 -0.092970032978188399 0.36766192810357867 0 -0.1039058502774186 0.36876326987364072 0 -0.10083344411740611 0.35909289021782281 0 -0.092213497407263492 0.34888617576895148 0 -0.10083344411740611 0.35909289021782281 0 -0.1052454620262661 0.34695626100005977 0 -0.092213497407263492 0.34888617576895148 0 -0.097144569707708822 0.33626261654485712 0 -0.1052454620262661 0.34695626100005977 0 -0.113931051666154 0.35492302143148119 0 -0.10083344411740611 0.35909289021782281 0 -0.1052454620262661 0.34695626100005977 0 -0.1075466510078934 0.39618850661063681 0 -0.096102036039362237 0.39396253580812268 0 -0.10389855535612461 0.38527383682108568 0 -0.1075466510078934 0.39618850661063681 0 -0.099571489656212042 0.40570015249908681 0 -0.1097878940533452 0.40594250632769502 0 -0.1075466510078934 0.39618850661063681 0 -0.099571489656212042 0.40570015249908681 0 -0.096102036039362237 0.39396253580812268 0 -0.096102036039362237 0.39396253580812268 0 -0.10389855535612461 0.38527383682108568 0 -0.091954935519808989 0.38505324910776939 0 -0.098335812096802866 0.37605223254572018 0 -0.10389855535612461 0.38527383682108568 0 -0.091954935519808989 0.38505324910776939 0 -0.098335812096802866 0.37605223254572018 0 -0.10389855535612461 0.38527383682108568 0 -0.1110989337988916 0.37665361374022799 0 -0.1075466510078934 0.39618850661063681 0 -0.10389855535612461 0.38527383682108568 0 -0.1165347922226032 0.38775400131661952 0 -0.13094926167676699 0.39478334172728408 0 -0.12602955525595369 0.37680376999551191 0 -0.1165347922226032 0.38775400131661952 0 -0.10389855535612461 0.38527383682108568 0 -0.1165347922226032 0.38775400131661952 0 -0.1110989337988916 0.37665361374022799 0 -0.12602955525595369 0.37680376999551191 0 -0.1165347922226032 0.38775400131661952 0 -0.1110989337988916 0.37665361374022799 0 -0.1329627898010563 0.41377086225233162 0 -0.1097878940533452 0.40594250632769502 0 -0.1193851387197131 0.39849800689121151 0 -0.13094926167676699 0.39478334172728408 0 -0.1165347922226032 0.38775400131661952 0 -0.1193851387197131 0.39849800689121151 0 -0.1075466510078934 0.39618850661063681 0 -0.1165347922226032 0.38775400131661952 0 -0.1193851387197131 0.39849800689121151 0 -0.1075466510078934 0.39618850661063681 0 -0.1097878940533452 0.40594250632769502 0 -0.1193851387197131 0.39849800689121151 0 -0.1329627898010563 0.41377086225233162 0 -0.1097878940533452 0.40594250632769502 0 -0.1087449148693012 0.41787617775476882 0 -0.1329627898010563 0.41377086225233162 0 -0.1087449148693012 0.41787617775476882 0 -0.1329627898010563 0.41377086225233162 0 -0.1203882308634798 0.43633692869159008 0 -0.1087449148693012 0.41787617775476882 0 -0.1203882308634798 0.43633692869159008 0 -0.1087449148693012 0.41787617775476882 0 -0.10623881761836849 0.44655071087532028 0 -0.1087449148693012 0.41787617775476882 0 -0.10623881761836849 0.44655071087532028 0 -0.093213274922497869 0.42050903808754042 0 -0.10623881761836849 0.44655071087532028 0 -0.1087449148693012 0.41787617775476882 0 -0.093213274922497869 0.42050903808754042 0 -0.10623881761836849 0.44655071087532028 0 -0.099571489656212042 0.40570015249908681 0 -0.1097878940533452 0.40594250632769502 0 -0.1087449148693012 0.41787617775476882 0 -0.1097878940533452 0.40594250632769502 0 -0.1087449148693012 0.41787617775476882 0 -0.1087449148693012 0.41787617775476882 0 -0.093213274922497869 0.42050903808754042 0 -0.099571489656212042 0.40570015249908681 0 -0.1087449148693012 0.41787617775476882 0 -0.093213274922497869 0.42050903808754042 0 -0.093213274922497869 0.42050903808754042 0 -0.076166078848011715 0.42339880932118368 0 -0.082817448046816983 0.39972489663746769 0 -0.099571489656212042 0.40570015249908681 0 -0.093213274922497869 0.42050903808754042 0 -0.082817448046816983 0.39972489663746769 0 -0.093213274922497869 0.42050903808754042 0 -0.082817448046816983 0.39972489663746769 0 -0.093213274922497869 0.42050903808754042 0 -0.081386156052715264 0.43849148852129127 0 -0.10623881761836849 0.44655071087532028 0 -0.093213274922497869 0.42050903808754042 0 -0.076166078848011715 0.42339880932118368 0 -0.093213274922497869 0.42050903808754042 0 -0.076166078848011715 0.42339880932118368 0 -0.081386156052715264 0.43849148852129127 0 -0.067554301161950242 0.42501504601732393 0 -0.056603067688703199 0.42963621602433821 0 -0.081386156052715264 0.43849148852129127 0 -0.056603067688703199 0.42963621602433821 0 -0.065969674918634091 0.44209763497951371 0 -0.081386156052715264 0.43849148852129127 0 -0.056603067688703199 0.42963621602433821 0 -0.081386156052715264 0.43849148852129127 0 -0.076166078848011715 0.42339880932118368 0 -0.067554301161950242 0.42501504601732393 0 -0.081386156052715264 0.43849148852129127 0 -0.076166078848011715 0.42339880932118368 0 -0.066653377497597532 0.41049382162657477 0 -0.082817448046816983 0.39972489663746769 0 -0.067554301161950242 0.42501504601732393 0 -0.066653377497597532 0.41049382162657477 0 -0.059145372353128993 0.41955783118227202 0 -0.076166078848011715 0.42339880932118368 0 -0.067554301161950242 0.42501504601732393 0 -0.066653377497597532 0.41049382162657477 0 -0.066653377497597532 0.41049382162657477 0 -0.068026177717106409 0.39216039148898219 0 -0.082817448046816983 0.39972489663746769 0 -0.066653377497597532 0.41049382162657477 0 -0.068026177717106409 0.39216039148898219 0 -0.057844372008863228 0.39977886658104977 0 -0.099571489656212042 0.40570015249908681 0 -0.096102036039362237 0.39396253580812268 0 -0.082817448046816983 0.39972489663746769 0 -0.096102036039362237 0.39396253580812268 0 -0.082817448046816983 0.39972489663746769 0 -0.091954935519808989 0.38505324910776939 0 -0.082817448046816983 0.39972489663746769 0 -0.082396724809108007 0.38213928198966601 0 -0.072421621171135361 0.37894075518739551 0 -0.082817448046816983 0.39972489663746769 0 -0.091954935519808989 0.38505324910776939 0 -0.082396724809108007 0.38213928198966601 0 -0.087095098248418101 0.37484103249908413 0 -0.098335812096802866 0.37605223254572018 0 -0.091954935519808989 0.38505324910776939 0 -0.087095098248418101 0.37484103249908413 0 -0.091954935519808989 0.38505324910776939 0 -0.082396724809108007 0.38213928198966601 0 -0.079248693987463148 0.37333765007022218 0 -0.087095098248418101 0.37484103249908413 0 -0.082396724809108007 0.38213928198966601 0 -0.068026177717106409 0.39216039148898219 0 -0.082817448046816983 0.39972489663746769 0 -0.072421621171135361 0.37894075518739551 0 -0.082817448046816983 0.39972489663746769 0 -0.072421621171135361 0.37894075518739551 0 -0.079248693987463148 0.37333765007022218 0 -0.082396724809108007 0.38213928198966601 0 -0.072421621171135361 0.37894075518739551 0 -0.068026177717106409 0.39216039148898219 0 -0.072421621171135361 0.37894075518739551 0 -0.065410512901781445 0.38174612566571059 0 -0.068026177717106409 0.39216039148898219 0 -0.065410512901781445 0.38174612566571059 0 -0.059540299753907622 0.38649252317126809 0 -0.068610387930261807 0.37312221889156388 0 -0.065410512901781445 0.38174612566571059 0 -0.05845407793649602 0.3780147395893434 0 -0.068610387930261807 0.37312221889156388 0 -0.072421621171135361 0.37894075518739551 0 -0.065410512901781445 0.38174612566571059 0 -0.05212433233049002 0.36354874291537043 0 -0.046597117989434958 0.38752651690706719 0 -0.05212433233049002 0.36354874291537043 0 -0.05845407793649602 0.3780147395893434 0 -0.046597117989434958 0.38752651690706719 0 -0.065410512901781445 0.38174612566571059 0 -0.05845407793649602 0.3780147395893434 0 -0.059540299753907622 0.38649252317126809 0 -0.05845407793649602 0.3780147395893434 0 -0.059540299753907622 0.38649252317126809 0 -0.046597117989434958 0.38752651690706719 0 -0.057844372008863228 0.39977886658104977 0 -0.050480287906873159 0.40528779408509302 0 -0.046597117989434958 0.38752651690706719 0 -0.057844372008863228 0.39977886658104977 0 -0.050480287906873159 0.40528779408509302 0 -0.056732088759522632 0.41068856970940548 0 -0.068026177717106409 0.39216039148898219 0 -0.059540299753907622 0.38649252317126809 0 -0.057844372008863228 0.39977886658104977 0 -0.059540299753907622 0.38649252317126809 0 -0.057844372008863228 0.39977886658104977 0 -0.046597117989434958 0.38752651690706719 0 -0.036673457935166152 0.40399369579225453 0 -0.046597117989434958 0.38752651690706719 0 -0.024947249999229031 0.3812823420649179 0 -0.046597117989434958 0.38752651690706719 0 -0.040660443569204147 0.41171570119546091 0 -0.036673457935166152 0.40399369579225453 0 -0.046597117989434958 0.38752651690706719 0 -0.040660443569204147 0.41171570119546091 0 -0.050480287906873159 0.40528779408509302 0 -0.046597117989434958 0.38752651690706719 0 -0.040660443569204147 0.41171570119546091 0 -0.033860659237465812 0.3667946383354056 0 -0.046597117989434958 0.38752651690706719 0 -0.024947249999229031 0.3812823420649179 0 -0.024947249999229031 0.3812823420649179 0 -0.018462138895467349 0.40033882515985908 0 -0.0041601498909107099 0.39486415160942412 0 -0.036673457935166152 0.40399369579225453 0 -0.018462138895467349 0.40033882515985908 0 -0.022591029290931361 0.40863831255846628 0 -0.036673457935166152 0.40399369579225453 0 -0.024947249999229031 0.3812823420649179 0 -0.036673457935166152 0.40399369579225453 0 -0.024947249999229031 0.3812823420649179 0 -0.018462138895467349 0.40033882515985908 0 -0.0041601498909107099 0.39486415160942412 0 -0.0096881018905816407 0.41168354254352257 0 0.011034103982847401 0.40727448451550369 0 -0.018462138895467349 0.40033882515985908 0 -0.0041601498909107099 0.39486415160942412 0 -0.0096881018905816407 0.41168354254352257 0 -0.0012915132074347089 0.36652510761091239 0 -0.024947249999229031 0.3812823420649179 0 0.0022634058800765338 0.37998431242390279 0 -0.024947249999229031 0.3812823420649179 0 -0.0041601498909107099 0.39486415160942412 0 0.0022634058800765338 0.37998431242390279 0 -0.01111497266538608 0.42671142370513843 0 -0.02798860266805624 0.43705881919417228 0 -0.00069522750787146328 0.44046125278118642 0 -0.01111497266538608 0.42671142370513843 0 -0.00069522750787146328 0.44046125278118642 0 0.0075383504917777792 0.42465595175508147 0 -0.01111497266538608 0.42671142370513843 0 -0.0096881018905816407 0.41168354254352257 0 -0.025540418442510319 0.41853718673822932 0 -0.01111497266538608 0.42671142370513843 0 -0.0096881018905816407 0.41168354254352257 0 0.0075383504917777792 0.42465595175508147 0 -0.0096881018905816407 0.41168354254352257 0 -0.022591029290931361 0.40863831255846628 0 -0.025540418442510319 0.41853718673822932 0 -0.018462138895467349 0.40033882515985908 0 -0.0096881018905816407 0.41168354254352257 0 -0.022591029290931361 0.40863831255846628 0 -0.036673457935166152 0.40399369579225453 0 -0.022591029290931361 0.40863831255846628 0 -0.025540418442510319 0.41853718673822932 0 -0.01111497266538608 0.42671142370513843 0 -0.025540418442510319 0.41853718673822932 0 -0.02798860266805624 0.43705881919417228 0 -0.025540418442510319 0.41853718673822932 0 -0.02798860266805624 0.43705881919417228 0 -0.041814513434106568 0.43747381572216998 0 -0.025540418442510319 0.41853718673822932 0 -0.04839966587110512 0.4267050495195901 0 -0.025540418442510319 0.41853718673822932 0 -0.041814513434106568 0.43747381572216998 0 -0.04839966587110512 0.4267050495195901 0 -0.025540418442510319 0.41853718673822932 0 -0.040660443569204147 0.41171570119546091 0 -0.04839966587110512 0.4267050495195901 0 -0.036673457935166152 0.40399369579225453 0 -0.025540418442510319 0.41853718673822932 0 -0.040660443569204147 0.41171570119546091 0 -0.036673457935166152 0.40399369579225453 0 -0.040660443569204147 0.41171570119546091 0 -0.040660443569204147 0.41171570119546091 0 -0.04839966587110512 0.4267050495195901 0 -0.040660443569204147 0.41171570119546091 0 -0.050778880225179727 0.41555691758631907 0 -0.04839966587110512 0.4267050495195901 0 -0.050480287906873159 0.40528779408509302 0 -0.040660443569204147 0.41171570119546091 0 -0.050778880225179727 0.41555691758631907 0 -0.050480287906873159 0.40528779408509302 0 -0.050778880225179727 0.41555691758631907 0 -0.056732088759522632 0.41068856970940548 0 -0.050778880225179727 0.41555691758631907 0 -0.059145372353128993 0.41955783118227202 0 -0.04839966587110512 0.4267050495195901 0 -0.050778880225179727 0.41555691758631907 0 -0.059145372353128993 0.41955783118227202 0 -0.056732088759522632 0.41068856970940548 0 -0.066653377497597532 0.41049382162657477 0 -0.059145372353128993 0.41955783118227202 0 -0.056732088759522632 0.41068856970940548 0 -0.066653377497597532 0.41049382162657477 0 -0.057844372008863228 0.39977886658104977 0 -0.056732088759522632 0.41068856970940548 0 -0.04839966587110512 0.4267050495195901 0 -0.056603067688703199 0.42963621602433821 0 -0.054407330763398973 0.43834071240307731 0 -0.04839966587110512 0.4267050495195901 0 -0.054407330763398973 0.43834071240307731 0 -0.041814513434106568 0.43747381572216998 0 -0.04839966587110512 0.4267050495195901 0 -0.054407330763398973 0.43834071240307731 0 -0.04839966587110512 0.4267050495195901 0 -0.056603067688703199 0.42963621602433821 0 -0.067554301161950242 0.42501504601732393 0 -0.059145372353128993 0.41955783118227202 0 -0.056603067688703199 0.42963621602433821 0 -0.059145372353128993 0.41955783118227202 0 -0.056603067688703199 0.42963621602433821 0 -0.059145372353128993 0.41955783118227202 0 -0.04839966587110512 0.4267050495195901 0 -0.056603067688703199 0.42963621602433821 0 -0.056603067688703199 0.42963621602433821 0 -0.054407330763398973 0.43834071240307731 0 -0.056603067688703199 0.42963621602433821 0 -0.054407330763398973 0.43834071240307731 0 -0.065969674918634091 0.44209763497951371 0 -0.061406648736320762 0.45189701186506798 0 -0.054407330763398973 0.43834071240307731 0 -0.047206987013957341 0.46688482685067761 0 -0.054407330763398973 0.43834071240307731 0 -0.047206987013957341 0.46688482685067761 0 -0.061406648736320762 0.45189701186506798 0 -0.054407330763398973 0.43834071240307731 0 -0.065969674918634091 0.44209763497951371 0 -0.061406648736320762 0.45189701186506798 0 -0.054407330763398973 0.43834071240307731 0 -0.061406648736320762 0.45189701186506798 0 -0.047206987013957341 0.46688482685067761 0 -0.068405966709242705 0.46545331132705869 0 -0.047206987013957341 0.46688482685067761 0 -0.031468687847708607 0.46355162875185418 0 -0.038809384738874929 0.4497324259642565 0 -0.054407330763398973 0.43834071240307731 0 -0.047206987013957341 0.46688482685067761 0 -0.038809384738874929 0.4497324259642565 0 -0.041814513434106568 0.43747381572216998 0 -0.054407330763398973 0.43834071240307731 0 -0.038809384738874929 0.4497324259642565 0 -0.02798860266805624 0.43705881919417228 0 -0.041814513434106568 0.43747381572216998 0 -0.038809384738874929 0.4497324259642565 0 -0.02798860266805624 0.43705881919417228 0 -0.023401487672922869 0.4525238415315635 0 -0.00069522750787146328 0.44046125278118642 0 -0.02798860266805624 0.43705881919417228 0 -0.038809384738874929 0.4497324259642565 0 -0.023401487672922869 0.4525238415315635 0 -0.031468687847708607 0.46355162875185418 0 -0.038809384738874929 0.4497324259642565 0 -0.023401487672922869 0.4525238415315635 0 -0.031468687847708607 0.46355162875185418 0 -0.023401487672922869 0.4525238415315635 0 -0.01537937392693136 0.46876132417640543 0 -0.00069522750787146328 0.44046125278118642 0 -0.01537937392693136 0.46876132417640543 0 0.0085473494867990066 0.46459041614164148 0 -0.023401487672922869 0.4525238415315635 0 -0.00069522750787146328 0.44046125278118642 0 -0.01537937392693136 0.46876132417640543 0 -0.02798860266805624 0.43705881919417228 0 -0.00069522750787146328 0.44046125278118642 0 -0.0092351114354999823 0.48349087954534847 0 -0.02175615444842172 0.5 0 0.0061448972125648371 0.5 0 -0.0092351114354999823 0.48349087954534847 0 -0.01537937392693136 0.46876132417640543 0 0.0085473494867990066 0.46459041614164148 0 -0.0092351114354999823 0.48349087954534847 0 -0.01537937392693136 0.46876132417640543 0 -0.02878690700144601 0.47865122638149082 0 -0.031468687847708607 0.46355162875185418 0 -0.01537937392693136 0.46876132417640543 0 -0.02878690700144601 0.47865122638149082 0 -0.0092351114354999823 0.48349087954534847 0 -0.02878690700144601 0.47865122638149082 0 -0.0260971377111733 0.48959507007757658 0 -0.02175615444842172 0.5 0 -0.0260971377111733 0.48959507007757658 0 -0.040006643264515432 0.49542894129827791 0 -0.0092351114354999823 0.48349087954534847 0 -0.02175615444842172 0.5 0 -0.0260971377111733 0.48959507007757658 0 -0.02175615444842172 0.5 0 -0.040006643264515432 0.49542894129827791 0 -0.049657206109408158 0.5 0 -0.02878690700144601 0.47865122638149082 0 -0.0260971377111733 0.48959507007757658 0 -0.040006643264515432 0.49542894129827791 0 -0.040006643264515432 0.49542894129827791 0 -0.049657206109408158 0.5 0 -0.049420050995564221 0.4864143847016496 0 -0.047206987013957341 0.46688482685067761 0 -0.040006643264515432 0.49542894129827791 0 -0.047206987013957341 0.46688482685067761 0 -0.031468687847708607 0.46355162875185418 0 -0.02878690700144601 0.47865122638149082 0 -0.047206987013957341 0.46688482685067761 0 -0.02878690700144601 0.47865122638149082 0 -0.040006643264515432 0.49542894129827791 0 -0.047206987013957341 0.46688482685067761 0 -0.040006643264515432 0.49542894129827791 0 -0.049420050995564221 0.4864143847016496 0 -0.047206987013957341 0.46688482685067761 0 -0.060809367594375982 0.48334377065764311 0 -0.068405966709242705 0.46545331132705869 0 -0.047206987013957341 0.46688482685067761 0 -0.060809367594375982 0.48334377065764311 0 -0.049420050995564221 0.4864143847016496 0 -0.060809367594375982 0.48334377065764311 0 -0.049657206109408158 0.5 0 -0.049420050995564221 0.4864143847016496 0 -0.060809367594375982 0.48334377065764311 0 -0.049657206109408158 0.5 0 -0.077558257770394712 0.5 0 -0.060809367594375982 0.48334377065764311 0 -0.077558257770394712 0.5 0 -0.07685039213099043 0.47962490972583433 0 -0.077558257770394712 0.5 0 -0.090155753678711717 0.48463398886001169 0 -0.07685039213099043 0.47962490972583433 0 -0.077558257770394712 0.5 0 -0.090155753678711717 0.48463398886001169 0 -0.1054593094313812 0.49999999999999978 0 -0.090155753678711717 0.48463398886001169 0 -0.087322614902226994 0.46469347778445808 0 -0.09520462022081147 0.47482971126609591 0 -0.090155753678711717 0.48463398886001169 0 -0.07685039213099043 0.47962490972583433 0 -0.087322614902226994 0.46469347778445808 0 -0.060809367594375982 0.48334377065764311 0 -0.07685039213099043 0.47962490972583433 0 -0.068405966709242705 0.46545331132705869 0 -0.07685039213099043 0.47962490972583433 0 -0.068405966709242705 0.46545331132705869 0 -0.087322614902226994 0.46469347778445808 0 -0.068405966709242705 0.46545331132705869 0 -0.076045171352032606 0.4521227460837936 0 -0.087322614902226994 0.46469347778445808 0 -0.061406648736320762 0.45189701186506798 0 -0.068405966709242705 0.46545331132705869 0 -0.061406648736320762 0.45189701186506798 0 -0.068405966709242705 0.46545331132705869 0 -0.076045171352032606 0.4521227460837936 0 -0.061406648736320762 0.45189701186506798 0 -0.065969674918634091 0.44209763497951371 0 -0.076045171352032606 0.4521227460837936 0 -0.065969674918634091 0.44209763497951371 0 -0.076045171352032606 0.4521227460837936 0 -0.081386156052715264 0.43849148852129127 0 -0.081386156052715264 0.43849148852129127 0 -0.091191749420117971 0.4525945484859511 0 -0.10623881761836849 0.44655071087532028 0 -0.076045171352032606 0.4521227460837936 0 -0.081386156052715264 0.43849148852129127 0 -0.091191749420117971 0.4525945484859511 0 -0.076045171352032606 0.4521227460837936 0 -0.091191749420117971 0.4525945484859511 0 -0.087322614902226994 0.46469347778445808 0 -0.091191749420117971 0.4525945484859511 0 -0.087322614902226994 0.46469347778445808 0 -0.1050355603768891 0.46031826902196632 0 -0.087322614902226994 0.46469347778445808 0 -0.1050355603768891 0.46031826902196632 0 -0.09520462022081147 0.47482971126609591 0 -0.087322614902226994 0.46469347778445808 0 -0.1050355603768891 0.46031826902196632 0 -0.091191749420117971 0.4525945484859511 0 -0.1050355603768891 0.46031826902196632 0 -0.10623881761836849 0.44655071087532028 0 -0.1050355603768891 0.46031826902196632 0 -0.10623881761836849 0.44655071087532028 0 -0.11223554293584009 0.45853982811688432 0 -0.1050355603768891 0.46031826902196632 0 -0.10623881761836849 0.44655071087532028 0 -0.1050355603768891 0.46031826902196632 0 -0.11223554293584009 0.45853982811688432 0 -0.1050355603768891 0.46031826902196632 0 -0.11223554293584009 0.45853982811688432 0 -0.1107799877875963 0.47340423983154212 0 -0.081386156052715264 0.43849148852129127 0 -0.10623881761836849 0.44655071087532028 0 -0.10623881761836849 0.44655071087532028 0 -0.11223554293584009 0.45853982811688432 0 -0.1271705947214293 0.45485077653965988 0 -0.1203882308634798 0.43633692869159008 0 -0.10623881761836849 0.44655071087532028 0 -0.1271705947214293 0.45485077653965988 0 -0.10623881761836849 0.44655071087532028 0 -0.1271705947214293 0.45485077653965988 0 -0.11223554293584009 0.45853982811688432 0 -0.1199335769996305 0.47393033344009028 0 -0.1271705947214293 0.45485077653965988 0 -0.10623881761836849 0.44655071087532028 0 -0.11223554293584009 0.45853982811688432 0 -0.11223554293584009 0.45853982811688432 0 -0.1199335769996305 0.47393033344009028 0 -0.11223554293584009 0.45853982811688432 0 -0.1199335769996305 0.47393033344009028 0 -0.1107799877875963 0.47340423983154212 0 -0.1271705947214293 0.45485077653965988 0 -0.11223554293584009 0.45853982811688432 0 -0.1199335769996305 0.47393033344009028 0 -0.1107799877875963 0.47340423983154212 0 -0.1141791340579227 0.48508734788549629 0 -0.1276316110634213 0.48932083876329607 0 -0.1199335769996305 0.47393033344009028 0 -0.1276316110634213 0.48932083876329607 0 -0.1199335769996305 0.47393033344009028 0 -0.1141791340579227 0.48508734788549629 0 -0.1276316110634213 0.48932083876329607 0 -0.1054593094313812 0.49999999999999978 0 -0.1276316110634213 0.48932083876329607 0 -0.1141791340579227 0.48508734788549629 0 -0.1054593094313812 0.49999999999999978 0 -0.13297312164065109 0.499999999999997 0 -0.1276316110634213 0.48932083876329607 0 -0.1054593094313812 0.49999999999999978 0 -0.1141791340579227 0.48508734788549629 0 -0.10251612456770021 0.48914542069327288 0 -0.1054593094313812 0.49999999999999978 0 -0.090155753678711717 0.48463398886001169 0 -0.10251612456770021 0.48914542069327288 0 -0.1054593094313812 0.49999999999999978 0 -0.1050355603768891 0.46031826902196632 0 -0.10251612456770021 0.48914542069327288 0 -0.09520462022081147 0.47482971126609591 0 -0.1050355603768891 0.46031826902196632 0 -0.10251612456770021 0.48914542069327288 0 -0.090155753678711717 0.48463398886001169 0 -0.10251612456770021 0.48914542069327288 0 -0.09520462022081147 0.47482971126609591 0 -0.1107799877875963 0.47340423983154212 0 -0.1141791340579227 0.48508734788549629 0 -0.10251612456770021 0.48914542069327288 0 -0.1050355603768891 0.46031826902196632 0 -0.1107799877875963 0.47340423983154212 0 -0.10251612456770021 0.48914542069327288 0 -0.16032664250474041 0.088649314778320429 0 -0.1776295210243192 0.091014586046016893 0 -0.16032664250474041 0.088649314778320429 0 -0.1776295210243192 0.091014586046016893 0 -0.16336381957050361 0.1002423243847964 0 -0.16032664250474041 0.088649314778320429 0 -0.17149730225684029 0.077292088459833777 0 -0.1776295210243192 0.091014586046016893 0 -0.16032664250474041 0.088649314778320429 0 -0.15627249243182259 0.076864792695766349 0 -0.17149730225684029 0.077292088459833777 0 -0.15627249243182259 0.076864792695766349 0 -0.1629377817967585 0.066334597483444016 0 -0.17149730225684029 0.077292088459833777 0 -0.1629377817967585 0.066334597483444016 0 -0.17149730225684029 0.077292088459833777 0 -0.17636794898810559 0.061295532447953063 0 -0.17149730225684029 0.077292088459833777 0 -0.18377250220644609 0.070940385137827466 0 -0.17636794898810559 0.061295532447953063 0 -0.18377250220644609 0.070940385137827466 0 -0.17636794898810559 0.061295532447953063 0 -0.19158118680766961 0.060331759271752453 0 -0.17149730225684029 0.077292088459833777 0 -0.18377250220644609 0.070940385137827466 0 -0.18693637196140761 0.082016321396729111 0 -0.18693637196140761 0.082016321396729111 0 -0.1776295210243192 0.091014586046016893 0 -0.19493239954389799 0.093379857313713524 0 -0.1776295210243192 0.091014586046016893 0 -0.19493239954389799 0.093379857313713524 0 -0.17149730225684029 0.077292088459833777 0 -0.18693637196140761 0.082016321396729111 0 -0.1776295210243192 0.091014586046016893 0 -0.1776295210243192 0.091014586046016893 0 -0.18336666747645439 0.1028473276981569 0 -0.19493239954389799 0.093379857313713524 0 -0.1776295210243192 0.091014586046016893 0 -0.18336666747645439 0.1028473276981569 0 -0.1733475182994943 0.10820659723769489 0 -0.18336666747645439 0.1028473276981569 0 -0.1733475182994943 0.10820659723769489 0 -0.18755723103810629 0.1187882701952022 0 -0.1733475182994943 0.10820659723769489 0 -0.1722804927875963 0.1236711358984869 0 -0.18755723103810629 0.1187882701952022 0 -0.1722804927875963 0.1236711358984869 0 -0.15862771313235341 0.1135322229064419 0 -0.16168793893571501 0.13363190607640579 0 -0.1733475182994943 0.10820659723769489 0 -0.1722804927875963 0.1236711358984869 0 -0.15862771313235341 0.1135322229064419 0 -0.1776295210243192 0.091014586046016893 0 -0.1733475182994943 0.10820659723769489 0 -0.16336381957050361 0.1002423243847964 0 -0.15862771313235341 0.1135322229064419 0 -0.16336381957050361 0.1002423243847964 0 -0.14688770289161079 0.099808900955507832 0 -0.16032664250474041 0.088649314778320429 0 -0.16336381957050361 0.1002423243847964 0 -0.14688770289161079 0.099808900955507832 0 -0.1733475182994943 0.10820659723769489 0 -0.15862771313235341 0.1135322229064419 0 -0.16336381957050361 0.1002423243847964 0 -0.14688770289161079 0.099808900955507832 0 -0.1447548866879228 0.118053399692452 0 -0.13235754695007221 0.10970570290738681 0 -0.15862771313235341 0.1135322229064419 0 -0.1447548866879228 0.118053399692452 0 -0.16168793893571501 0.13363190607640579 0 -0.15862771313235341 0.1135322229064419 0 -0.14688770289161079 0.099808900955507832 0 -0.1447548866879228 0.118053399692452 0 -0.1447548866879228 0.118053399692452 0 -0.13236593884934869 0.1227556925435045 0 -0.14228202619971811 0.1321705647724411 0 -0.1447548866879228 0.118053399692452 0 -0.13235754695007221 0.10970570290738681 0 -0.13236593884934869 0.1227556925435045 0 -0.13235754695007221 0.10970570290738681 0 -0.13236593884934869 0.1227556925435045 0 -0.12271063477338461 0.11656434709622369 0 -0.13236593884934869 0.1227556925435045 0 -0.1226897624986597 0.12539343477150269 0 -0.12271063477338461 0.11656434709622369 0 -0.14688770289161079 0.099808900955507832 0 -0.13235754695007221 0.10970570290738681 0 -0.12942077957145351 0.085038069788139284 0 -0.13235754695007221 0.10970570290738681 0 -0.12942077957145351 0.085038069788139284 0 -0.13235754695007221 0.10970570290738681 0 -0.12942077957145351 0.085038069788139284 0 -0.11838686230135841 0.0991027021444911 0 -0.12942077957145351 0.085038069788139284 0 -0.14690304262703141 0.08354868876614692 0 -0.14438675543477519 0.068171704045393508 0 -0.16032664250474041 0.088649314778320429 0 -0.14688770289161079 0.099808900955507832 0 -0.14690304262703141 0.08354868876614692 0 -0.14688770289161079 0.099808900955507832 0 -0.12942077957145351 0.085038069788139284 0 -0.14690304262703141 0.08354868876614692 0 -0.16032664250474041 0.088649314778320429 0 -0.15627249243182259 0.076864792695766349 0 -0.14690304262703141 0.08354868876614692 0 -0.15627249243182259 0.076864792695766349 0 -0.1629377817967585 0.066334597483444016 0 -0.14438675543477519 0.068171704045393508 0 -0.15627249243182259 0.076864792695766349 0 -0.14690304262703141 0.08354868876614692 0 -0.14438675543477519 0.068171704045393508 0 -0.12942077957145351 0.085038069788139284 0 -0.1264840121928352 0.060370436668891858 0 -0.12942077957145351 0.085038069788139284 0 -0.14438675543477519 0.068171704045393508 0 -0.1264840121928352 0.060370436668891858 0 -0.1264840121928352 0.060370436668891858 0 -0.15151936413408479 0.050037263705516068 0 -0.1264840121928352 0.060370436668891858 0 -0.13540550209822269 0.044494089299669581 0 -0.15151936413408479 0.050037263705516068 0 -0.13540550209822269 0.044494089299669581 0 -0.13569820616105571 0.0274559656783314 0 -0.1231805301904309 0.032622552160018997 0 -0.1264840121928352 0.060370436668891858 0 -0.13540550209822269 0.044494089299669581 0 -0.1231805301904309 0.032622552160018997 0 -0.13540550209822269 0.044494089299669581 0 -0.15151936413408479 0.050037263705516068 0 -0.13569820616105571 0.0274559656783314 0 -0.15151936413408479 0.050037263705516068 0 -0.13569820616105571 0.0274559656783314 0 -0.1505008671867567 0.037566841317044401 0 -0.15151936413408479 0.050037263705516068 0 -0.13569820616105571 0.0274559656783314 0 -0.14438675543477519 0.068171704045393508 0 -0.1264840121928352 0.060370436668891858 0 -0.15151936413408479 0.050037263705516068 0 -0.1629377817967585 0.066334597483444016 0 -0.14438675543477519 0.068171704045393508 0 -0.15151936413408479 0.050037263705516068 0 -0.13185606356650309 -0.00067556194706120819 0 -0.13569820616105571 0.0274559656783314 0 -0.14738187898061639 0.0050318030858907794 0 -0.13185606356650309 -0.00067556194706120819 0 -0.13569820616105571 0.0274559656783314 0 -0.1198770481880274 0.0048746676511459506 0 -0.13569820616105571 0.0274559656783314 0 -0.1198770481880274 0.0048746676511459506 0 -0.1231805301904309 0.032622552160018997 0 -0.13569820616105571 0.0274559656783314 0 -0.1198770481880274 0.0048746676511459506 0 -0.13569820616105571 0.0274559656783314 0 -0.15060995855614631 0.02241728574641896 0 -0.14738187898061639 0.0050318030858907794 0 -0.1505008671867567 0.037566841317044401 0 -0.13569820616105571 0.0274559656783314 0 -0.15060995855614631 0.02241728574641896 0 -0.1505008671867567 0.037566841317044401 0 -0.15060995855614631 0.02241728574641896 0 -0.1638471209340927 0.030256811103577721 0 -0.15060995855614631 0.02241728574641896 0 -0.14738187898061639 0.0050318030858907794 0 -0.16692207894944389 0.0163505253017961 0 -0.1649960424305798 -0.0013444332500506589 0 -0.14738187898061639 0.0050318030858907794 0 -0.16692207894944389 0.0163505253017961 0 -0.1649960424305798 -0.0013444332500506589 0 -0.16692207894944389 0.0163505253017961 0 -0.18032818442133461 0.0030944576768450671 0 -0.15060995855614631 0.02241728574641896 0 -0.16692207894944389 0.0163505253017961 0 -0.1638471209340927 0.030256811103577721 0 -0.16692207894944389 0.0163505253017961 0 -0.1638471209340927 0.030256811103577721 0 -0.17133230510764541 0.02782522840723407 0 -0.1638471209340927 0.030256811103577721 0 -0.17133230510764541 0.02782522840723407 0 -0.1725124119151103 0.034341561794899438 0 -0.16692207894944389 0.0163505253017961 0 -0.1800316899237793 0.02487108689794371 0 -0.18560512429292289 0.01495081800690214 0 -0.17133230510764541 0.02782522840723407 0 -0.1800316899237793 0.02487108689794371 0 -0.17843245883904699 0.032281890290157773 0 -0.1800316899237793 0.02487108689794371 0 -0.1860725478741154 0.033891601434492762 0 -0.1914646236177267 0.023856466445805261 0 -0.1800316899237793 0.02487108689794371 0 -0.17843245883904699 0.032281890290157773 0 -0.1860725478741154 0.033891601434492762 0 -0.1800316899237793 0.02487108689794371 0 -0.18560512429292289 0.01495081800690214 0 -0.1914646236177267 0.023856466445805261 0 -0.16692207894944389 0.0163505253017961 0 -0.17133230510764541 0.02782522840723407 0 -0.1800316899237793 0.02487108689794371 0 -0.16692207894944389 0.0163505253017961 0 -0.18032818442133461 0.0030944576768450671 0 -0.18560512429292289 0.01495081800690214 0 -0.18032818442133461 0.0030944576768450671 0 -0.18560512429292289 0.01495081800690214 0 -0.19646002443729199 0.010368874809047199 0 -0.1629377817967585 0.066334597483444016 0 -0.15151936413408479 0.050037263705516068 0 -0.15151936413408479 0.050037263705516068 0 -0.16927064434858219 0.052689924220596332 0 -0.17150493470249731 0.041788354006137278 0 -0.1629377817967585 0.066334597483444016 0 -0.15151936413408479 0.050037263705516068 0 -0.16927064434858219 0.052689924220596332 0 -0.1629377817967585 0.066334597483444016 0 -0.16927064434858219 0.052689924220596332 0 -0.17636794898810559 0.061295532447953063 0 -0.1505008671867567 0.037566841317044401 0 -0.1638471209340927 0.030256811103577721 0 -0.17150493470249731 0.041788354006137278 0 -0.15151936413408479 0.050037263705516068 0 -0.17150493470249731 0.041788354006137278 0 -0.1505008671867567 0.037566841317044401 0 -0.15151936413408479 0.050037263705516068 0 -0.17150493470249731 0.041788354006137278 0 -0.1505008671867567 0.037566841317044401 0 -0.17150493470249731 0.041788354006137278 0 -0.1638471209340927 0.030256811103577721 0 -0.17150493470249731 0.041788354006137278 0 -0.1725124119151103 0.034341561794899438 0 -0.16927064434858219 0.052689924220596332 0 -0.17150493470249731 0.041788354006137278 0 -0.18820165302404959 0.045144152029916437 0 -0.17150493470249731 0.041788354006137278 0 -0.1770842391304949 0.039485533666116228 0 -0.18820165302404959 0.045144152029916437 0 -0.17150493470249731 0.041788354006137278 0 -0.18820165302404959 0.045144152029916437 0 -0.17150493470249731 0.041788354006137278 0 -0.1770842391304949 0.039485533666116228 0 -0.17133230510764541 0.02782522840723407 0 -0.1725124119151103 0.034341561794899438 0 -0.17843245883904699 0.032281890290157773 0 -0.17150493470249731 0.041788354006137278 0 -0.1770842391304949 0.039485533666116228 0 -0.1725124119151103 0.034341561794899438 0 -0.1770842391304949 0.039485533666116228 0 -0.1725124119151103 0.034341561794899438 0 -0.17843245883904699 0.032281890290157773 0 -0.1770842391304949 0.039485533666116228 0 -0.17843245883904699 0.032281890290157773 0 -0.1860725478741154 0.033891601434492762 0 -0.1770842391304949 0.039485533666116228 0 -0.1860725478741154 0.033891601434492762 0 -0.18820165302404959 0.045144152029916437 0 -0.16927064434858219 0.052689924220596332 0 -0.18820165302404959 0.045144152029916437 0 -0.16927064434858219 0.052689924220596332 0 -0.18190622793906039 0.051612780134154899 0 -0.18820165302404959 0.045144152029916437 0 -0.16927064434858219 0.052689924220596332 0 -0.18190622793906039 0.051612780134154899 0 -0.17636794898810559 0.061295532447953063 0 -0.18190622793906039 0.051612780134154899 0 -0.17636794898810559 0.061295532447953063 0 -0.19158118680766961 0.060331759271752453 0 -0.18190622793906039 0.051612780134154899 0 -0.19989491613592991 0.047494328183497789 0 -0.18190622793906039 0.051612780134154899 0 -0.19158118680766961 0.060331759271752453 0 -0.19989491613592991 0.047494328183497789 0 -0.18190622793906039 0.051612780134154899 0 -0.19989491613592991 0.047494328183497789 0 -0.18820165302404959 0.045144152029916437 0 -0.19158118680766961 0.060331759271752453 0 -0.19989491613592991 0.047494328183497789 0 -0.20633729726509351 0.058888717189835252 0 -0.19989491613592991 0.047494328183497789 0 -0.18820165302404959 0.045144152029916437 0 -0.18820165302404959 0.045144152029916437 0 -0.2078703138999502 0.037304356654530788 0 -0.19989491613592991 0.047494328183497789 0 -0.18820165302404959 0.045144152029916437 0 -0.2078703138999502 0.037304356654530788 0 -0.18820165302404959 0.045144152029916437 0 -0.19520452841866601 0.032883603010058889 0 -0.2078703138999502 0.037304356654530788 0 -0.1860725478741154 0.033891601434492762 0 -0.18820165302404959 0.045144152029916437 0 -0.19520452841866601 0.032883603010058889 0 -0.19520452841866601 0.032883603010058889 0 -0.2078703138999502 0.037304356654530788 0 -0.20147853181091219 0.024439912660298681 0 -0.19989491613592991 0.047494328183497789 0 -0.2078703138999502 0.037304356654530788 0 -0.2219988189266342 0.042433711168556758 0 -0.2078703138999502 0.037304356654530788 0 -0.22753897477585111 0.029464561279145832 0 -0.19989491613592991 0.047494328183497789 0 -0.2219988189266342 0.042433711168556758 0 -0.19989491613592991 0.047494328183497789 0 -0.2166817837017537 0.050868244896827883 0 -0.20633729726509351 0.058888717189835252 0 -0.19989491613592991 0.047494328183497789 0 -0.2166817837017537 0.050868244896827883 0 -0.19989491613592991 0.047494328183497789 0 -0.2166817837017537 0.050868244896827883 0 -0.2219988189266342 0.042433711168556758 0 -0.2166817837017537 0.050868244896827883 0 -0.20633729726509351 0.058888717189835252 0 -0.2210810660443078 0.064842746793794315 0 -0.19159911500729959 -0.0090173167708576182 0 -0.18032818442133461 0.0030944576768450671 0 -0.19646002443729199 0.010368874809047199 0 -0.19159911500729959 -0.0090173167708576182 0 -0.19646002443729199 0.010368874809047199 0 -0.20803845558677481 0.00032958680966351309 0 -0.19646002443729199 0.010368874809047199 0 -0.1914646236177267 0.023856466445805261 0 -0.20147853181091219 0.024439912660298681 0 -0.18560512429292289 0.01495081800690214 0 -0.19646002443729199 0.010368874809047199 0 -0.1914646236177267 0.023856466445805261 0 -0.1860725478741154 0.033891601434492762 0 -0.19520452841866601 0.032883603010058889 0 -0.1914646236177267 0.023856466445805261 0 -0.19520452841866601 0.032883603010058889 0 -0.1914646236177267 0.023856466445805261 0 -0.20147853181091219 0.024439912660298681 0 -0.2078703138999502 0.037304356654530788 0 -0.20147853181091219 0.024439912660298681 0 -0.21190530372136321 0.018834938420848778 0 -0.2078703138999502 0.037304356654530788 0 -0.21190530372136321 0.018834938420848778 0 -0.22753897477585111 0.029464561279145832 0 -0.19646002443729199 0.010368874809047199 0 -0.20147853181091219 0.024439912660298681 0 -0.21190530372136321 0.018834938420848778 0 -0.21190530372136321 0.018834938420848778 0 -0.20803845558677481 0.00032958680966351309 0 -0.22774142163249911 0.0091431922092035378 0 -0.19646002443729199 0.010368874809047199 0 -0.21190530372136321 0.018834938420848778 0 -0.20803845558677481 0.00032958680966351309 0 -0.21190530372136321 0.018834938420848778 0 -0.22774142163249911 0.0091431922092035378 0 -0.22753897477585111 0.029464561279145832 0 -0.22774142163249911 0.0091431922092035378 0 -0.22753897477585111 0.029464561279145832 0 -0.24720763565175199 0.021624765903760879 0 -0.22753897477585111 0.029464561279145832 0 -0.24720763565175199 0.021624765903760879 0 -0.24410272171733879 0.03737309415361658 0 -0.22753897477585111 0.029464561279145832 0 -0.24720763565175199 0.021624765903760879 0 -0.24204198335637811 -0.0026304284190125991 0 -0.25689548211398672 0.003199995621086429 0 -0.24720763565175199 0.021624765903760879 0 -0.24204198335637811 -0.0026304284190125991 0 -0.22774142163249911 0.0091431922092035378 0 -0.24720763565175199 0.021624765903760879 0 -0.2166817837017537 0.050868244896827883 0 -0.2334686512675776 0.05424216161015722 0 -0.2219988189266342 0.042433711168556758 0 -0.2166817837017537 0.050868244896827883 0 -0.2334686512675776 0.05424216161015722 0 -0.2210810660443078 0.064842746793794315 0 -0.2166817837017537 0.050868244896827883 0 -0.2334686512675776 0.05424216161015722 0 -0.2334686512675776 0.05424216161015722 0 -0.2325081494656662 0.065724113807827778 0 -0.2210810660443078 0.064842746793794315 0 -0.2078703138999502 0.037304356654530788 0 -0.22753897477585111 0.029464561279145832 0 -0.2219988189266342 0.042433711168556758 0 -0.2219988189266342 0.042433711168556758 0 -0.24410272171733879 0.03737309415361658 0 -0.2334686512675776 0.05424216161015722 0 -0.2219988189266342 0.042433711168556758 0 -0.24410272171733879 0.03737309415361658 0 -0.22753897477585111 0.029464561279145832 0 -0.2219988189266342 0.042433711168556758 0 -0.24410272171733879 0.03737309415361658 0 -0.2334686512675776 0.05424216161015722 0 -0.24410272171733879 0.03737309415361658 0 -0.24933364105965389 0.052640536924998073 0 -0.2334686512675776 0.05424216161015722 0 -0.24933364105965389 0.052640536924998073 0 -0.24469319669088871 0.067914101683764758 0 -0.24469319669088871 0.067914101683764758 0 -0.24212914814080441 0.085811078060409302 0 -0.23078968385989071 0.075897445143594824 0 -0.24469319669088871 0.067914101683764758 0 -0.2325081494656662 0.065724113807827778 0 -0.23078968385989071 0.075897445143594824 0 -0.2334686512675776 0.05424216161015722 0 -0.24469319669088871 0.067914101683764758 0 -0.2325081494656662 0.065724113807827778 0 -0.25981594507570271 0.084526567999776564 0 -0.24469319669088871 0.067914101683764758 0 -0.24212914814080441 0.085811078060409302 0 -0.24212914814080441 0.085811078060409302 0 -0.22817923825549449 0.087566289575200476 0 -0.2375047018019936 0.099199411743158342 0 -0.22817923825549449 0.087566289575200476 0 -0.23078968385989071 0.075897445143594824 0 -0.2142541068018384 0.080633878400404035 0 -0.22817923825549449 0.087566289575200476 0 -0.2142541068018384 0.080633878400404035 0 -0.21621855067294579 0.096289634528435863 0 -0.24212914814080441 0.085811078060409302 0 -0.22817923825549449 0.087566289575200476 0 -0.23078968385989071 0.075897445143594824 0 -0.23078968385989071 0.075897445143594824 0 -0.2210810660443078 0.064842746793794315 0 -0.2142541068018384 0.080633878400404035 0 -0.2325081494656662 0.065724113807827778 0 -0.23078968385989071 0.075897445143594824 0 -0.2210810660443078 0.064842746793794315 0 -0.20633729726509351 0.058888717189835252 0 -0.2210810660443078 0.064842746793794315 0 -0.2012082283113823 0.071758812537246225 0 -0.2210810660443078 0.064842746793794315 0 -0.2142541068018384 0.080633878400404035 0 -0.2012082283113823 0.071758812537246225 0 -0.2142541068018384 0.080633878400404035 0 -0.19493239954389799 0.093379857313713524 0 -0.2012082283113823 0.071758812537246225 0 -0.2142541068018384 0.080633878400404035 0 -0.19493239954389799 0.093379857313713524 0 -0.21621855067294579 0.096289634528435863 0 -0.19493239954389799 0.093379857313713524 0 -0.2012082283113823 0.071758812537246225 0 -0.18693637196140761 0.082016321396729111 0 -0.19493239954389799 0.093379857313713524 0 -0.2012082283113823 0.071758812537246225 0 -0.18377250220644609 0.070940385137827466 0 -0.18693637196140761 0.082016321396729111 0 -0.2012082283113823 0.071758812537246225 0 -0.18377250220644609 0.070940385137827466 0 -0.19158118680766961 0.060331759271752453 0 -0.2012082283113823 0.071758812537246225 0 -0.19158118680766961 0.060331759271752453 0 -0.20633729726509351 0.058888717189835252 0 -0.2012082283113823 0.071758812537246225 0 -0.18755723103810629 0.1187882701952022 0 -0.20221666213834971 0.10522263983782271 0 -0.2053188066678405 0.1153976304553541 0 -0.18755723103810629 0.1187882701952022 0 -0.2053188066678405 0.1153976304553541 0 -0.20178291573934709 0.12557363762638049 0 -0.19493239954389799 0.093379857313713524 0 -0.18755723103810629 0.1187882701952022 0 -0.20221666213834971 0.10522263983782271 0 -0.18336666747645439 0.1028473276981569 0 -0.19493239954389799 0.093379857313713524 0 -0.18755723103810629 0.1187882701952022 0 -0.19493239954389799 0.093379857313713524 0 -0.18755723103810629 0.1187882701952022 0 -0.19493239954389799 0.093379857313713524 0 -0.20221666213834971 0.10522263983782271 0 -0.21621855067294579 0.096289634528435863 0 -0.20221666213834971 0.10522263983782271 0 -0.21621855067294579 0.096289634528435863 0 -0.2124460490141947 0.10845279723227449 0 -0.19493239954389799 0.093379857313713524 0 -0.21621855067294579 0.096289634528435863 0 -0.21621855067294579 0.096289634528435863 0 -0.2124460490141947 0.10845279723227449 0 -0.22574527832726859 0.1059110419362423 0 -0.2124460490141947 0.10845279723227449 0 -0.2053188066678405 0.1153976304553541 0 -0.2164334215382579 0.1196510783122933 0 -0.20221666213834971 0.10522263983782271 0 -0.2124460490141947 0.10845279723227449 0 -0.2053188066678405 0.1153976304553541 0 -0.2053188066678405 0.1153976304553541 0 -0.20178291573934709 0.12557363762638049 0 -0.21385529765979369 0.1284321363424509 0 -0.2053188066678405 0.1153976304553541 0 -0.21385529765979369 0.1284321363424509 0 -0.2164334215382579 0.1196510783122933 0 -0.21385529765979369 0.1284321363424509 0 -0.2176947166159848 0.12663466427485551 0 -0.2053188066678405 0.1153976304553541 0 -0.2164334215382579 0.1196510783122933 0 -0.21385529765979369 0.1284321363424509 0 -0.2124460490141947 0.10845279723227449 0 -0.2164334215382579 0.1196510783122933 0 -0.2366916232753026 0.1232314731104219 0 -0.22574527832726859 0.1059110419362423 0 -0.2375047018019936 0.099199411743158342 0 -0.2366916232753026 0.1232314731104219 0 -0.2124460490141947 0.10845279723227449 0 -0.22574527832726859 0.1059110419362423 0 -0.2366916232753026 0.1232314731104219 0 -0.2164334215382579 0.1196510783122933 0 -0.2366916232753026 0.1232314731104219 0 -0.2176947166159848 0.12663466427485551 0 -0.2124460490141947 0.10845279723227449 0 -0.2366916232753026 0.1232314731104219 0 -0.21621855067294579 0.096289634528435863 0 -0.2375047018019936 0.099199411743158342 0 -0.22817923825549449 0.087566289575200476 0 -0.21621855067294579 0.096289634528435863 0 -0.2375047018019936 0.099199411743158342 0 -0.21621855067294579 0.096289634528435863 0 -0.22574527832726859 0.1059110419362423 0 -0.2375047018019936 0.099199411743158342 0 -0.2544178763525049 0.11356856211053359 0 -0.25330340275947699 0.097640948961847704 0 -0.2375047018019936 0.099199411743158342 0 -0.25330340275947699 0.097640948961847704 0 -0.24212914814080441 0.085811078060409302 0 -0.2375047018019936 0.099199411743158342 0 -0.2544178763525049 0.11356856211053359 0 -0.2375047018019936 0.099199411743158342 0 -0.2366916232753026 0.1232314731104219 0 -0.26093719753641031 0.1380101489885692 0 -0.2366916232753026 0.1232314731104219 0 -0.2366916232753026 0.1232314731104219 0 -0.22733516676089191 0.13360237557008869 0 -0.24107654509340781 0.14443116564150069 0 -0.26093719753641031 0.1380101489885692 0 -0.2366916232753026 0.1232314731104219 0 -0.24107654509340781 0.14443116564150069 0 -0.22733516676089191 0.13360237557008869 0 -0.2249487685541425 0.14537093611593649 0 -0.21385529765979369 0.1284321363424509 0 -0.2366916232753026 0.1232314731104219 0 -0.22733516676089191 0.13360237557008869 0 -0.2176947166159848 0.12663466427485551 0 -0.2249487685541425 0.14537093611593649 0 -0.21385529765979369 0.1284321363424509 0 -0.22733516676089191 0.13360237557008869 0 -0.21385529765979369 0.1284321363424509 0 -0.2176947166159848 0.12663466427485551 0 -0.2249487685541425 0.14537093611593649 0 -0.23604223944849481 0.1623097358894198 0 -0.21390541875519839 0.16072373816820359 0 -0.2249487685541425 0.14537093611593649 0 -0.23604223944849481 0.1623097358894198 0 -0.22733516676089191 0.13360237557008869 0 -0.2249487685541425 0.14537093611593649 0 -0.24107654509340781 0.14443116564150069 0 -0.2249487685541425 0.14537093611593649 0 -0.24107654509340781 0.14443116564150069 0 -0.23604223944849481 0.1623097358894198 0 -0.26050427498520512 0.16406232417456759 0 -0.23604223944849481 0.1623097358894198 0 -0.24486444091635681 0.17578049771397569 0 -0.26050427498520512 0.16406232417456759 0 -0.24107654509340781 0.14443116564150069 0 -0.23604223944849481 0.1623097358894198 0 -0.26050427498520512 0.16406232417456759 0 -0.23604223944849481 0.1623097358894198 0 -0.23604223944849481 0.1623097358894198 0 -0.24486444091635681 0.17578049771397569 0 -0.24486444091635681 0.17578049771397569 0 -0.23753750070102669 0.18567915983292901 0 -0.22548960956100689 0.17884508565070029 0 -0.23604223944849481 0.1623097358894198 0 -0.24486444091635681 0.17578049771397569 0 -0.22548960956100689 0.17884508565070029 0 -0.25040908159511338 0.19002132091412399 0 -0.25368664238421901 0.1892512595385317 0 -0.24486444091635681 0.17578049771397569 0 -0.25040908159511338 0.19002132091412399 0 -0.24486444091635681 0.17578049771397569 0 -0.23753750070102669 0.18567915983292901 0 -0.25368664238421901 0.1892512595385317 0 -0.24486444091635681 0.17578049771397569 0 -0.23604223944849481 0.1623097358894198 0 -0.21390541875519839 0.16072373816820359 0 -0.23604223944849481 0.1623097358894198 0 -0.22548960956100689 0.17884508565070029 0 -0.21390541875519839 0.16072373816820359 0 -0.22548960956100689 0.17884508565070029 0 -0.21390541875519839 0.16072373816820359 0 -0.2091040012156499 0.17603166184079819 0 -0.21390541875519839 0.16072373816820359 0 -0.2091040012156499 0.17603166184079819 0 -0.19385650484948749 0.17200995872584879 0 -0.22548960956100689 0.17884508565070029 0 -0.2091040012156499 0.17603166184079819 0 -0.2031644716969071 0.19254786481844019 0 -0.2091040012156499 0.17603166184079819 0 -0.19385650484948749 0.17200995872584879 0 -0.2031644716969071 0.19254786481844019 0 -0.19385650484948749 0.17200995872584879 0 -0.2031644716969071 0.19254786481844019 0 -0.17694207266218409 0.18702599458396441 0 -0.19385650484948749 0.17200995872584879 0 -0.19585397011672151 0.15389655117828871 0 -0.18574706332191321 0.15967831511863309 0 -0.21390541875519839 0.16072373816820359 0 -0.19385650484948749 0.17200995872584879 0 -0.19585397011672151 0.15389655117828871 0 -0.19585397011672151 0.15389655117828871 0 -0.197018680096053 0.13631440970957021 0 -0.20911642703638181 0.1449475543028898 0 -0.19585397011672151 0.15389655117828871 0 -0.197018680096053 0.13631440970957021 0 -0.18018206253231289 0.1441966830766904 0 -0.197018680096053 0.13631440970957021 0 -0.18018206253231289 0.1441966830766904 0 -0.18755723103810629 0.1187882701952022 0 -0.197018680096053 0.13631440970957021 0 -0.20178291573934709 0.12557363762638049 0 -0.18755723103810629 0.1187882701952022 0 -0.197018680096053 0.13631440970957021 0 -0.18018206253231289 0.1441966830766904 0 -0.197018680096053 0.13631440970957021 0 -0.21385529765979369 0.1284321363424509 0 -0.20911642703638181 0.1449475543028898 0 -0.2249487685541425 0.14537093611593649 0 -0.21385529765979369 0.1284321363424509 0 -0.20911642703638181 0.1449475543028898 0 -0.197018680096053 0.13631440970957021 0 -0.20178291573934709 0.12557363762638049 0 -0.21385529765979369 0.1284321363424509 0 -0.197018680096053 0.13631440970957021 0 -0.21385529765979369 0.1284321363424509 0 -0.21385529765979369 0.1284321363424509 0 -0.2176947166159848 0.12663466427485551 0 -0.2249487685541425 0.14537093611593649 0 -0.21390541875519839 0.16072373816820359 0 -0.20911642703638181 0.1449475543028898 0 -0.21390541875519839 0.16072373816820359 0 -0.19585397011672151 0.15389655117828871 0 -0.20911642703638181 0.1449475543028898 0 -0.2301111411242979 0.25415493550153279 0 -0.2211268732449827 0.23855303841785169 0 -0.23724109263810569 0.2413784172703988 0 -0.2211268732449827 0.23855303841785169 0 -0.23724109263810569 0.2413784172703988 0 -0.23148167364494229 0.2243439681048032 0 -0.2421275510198525 0.25237273480976591 0 -0.2301111411242979 0.25415493550153279 0 -0.23724109263810569 0.2413784172703988 0 -0.24910725770640421 0.24333336453792839 0 -0.24849444054537431 0.23939689821525401 0 -0.23148167364494229 0.2243439681048032 0 -0.24910725770640421 0.24333336453792839 0 -0.23724109263810569 0.2413784172703988 0 -0.23148167364494229 0.2243439681048032 0 -0.2421275510198525 0.25237273480976591 0 -0.2437377899215383 0.24645675733694411 0 -0.23724109263810569 0.2413784172703988 0 -0.25189002896290491 0.25449239892481551 0 -0.24910725770640421 0.24333336453792839 0 -0.24647525832179051 0.24874251272968301 0 -0.2421275510198525 0.25237273480976591 0 -0.2437377899215383 0.24645675733694411 0 -0.24647525832179051 0.24874251272968301 0 -0.2437377899215383 0.24645675733694411 0 -0.24910725770640421 0.24333336453792839 0 -0.23724109263810569 0.2413784172703988 0 -0.2437377899215383 0.24645675733694411 0 -0.24910725770640421 0.24333336453792839 0 -0.24647525832179051 0.24874251272968301 0 -0.24910725770640421 0.24333336453792839 0 -0.23148167364494229 0.2243439681048032 0 -0.24849444054537431 0.23939689821525401 0 -0.24644648607505501 0.2281382003786194 0 -0.23148167364494229 0.2243439681048032 0 -0.25087712384573357 0.23287003298724779 0 -0.24849444054537431 0.23939689821525401 0 -0.24644648607505501 0.2281382003786194 0 -0.2551855299144159 0.22331770328677139 0 -0.24644648607505501 0.2281382003786194 0 -0.24648494098598731 0.22005601514351311 0 -0.24644648607505501 0.2281382003786194 0 -0.24648494098598731 0.22005601514351311 0 -0.23148167364494229 0.2243439681048032 0 -0.24648494098598731 0.22005601514351311 0 -0.23148167364494229 0.2243439681048032 0 -0.24220639204310829 0.21241091466391429 0 -0.2211268732449827 0.23855303841785169 0 -0.23148167364494229 0.2243439681048032 0 -0.2096890598852971 0.22645567209992271 0 -0.23148167364494229 0.2243439681048032 0 -0.24220639204310829 0.21241091466391429 0 -0.22938687073163011 0.19806973505291611 0 -0.23148167364494229 0.2243439681048032 0 -0.22938687073163011 0.19806973505291611 0 -0.21385608958348051 0.205354571671678 0 -0.23148167364494229 0.2243439681048032 0 -0.21385608958348051 0.205354571671678 0 -0.25560926976635312 0.2035916052873919 0 -0.24220639204310829 0.21241091466391429 0 -0.22938687073163011 0.19806973505291611 0 -0.25194739826678658 0.21444461515785401 0 -0.24648494098598731 0.22005601514351311 0 -0.24220639204310829 0.21241091466391429 0 -0.25560926976635312 0.2035916052873919 0 -0.25194739826678658 0.21444461515785401 0 -0.24220639204310829 0.21241091466391429 0 -0.25560926976635312 0.2035916052873919 0 -0.22938687073163011 0.19806973505291611 0 -0.25040908159511338 0.19002132091412399 0 -0.25560926976635312 0.2035916052873919 0 -0.22938687073163011 0.19806973505291611 0 -0.25040908159511338 0.19002132091412399 0 -0.23753750070102669 0.18567915983292901 0 -0.22938687073163011 0.19806973505291611 0 -0.22548960956100689 0.17884508565070029 0 -0.22938687073163011 0.19806973505291611 0 -0.2031644716969071 0.19254786481844019 0 -0.23753750070102669 0.18567915983292901 0 -0.22548960956100689 0.17884508565070029 0 -0.22938687073163011 0.19806973505291611 0 -0.22938687073163011 0.19806973505291611 0 -0.2031644716969071 0.19254786481844019 0 -0.22938687073163011 0.19806973505291611 0 -0.2031644716969071 0.19254786481844019 0 -0.21385608958348051 0.205354571671678 0 -0.2031644716969071 0.19254786481844019 0 -0.18840077067227279 0.21060566949577519 0 -0.18006453853965479 0.20072848008268049 0 -0.2031644716969071 0.19254786481844019 0 -0.17694207266218409 0.18702599458396441 0 -0.2031644716969071 0.19254786481844019 0 -0.18840077067227279 0.21060566949577519 0 -0.2015521814153737 0.21423496883757689 0 -0.18840077067227279 0.21060566949577519 0 -0.2015521814153737 0.21423496883757689 0 -0.18992993224098259 0.22972679055160791 0 -0.2015521814153737 0.21423496883757689 0 -0.21385608958348051 0.205354571671678 0 -0.2096890598852971 0.22645567209992271 0 -0.2031644716969071 0.19254786481844019 0 -0.2015521814153737 0.21423496883757689 0 -0.21385608958348051 0.205354571671678 0 -0.23148167364494229 0.2243439681048032 0 -0.21385608958348051 0.205354571671678 0 -0.2096890598852971 0.22645567209992271 0 -0.2015521814153737 0.21423496883757689 0 -0.2096890598852971 0.22645567209992271 0 -0.18992993224098259 0.22972679055160791 0 -0.2096890598852971 0.22645567209992271 0 -0.18992993224098259 0.22972679055160791 0 -0.20129010394299149 0.24443847017185061 0 -0.1851657792507185 0.25669063751337651 0 -0.18992993224098259 0.22972679055160791 0 -0.20129010394299149 0.24443847017185061 0 -0.2211268732449827 0.23855303841785169 0 -0.2096890598852971 0.22645567209992271 0 -0.20129010394299149 0.24443847017185061 0 -0.21119725768121819 0.26093741649149621 0 -0.2211268732449827 0.23855303841785169 0 -0.20129010394299149 0.24443847017185061 0 -0.16508023407272601 0.2503971719826491 0 -0.17279815632456749 0.23631497207366761 0 -0.1567165694290184 0.23384928764448071 0 -0.1851657792507185 0.25669063751337651 0 -0.16508023407272601 0.2503971719826491 0 -0.17279815632456749 0.23631497207366761 0 -0.1851657792507185 0.25669063751337651 0 -0.18992993224098259 0.22972679055160791 0 -0.17279815632456749 0.23631497207366761 0 -0.18840077067227279 0.21060566949577519 0 -0.18992993224098259 0.22972679055160791 0 -0.17277557151159259 0.2176558552608501 0 -0.18992993224098259 0.22972679055160791 0 -0.17279815632456749 0.23631497207366761 0 -0.17277557151159259 0.2176558552608501 0 -0.17279815632456749 0.23631497207366761 0 -0.1567165694290184 0.23384928764448071 0 -0.17277557151159259 0.2176558552608501 0 -0.1567165694290184 0.23384928764448071 0 -0.17277557151159259 0.2176558552608501 0 -0.15521239238782769 0.21264255673032839 0 -0.17277557151159259 0.2176558552608501 0 -0.16593946754401381 0.20091814484858159 0 -0.15521239238782769 0.21264255673032839 0 -0.16593946754401381 0.20091814484858159 0 -0.15086180338488411 0.197017249721395 0 -0.15521239238782769 0.21264255673032839 0 -0.18840077067227279 0.21060566949577519 0 -0.17277557151159259 0.2176558552608501 0 -0.18006453853965479 0.20072848008268049 0 -0.17277557151159259 0.2176558552608501 0 -0.18006453853965479 0.20072848008268049 0 -0.16593946754401381 0.20091814484858159 0 -0.18006453853965479 0.20072848008268049 0 -0.16593946754401381 0.20091814484858159 0 -0.17694207266218409 0.18702599458396441 0 -0.2031644716969071 0.19254786481844019 0 -0.18006453853965479 0.20072848008268049 0 -0.17694207266218409 0.18702599458396441 0 -0.16593946754401381 0.20091814484858159 0 -0.17694207266218409 0.18702599458396441 0 -0.15071967362746111 0.18150412434948859 0 -0.16593946754401381 0.20091814484858159 0 -0.14797985587835569 0.18429935568846501 0 -0.16593946754401381 0.20091814484858159 0 -0.15071967362746111 0.18150412434948859 0 -0.14797985587835569 0.18429935568846501 0 -0.16593946754401381 0.20091814484858159 0 -0.15086180338488411 0.197017249721395 0 -0.14797985587835569 0.18429935568846501 0 -0.15086180338488411 0.197017249721395 0 -0.14095724251835079 0.19506066561827909 0 -0.14358266883931489 0.20598332813153819 0 -0.15086180338488411 0.197017249721395 0 -0.1444653831257941 0.1908007686240322 0 -0.14797985587835569 0.18429935568846501 0 -0.1444653831257941 0.1908007686240322 0 -0.14095724251835079 0.19506066561827909 0 -0.138062630721586 0.1868258034679898 0 -0.15086180338488411 0.197017249721395 0 -0.1444653831257941 0.1908007686240322 0 -0.14095724251835079 0.19506066561827909 0 -0.1321566566813264 0.19194401940894201 0 -0.138062630721586 0.1868258034679898 0 -0.1307034668706763 0.18407484815258299 0 -0.14095724251835079 0.19506066561827909 0 -0.1321566566813264 0.19194401940894201 0 -0.138062630721586 0.1868258034679898 0 -0.1256413879108996 0.18801686022701089 0 -0.1321566566813264 0.19194401940894201 0 -0.1307034668706763 0.18407484815258299 0 -0.1256413879108996 0.18801686022701089 0 -0.1321566566813264 0.19194401940894201 0 -0.12438280521313259 0.19722518639459599 0 -0.1321566566813264 0.19194401940894201 0 -0.13449915591114101 0.2001302349884008 0 -0.12438280521313259 0.19722518639459599 0 -0.13449915591114101 0.2001302349884008 0 -0.13141640630358059 0.21043797538864861 0 -0.12438280521313259 0.19722518639459599 0 -0.14095724251835079 0.19506066561827909 0 -0.13449915591114101 0.2001302349884008 0 -0.14358266883931489 0.20598332813153819 0 -0.14095724251835079 0.19506066561827909 0 -0.1321566566813264 0.19194401940894201 0 -0.13449915591114101 0.2001302349884008 0 -0.13141640630358059 0.21043797538864861 0 -0.14139827361814231 0.22043147477512451 0 -0.1247431951047857 0.22181007279510051 0 -0.13449915591114101 0.2001302349884008 0 -0.13141640630358059 0.21043797538864861 0 -0.14358266883931489 0.20598332813153819 0 -0.13141640630358059 0.21043797538864861 0 -0.1197300091643143 0.20799343972127399 0 -0.12438280521313259 0.19722518639459599 0 -0.13141640630358059 0.21043797538864861 0 -0.1247431951047857 0.22181007279510051 0 -0.1197300091643143 0.20799343972127399 0 -0.13141640630358059 0.21043797538864861 0 -0.14358266883931489 0.20598332813153819 0 -0.14139827361814231 0.22043147477512451 0 -0.15086180338488411 0.197017249721395 0 -0.14358266883931489 0.20598332813153819 0 -0.15521239238782769 0.21264255673032839 0 -0.14358266883931489 0.20598332813153819 0 -0.15521239238782769 0.21264255673032839 0 -0.14139827361814231 0.22043147477512451 0 -0.1567165694290184 0.23384928764448071 0 -0.15521239238782769 0.21264255673032839 0 -0.14139827361814231 0.22043147477512451 0 -0.1567165694290184 0.23384928764448071 0 -0.14139827361814231 0.22043147477512451 0 -0.1342627396718909 0.23722222839544871 0 -0.14139827361814231 0.22043147477512451 0 -0.1342627396718909 0.23722222839544871 0 -0.1247431951047857 0.22181007279510051 0 -0.1463982144264159 0.25542208648772902 0 -0.1229484984770164 0.25473045748778822 0 -0.1342627396718909 0.23722222839544871 0 -0.16508023407272601 0.2503971719826491 0 -0.1463982144264159 0.25542208648772902 0 -0.1567165694290184 0.23384928764448071 0 -0.1463982144264159 0.25542208648772902 0 -0.1567165694290184 0.23384928764448071 0 -0.1342627396718909 0.23722222839544871 0 -0.16168793893571501 0.13363190607640579 0 -0.18018206253231289 0.1441966830766904 0 -0.15510115337250571 0.15593862480251811 0 -0.18018206253231289 0.1441966830766904 0 -0.15510115337250571 0.15593862480251811 0 -0.18018206253231289 0.1441966830766904 0 -0.1730957157891311 0.16861006749370491 0 -0.15510115337250571 0.15593862480251811 0 -0.1722804927875963 0.1236711358984869 0 -0.16168793893571501 0.13363190607640579 0 -0.18018206253231289 0.1441966830766904 0 -0.18755723103810629 0.1187882701952022 0 -0.18018206253231289 0.1441966830766904 0 -0.1722804927875963 0.1236711358984869 0 -0.18755723103810629 0.1187882701952022 0 -0.18018206253231289 0.1441966830766904 0 -0.19585397011672151 0.15389655117828871 0 -0.18018206253231289 0.1441966830766904 0 -0.18574706332191321 0.15967831511863309 0 -0.18018206253231289 0.1441966830766904 0 -0.1730957157891311 0.16861006749370491 0 -0.19385650484948749 0.17200995872584879 0 -0.18574706332191321 0.15967831511863309 0 -0.1730957157891311 0.16861006749370491 0 -0.18018206253231289 0.1441966830766904 0 -0.18574706332191321 0.15967831511863309 0 -0.1730957157891311 0.16861006749370491 0 -0.19385650484948749 0.17200995872584879 0 -0.1730957157891311 0.16861006749370491 0 -0.17694207266218409 0.18702599458396441 0 -0.1730957157891311 0.16861006749370491 0 -0.17694207266218409 0.18702599458396441 0 -0.16469702239284059 0.17698887626648879 0 -0.17694207266218409 0.18702599458396441 0 -0.15071967362746111 0.18150412434948859 0 -0.17694207266218409 0.18702599458396441 0 -0.16469702239284059 0.17698887626648879 0 -0.15071967362746111 0.18150412434948859 0 -0.1730957157891311 0.16861006749370491 0 -0.16469702239284059 0.17698887626648879 0 -0.15803062749258609 0.17081531863879729 0 -0.16469702239284059 0.17698887626648879 0 -0.15803062749258609 0.17081531863879729 0 -0.15071967362746111 0.18150412434948859 0 -0.1730957157891311 0.16861006749370491 0 -0.15803062749258609 0.17081531863879729 0 -0.15510115337250571 0.15593862480251811 0 -0.14837031091672129 0.1720475980015235 0 -0.130020244212699 0.16768056652834701 0 -0.15510115337250571 0.15593862480251811 0 -0.130020244212699 0.16768056652834701 0 -0.15510115337250571 0.15593862480251811 0 -0.15803062749258609 0.17081531863879729 0 -0.14837031091672129 0.1720475980015235 0 -0.15510115337250571 0.15593862480251811 0 -0.14837031091672129 0.1720475980015235 0 -0.14797985587835569 0.18429935568846501 0 -0.130020244212699 0.16768056652834701 0 -0.15071967362746111 0.18150412434948859 0 -0.14837031091672129 0.1720475980015235 0 -0.14797985587835569 0.18429935568846501 0 -0.15803062749258609 0.17081531863879729 0 -0.15071967362746111 0.18150412434948859 0 -0.14837031091672129 0.1720475980015235 0 -0.1444653831257941 0.1908007686240322 0 -0.14797985587835569 0.18429935568846501 0 -0.138062630721586 0.1868258034679898 0 -0.14797985587835569 0.18429935568846501 0 -0.138062630721586 0.1868258034679898 0 -0.13224720832892789 0.1789980723507133 0 -0.14797985587835569 0.18429935568846501 0 -0.130020244212699 0.16768056652834701 0 -0.14797985587835569 0.18429935568846501 0 -0.13224720832892789 0.1789980723507133 0 -0.130020244212699 0.16768056652834701 0 -0.138062630721586 0.1868258034679898 0 -0.13224720832892789 0.1789980723507133 0 -0.1307034668706763 0.18407484815258299 0 -0.13224720832892789 0.1789980723507133 0 -0.130020244212699 0.16768056652834701 0 -0.1227869846444497 0.1710669075814959 0 -0.13224720832892789 0.1789980723507133 0 -0.1227869846444497 0.1710669075814959 0 -0.1239300676458021 0.18004095268539769 0 -0.1256413879108996 0.18801686022701089 0 -0.1307034668706763 0.18407484815258299 0 -0.1239300676458021 0.18004095268539769 0 -0.13224720832892789 0.1789980723507133 0 -0.1307034668706763 0.18407484815258299 0 -0.1239300676458021 0.18004095268539769 0 -0.130020244212699 0.16768056652834701 0 -0.13242994380218259 0.15373774299016249 0 -0.11549525018138231 0.1542399745015198 0 -0.130020244212699 0.16768056652834701 0 -0.13242994380218259 0.15373774299016249 0 -0.15510115337250571 0.15593862480251811 0 -0.130020244212699 0.16768056652834701 0 -0.1227869846444497 0.1710669075814959 0 -0.13242994380218259 0.15373774299016249 0 -0.13845814135160239 0.14420053671679939 0 -0.1230749298927247 0.14662901240162679 0 -0.13845814135160239 0.14420053671679939 0 -0.1289933577416332 0.1338530598272632 0 -0.1230749298927247 0.14662901240162679 0 -0.16168793893571501 0.13363190607640579 0 -0.15510115337250571 0.15593862480251811 0 -0.1499877289596408 0.14109527061909519 0 -0.13845814135160239 0.14420053671679939 0 -0.15510115337250571 0.15593862480251811 0 -0.1499877289596408 0.14109527061909519 0 -0.13242994380218259 0.15373774299016249 0 -0.13845814135160239 0.14420053671679939 0 -0.15510115337250571 0.15593862480251811 0 -0.1447548866879228 0.118053399692452 0 -0.16168793893571501 0.13363190607640579 0 -0.14228202619971811 0.1321705647724411 0 -0.16168793893571501 0.13363190607640579 0 -0.1499877289596408 0.14109527061909519 0 -0.14228202619971811 0.1321705647724411 0 -0.13845814135160239 0.14420053671679939 0 -0.1499877289596408 0.14109527061909519 0 -0.14228202619971811 0.1321705647724411 0 -0.13236593884934869 0.1227556925435045 0 -0.14228202619971811 0.1321705647724411 0 -0.1289933577416332 0.1338530598272632 0 -0.13845814135160239 0.14420053671679939 0 -0.14228202619971811 0.1321705647724411 0 -0.1289933577416332 0.1338530598272632 0 -0.13236593884934869 0.1227556925435045 0 -0.1289933577416332 0.1338530598272632 0 -0.1226897624986597 0.12539343477150269 0 -0.1226897624986597 0.12539343477150269 0 -0.1152536090092534 0.13206572188154569 0 -0.1136571652217252 0.1239512688879001 0 -0.1289933577416332 0.1338530598272632 0 -0.1226897624986597 0.12539343477150269 0 -0.1152536090092534 0.13206572188154569 0 -0.1152536090092534 0.13206572188154569 0 -0.1009702561500668 0.14079938247469129 0 -0.1230749298927247 0.14662901240162679 0 -0.1289933577416332 0.1338530598272632 0 -0.1152536090092534 0.13206572188154569 0 -0.1230749298927247 0.14662901240162679 0 -0.1152536090092534 0.13206572188154569 0 -0.10338777755055879 0.12891511785121579 0 -0.1136571652217252 0.1239512688879001 0 -0.1152536090092534 0.13206572188154569 0 -0.10338777755055879 0.12891511785121579 0 -0.1009702561500668 0.14079938247469129 0 -0.10338777755055879 0.12891511785121579 0 -0.1009702561500668 0.14079938247469129 0 -0.088350901227011294 0.12912215900755139 0 -0.1009702561500668 0.14079938247469129 0 -0.088350901227011294 0.12912215900755139 0 -0.1009702561500668 0.14079938247469129 0 -0.11549525018138231 0.1542399745015198 0 -0.1025608812977882 0.1572093897729204 0 -0.1009702561500668 0.14079938247469129 0 -0.1025608812977882 0.1572093897729204 0 -0.093380768344670129 0.15193623913744531 0 -0.1009702561500668 0.14079938247469129 0 -0.11549525018138231 0.1542399745015198 0 -0.1009702561500668 0.14079938247469129 0 -0.11549525018138231 0.1542399745015198 0 -0.1230749298927247 0.14662901240162679 0 -0.1009702561500668 0.14079938247469129 0 -0.1230749298927247 0.14662901240162679 0 -0.13242994380218259 0.15373774299016249 0 -0.11549525018138231 0.1542399745015198 0 -0.1230749298927247 0.14662901240162679 0 -0.130020244212699 0.16768056652834701 0 -0.11549525018138231 0.1542399745015198 0 -0.1149673232880363 0.16612553299397451 0 -0.130020244212699 0.16768056652834701 0 -0.11549525018138231 0.1542399745015198 0 -0.130020244212699 0.16768056652834701 0 -0.1227869846444497 0.1710669075814959 0 -0.1149673232880363 0.16612553299397451 0 -0.1227869846444497 0.1710669075814959 0 -0.1149673232880363 0.16612553299397451 0 -0.1143979092761236 0.1761448962677882 0 -0.1149673232880363 0.16612553299397451 0 -0.1143979092761236 0.1761448962677882 0 -0.1045426701157767 0.1704114633117747 0 -0.11549525018138231 0.1542399745015198 0 -0.1149673232880363 0.16612553299397451 0 -0.1025608812977882 0.1572093897729204 0 -0.1256413879108996 0.18801686022701089 0 -0.1239300676458021 0.18004095268539769 0 -0.1171851880269027 0.18697700193394309 0 -0.1239300676458021 0.18004095268539769 0 -0.1143979092761236 0.1761448962677882 0 -0.1171851880269027 0.18697700193394309 0 -0.1227869846444497 0.1710669075814959 0 -0.1239300676458021 0.18004095268539769 0 -0.1143979092761236 0.1761448962677882 0 -0.1143979092761236 0.1761448962677882 0 -0.1171851880269027 0.18697700193394309 0 -0.1033469778200914 0.18518873627911081 0 -0.1033469778200914 0.18518873627911081 0 -0.094953850768773371 0.175944516791499 0 -0.086584677036272428 0.18724973312333379 0 -0.1143979092761236 0.1761448962677882 0 -0.1033469778200914 0.18518873627911081 0 -0.1045426701157767 0.1704114633117747 0 -0.1033469778200914 0.18518873627911081 0 -0.094953850768773371 0.175944516791499 0 -0.1045426701157767 0.1704114633117747 0 -0.1149673232880363 0.16612553299397451 0 -0.1025608812977882 0.1572093897729204 0 -0.1045426701157767 0.1704114633117747 0 -0.094953850768773371 0.175944516791499 0 -0.1045426701157767 0.1704114633117747 0 -0.092579719344545897 0.1630625406642113 0 -0.1025608812977882 0.1572093897729204 0 -0.1045426701157767 0.1704114633117747 0 -0.092579719344545897 0.1630625406642113 0 -0.1025608812977882 0.1572093897729204 0 -0.092579719344545897 0.1630625406642113 0 -0.093380768344670129 0.15193623913744531 0 -0.092579719344545897 0.1630625406642113 0 -0.093380768344670129 0.15193623913744531 0 -0.0842753749488976 0.15388503430764691 0 -0.094953850768773371 0.175944516791499 0 -0.092579719344545897 0.1630625406642113 0 -0.081647858788768526 0.17362272492369191 0 -0.092579719344545897 0.1630625406642113 0 -0.079444554502352382 0.16287948183407289 0 -0.081647858788768526 0.17362272492369191 0 -0.079444554502352382 0.16287948183407289 0 -0.073617748207498418 0.15344055641859769 0 -0.0842753749488976 0.15388503430764691 0 -0.092579719344545897 0.1630625406642113 0 -0.079444554502352382 0.16287948183407289 0 -0.0842753749488976 0.15388503430764691 0 -0.094953850768773371 0.175944516791499 0 -0.086584677036272428 0.18724973312333379 0 -0.081647858788768526 0.17362272492369191 0 -0.086584677036272428 0.18724973312333379 0 -0.081647858788768526 0.17362272492369191 0 -0.072383842375982055 0.18433851894818901 0 -0.072383842375982055 0.18433851894818901 0 -0.066172409846778357 0.17006442652514361 0 -0.058423781123243847 0.18760160827679159 0 -0.081647858788768526 0.17362272492369191 0 -0.072383842375982055 0.18433851894818901 0 -0.066172409846778357 0.17006442652514361 0 -0.066172409846778357 0.17006442652514361 0 -0.073617748207498418 0.15344055641859769 0 -0.06196064398319158 0.149965887783337 0 -0.079444554502352382 0.16287948183407289 0 -0.066172409846778357 0.17006442652514361 0 -0.073617748207498418 0.15344055641859769 0 -0.079444554502352382 0.16287948183407289 0 -0.081647858788768526 0.17362272492369191 0 -0.066172409846778357 0.17006442652514361 0 -0.073617748207498418 0.15344055641859769 0 -0.073677981966104811 0.1444999338094288 0 -0.06196064398319158 0.149965887783337 0 -0.073617748207498418 0.15344055641859769 0 -0.073677981966104811 0.1444999338094288 0 -0.079499992516227538 0.1477365728628873 0 -0.073677981966104811 0.1444999338094288 0 -0.079499992516227538 0.1477365728628873 0 -0.080032976524560956 0.14135874802710191 0 -0.073677981966104811 0.1444999338094288 0 -0.066647537532865619 0.13982830447334749 0 -0.06196064398319158 0.149965887783337 0 -0.078884679737439539 0.13497478905578231 0 -0.075731546303957176 0.11744493554040999 0 -0.066647537532865619 0.13982830447334749 0 -0.078884679737439539 0.13497478905578231 0 -0.049835746967114507 0.12731376090422539 0 -0.078884679737439539 0.13497478905578231 0 -0.049835746967114507 0.12731376090422539 0 -0.075731546303957176 0.11744493554040999 0 -0.078884679737439539 0.13497478905578231 0 -0.049835746967114507 0.12731376090422539 0 -0.073677981966104811 0.1444999338094288 0 -0.066647537532865619 0.13982830447334749 0 -0.078884679737439539 0.13497478905578231 0 -0.073677981966104811 0.1444999338094288 0 -0.078884679737439539 0.13497478905578231 0 -0.080032976524560956 0.14135874802710191 0 -0.078884679737439539 0.13497478905578231 0 -0.080032976524560956 0.14135874802710191 0 -0.1009702561500668 0.14079938247469129 0 -0.078884679737439539 0.13497478905578231 0 -0.078884679737439539 0.13497478905578231 0 -0.088350901227011294 0.12912215900755139 0 -0.075731546303957176 0.11744493554040999 0 -0.1009702561500668 0.14079938247469129 0 -0.078884679737439539 0.13497478905578231 0 -0.088350901227011294 0.12912215900755139 0 -0.1009702561500668 0.14079938247469129 0 -0.078884679737439539 0.13497478905578231 0 -0.086517609982052018 0.14472484846775649 0 -0.078884679737439539 0.13497478905578231 0 -0.086517609982052018 0.14472484846775649 0 -0.080032976524560956 0.14135874802710191 0 -0.1009702561500668 0.14079938247469129 0 -0.086517609982052018 0.14472484846775649 0 -0.093380768344670129 0.15193623913744531 0 -0.086517609982052018 0.14472484846775649 0 -0.093380768344670129 0.15193623913744531 0 -0.0842753749488976 0.15388503430764691 0 -0.086517609982052018 0.14472484846775649 0 -0.0842753749488976 0.15388503430764691 0 -0.079499992516227538 0.1477365728628873 0 -0.073617748207498418 0.15344055641859769 0 -0.0842753749488976 0.15388503430764691 0 -0.079499992516227538 0.1477365728628873 0 -0.086517609982052018 0.14472484846775649 0 -0.079499992516227538 0.1477365728628873 0 -0.080032976524560956 0.14135874802710191 0 -0.099646555744896198 0.25564887823787741 0 -0.1103912165899647 0.23508889061443691 0 -0.089800741290963951 0.23837093591206529 0 -0.1229484984770164 0.25473045748778822 0 -0.1342627396718909 0.23722222839544871 0 -0.1103912165899647 0.23508889061443691 0 -0.099646555744896198 0.25564887823787741 0 -0.1229484984770164 0.25473045748778822 0 -0.1103912165899647 0.23508889061443691 0 -0.1342627396718909 0.23722222839544871 0 -0.1103912165899647 0.23508889061443691 0 -0.1247431951047857 0.22181007279510051 0 -0.1103912165899647 0.23508889061443691 0 -0.1247431951047857 0.22181007279510051 0 -0.10654412843109889 0.2124129981583367 0 -0.1103912165899647 0.23508889061443691 0 -0.10654412843109889 0.2124129981583367 0 -0.092245081658107075 0.22190386767475981 0 -0.1103912165899647 0.23508889061443691 0 -0.092245081658107075 0.22190386767475981 0 -0.089800741290963951 0.23837093591206529 0 -0.10654412843109889 0.2124129981583367 0 -0.087230585174399439 0.20491522111974159 0 -0.092245081658107075 0.22190386767475981 0 -0.10654412843109889 0.2124129981583367 0 -0.099053975846167139 0.19756953091004231 0 -0.087230585174399439 0.20491522111974159 0 -0.1247431951047857 0.22181007279510051 0 -0.10654412843109889 0.2124129981583367 0 -0.1197300091643143 0.20799343972127399 0 -0.10654412843109889 0.2124129981583367 0 -0.1197300091643143 0.20799343972127399 0 -0.1115635107689735 0.1980809658696884 0 -0.1197300091643143 0.20799343972127399 0 -0.1115635107689735 0.1980809658696884 0 -0.12438280521313259 0.19722518639459599 0 -0.1171851880269027 0.18697700193394309 0 -0.1115635107689735 0.1980809658696884 0 -0.12438280521313259 0.19722518639459599 0 -0.1256413879108996 0.18801686022701089 0 -0.1171851880269027 0.18697700193394309 0 -0.12438280521313259 0.19722518639459599 0 -0.1171851880269027 0.18697700193394309 0 -0.1033469778200914 0.18518873627911081 0 -0.1115635107689735 0.1980809658696884 0 -0.1033469778200914 0.18518873627911081 0 -0.086584677036272428 0.18724973312333379 0 -0.099053975846167139 0.19756953091004231 0 -0.1033469778200914 0.18518873627911081 0 -0.1115635107689735 0.1980809658696884 0 -0.099053975846167139 0.19756953091004231 0 -0.10654412843109889 0.2124129981583367 0 -0.1115635107689735 0.1980809658696884 0 -0.099053975846167139 0.19756953091004231 0 -0.086584677036272428 0.18724973312333379 0 -0.076174848938558914 0.19563928181333809 0 -0.087230585174399439 0.20491522111974159 0 -0.086584677036272428 0.18724973312333379 0 -0.099053975846167139 0.19756953091004231 0 -0.087230585174399439 0.20491522111974159 0 -0.086584677036272428 0.18724973312333379 0 -0.072383842375982055 0.18433851894818901 0 -0.076174848938558914 0.19563928181333809 0 -0.072383842375982055 0.18433851894818901 0 -0.065139537173665302 0.19462878525212721 0 -0.076174848938558914 0.19563928181333809 0 -0.076174848938558914 0.19563928181333809 0 -0.064801522217270369 0.20388475802520309 0 -0.087230585174399439 0.20491522111974159 0 -0.072383842375982055 0.18433851894818901 0 -0.065139537173665302 0.19462878525212721 0 -0.058423781123243847 0.18760160827679159 0 -0.065139537173665302 0.19462878525212721 0 -0.064801522217270369 0.20388475802520309 0 -0.065139537173665302 0.19462878525212721 0 -0.076174848938558914 0.19563928181333809 0 -0.064801522217270369 0.20388475802520309 0 -0.064801522217270369 0.20388475802520309 0 -0.087230585174399439 0.20491522111974159 0 -0.064801522217270369 0.20388475802520309 0 -0.075846685561794872 0.21419987014727529 0 -0.087230585174399439 0.20491522111974159 0 -0.064801522217270369 0.20388475802520309 0 -0.06414768474890141 0.22178900069477789 0 -0.064801522217270369 0.20388475802520309 0 -0.075846685561794872 0.21419987014727529 0 -0.06414768474890141 0.22178900069477789 0 -0.075846685561794872 0.21419987014727529 0 -0.087230585174399439 0.20491522111974159 0 -0.092245081658107075 0.22190386767475981 0 -0.075846685561794872 0.21419987014727529 0 -0.092245081658107075 0.22190386767475981 0 -0.078601843222653858 0.22762957432541281 0 -0.092245081658107075 0.22190386767475981 0 -0.078601843222653858 0.22762957432541281 0 -0.089800741290963951 0.23837093591206529 0 -0.06414768474890141 0.22178900069477789 0 -0.070889246774834699 0.234327977948696 0 -0.06349384728053234 0.23969324336435269 0 -0.06414768474890141 0.22178900069477789 0 -0.06349384728053234 0.23969324336435269 0 -0.075846685561794872 0.21419987014727529 0 -0.078601843222653858 0.22762957432541281 0 -0.06414768474890141 0.22178900069477789 0 -0.078601843222653858 0.22762957432541281 0 -0.06414768474890141 0.22178900069477789 0 -0.070889246774834699 0.234327977948696 0 -0.078601843222653858 0.22762957432541281 0 -0.070889246774834699 0.234327977948696 0 -0.077441398369764561 0.23915127223081961 0 -0.070889246774834699 0.234327977948696 0 -0.077441398369764561 0.23915127223081961 0 -0.07076146025232137 0.24337679912811699 0 -0.070889246774834699 0.234327977948696 0 -0.06349384728053234 0.23969324336435269 0 -0.07076146025232137 0.24337679912811699 0 -0.06349384728053234 0.23969324336435269 0 -0.063201019833232619 0.2477118319744985 0 -0.06728048482943233 0.25078768511444982 0 -0.06349384728053234 0.23969324336435269 0 -0.063201019833232619 0.2477118319744985 0 -0.06728048482943233 0.25078768511444982 0 -0.06349384728053234 0.23969324336435269 0 -0.06728048482943233 0.25078768511444982 0 -0.06349384728053234 0.23969324336435269 0 -0.07076146025232137 0.24337679912811699 0 -0.06728048482943233 0.25078768511444982 0 -0.063201019833232619 0.2477118319744985 0 -0.079604061573677359 0.25020061160159762 0 -0.077441398369764561 0.23915127223081961 0 -0.07076146025232137 0.24337679912811699 0 -0.079604061573677359 0.25020061160159762 0 -0.06728048482943233 0.25078768511444982 0 -0.07076146025232137 0.24337679912811699 0 -0.079604061573677359 0.25020061160159762 0 -0.077441398369764561 0.23915127223081961 0 -0.089800741290963951 0.23837093591206529 0 -0.099646555744896198 0.25564887823787741 0 -0.079604061573677359 0.25020061160159762 0 -0.089800741290963951 0.23837093591206529 0 -0.078601843222653858 0.22762957432541281 0 -0.077441398369764561 0.23915127223081961 0 -0.089800741290963951 0.23837093591206529 0 -0.046174889000908118 0.25024759087299597 0 -0.04511730596553451 0.23407699305965701 0 -0.02691154068192704 0.2457704794931268 0 -0.06349384728053234 0.23969324336435269 0 -0.063201019833232619 0.2477118319744985 0 -0.04511730596553451 0.23407699305965701 0 -0.046174889000908118 0.25024759087299597 0 -0.063201019833232619 0.2477118319744985 0 -0.04511730596553451 0.23407699305965701 0 -0.063201019833232619 0.2477118319744985 0 -0.04511730596553451 0.23407699305965701 0 -0.06414768474890141 0.22178900069477789 0 -0.06349384728053234 0.23969324336435269 0 -0.05727519399115745 0.2214732564255274 0 -0.06349384728053234 0.23969324336435269 0 -0.05727519399115745 0.2214732564255274 0 -0.06349384728053234 0.23969324336435269 0 -0.05727519399115745 0.2214732564255274 0 -0.04511730596553451 0.23407699305965701 0 -0.05727519399115745 0.2214732564255274 0 -0.04511730596553451 0.23407699305965701 0 -0.041097026529113137 0.21578282075593769 0 -0.04511730596553451 0.23407699305965701 0 -0.027033592097836651 0.22044215414481511 0 -0.04511730596553451 0.23407699305965701 0 -0.041097026529113137 0.21578282075593769 0 -0.027033592097836651 0.22044215414481511 0 -0.04511730596553451 0.23407699305965701 0 -0.027033592097836651 0.22044215414481511 0 -0.02691154068192704 0.2457704794931268 0 -0.041097026529113137 0.21578282075593769 0 -0.051056540701783067 0.203253269486702 0 -0.033991708178227213 0.20246925634430629 0 -0.041097026529113137 0.21578282075593769 0 -0.033991708178227213 0.20246925634430629 0 -0.02559981613799741 0.20943735793538881 0 -0.05727519399115745 0.2214732564255274 0 -0.041097026529113137 0.21578282075593769 0 -0.051056540701783067 0.203253269486702 0 -0.064801522217270369 0.20388475802520309 0 -0.06414768474890141 0.22178900069477789 0 -0.05727519399115745 0.2214732564255274 0 -0.05727519399115745 0.2214732564255274 0 -0.051056540701783067 0.203253269486702 0 -0.064801522217270369 0.20388475802520309 0 -0.05727519399115745 0.2214732564255274 0 -0.051056540701783067 0.203253269486702 0 -0.064801522217270369 0.20388475802520309 0 -0.051056540701783067 0.203253269486702 0 -0.051056540701783067 0.203253269486702 0 -0.048044952895079013 0.1944296403261862 0 -0.051056540701783067 0.203253269486702 0 -0.057252301697233457 0.19627344374557551 0 -0.048044952895079013 0.1944296403261862 0 -0.058423781123243847 0.18760160827679159 0 -0.048044952895079013 0.1944296403261862 0 -0.041549642750724897 0.18587483486352829 0 -0.064801522217270369 0.20388475802520309 0 -0.051056540701783067 0.203253269486702 0 -0.057252301697233457 0.19627344374557551 0 -0.065139537173665302 0.19462878525212721 0 -0.064801522217270369 0.20388475802520309 0 -0.057252301697233457 0.19627344374557551 0 -0.065139537173665302 0.19462878525212721 0 -0.057252301697233457 0.19627344374557551 0 -0.058423781123243847 0.18760160827679159 0 -0.057252301697233457 0.19627344374557551 0 -0.058423781123243847 0.18760160827679159 0 -0.048044952895079013 0.1944296403261862 0 -0.051056540701783067 0.203253269486702 0 -0.033991708178227213 0.20246925634430629 0 -0.03865681607058595 0.19571374773575129 0 -0.048044952895079013 0.1944296403261862 0 -0.03865681607058595 0.19571374773575129 0 -0.041549642750724897 0.18587483486352829 0 -0.051056540701783067 0.203253269486702 0 -0.033991708178227213 0.20246925634430629 0 -0.03865681607058595 0.19571374773575129 0 -0.016926875654671221 0.2016852432019125 0 -0.041549642750724897 0.18587483486352829 0 -0.051056540701783067 0.203253269486702 0 -0.048044952895079013 0.1944296403261862 0 -0.03865681607058595 0.19571374773575129 0 -0.016926875654671221 0.2016852432019125 0 -0.041549642750724897 0.18587483486352829 0 -0.016926875654671221 0.2016852432019125 0 -0.041549642750724897 0.18587483486352829 0 -0.021855578615008989 0.1840542650912031 0 -0.016926875654671221 0.2016852432019125 0 -0.01007641489388551 0.19068279228920931 0 -0.021855578615008989 0.1840542650912031 0 -0.033991708178227213 0.20246925634430629 0 -0.016926875654671221 0.2016852432019125 0 -0.033991708178227213 0.20246925634430629 0 -0.03865681607058595 0.19571374773575129 0 -0.016926875654671221 0.2016852432019125 0 -0.016926875654671221 0.2016852432019125 0 -0.001198125073508286 0.20096261394949769 0 -0.016926875654671221 0.2016852432019125 0 -0.01007641489388551 0.19068279228920931 0 -0.001198125073508286 0.20096261394949769 0 -0.01007641489388551 0.19068279228920931 0 -0.001198125073508286 0.20096261394949769 0 -0.000617891155602524 0.18583592233474339 0 -0.016926875654671221 0.2016852432019125 0 -0.001198125073508286 0.20096261394949769 0 -0.0089498782301390065 0.20680731522997281 0 -0.016926875654671221 0.2016852432019125 0 -0.0089498782301390065 0.20680731522997281 0 -0.001198125073508286 0.20096261394949769 0 -0.0089498782301390065 0.20680731522997281 0 -0.033991708178227213 0.20246925634430629 0 -0.016926875654671221 0.2016852432019125 0 -0.02559981613799741 0.20943735793538881 0 -0.0089498782301390065 0.20680731522997281 0 -0.027033592097836651 0.22044215414481511 0 -0.0089498782301390065 0.20680731522997281 0 -0.02559981613799741 0.20943735793538881 0 -0.027033592097836651 0.22044215414481511 0 -0.016926875654671221 0.2016852432019125 0 -0.0089498782301390065 0.20680731522997281 0 -0.02559981613799741 0.20943735793538881 0 -0.041097026529113137 0.21578282075593769 0 -0.02559981613799741 0.20943735793538881 0 -0.027033592097836651 0.22044215414481511 0 -0.027033592097836651 0.22044215414481511 0 -0.0070972438617433386 0.2318192067591931 0 -0.02691154068192704 0.2457704794931268 0 -0.0089498782301390065 0.20680731522997281 0 -0.027033592097836651 0.22044215414481511 0 -0.0070972438617433386 0.2318192067591931 0 -0.0089498782301390065 0.20680731522997281 0 -0.0070972438617433386 0.2318192067591931 0 0.01475444484588343 0.2220279858294584 0 -0.0013581205314274699 0.25585075003031849 0 -0.0070972438617433386 0.2318192067591931 0 -0.02691154068192704 0.2457704794931268 0 -0.0013581205314274699 0.25585075003031849 0 -0.0070972438617433386 0.2318192067591931 0 0.0069152235249865081 0.24001655582746689 0 -0.045411150689990701 0.1444862759397488 0 -0.02922104577188174 0.14982380530350811 0 -0.022569701692132019 0.1363237345135567 0 -0.045411150689990701 0.1444862759397488 0 -0.037523067722002347 0.15891363151747201 0 -0.02922104577188174 0.14982380530350811 0 -0.045411150689990701 0.1444862759397488 0 -0.050930010595055593 0.15884923054687261 0 -0.037523067722002347 0.15891363151747201 0 -0.045411150689990701 0.1444862759397488 0 -0.049835746967114507 0.12731376090422539 0 -0.022569701692132019 0.1363237345135567 0 -0.066647537532865619 0.13982830447334749 0 -0.049835746967114507 0.12731376090422539 0 -0.055963769793290603 0.1403985572751647 0 -0.045411150689990701 0.1444862759397488 0 -0.049835746967114507 0.12731376090422539 0 -0.055963769793290603 0.1403985572751647 0 -0.045411150689990701 0.1444862759397488 0 -0.055963769793290603 0.1403985572751647 0 -0.06196064398319158 0.149965887783337 0 -0.066647537532865619 0.13982830447334749 0 -0.055963769793290603 0.1403985572751647 0 -0.06196064398319158 0.149965887783337 0 -0.045411150689990701 0.1444862759397488 0 -0.06196064398319158 0.149965887783337 0 -0.050930010595055593 0.15884923054687261 0 -0.066172409846778357 0.17006442652514361 0 -0.050930010595055593 0.15884923054687261 0 -0.043582780733314931 0.17081593096866141 0 -0.066172409846778357 0.17006442652514361 0 -0.06196064398319158 0.149965887783337 0 -0.050930010595055593 0.15884923054687261 0 -0.066172409846778357 0.17006442652514361 0 -0.041549642750724897 0.18587483486352829 0 -0.066172409846778357 0.17006442652514361 0 -0.058423781123243847 0.18760160827679159 0 -0.041549642750724897 0.18587483486352829 0 -0.066172409846778357 0.17006442652514361 0 -0.041549642750724897 0.18587483486352829 0 -0.043582780733314931 0.17081593096866141 0 -0.041549642750724897 0.18587483486352829 0 -0.032203888239403261 0.17747828208525021 0 -0.021855578615008989 0.1840542650912031 0 -0.041549642750724897 0.18587483486352829 0 -0.032203888239403261 0.17747828208525021 0 -0.043582780733314931 0.17081593096866141 0 -0.032203888239403261 0.17747828208525021 0 -0.043582780733314931 0.17081593096866141 0 -0.029489143498372981 0.1688073304033153 0 -0.050930010595055593 0.15884923054687261 0 -0.043582780733314931 0.17081593096866141 0 -0.037523067722002347 0.15891363151747201 0 -0.043582780733314931 0.17081593096866141 0 -0.037523067722002347 0.15891363151747201 0 -0.029489143498372981 0.1688073304033153 0 -0.037523067722002347 0.15891363151747201 0 -0.029489143498372981 0.1688073304033153 0 -0.022037756028283669 0.16138044514460981 0 -0.037523067722002347 0.15891363151747201 0 -0.022037756028283669 0.16138044514460981 0 -0.02922104577188174 0.14982380530350811 0 -0.029489143498372981 0.1688073304033153 0 -0.020645000911132281 0.16902311338251541 0 -0.022037756028283669 0.16138044514460981 0 -0.029489143498372981 0.1688073304033153 0 -0.020645000911132281 0.16902311338251541 0 -0.02388074124879189 0.17491779681048719 0 -0.020645000911132281 0.16902311338251541 0 -0.015992095753029741 0.1746976632615875 0 -0.013868896111497451 0.16610434547144659 0 -0.020645000911132281 0.16902311338251541 0 -0.022037756028283669 0.16138044514460981 0 -0.013868896111497451 0.16610434547144659 0 -0.022037756028283669 0.16138044514460981 0 -0.01267414555222824 0.15839383874738011 0 -0.01769134053482764 0.14984620207894961 0 -0.022037756028283669 0.16138044514460981 0 -0.01267414555222824 0.15839383874738011 0 -0.013868896111497451 0.16610434547144659 0 -0.032203888239403261 0.17747828208525021 0 -0.029489143498372981 0.1688073304033153 0 -0.02388074124879189 0.17491779681048719 0 -0.032203888239403261 0.17747828208525021 0 -0.02388074124879189 0.17491779681048719 0 -0.021855578615008989 0.1840542650912031 0 -0.020645000911132281 0.16902311338251541 0 -0.02388074124879189 0.17491779681048719 0 -0.015992095753029741 0.1746976632615875 0 -0.02388074124879189 0.17491779681048719 0 -0.015992095753029741 0.1746976632615875 0 -0.021855578615008989 0.1840542650912031 0 -0.015992095753029741 0.1746976632615875 0 -0.021855578615008989 0.1840542650912031 0 -0.0097836039706364446 0.18087591686869081 0 -0.01007641489388551 0.19068279228920931 0 -0.021855578615008989 0.1840542650912031 0 -0.0097836039706364446 0.18087591686869081 0 -0.015992095753029741 0.1746976632615875 0 -0.0097836039706364446 0.18087591686869081 0 -0.0088506118535440215 0.17165723354110679 0 -0.0097836039706364446 0.18087591686869081 0 -0.0033948347462645538 0.17676762032388441 0 -0.0088506118535440215 0.17165723354110679 0 -0.0033948347462645538 0.17676762032388441 0 -0.0088506118535440215 0.17165723354110679 0 -0.0020264807575900269 0.16925100379745331 0 -0.0033948347462645538 0.17676762032388441 0 -0.0020264807575900269 0.16925100379745331 0 0.00430441400605025 0.17621802507742759 0 -0.0097836039706364446 0.18087591686869081 0 -0.0033948347462645538 0.17676762032388441 0 -0.000617891155602524 0.18583592233474339 0 -0.01007641489388551 0.19068279228920931 0 -0.0097836039706364446 0.18087591686869081 0 -0.000617891155602524 0.18583592233474339 0 -0.01267414555222824 0.15839383874738011 0 -0.0068722069722592137 0.16406701442736599 0 -0.0046503903201789492 0.15755019424560959 0 -0.01267414555222824 0.15839383874738011 0 -0.013868896111497451 0.16610434547144659 0 -0.0068722069722592137 0.16406701442736599 0 -0.015992095753029741 0.1746976632615875 0 -0.013868896111497451 0.16610434547144659 0 -0.0088506118535440215 0.17165723354110679 0 -0.013868896111497451 0.16610434547144659 0 -0.0088506118535440215 0.17165723354110679 0 -0.0068722069722592137 0.16406701442736599 0 -0.0088506118535440215 0.17165723354110679 0 -0.0068722069722592137 0.16406701442736599 0 -0.0020264807575900269 0.16925100379745331 0 -0.0068722069722592137 0.16406701442736599 0 -0.0020264807575900269 0.16925100379745331 0 -0.00070180903849404223 0.1620298962772429 0 -0.0068722069722592137 0.16406701442736599 0 -0.00070180903849404223 0.1620298962772429 0 -0.0046503903201789492 0.15755019424560959 0 -0.00070180903849404223 0.1620298962772429 0 -0.0046503903201789492 0.15755019424560959 0 0.0022271874395096 0.1573937168972985 0 -0.0046503903201789492 0.15755019424560959 0 -0.0021862879748443379 0.15127762749284521 0 -0.010008512973272231 0.15180902985001221 0 -0.0046503903201789492 0.15755019424560959 0 -0.0021862879748443379 0.15127762749284521 0 0.0022271874395096 0.1573937168972985 0 -0.0021862879748443379 0.15127762749284521 0 -0.0084447026936406173 0.14386944060710041 0 -0.010008512973272231 0.15180902985001221 0 -0.0084447026936406173 0.14386944060710041 0 -0.0016146699195483841 0.13719475231004019 0 0.0028925413118478238 0.14505368737011831 0 -0.0021862879748443379 0.15127762749284521 0 -0.0084447026936406173 0.14386944060710041 0 0.0028925413118478238 0.14505368737011831 0 -0.01267414555222824 0.15839383874738011 0 -0.010008512973272231 0.15180902985001221 0 -0.01769134053482764 0.14984620207894961 0 -0.01267414555222824 0.15839383874738011 0 -0.0046503903201789492 0.15755019424560959 0 -0.010008512973272231 0.15180902985001221 0 -0.0084447026936406173 0.14386944060710041 0 -0.010008512973272231 0.15180902985001221 0 -0.01769134053482764 0.14984620207894961 0 -0.022037756028283669 0.16138044514460981 0 -0.01769134053482764 0.14984620207894961 0 -0.02922104577188174 0.14982380530350811 0 -0.01769134053482764 0.14984620207894961 0 -0.02922104577188174 0.14982380530350811 0 -0.022569701692132019 0.1363237345135567 0 -0.0084447026936406173 0.14386944060710041 0 -0.01769134053482764 0.14984620207894961 0 -0.022569701692132019 0.1363237345135567 0 -0.049835746967114507 0.12731376090422539 0 -0.022569701692132019 0.1363237345135567 0 -0.020786814196788819 0.11965273275267101 0 -0.022569701692132019 0.1363237345135567 0 -0.01043317137598943 0.13103637382128769 0 -0.020786814196788819 0.11965273275267101 0 -0.0084447026936406173 0.14386944060710041 0 -0.022569701692132019 0.1363237345135567 0 -0.01043317137598943 0.13103637382128769 0 -0.0084447026936406173 0.14386944060710041 0 -0.01043317137598943 0.13103637382128769 0 -0.0016146699195483841 0.13719475231004019 0 -0.01043317137598943 0.13103637382128769 0 -0.001755213224400969 0.1224113826781562 0 0.001514399076776056 0.1296979527704141 0 -0.01043317137598943 0.13103637382128769 0 -0.0016146699195483841 0.13719475231004019 0 0.001514399076776056 0.1296979527704141 0 -0.01043317137598943 0.13103637382128769 0 -0.001755213224400969 0.1224113826781562 0 -0.020786814196788819 0.11965273275267101 0 -0.001755213224400969 0.1224113826781562 0 -0.020786814196788819 0.11965273275267101 0 0.008262118573536599 0.1119917046011166 0 -0.020786814196788819 0.11965273275267101 0 0.008262118573536599 0.1119917046011166 0 -0.0077517695351226072 0.10912583896896309 0 -0.020786814196788819 0.11965273275267101 0 0.008262118573536599 0.1119917046011166 0 -0.0077517695351226072 0.10912583896896309 0 -0.019633965617819989 0.097811996281197452 0 0.0069284747717304274 0.1055091729811206 0 -0.001086642484074318 0.096392062202275391 0 -0.019633965617819989 0.097811996281197452 0 -0.0094622230532577095 0.0873246483624215 0 -0.001086642484074318 0.096392062202275391 0 -0.019633965617819989 0.097811996281197452 0 0.0069284747717304274 0.1055091729811206 0 -0.019633965617819989 0.097811996281197452 0 0.0069284747717304274 0.1055091729811206 0 -0.0077517695351226072 0.10912583896896309 0 -0.019633965617819989 0.097811996281197452 0 -0.020786814196788819 0.11965273275267101 0 -0.019633965617819989 0.097811996281197452 0 -0.020786814196788819 0.11965273275267101 0 -0.032412870754641762 0.1006956468617856 0 -0.020786814196788819 0.11965273275267101 0 -0.038224727471384029 0.1124360973927863 0 -0.032412870754641762 0.1006956468617856 0 -0.0072203321530443674 0.076224749938225922 0 -0.010663945645592711 0.055092594130287928 0 0.0014976518685602461 0.063245080616464985 0 -0.0072203321530443674 0.076224749938225922 0 -0.020793362676127001 0.078795949213662453 0 -0.010663945645592711 0.055092594130287928 0 -0.0072203321530443674 0.076224749938225922 0 0.003320864346216782 0.077053588128725717 0 0.0014976518685602461 0.063245080616464985 0 -0.0072203321530443674 0.076224749938225922 0 -0.0094622230532577095 0.0873246483624215 0 -0.020793362676127001 0.078795949213662453 0 -0.0072203321530443674 0.076224749938225922 0 0.001423187664777124 0.087398484176746255 0 0.003320864346216782 0.077053588128725717 0 -0.0072203321530443674 0.076224749938225922 0 -0.0094622230532577095 0.0873246483624215 0 0.001423187664777124 0.087398484176746255 0 -0.001086642484074318 0.096392062202275391 0 -0.0094622230532577095 0.0873246483624215 0 0.001423187664777124 0.087398484176746255 0 -0.019633965617819989 0.097811996281197452 0 -0.02897909403974994 0.085896517170889211 0 -0.020793362676127001 0.078795949213662453 0 -0.019633965617819989 0.097811996281197452 0 -0.0094622230532577095 0.0873246483624215 0 -0.020793362676127001 0.078795949213662453 0 -0.02897909403974994 0.085896517170889211 0 -0.020793362676127001 0.078795949213662453 0 -0.031357774121539117 0.076384005166914806 0 -0.020793362676127001 0.078795949213662453 0 -0.034350287012973671 0.068590214417097867 0 -0.010663945645592711 0.055092594130287928 0 -0.020793362676127001 0.078795949213662453 0 -0.034350287012973671 0.068590214417097867 0 -0.031357774121539117 0.076384005166914806 0 -0.034350287012973671 0.068590214417097867 0 -0.048866695624608908 0.076862364527954322 0 -0.049925139418616073 0.060383824466003419 0 -0.034350287012973671 0.068590214417097867 0 -0.038278847058928679 0.082788367023369405 0 -0.034350287012973671 0.068590214417097867 0 -0.031357774121539117 0.076384005166914806 0 -0.038278847058928679 0.082788367023369405 0 -0.034350287012973671 0.068590214417097867 0 -0.048866695624608908 0.076862364527954322 0 -0.034350287012973671 0.068590214417097867 0 -0.038278847058928679 0.082788367023369405 0 -0.048866695624608908 0.076862364527954322 0 -0.019633965617819989 0.097811996281197452 0 -0.02897909403974994 0.085896517170889211 0 -0.046196406007370683 0.090114819581275846 0 -0.02897909403974994 0.085896517170889211 0 -0.034790387827465921 0.084297882961074225 0 -0.046196406007370683 0.090114819581275846 0 -0.038278847058928679 0.082788367023369405 0 -0.046196406007370683 0.090114819581275846 0 -0.048866695624608908 0.076862364527954322 0 -0.034790387827465921 0.084297882961074225 0 -0.038278847058928679 0.082788367023369405 0 -0.046196406007370683 0.090114819581275846 0 -0.031357774121539117 0.076384005166914806 0 -0.034790387827465921 0.084297882961074225 0 -0.038278847058928679 0.082788367023369405 0 -0.02897909403974994 0.085896517170889211 0 -0.031357774121539117 0.076384005166914806 0 -0.034790387827465921 0.084297882961074225 0 -0.031357774121539117 0.076384005166914806 0 -0.038278847058928679 0.082788367023369405 0 -0.038278847058928679 0.082788367023369405 0 -0.046196406007370683 0.090114819581275846 0 -0.048732705609614867 0.092461765000885071 0 -0.043926066740609448 0.094445672833398386 0 -0.046196406007370683 0.090114819581275846 0 -0.048732705609614867 0.092461765000885071 0 -0.043926066740609448 0.094445672833398386 0 -0.046196406007370683 0.090114819581275846 0 -0.048866695624608908 0.076862364527954322 0 -0.063383104236242854 0.085134514638813108 0 -0.048866695624608908 0.076862364527954322 0 -0.063383104236242854 0.085134514638813108 0 -0.067973636188675801 0.074314814099168652 0 -0.046196406007370683 0.090114819581275846 0 -0.048732705609614867 0.092461765000885071 0 -0.063383104236242854 0.085134514638813108 0 -0.046196406007370683 0.090114819581275846 0 -0.063383104236242854 0.085134514638813108 0 -0.046196406007370683 0.090114819581275846 0 -0.048732705609614867 0.092461765000885071 0 -0.048732705609614867 0.092461765000885071 0 -0.063383104236242854 0.085134514638813108 0 -0.048866695624608908 0.076862364527954322 0 -0.063383104236242854 0.085134514638813108 0 -0.067973636188675801 0.074314814099168652 0 -0.049925139418616073 0.060383824466003419 0 -0.048866695624608908 0.076862364527954322 0 -0.067973636188675801 0.074314814099168652 0 -0.049925139418616073 0.060383824466003419 0 -0.067973636188675801 0.074314814099168652 0 -0.064660885764819404 0.055897569511132797 0 -0.049925139418616073 0.060383824466003419 0 -0.049835746967114507 0.12731376090422539 0 -0.020786814196788819 0.11965273275267101 0 -0.049835746967114507 0.12731376090422539 0 -0.038224727471384029 0.1124360973927863 0 -0.0506523112061057 0.1039273604549345 0 -0.049835746967114507 0.12731376090422539 0 -0.020786814196788819 0.11965273275267101 0 -0.038224727471384029 0.1124360973927863 0 -0.038224727471384029 0.1124360973927863 0 -0.032412870754641762 0.1006956468617856 0 -0.04130399404318523 0.10287619438572621 0 -0.019633965617819989 0.097811996281197452 0 -0.046196406007370683 0.090114819581275846 0 -0.032412870754641762 0.1006956468617856 0 -0.019633965617819989 0.097811996281197452 0 -0.046196406007370683 0.090114819581275846 0 -0.032412870754641762 0.1006956468617856 0 -0.043926066740609448 0.094445672833398386 0 -0.04130399404318523 0.10287619438572621 0 -0.046196406007370683 0.090114819581275846 0 -0.032412870754641762 0.1006956468617856 0 -0.043926066740609448 0.094445672833398386 0 -0.043926066740609448 0.094445672833398386 0 -0.04130399404318523 0.10287619438572621 0 -0.0506523112061057 0.1039273604549345 0 -0.038224727471384029 0.1124360973927863 0 -0.04130399404318523 0.10287619438572621 0 -0.0506523112061057 0.1039273604549345 0 -0.048732705609614867 0.092461765000885071 0 -0.062232125956785539 0.104953350270648 0 -0.063383104236242854 0.085134514638813108 0 -0.048732705609614867 0.092461765000885071 0 -0.043926066740609448 0.094445672833398386 0 -0.0506523112061057 0.1039273604549345 0 -0.048732705609614867 0.092461765000885071 0 -0.0506523112061057 0.1039273604549345 0 -0.062232125956785539 0.104953350270648 0 -0.048732705609614867 0.092461765000885071 0 -0.062232125956785539 0.104953350270648 0 -0.049835746967114507 0.12731376090422539 0 -0.0506523112061057 0.1039273604549345 0 -0.062232125956785539 0.104953350270648 0 -0.049835746967114507 0.12731376090422539 0 -0.062232125956785539 0.104953350270648 0 -0.075731546303957176 0.11744493554040999 0 -0.062232125956785539 0.104953350270648 0 -0.075731546303957176 0.11744493554040999 0 -0.088350901227011294 0.12912215900755139 0 -0.075731546303957176 0.11744493554040999 0 -0.088350901227011294 0.12912215900755139 0 -0.075731546303957176 0.11744493554040999 0 -0.086121630655385001 0.1060260859549626 0 -0.088350901227011294 0.12912215900755139 0 -0.086121630655385001 0.1060260859549626 0 -0.1042440422767693 0.1168177228390128 0 -0.086121630655385001 0.1060260859549626 0 -0.077532538088439629 0.093197544823510128 0 -0.099811382377393398 0.098889232553449266 0 -0.075731546303957176 0.11744493554040999 0 -0.086121630655385001 0.1060260859549626 0 -0.077532538088439629 0.093197544823510128 0 -0.062232125956785539 0.104953350270648 0 -0.075731546303957176 0.11744493554040999 0 -0.070666329156139698 0.089284847647505439 0 -0.075731546303957176 0.11744493554040999 0 -0.077532538088439629 0.093197544823510128 0 -0.070666329156139698 0.089284847647505439 0 -0.075731546303957176 0.11744493554040999 0 -0.070666329156139698 0.089284847647505439 0 -0.062232125956785539 0.104953350270648 0 -0.063383104236242854 0.085134514638813108 0 -0.070666329156139698 0.089284847647505439 0 -0.0695959678926069 0.0833341714220667 0 -0.070666329156139698 0.089284847647505439 0 -0.063383104236242854 0.085134514638813108 0 -0.070666329156139698 0.089284847647505439 0 -0.063383104236242854 0.085134514638813108 0 -0.0695959678926069 0.0833341714220667 0 -0.067973636188675801 0.074314814099168652 0 -0.0695959678926069 0.0833341714220667 0 -0.067973636188675801 0.074314814099168652 0 -0.063383104236242854 0.085134514638813108 0 -0.0695959678926069 0.0833341714220667 0 -0.063383104236242854 0.085134514638813108 0 -0.0695959678926069 0.0833341714220667 0 -0.070666329156139698 0.089284847647505439 0 -0.0695959678926069 0.0833341714220667 0 -0.073795667077900196 0.082117196391096936 0 -0.070666329156139698 0.089284847647505439 0 -0.0695959678926069 0.0833341714220667 0 -0.073795667077900196 0.082117196391096936 0 -0.067973636188675801 0.074314814099168652 0 -0.073795667077900196 0.082117196391096936 0 -0.076588629841491285 0.080964419814037653 0 -0.067973636188675801 0.074314814099168652 0 -0.0695959678926069 0.0833341714220667 0 -0.073795667077900196 0.082117196391096936 0 -0.073795667077900196 0.082117196391096936 0 -0.076588629841491285 0.080964419814037653 0 -0.07974360933625485 0.088940587885247335 0 -0.073795667077900196 0.082117196391096936 0 -0.076588629841491285 0.080964419814037653 0 -0.073795667077900196 0.082117196391096936 0 -0.070666329156139698 0.089284847647505439 0 -0.07974360933625485 0.088940587885247335 0 -0.077532538088439629 0.093197544823510128 0 -0.070666329156139698 0.089284847647505439 0 -0.07974360933625485 0.088940587885247335 0 -0.077532538088439629 0.093197544823510128 0 -0.070666329156139698 0.089284847647505439 0 -0.067973636188675801 0.074314814099168652 0 -0.075735351577653862 0.06933277714554785 0 -0.064660885764819404 0.055897569511132797 0 -0.075735351577653862 0.06933277714554785 0 -0.089322719001636935 0.065718322762559789 0 -0.064660885764819404 0.055897569511132797 0 -0.067973636188675801 0.074314814099168652 0 -0.064660885764819404 0.055897569511132797 0 -0.076588629841491285 0.080964419814037653 0 -0.067973636188675801 0.074314814099168652 0 -0.075735351577653862 0.06933277714554785 0 -0.076588629841491285 0.080964419814037653 0 -0.067973636188675801 0.074314814099168652 0 -0.076588629841491285 0.080964419814037653 0 -0.089322719001636935 0.065718322762559789 0 -0.1015363210171623 0.070667428241462521 0 -0.076588629841491285 0.080964419814037653 0 -0.1015363210171623 0.070667428241462521 0 -0.095075699851492015 0.075950738413729277 0 -0.076588629841491285 0.080964419814037653 0 -0.1015363210171623 0.070667428241462521 0 -0.076588629841491285 0.080964419814037653 0 -0.075735351577653862 0.06933277714554785 0 -0.089322719001636935 0.065718322762559789 0 -0.076588629841491285 0.080964419814037653 0 -0.099811382377393398 0.098889232553449266 0 -0.077532538088439629 0.093197544823510128 0 -0.07974360933625485 0.088940587885247335 0 -0.099811382377393398 0.098889232553449266 0 -0.076588629841491285 0.080964419814037653 0 -0.07974360933625485 0.088940587885247335 0 -0.099811382377393398 0.098889232553449266 0 -0.076588629841491285 0.080964419814037653 0 -0.090862521769381033 0.084638107896375547 0 -0.095075699851492015 0.075950738413729277 0 -0.076588629841491285 0.080964419814037653 0 -0.090862521769381033 0.084638107896375547 0 -0.099811382377393398 0.098889232553449266 0 -0.076588629841491285 0.080964419814037653 0 -0.095075699851492015 0.075950738413729277 0 -0.090862521769381033 0.084638107896375547 0 -0.097601126459694473 0.085839372161685995 0 -0.099811382377393398 0.098889232553449266 0 -0.090862521769381033 0.084638107896375547 0 -0.097601126459694473 0.085839372161685995 0 -0.095075699851492015 0.075950738413729277 0 -0.097601126459694473 0.085839372161685995 0 -0.1083738090857978 0.085967553254463175 0 -0.095075699851492015 0.075950738413729277 0 -0.097601126459694473 0.085839372161685995 0 -0.1083738090857978 0.085967553254463175 0 -0.099811382377393398 0.098889232553449266 0 -0.095075699851492015 0.075950738413729277 0 -0.1132392697215818 0.070687358816782259 0 -0.1083738090857978 0.085967553254463175 0 -0.095075699851492015 0.075950738413729277 0 -0.1132392697215818 0.070687358816782259 0 -0.1015363210171623 0.070667428241462521 0 -0.095075699851492015 0.075950738413729277 0 -0.1132392697215818 0.070687358816782259 0 -0.1264840121928352 0.060370436668891858 0 -0.1015363210171623 0.070667428241462521 0 -0.1264840121928352 0.060370436668891858 0 -0.1015363210171623 0.070667428241462521 0 -0.1132392697215818 0.070687358816782259 0 -0.12942077957145351 0.085038069788139284 0 -0.1264840121928352 0.060370436668891858 0 -0.1132392697215818 0.070687358816782259 0 -0.12942077957145351 0.085038069788139284 0 -0.1083738090857978 0.085967553254463175 0 -0.1132392697215818 0.070687358816782259 0 -0.12942077957145351 0.085038069788139284 0 -0.1083738090857978 0.085967553254463175 0 -0.11838686230135841 0.0991027021444911 0 -0.11838686230135841 0.0991027021444911 0 -0.12271063477338461 0.11656434709622369 0 -0.099811382377393398 0.098889232553449266 0 -0.13235754695007221 0.10970570290738681 0 -0.11838686230135841 0.0991027021444911 0 -0.12271063477338461 0.11656434709622369 0 -0.12271063477338461 0.11656434709622369 0 -0.099811382377393398 0.098889232553449266 0 -0.12271063477338461 0.11656434709622369 0 -0.1136571652217252 0.1239512688879001 0 -0.1042440422767693 0.1168177228390128 0 -0.1226897624986597 0.12539343477150269 0 -0.12271063477338461 0.11656434709622369 0 -0.1136571652217252 0.1239512688879001 0 -0.10338777755055879 0.12891511785121579 0 -0.088350901227011294 0.12912215900755139 0 -0.1042440422767693 0.1168177228390128 0 -0.12271063477338461 0.11656434709622369 0 -0.1042440422767693 0.1168177228390128 0 -0.099811382377393398 0.098889232553449266 0 -0.10338777755055879 0.12891511785121579 0 -0.1136571652217252 0.1239512688879001 0 -0.1042440422767693 0.1168177228390128 0 -0.1083738090857978 0.085967553254463175 0 -0.11838686230135841 0.0991027021444911 0 -0.099811382377393398 0.098889232553449266 0 -0.086121630655385001 0.1060260859549626 0 -0.1042440422767693 0.1168177228390128 0 -0.099811382377393398 0.098889232553449266 0 -0.094619980710139079 -0.00094113599173017482 0 -0.1028738261545929 0.02051941264950204 0 -0.1198770481880274 0.0048746676511459506 0 -0.1028738261545929 0.02051941264950204 0 -0.1198770481880274 0.0048746676511459506 0 -0.1231805301904309 0.032622552160018997 0 -0.1198770481880274 0.0048746676511459506 0 -0.1231805301904309 0.032622552160018997 0 -0.1028738261545929 0.02051941264950204 0 -0.1231805301904309 0.032622552160018997 0 -0.10286599992985131 0.049840830565401673 0 -0.1264840121928352 0.060370436668891858 0 -0.1231805301904309 0.032622552160018997 0 -0.1264840121928352 0.060370436668891858 0 -0.1231805301904309 0.032622552160018997 0 -0.10286599992985131 0.049840830565401673 0 -0.1264840121928352 0.060370436668891858 0 -0.1015363210171623 0.070667428241462521 0 -0.10286599992985131 0.049840830565401673 0 -0.089322719001636935 0.065718322762559789 0 -0.1015363210171623 0.070667428241462521 0 -0.10286599992985131 0.049840830565401673 0 -0.1028738261545929 0.02051941264950204 0 -0.10286599992985131 0.049840830565401673 0 -0.085459086189042785 0.033174919997949623 0 -0.10286599992985131 0.049840830565401673 0 -0.085459086189042785 0.033174919997949623 0 -0.08041760876843837 0.049068820252425233 0 -0.089322719001636935 0.065718322762559789 0 -0.10286599992985131 0.049840830565401673 0 -0.08041760876843837 0.049068820252425233 0 -0.089322719001636935 0.065718322762559789 0 -0.08041760876843837 0.049068820252425233 0 -0.064660885764819404 0.055897569511132797 0 -0.089322719001636935 0.065718322762559789 0 -0.064660885764819404 0.055897569511132797 0 -0.08041760876843837 0.049068820252425233 0 -0.064660885764819404 0.055897569511132797 0 -0.059395217186574638 0.026623071370000091 0 -0.085459086189042785 0.033174919997949623 0 -0.08041760876843837 0.049068820252425233 0 -0.059395217186574638 0.026623071370000091 0 -0.085459086189042785 0.033174919997949623 0 -0.082683766644382969 0.01595210578510502 0 -0.059395217186574638 0.026623071370000091 0 -0.1028738261545929 0.02051941264950204 0 -0.085459086189042785 0.033174919997949623 0 -0.082683766644382969 0.01595210578510502 0 -0.094619980710139079 -0.00094113599173017482 0 -0.082683766644382969 0.01595210578510502 0 -0.071070722981565443 0.00038426089980352529 0 -0.094619980710139079 -0.00094113599173017482 0 -0.1028738261545929 0.02051941264950204 0 -0.082683766644382969 0.01595210578510502 0 -0.082683766644382969 0.01595210578510502 0 -0.071070722981565443 0.00038426089980352529 0 -0.059395217186574638 0.026623071370000091 0 -0.054129548608327548 -0.002651426771132242 0 -0.059395217186574638 0.026623071370000091 0 -0.044580952533378598 0.018418934127466431 0 -0.054129548608327548 -0.002651426771132242 0 -0.044580952533378598 0.018418934127466431 0 -0.042202478754792043 0.0144225188092575 0 -0.054129548608327548 -0.002651426771132242 0 -0.049372601051152383 -0.010644257407550961 0 -0.042202478754792043 0.0144225188092575 0 -0.054129548608327548 -0.002651426771132242 0 -0.071070722981565443 0.00038426089980352529 0 -0.059395217186574638 0.026623071370000091 0 -0.054129548608327548 -0.002651426771132242 0 -0.044580952533378598 0.018418934127466431 0 -0.054129548608327548 -0.002651426771132242 0 -0.059395217186574638 0.026623071370000091 0 -0.059395217186574638 0.026623071370000091 0 -0.044580952533378598 0.018418934127466431 0 -0.048548209399628818 0.035582981446536738 0 -0.044580952533378598 0.018418934127466431 0 -0.048548209399628818 0.035582981446536738 0 -0.035032356458431203 0.039489295026065879 0 -0.044580952533378598 0.018418934127466431 0 -0.035032356458431203 0.039489295026065879 0 -0.042202478754792043 0.0144225188092575 0 -0.035032356458431203 0.039489295026065879 0 -0.042202478754792043 0.0144225188092575 0 -0.035032356458431203 0.039489295026065879 0 -0.02024450162085218 0.017610697422106771 0 -0.044580952533378598 0.018418934127466431 0 -0.042202478754792043 0.0144225188092575 0 -0.035032356458431203 0.039489295026065879 0 -0.049372601051152383 -0.010644257407550961 0 -0.042202478754792043 0.0144225188092575 0 -0.031594138203677097 -0.0080887341473911793 0 -0.042202478754792043 0.0144225188092575 0 -0.02024450162085218 0.017610697422106771 0 -0.064660885764819404 0.055897569511132797 0 -0.048961794818897043 0.049645929701104673 0 -0.048548209399628818 0.035582981446536738 0 -0.064660885764819404 0.055897569511132797 0 -0.049925139418616073 0.060383824466003419 0 -0.048961794818897043 0.049645929701104673 0 -0.064660885764819404 0.055897569511132797 0 -0.048961794818897043 0.049645929701104673 0 -0.064660885764819404 0.055897569511132797 0 -0.059395217186574638 0.026623071370000091 0 -0.048548209399628818 0.035582981446536738 0 -0.064660885764819404 0.055897569511132797 0 -0.059395217186574638 0.026623071370000091 0 -0.048961794818897043 0.049645929701104673 0 -0.033262703872975093 0.04339428989107541 0 -0.048961794818897043 0.049645929701104673 0 -0.035032356458431203 0.039489295026065879 0 -0.033262703872975093 0.04339428989107541 0 -0.048961794818897043 0.049645929701104673 0 -0.031876642648554977 0.046452834832839768 0 -0.033262703872975093 0.04339428989107541 0 -0.035032356458431203 0.039489295026065879 0 -0.033262703872975093 0.04339428989107541 0 -0.026650088171251019 0.040761036047797662 0 -0.035032356458431203 0.039489295026065879 0 -0.033262703872975093 0.04339428989107541 0 -0.031876642648554977 0.046452834832839768 0 -0.033262703872975093 0.04339428989107541 0 -0.048961794818897043 0.049645929701104673 0 -0.048548209399628818 0.035582981446536738 0 -0.035032356458431203 0.039489295026065879 0 -0.049925139418616073 0.060383824466003419 0 -0.048961794818897043 0.049645929701104673 0 -0.031876642648554977 0.046452834832839768 0 -0.049925139418616073 0.060383824466003419 0 -0.031876642648554977 0.046452834832839768 0 -0.034350287012973671 0.068590214417097867 0 -0.049925139418616073 0.060383824466003419 0 -0.031011160115521699 0.048362647456539322 0 -0.049925139418616073 0.060383824466003419 0 -0.031876642648554977 0.046452834832839768 0 -0.031011160115521699 0.048362647456539322 0 -0.031876642648554977 0.046452834832839768 0 -0.031011160115521699 0.048362647456539322 0 -0.034350287012973671 0.068590214417097867 0 -0.01873463572439631 0.048690640748669543 0 -0.02723329684092481 0.042868802149489203 0 -0.034350287012973671 0.068590214417097867 0 -0.02723329684092481 0.042868802149489203 0 -0.034350287012973671 0.068590214417097867 0 -0.01873463572439631 0.048690640748669543 0 -0.010663945645592711 0.055092594130287928 0 -0.034350287012973671 0.068590214417097867 0 -0.010663945645592711 0.055092594130287928 0 -0.034350287012973671 0.068590214417097867 0 -0.031011160115521699 0.048362647456539322 0 -0.02723329684092481 0.042868802149489203 0 -0.035032356458431203 0.039489295026065879 0 -0.026650088171251019 0.040761036047797662 0 -0.02024450162085218 0.017610697422106771 0 -0.026650088171251019 0.040761036047797662 0 -0.02221380051562552 0.03899443232454991 0 -0.02024450162085218 0.017610697422106771 0 -0.01873463572439631 0.048690640748669543 0 -0.02221380051562552 0.03899443232454991 0 -0.01337148880984537 0.035473276350427241 0 -0.01873463572439631 0.048690640748669543 0 -0.02723329684092481 0.042868802149489203 0 -0.02221380051562552 0.03899443232454991 0 -0.031876642648554977 0.046452834832839768 0 -0.02723329684092481 0.042868802149489203 0 -0.031876642648554977 0.046452834832839768 0 -0.031011160115521699 0.048362647456539322 0 -0.02723329684092481 0.042868802149489203 0 -0.031876642648554977 0.046452834832839768 0 -0.033262703872975093 0.04339428989107541 0 -0.02723329684092481 0.042868802149489203 0 -0.033262703872975093 0.04339428989107541 0 -0.026650088171251019 0.040761036047797662 0 -0.033262703872975093 0.04339428989107541 0 -0.026650088171251019 0.040761036047797662 0 -0.02723329684092481 0.042868802149489203 0 -0.02723329684092481 0.042868802149489203 0 -0.02221380051562552 0.03899443232454991 0 -0.026650088171251019 0.040761036047797662 0 -0.02221380051562552 0.03899443232454991 0 -0.026650088171251019 0.040761036047797662 0 -0.02723329684092481 0.042868802149489203 0 -0.02221380051562552 0.03899443232454991 0 -0.026650088171251019 0.040761036047797662 0 -0.02723329684092481 0.042868802149489203 0 -0.02221380051562552 0.03899443232454991 0 -0.01337148880984537 0.035473276350427241 0 -0.02221380051562552 0.03899443232454991 0 -0.01337148880984537 0.035473276350427241 0 -0.00042354709233450438 0.02217531445499888 0 -0.01337148880984537 0.035473276350427241 0 -0.0063497192591883949 0.04450072918574919 0 0.00018129059320132641 0.034794741961835247 0 -0.01873463572439631 0.048690640748669543 0 -0.01337148880984537 0.035473276350427241 0 -0.0063497192591883949 0.04450072918574919 0 -0.0063497192591883949 0.04450072918574919 0 -0.010663945645592711 0.055092594130287928 0 0.0014976518685602461 0.063245080616464985 0 -0.01873463572439631 0.048690640748669543 0 -0.0063497192591883949 0.04450072918574919 0 -0.010663945645592711 0.055092594130287928 0 -0.031594138203677097 -0.0080887341473911793 0 -0.01381567535620187 -0.0055332108872310336 0 -0.02024450162085218 0.017610697422106771 0 -0.01381567535620187 -0.0055332108872310336 0 -0.02024450162085218 0.017610697422106771 0 -0.026650088171251019 0.040761036047797662 0 -0.02024450162085218 0.017610697422106771 0 -0.02221380051562552 0.03899443232454991 0 -0.02024450162085218 0.017610697422106771 0 -0.00042354709233450438 0.02217531445499888 0 -0.02221380051562552 0.03899443232454991 0 -0.00042354709233450438 0.02217531445499888 0 -0.01337148880984537 0.035473276350427241 0 -0.00042354709233450438 0.02217531445499888 0 0.00018129059320132641 0.034794741961835247 0 -0.01381567535620187 -0.0055332108872310336 0 -0.02024450162085218 0.017610697422106771 0 -0.0039028350278822849 0.007084725468534175 0 -0.02024450162085218 0.017610697422106771 0 -0.00042354709233450438 0.02217531445499888 0 -0.0039028350278822849 0.007084725468534175 0 -0.0039028350278822849 0.007084725468534175 0 0.021366706330957049 0.005356196585448475 0 9.2994626588645875e-05 -0.0066853786883017728 0 -0.00042354709233450438 0.02217531445499888 0 0.021366706330957049 0.005356196585448475 0 -0.00042354709233450438 0.02217531445499888 0 -0.0039028350278822849 0.007084725468534175 0 0.021366706330957049 0.005356196585448475 0 -0.00042354709233450438 0.02217531445499888 0 0.016039594276420509 0.028101574793489389 0 0.021366706330957049 0.005356196585448475 0 -0.00042354709233450438 0.02217531445499888 0 0.016039594276420509 0.028101574793489389 0 0.00018129059320132641 0.034794741961835247 0 0.016039594276420509 0.028101574793489389 0 0.021366706330957049 0.005356196585448475 0 0.034733364282466157 0.028612764739399599 0 0.0081196885353858623 0.044905004502365897 0 0.016144803280046489 0.057127302190561037 0 0.0014976518685602461 0.063245080616464985 0 -0.0063497192591883949 0.04450072918574919 0 0.0081196885353858623 0.044905004502365897 0 0.0014976518685602461 0.063245080616464985 0 0.0081196885353858623 0.044905004502365897 0 0.021311856648053591 0.040664732033235847 0 0.016144803280046489 0.057127302190561037 0 0.016039594276420509 0.028101574793489389 0 0.0081196885353858623 0.044905004502365897 0 0.00018129059320132641 0.034794741961835247 0 0.016039594276420509 0.028101574793489389 0 0.0081196885353858623 0.044905004502365897 0 0.021311856648053591 0.040664732033235847 0 -0.0063497192591883949 0.04450072918574919 0 0.0081196885353858623 0.044905004502365897 0 0.00018129059320132641 0.034794741961835247 0 0.016039594276420509 0.028101574793489389 0 0.021311856648053591 0.040664732033235847 0 0.034733364282466157 0.028612764739399599 0 0.021311856648053591 0.040664732033235847 0 0.030809601489022429 0.050711338530267283 0 0.034733364282466157 0.028612764739399599 0 0.016144803280046489 0.057127302190561037 0 0.030809601489022429 0.050711338530267283 0 0.02512388460789057 0.067052219003521429 0 0.021311856648053591 0.040664732033235847 0 0.016144803280046489 0.057127302190561037 0 0.030809601489022429 0.050711338530267283 0 0.045047014048505529 0.045895153794865307 0 0.055445728409579217 0.059992510409491953 0 0.038673450834204003 0.063696848872527162 0 0.030809601489022429 0.050711338530267283 0 0.045047014048505529 0.045895153794865307 0 0.038673450834204003 0.063696848872527162 0 0.030809601489022429 0.050711338530267283 0 0.038673450834204003 0.063696848872527162 0 0.02512388460789057 0.067052219003521429 0 0.045047014048505529 0.045895153794865307 0 0.034733364282466157 0.028612764739399599 0 0.053402821358222087 0.030462001735883131 0 0.030809601489022429 0.050711338530267283 0 0.045047014048505529 0.045895153794865307 0 0.034733364282466157 0.028612764739399599 0 0.058763666666414152 0.04398082979781797 0 0.053402821358222087 0.030462001735883131 0 0.066511893370755429 0.033668811729911353 0 0.045047014048505529 0.045895153794865307 0 0.058763666666414152 0.04398082979781797 0 0.053402821358222087 0.030462001735883131 0 0.058763666666414152 0.04398082979781797 0 0.055445728409579217 0.059992510409491953 0 0.065215272810060496 0.052088813937529982 0 0.045047014048505529 0.045895153794865307 0 0.058763666666414152 0.04398082979781797 0 0.055445728409579217 0.059992510409491953 0 0.021366706330957049 0.005356196585448475 0 0.048574898960063582 0.01105422245065607 0 0.049491405824600751 -0.014400546848704451 0 0.021366706330957049 0.005356196585448475 0 0.034733364282466157 0.028612764739399599 0 0.048574898960063582 0.01105422245065607 0 0.034733364282466157 0.028612764739399599 0 0.053402821358222087 0.030462001735883131 0 0.048574898960063582 0.01105422245065607 0 0.053402821358222087 0.030462001735883131 0 0.048574898960063582 0.01105422245065607 0 0.066786090821127714 0.019560227902648528 0 0.053402821358222087 0.030462001735883131 0 0.066786090821127714 0.019560227902648528 0 0.066511893370755429 0.033668811729911353 0 0.048574898960063582 0.01105422245065607 0 0.066786090821127714 0.019560227902648528 0 0.067215553891882635 -0.0011799380945436829 0 0.082697905306915911 0.011834101465504791 0 0.066786090821127714 0.019560227902648528 0 0.067215553891882635 -0.0011799380945436829 0 0.082697905306915911 0.011834101465504791 0 0.099114727496955629 0.0053277131660113639 0 0.098722657354415419 0.024371838360165141 0 0.082697905306915911 0.011834101465504791 0 0.099114727496955629 0.0053277131660113639 0 0.085378979920521222 -0.0085271912777543524 0 0.082697905306915911 0.011834101465504791 0 0.085378979920521222 -0.0085271912777543524 0 0.067215553891882635 -0.0011799380945436829 0 0.082697905306915911 0.011834101465504791 0 0.081955401085374191 0.032018666829827007 0 0.098722657354415419 0.024371838360165141 0 0.066786090821127714 0.019560227902648528 0 0.066511893370755429 0.033668811729911353 0 0.081955401085374191 0.032018666829827007 0 0.082697905306915911 0.011834101465504791 0 0.066786090821127714 0.019560227902648528 0 0.081955401085374191 0.032018666829827007 0 0.058763666666414152 0.04398082979781797 0 0.073198035671513895 0.044407703699575328 0 0.065215272810060496 0.052088813937529982 0 0.058763666666414152 0.04398082979781797 0 0.066511893370755429 0.033668811729911353 0 0.073198035671513895 0.044407703699575328 0 0.066511893370755429 0.033668811729911353 0 0.073198035671513895 0.044407703699575328 0 0.081955401085374191 0.032018666829827007 0 0.073198035671513895 0.044407703699575328 0 0.072576478286476342 0.060127604112893279 0 0.084667962942488295 0.049454711049969131 0 0.055445728409579217 0.059992510409491953 0 0.065215272810060496 0.052088813937529982 0 0.072576478286476342 0.060127604112893279 0 0.073198035671513895 0.044407703699575328 0 0.065215272810060496 0.052088813937529982 0 0.072576478286476342 0.060127604112893279 0 0.072576478286476342 0.060127604112893279 0 0.084667962942488295 0.049454711049969131 0 0.085770474645546602 0.063257271676346677 0 0.084667962942488295 0.049454711049969131 0 0.094989021964994119 0.041501068202334228 0 0.095652872658334692 0.05503459675143383 0 0.084667962942488295 0.049454711049969131 0 0.095652872658334692 0.05503459675143383 0 0.085770474645546602 0.063257271676346677 0 0.095652872658334692 0.05503459675143383 0 0.095471060816329806 0.067445671330821591 0 0.085770474645546602 0.063257271676346677 0 0.084667962942488295 0.049454711049969131 0 0.081955401085374191 0.032018666829827007 0 0.094989021964994119 0.041501068202334228 0 0.081955401085374191 0.032018666829827007 0 0.094989021964994119 0.041501068202334228 0 0.098722657354415419 0.024371838360165141 0 0.073198035671513895 0.044407703699575328 0 0.084667962942488295 0.049454711049969131 0 0.081955401085374191 0.032018666829827007 0 0.094989021964994119 0.041501068202334228 0 0.10544775409771399 0.035703452929705351 0 0.098722657354415419 0.024371838360165141 0 0.10544775409771399 0.035703452929705351 0 0.1048791391000212 0.049541524024016827 0 0.11738283554026439 0.045919391363933762 0 0.094989021964994119 0.041501068202334228 0 0.10544775409771399 0.035703452929705351 0 0.1048791391000212 0.049541524024016827 0 0.095652872658334692 0.05503459675143383 0 0.1028828321515117 0.059598660263893752 0 0.095471060816329806 0.067445671330821591 0 0.095652872658334692 0.05503459675143383 0 0.1048791391000212 0.049541524024016827 0 0.1028828321515117 0.059598660263893752 0 0.094989021964994119 0.041501068202334228 0 0.095652872658334692 0.05503459675143383 0 0.1048791391000212 0.049541524024016827 0 0.1028828321515117 0.059598660263893752 0 0.112411561042616 0.058336933182221308 0 0.1077163251641817 0.065935962323567576 0 0.1048791391000212 0.049541524024016827 0 0.1028828321515117 0.059598660263893752 0 0.112411561042616 0.058336933182221308 0 0.1048791391000212 0.049541524024016827 0 0.112411561042616 0.058336933182221308 0 0.11738283554026439 0.045919391363933762 0 0.1226758536221563 0.058754324150062147 0 0.11738283554026439 0.045919391363933762 0 0.12798138470421019 0.049477110941330407 0 0.112411561042616 0.058336933182221308 0 0.1226758536221563 0.058754324150062147 0 0.11738283554026439 0.045919391363933762 0 0.112411561042616 0.058336933182221308 0 0.1226758536221563 0.058754324150062147 0 0.11893238067756071 0.070271736967853812 0 0.10544775409771399 0.035703452929705351 0 0.11738283554026439 0.045919391363933762 0 0.11675507342349629 0.028669086286336621 0 0.11738283554026439 0.045919391363933762 0 0.11675507342349629 0.028669086286336621 0 0.12991484820470231 0.037015230580822421 0 0.11675507342349629 0.028669086286336621 0 0.128050751869075 0.025433798835772761 0 0.12991484820470231 0.037015230580822421 0 0.11675507342349629 0.028669086286336621 0 0.12429721647633871 0.014090971846011839 0 0.1102002914007484 0.015148014965385429 0 0.11675507342349629 0.028669086286336621 0 0.12429721647633871 0.014090971846011839 0 0.128050751869075 0.025433798835772761 0 0.12429721647633871 0.014090971846011839 0 0.1165810207984305 0.0016467845144158069 0 0.1102002914007484 0.015148014965385429 0 0.1165810207984305 0.0016467845144158069 0 0.1102002914007484 0.015148014965385429 0 0.099114727496955629 0.0053277131660113639 0 0.1102002914007484 0.015148014965385429 0 0.099114727496955629 0.0053277131660113639 0 0.098722657354415419 0.024371838360165141 0 0.11675507342349629 0.028669086286336621 0 0.1102002914007484 0.015148014965385429 0 0.098722657354415419 0.024371838360165141 0 0.10544775409771399 0.035703452929705351 0 0.11675507342349629 0.028669086286336621 0 0.098722657354415419 0.024371838360165141 0 0.1028041184507465 0.097706186734434541 0 0.097212278542278208 0.10886251392042889 0 0.095408916884512487 0.089008620146451764 0 0.1069169903053673 0.106877659557417 0 0.1028041184507465 0.097706186734434541 0 0.097212278542278208 0.10886251392042889 0 0.1069169903053673 0.106877659557417 0 0.1028041184507465 0.097706186734434541 0 0.1124122623181667 0.095229204775704193 0 0.097212278542278208 0.10886251392042889 0 0.10474825365104801 0.118871671338058 0 0.092874127428698744 0.1243916658413016 0 0.10474825365104801 0.118871671338058 0 0.092874127428698744 0.1243916658413016 0 0.10123277553907251 0.13030272508469959 0 0.1069169903053673 0.106877659557417 0 0.097212278542278208 0.10886251392042889 0 0.10474825365104801 0.118871671338058 0 0.10474825365104801 0.118871671338058 0 0.1187894170332454 0.1108218881468376 0 0.1155281386006284 0.12780565999363219 0 0.1069169903053673 0.106877659557417 0 0.10474825365104801 0.118871671338058 0 0.1187894170332454 0.1108218881468376 0 0.1069169903053673 0.106877659557417 0 0.1187894170332454 0.1108218881468376 0 0.1124122623181667 0.095229204775704193 0 0.1187894170332454 0.1108218881468376 0 0.1124122623181667 0.095229204775704193 0 0.12718862152087951 0.096688253917490447 0 0.1077294159982722 0.074641224974457007 0 0.12718862152087951 0.096688253917490447 0 0.1124122623181667 0.095229204775704193 0 0.1077294159982722 0.074641224974457007 0 0.12718862152087951 0.096688253917490447 0 0.1077294159982722 0.074641224974457007 0 0.12559456041354719 0.080261485087041423 0 0.12718862152087951 0.096688253917490447 0 0.11893238067756071 0.070271736967853812 0 0.1077294159982722 0.074641224974457007 0 0.12559456041354719 0.080261485087041423 0 0.1226758536221563 0.058754324150062147 0 0.11893238067756071 0.070271736967853812 0 0.1309572929872222 0.07025365409794955 0 0.11893238067756071 0.070271736967853812 0 0.1077163251641817 0.065935962323567576 0 0.1077294159982722 0.074641224974457007 0 0.112411561042616 0.058336933182221308 0 0.11893238067756071 0.070271736967853812 0 0.1077163251641817 0.065935962323567576 0 0.1077163251641817 0.065935962323567576 0 0.095408916884512487 0.089008620146451764 0 0.1077163251641817 0.065935962323567576 0 0.095471060816329806 0.067445671330821591 0 0.095408916884512487 0.089008620146451764 0 0.1077163251641817 0.065935962323567576 0 0.1077294159982722 0.074641224974457007 0 0.095408916884512487 0.089008620146451764 0 0.1028828321515117 0.059598660263893752 0 0.1077163251641817 0.065935962323567576 0 0.095471060816329806 0.067445671330821591 0 0.1124122623181667 0.095229204775704193 0 0.1077294159982722 0.074641224974457007 0 0.10393605835734469 0.086759770889506357 0 0.1028041184507465 0.097706186734434541 0 0.1124122623181667 0.095229204775704193 0 0.10393605835734469 0.086759770889506357 0 0.1077294159982722 0.074641224974457007 0 0.10393605835734469 0.086759770889506357 0 0.095408916884512487 0.089008620146451764 0 0.10393605835734469 0.086759770889506357 0 0.095408916884512487 0.089008620146451764 0 0.1028041184507465 0.097706186734434541 0 0.10393605835734469 0.086759770889506357 0 0.095408916884512487 0.089008620146451764 0 0.095408916884512487 0.089008620146451764 0 0.086822874376219161 0.074535722772263363 0 0.078027174684895007 0.081900969601629639 0 0.095408916884512487 0.089008620146451764 0 0.066359984114187448 0.096669648298007824 0 0.095408916884512487 0.089008620146451764 0 0.078027174684895007 0.081900969601629639 0 0.066359984114187448 0.096669648298007824 0 0.095471060816329806 0.067445671330821591 0 0.095408916884512487 0.089008620146451764 0 0.086822874376219161 0.074535722772263363 0 0.095471060816329806 0.067445671330821591 0 0.086822874376219161 0.074535722772263363 0 0.085770474645546602 0.063257271676346677 0 0.086822874376219161 0.074535722772263363 0 0.07738402469507652 0.071265199768388895 0 0.078027174684895007 0.081900969601629639 0 0.072576478286476342 0.060127604112893279 0 0.085770474645546602 0.063257271676346677 0 0.07738402469507652 0.071265199768388895 0 0.086822874376219161 0.074535722772263363 0 0.085770474645546602 0.063257271676346677 0 0.07738402469507652 0.071265199768388895 0 0.072576478286476342 0.060127604112893279 0 0.07738402469507652 0.071265199768388895 0 0.063723121482245432 0.076504430678811547 0 0.055445728409579217 0.059992510409491953 0 0.072576478286476342 0.060127604112893279 0 0.063723121482245432 0.076504430678811547 0 0.07738402469507652 0.071265199768388895 0 0.063723121482245432 0.076504430678811547 0 0.078027174684895007 0.081900969601629639 0 0.063723121482245432 0.076504430678811547 0 0.078027174684895007 0.081900969601629639 0 0.066359984114187448 0.096669648298007824 0 0.066359984114187448 0.096669648298007824 0 0.073084462795095326 0.1066895693673014 0 0.056210169208783377 0.1091758533090196 0 0.095408916884512487 0.089008620146451764 0 0.073084462795095326 0.1066895693673014 0 0.081226855773400886 0.1155956834667107 0 0.095408916884512487 0.089008620146451764 0 0.066359984114187448 0.096669648298007824 0 0.073084462795095326 0.1066895693673014 0 0.097212278542278208 0.10886251392042889 0 0.095408916884512487 0.089008620146451764 0 0.081226855773400886 0.1155956834667107 0 0.095408916884512487 0.089008620146451764 0 0.081226855773400886 0.1155956834667107 0 0.097212278542278208 0.10886251392042889 0 0.092874127428698744 0.1243916658413016 0 0.081226855773400886 0.1155956834667107 0 0.092874127428698744 0.1243916658413016 0 0.081226855773400886 0.1155956834667107 0 0.079959461045495464 0.13328720631413671 0 0.073084462795095326 0.1066895693673014 0 0.067192531123333551 0.1203097440484758 0 0.056210169208783377 0.1091758533090196 0 0.073084462795095326 0.1066895693673014 0 0.081226855773400886 0.1155956834667107 0 0.067192531123333551 0.1203097440484758 0 0.05073549382100611 0.11930700509781469 0 0.056210169208783377 0.1091758533090196 0 0.058396373177095957 0.12790486731237569 0 0.056210169208783377 0.1091758533090196 0 0.058396373177095957 0.12790486731237569 0 0.05073549382100611 0.11930700509781469 0 0.056210169208783377 0.1091758533090196 0 0.037311051343862027 0.1043306764495622 0 0.067192531123333551 0.1203097440484758 0 0.056210169208783377 0.1091758533090196 0 0.058396373177095957 0.12790486731237569 0 0.066359984114187448 0.096669648298007824 0 0.037311051343862027 0.1043306764495622 0 0.049366773087713617 0.08903265965926227 0 0.066359984114187448 0.096669648298007824 0 0.056210169208783377 0.1091758533090196 0 0.037311051343862027 0.1043306764495622 0 0.066359984114187448 0.096669648298007824 0 0.037311051343862027 0.1043306764495622 0 0.037311051343862027 0.1043306764495622 0 0.034443225565791893 0.0868313155384874 0 0.022038282640759119 0.093506308820960699 0 0.05073549382100611 0.11930700509781469 0 0.037311051343862027 0.1043306764495622 0 0.039332800690571532 0.1224886173184479 0 0.037311051343862027 0.1043306764495622 0 0.039332800690571532 0.1224886173184479 0 0.030061161568504802 0.119151615690954 0 0.039332800690571532 0.1224886173184479 0 0.030061161568504802 0.119151615690954 0 0.029835632689531561 0.12997724586586051 0 0.055445728409579217 0.059992510409491953 0 0.063723121482245432 0.076504430678811547 0 0.0453898909262902 0.076536681577971943 0 0.063723121482245432 0.076504430678811547 0 0.049366773087713617 0.08903265965926227 0 0.0453898909262902 0.076536681577971943 0 0.063723121482245432 0.076504430678811547 0 0.066359984114187448 0.096669648298007824 0 0.049366773087713617 0.08903265965926227 0 0.037311051343862027 0.1043306764495622 0 0.049366773087713617 0.08903265965926227 0 0.034443225565791893 0.0868313155384874 0 0.034443225565791893 0.0868313155384874 0 0.0453898909262902 0.076536681577971943 0 0.031887179727496877 0.076275168294997045 0 0.049366773087713617 0.08903265965926227 0 0.034443225565791893 0.0868313155384874 0 0.0453898909262902 0.076536681577971943 0 0.055445728409579217 0.059992510409491953 0 0.0453898909262902 0.076536681577971943 0 0.038673450834204003 0.063696848872527162 0 0.0453898909262902 0.076536681577971943 0 0.031887179727496877 0.076275168294997045 0 0.038673450834204003 0.063696848872527162 0 0.031887179727496877 0.076275168294997045 0 0.038673450834204003 0.063696848872527162 0 0.02512388460789057 0.067052219003521429 0 0.016144803280046489 0.057127302190561037 0 0.02512388460789057 0.067052219003521429 0 0.01256209664794416 0.073196257704605805 0 0.031887179727496877 0.076275168294997045 0 0.02512388460789057 0.067052219003521429 0 0.021835726924281391 0.080818229983982512 0 0.02512388460789057 0.067052219003521429 0 0.021835726924281391 0.080818229983982512 0 0.01256209664794416 0.073196257704605805 0 0.034443225565791893 0.0868313155384874 0 0.031887179727496877 0.076275168294997045 0 0.021835726924281391 0.080818229983982512 0 0.034443225565791893 0.0868313155384874 0 0.021835726924281391 0.080818229983982512 0 0.022038282640759119 0.093506308820960699 0 0.021835726924281391 0.080818229983982512 0 0.022038282640759119 0.093506308820960699 0 0.011696307588360849 0.085236260302801264 0 0.022038282640759119 0.093506308820960699 0 0.011696307588360849 0.085236260302801264 0 0.010268138603182261 0.095508763697089244 0 -0.001086642484074318 0.096392062202275391 0 0.001423187664777124 0.087398484176746255 0 0.010268138603182261 0.095508763697089244 0 0.001423187664777124 0.087398484176746255 0 0.011696307588360849 0.085236260302801264 0 0.010268138603182261 0.095508763697089244 0 0.001423187664777124 0.087398484176746255 0 0.011696307588360849 0.085236260302801264 0 0.003320864346216782 0.077053588128725717 0 0.011696307588360849 0.085236260302801264 0 0.01256209664794416 0.073196257704605805 0 0.003320864346216782 0.077053588128725717 0 0.021835726924281391 0.080818229983982512 0 0.011696307588360849 0.085236260302801264 0 0.01256209664794416 0.073196257704605805 0 0.016144803280046489 0.057127302190561037 0 0.01256209664794416 0.073196257704605805 0 0.0014976518685602461 0.063245080616464985 0 0.01256209664794416 0.073196257704605805 0 0.003320864346216782 0.077053588128725717 0 0.0014976518685602461 0.063245080616464985 0 0.037311051343862027 0.1043306764495622 0 0.02098735340028603 0.11592606268359509 0 0.008262118573536599 0.1119917046011166 0 0.037311051343862027 0.1043306764495622 0 0.02098735340028603 0.11592606268359509 0 0.030061161568504802 0.119151615690954 0 0.02098735340028603 0.11592606268359509 0 0.016425594631983589 0.1210434610602385 0 0.012545837220630881 0.1177942918168763 0 0.016425594631983589 0.1210434610602385 0 0.0215685167306125 0.123639356121649 0 0.01458147812049912 0.12673231293093951 0 0.02098735340028603 0.11592606268359509 0 0.016425594631983589 0.1210434610602385 0 0.0215685167306125 0.123639356121649 0 0.0215685167306125 0.123639356121649 0 0.030061161568504802 0.119151615690954 0 0.029835632689531561 0.12997724586586051 0 0.02098735340028603 0.11592606268359509 0 0.0215685167306125 0.123639356121649 0 0.030061161568504802 0.119151615690954 0 0.037311051343862027 0.1043306764495622 0 0.022038282640759119 0.093506308820960699 0 0.016961613186614089 0.1021693253099699 0 0.037311051343862027 0.1043306764495622 0 0.008262118573536599 0.1119917046011166 0 0.037311051343862027 0.1043306764495622 0 0.016961613186614089 0.1021693253099699 0 0.008262118573536599 0.1119917046011166 0 0.022038282640759119 0.093506308820960699 0 0.016961613186614089 0.1021693253099699 0 0.010268138603182261 0.095508763697089244 0 0.016961613186614089 0.1021693253099699 0 0.0069284747717304274 0.1055091729811206 0 0.008262118573536599 0.1119917046011166 0 -0.0077517695351226072 0.10912583896896309 0 0.0069284747717304274 0.1055091729811206 0 0.008262118573536599 0.1119917046011166 0 0.016961613186614089 0.1021693253099699 0 0.010268138603182261 0.095508763697089244 0 0.0069284747717304274 0.1055091729811206 0 -0.001086642484074318 0.096392062202275391 0 0.010268138603182261 0.095508763697089244 0 0.0069284747717304274 0.1055091729811206 0 0.02098735340028603 0.11592606268359509 0 0.008262118573536599 0.1119917046011166 0 0.012545837220630881 0.1177942918168763 0 0.008262118573536599 0.1119917046011166 0 0.012545837220630881 0.1177942918168763 0 0.0068102294021785319 0.1197541060424699 0 0.016425594631983589 0.1210434610602385 0 0.01057016768120727 0.122246924866092 0 0.01458147812049912 0.12673231293093951 0 0.016425594631983589 0.1210434610602385 0 0.012545837220630881 0.1177942918168763 0 0.01057016768120727 0.122246924866092 0 0.012545837220630881 0.1177942918168763 0 0.01057016768120727 0.122246924866092 0 0.0068102294021785319 0.1197541060424699 0 -0.001755213224400969 0.1224113826781562 0 0.0044282367599188808 0.1243262262501085 0 0.0068102294021785319 0.1197541060424699 0 0.01057016768120727 0.122246924866092 0 0.0044282367599188808 0.1243262262501085 0 0.0068102294021785319 0.1197541060424699 0 -0.001755213224400969 0.1224113826781562 0 0.008262118573536599 0.1119917046011166 0 0.0068102294021785319 0.1197541060424699 0 -0.001755213224400969 0.1224113826781562 0 0.0044282367599188808 0.1243262262501085 0 0.001514399076776056 0.1296979527704141 0 0.001514399076776056 0.1296979527704141 0 0.0063975840832642501 0.1363163069812805 0 0.0084305202943370863 0.12866179094666791 0 0.0044282367599188808 0.1243262262501085 0 0.001514399076776056 0.1296979527704141 0 0.0084305202943370863 0.12866179094666791 0 0.01057016768120727 0.122246924866092 0 0.0044282367599188808 0.1243262262501085 0 0.0084305202943370863 0.12866179094666791 0 -0.0016146699195483841 0.13719475231004019 0 0.0063975840832642501 0.1363163069812805 0 0.0028925413118478238 0.14505368737011831 0 -0.0016146699195483841 0.13719475231004019 0 0.001514399076776056 0.1296979527704141 0 0.0063975840832642501 0.1363163069812805 0 0.0063975840832642501 0.1363163069812805 0 0.01178499944291753 0.13845797774173349 0 0.0091108703709209607 0.14242124840360851 0 0.0063975840832642501 0.1363163069812805 0 0.012893593199771569 0.1334508291512102 0 0.01178499944291753 0.13845797774173349 0 0.012893593199771569 0.1334508291512102 0 0.01178499944291753 0.13845797774173349 0 0.01696370848406115 0.13792266620085289 0 0.01178499944291753 0.13845797774173349 0 0.01696370848406115 0.13792266620085289 0 0.013910499929924609 0.14286561265918471 0 0.01057016768120727 0.122246924866092 0 0.0084305202943370863 0.12866179094666791 0 0.01458147812049912 0.12673231293093951 0 0.0063975840832642501 0.1363163069812805 0 0.012893593199771569 0.1334508291512102 0 0.0084305202943370863 0.12866179094666791 0 0.012893593199771569 0.1334508291512102 0 0.0084305202943370863 0.12866179094666791 0 0.01458147812049912 0.12673231293093951 0 0.0215685167306125 0.123639356121649 0 0.01458147812049912 0.12673231293093951 0 0.0197264990869374 0.13158070123803431 0 0.012893593199771569 0.1334508291512102 0 0.01458147812049912 0.12673231293093951 0 0.0197264990869374 0.13158070123803431 0 0.012893593199771569 0.1334508291512102 0 0.0197264990869374 0.13158070123803431 0 0.01696370848406115 0.13792266620085289 0 0.01696370848406115 0.13792266620085289 0 0.024349684164093249 0.13796451549024899 0 0.01988098294194952 0.14330082689660381 0 0.0197264990869374 0.13158070123803431 0 0.01696370848406115 0.13792266620085289 0 0.024349684164093249 0.13796451549024899 0 0.024349684164093249 0.13796451549024899 0 0.029835632689531561 0.12997724586586051 0 0.032045911654956662 0.14097461153562851 0 0.0197264990869374 0.13158070123803431 0 0.024349684164093249 0.13796451549024899 0 0.029835632689531561 0.12997724586586051 0 0.0215685167306125 0.123639356121649 0 0.0197264990869374 0.13158070123803431 0 0.029835632689531561 0.12997724586586051 0 0.024525883287768811 0.15290619689188839 0 0.025444166683902859 0.14583601070425739 0 0.02070844189543632 0.14899666090025809 0 0.024525883287768811 0.15290619689188839 0 0.030647300405420418 0.15128523735033439 0 0.025444166683902859 0.14583601070425739 0 0.024525883287768811 0.15290619689188839 0 0.030647300405420418 0.15128523735033439 0 0.028823908269128871 0.15775620414509939 0 0.030647300405420418 0.15128523735033439 0 0.025444166683902859 0.14583601070425739 0 0.032045911654956662 0.14097461153562851 0 0.024349684164093249 0.13796451549024899 0 0.025444166683902859 0.14583601070425739 0 0.032045911654956662 0.14097461153562851 0 0.024349684164093249 0.13796451549024899 0 0.025444166683902859 0.14583601070425739 0 0.01988098294194952 0.14330082689660381 0 0.025444166683902859 0.14583601070425739 0 0.01988098294194952 0.14330082689660381 0 0.02070844189543632 0.14899666090025809 0 0.01696370848406115 0.13792266620085289 0 0.01988098294194952 0.14330082689660381 0 0.013910499929924609 0.14286561265918471 0 0.01988098294194952 0.14330082689660381 0 0.013910499929924609 0.14286561265918471 0 0.01509207722535484 0.14837261257371101 0 0.01988098294194952 0.14330082689660381 0 0.02070844189543632 0.14899666090025809 0 0.01509207722535484 0.14837261257371101 0 0.02070844189543632 0.14899666090025809 0 0.017818233614807041 0.15481680635576969 0 0.01509207722535484 0.14837261257371101 0 0.024525883287768811 0.15290619689188839 0 0.02070844189543632 0.14899666090025809 0 0.017818233614807041 0.15481680635576969 0 0.024525883287768811 0.15290619689188839 0 0.017818233614807041 0.15481680635576969 0 0.022496939048816129 0.15973502551021371 0 0.017818233614807041 0.15481680635576969 0 0.01150190315253885 0.15364585520869151 0 0.01233471246840317 0.15965105041380309 0 0.017818233614807041 0.15481680635576969 0 0.01150190315253885 0.15364585520869151 0 0.01509207722535484 0.14837261257371101 0 0.01150190315253885 0.15364585520869151 0 0.01509207722535484 0.14837261257371101 0 0.0097574338954461524 0.14768186420107829 0 0.01150190315253885 0.15364585520869151 0 0.0097574338954461524 0.14768186420107829 0 0.0057672513893855847 0.15217900095767961 0 0.01150190315253885 0.15364585520869151 0 0.0057672513893855847 0.15217900095767961 0 0.0076550187786762246 0.15696685112919501 0 0.013910499929924609 0.14286561265918471 0 0.01509207722535484 0.14837261257371101 0 0.0097574338954461524 0.14768186420107829 0 0.013910499929924609 0.14286561265918471 0 0.0097574338954461524 0.14768186420107829 0 0.0091108703709209607 0.14242124840360851 0 0.01178499944291753 0.13845797774173349 0 0.013910499929924609 0.14286561265918471 0 0.0091108703709209607 0.14242124840360851 0 0.0063975840832642501 0.1363163069812805 0 0.0091108703709209607 0.14242124840360851 0 0.0028925413118478238 0.14505368737011831 0 0.0097574338954461524 0.14768186420107829 0 0.0091108703709209607 0.14242124840360851 0 0.0028925413118478238 0.14505368737011831 0 0.0097574338954461524 0.14768186420107829 0 0.0028925413118478238 0.14505368737011831 0 0.0057672513893855847 0.15217900095767961 0 -0.0021862879748443379 0.15127762749284521 0 0.0028925413118478238 0.14505368737011831 0 0.0057672513893855847 0.15217900095767961 0 -0.0021862879748443379 0.15127762749284521 0 0.0057672513893855847 0.15217900095767961 0 0.0022271874395096 0.1573937168972985 0 0.0057672513893855847 0.15217900095767961 0 0.0022271874395096 0.1573937168972985 0 0.0076550187786762246 0.15696685112919501 0 0.0022271874395096 0.1573937168972985 0 0.0076550187786762246 0.15696685112919501 0 0.0064440394435439164 0.16196463216850221 0 -0.00070180903849404223 0.1620298962772429 0 0.0022271874395096 0.1573937168972985 0 0.0064440394435439164 0.16196463216850221 0 -0.00070180903849404223 0.1620298962772429 0 0.0064440394435439164 0.16196463216850221 0 0.0043844093426093182 0.16833476653285251 0 -0.0020264807575900269 0.16925100379745331 0 -0.00070180903849404223 0.1620298962772429 0 0.0043844093426093182 0.16833476653285251 0 -0.0020264807575900269 0.16925100379745331 0 0.0043844093426093182 0.16833476653285251 0 0.00430441400605025 0.17621802507742759 0 0.0043844093426093182 0.16833476653285251 0 0.0091704614084429422 0.16741772424374379 0 0.009203747405755176 0.17245803599704071 0 0.0064440394435439164 0.16196463216850221 0 0.0043844093426093182 0.16833476653285251 0 0.0091704614084429422 0.16741772424374379 0 0.0064440394435439164 0.16196463216850221 0 0.0091704614084429422 0.16741772424374379 0 0.010849997275016079 0.16356888954975951 0 0.0091704614084429422 0.16741772424374379 0 0.014573669128994691 0.17176303619860189 0 0.009203747405755176 0.17245803599704071 0 0.0091704614084429422 0.16741772424374379 0 0.014573669128994691 0.17176303619860189 0 0.015450775779674301 0.16524215137298881 0 0.0091704614084429422 0.16741772424374379 0 0.015450775779674301 0.16524215137298881 0 0.010849997275016079 0.16356888954975951 0 0.015450775779674301 0.16524215137298881 0 0.01233471246840317 0.15965105041380309 0 0.010849997275016079 0.16356888954975951 0 0.015450775779674301 0.16524215137298881 0 0.01233471246840317 0.15965105041380309 0 0.017560882471538999 0.16082222783124031 0 0.0076550187786762246 0.15696685112919501 0 0.0064440394435439164 0.16196463216850221 0 0.01233471246840317 0.15965105041380309 0 0.01150190315253885 0.15364585520869151 0 0.0076550187786762246 0.15696685112919501 0 0.01233471246840317 0.15965105041380309 0 0.0064440394435439164 0.16196463216850221 0 0.01233471246840317 0.15965105041380309 0 0.010849997275016079 0.16356888954975951 0 -0.000617891155602524 0.18583592233474339 0 0.0091726476251810483 0.1836087937180978 0 0.01089648941808311 0.1918434627874944 0 -0.000617891155602524 0.18583592233474339 0 0.00430441400605025 0.17621802507742759 0 0.0091726476251810483 0.1836087937180978 0 0.0043844093426093182 0.16833476653285251 0 0.00430441400605025 0.17621802507742759 0 0.009203747405755176 0.17245803599704071 0 -0.0033948347462645538 0.17676762032388441 0 -0.000617891155602524 0.18583592233474339 0 0.00430441400605025 0.17621802507742759 0 0.00430441400605025 0.17621802507742759 0 0.01358578314267868 0.17855662793257751 0 0.0091726476251810483 0.1836087937180978 0 0.00430441400605025 0.17621802507742759 0 0.009203747405755176 0.17245803599704071 0 0.01358578314267868 0.17855662793257751 0 0.014573669128994691 0.17176303619860189 0 0.01358578314267868 0.17855662793257751 0 0.018263305814720441 0.1758300031687339 0 0.014573669128994691 0.17176303619860189 0 0.009203747405755176 0.17245803599704071 0 0.01358578314267868 0.17855662793257751 0 0.01358578314267868 0.17855662793257751 0 0.0091726476251810483 0.1836087937180978 0 0.017694442714695731 0.18558993045824609 0 0.0091726476251810483 0.1836087937180978 0 0.017694442714695731 0.18558993045824609 0 0.01089648941808311 0.1918434627874944 0 0.017694442714695731 0.18558993045824609 0 0.020534238412145689 0.1815549633123949 0 0.027531931036925281 0.1850939977091576 0 0.017694442714695731 0.18558993045824609 0 0.027531931036925281 0.1850939977091576 0 0.023725842278767929 0.18794485024173849 0 0.020534238412145689 0.1815549633123949 0 0.02204740825594358 0.17713644781285751 0 0.027531931036925281 0.1850939977091576 0 0.01358578314267868 0.17855662793257751 0 0.017694442714695731 0.18558993045824609 0 0.020534238412145689 0.1815549633123949 0 0.020534238412145689 0.1815549633123949 0 0.02204740825594358 0.17713644781285751 0 0.018263305814720441 0.1758300031687339 0 0.01358578314267868 0.17855662793257751 0 0.020534238412145689 0.1815549633123949 0 0.018263305814720441 0.1758300031687339 0 0.018263305814720441 0.1758300031687339 0 0.017984059116542019 0.1719707361268509 0 0.020854676832018009 0.17399820762912091 0 0.014573669128994691 0.17176303619860189 0 0.018263305814720441 0.1758300031687339 0 0.017984059116542019 0.1719707361268509 0 0.02204740825594358 0.17713644781285751 0 0.018263305814720441 0.1758300031687339 0 0.020854676832018009 0.17399820762912091 0 0.02204740825594358 0.17713644781285751 0 0.020854676832018009 0.17399820762912091 0 0.033656648754376101 0.17183626113086159 0 0.027531931036925281 0.1850939977091576 0 0.02788291684150275 0.1893477059397303 0 0.023725842278767929 0.18794485024173849 0 0.020854676832018009 0.17399820762912091 0 0.02522399586113324 0.1649505013400516 0 0.040718626988713591 0.16031604447242639 0 0.020854676832018009 0.17399820762912091 0 0.040718626988713591 0.16031604447242639 0 0.019945094483104869 0.16389048748776369 0 0.022496939048816129 0.15973502551021371 0 0.017560882471538999 0.16082222783124031 0 0.019945094483104869 0.16389048748776369 0 0.022496939048816129 0.15973502551021371 0 0.02522399586113324 0.1649505013400516 0 0.017818233614807041 0.15481680635576969 0 0.01233471246840317 0.15965105041380309 0 0.017560882471538999 0.16082222783124031 0 0.017818233614807041 0.15481680635576969 0 0.022496939048816129 0.15973502551021371 0 0.017560882471538999 0.16082222783124031 0 0.015450775779674301 0.16524215137298881 0 0.019945094483104869 0.16389048748776369 0 0.017560882471538999 0.16082222783124031 0 0.015450775779674301 0.16524215137298881 0 0.019945094483104869 0.16389048748776369 0 0.018992879254361661 0.16870253138432381 0 0.020854676832018009 0.17399820762912091 0 0.018992879254361661 0.16870253138432381 0 0.02522399586113324 0.1649505013400516 0 0.014573669128994691 0.17176303619860189 0 0.017984059116542019 0.1719707361268509 0 0.018992879254361661 0.16870253138432381 0 0.014573669128994691 0.17176303619860189 0 0.015450775779674301 0.16524215137298881 0 0.018992879254361661 0.16870253138432381 0 0.017984059116542019 0.1719707361268509 0 0.020854676832018009 0.17399820762912091 0 0.018992879254361661 0.16870253138432381 0 0.019945094483104869 0.16389048748776369 0 0.018992879254361661 0.16870253138432381 0 0.02522399586113324 0.1649505013400516 0 0.022496939048816129 0.15973502551021371 0 0.02522399586113324 0.1649505013400516 0 0.028823908269128871 0.15775620414509939 0 0.024525883287768811 0.15290619689188839 0 0.022496939048816129 0.15973502551021371 0 0.028823908269128871 0.15775620414509939 0 0.020854676832018009 0.17399820762912091 0 0.033656648754376101 0.17183626113086159 0 0.040718626988713591 0.16031604447242639 0 0.030647300405420418 0.15128523735033439 0 0.028823908269128871 0.15775620414509939 0 0.040718626988713591 0.16031604447242639 0 0.02522399586113324 0.1649505013400516 0 0.028823908269128871 0.15775620414509939 0 0.040718626988713591 0.16031604447242639 0 0.033656648754376101 0.17183626113086159 0 0.040718626988713591 0.16031604447242639 0 0.043032669373384722 0.17236592938519571 0 0.040718626988713591 0.16031604447242639 0 0.043032669373384722 0.17236592938519571 0 0.052745631132924242 0.16898934162558399 0 0.02204740825594358 0.17713644781285751 0 0.033656648754376101 0.17183626113086159 0 0.044174740321551477 0.18505716244004139 0 0.027531931036925281 0.1850939977091576 0 0.044174740321551477 0.18505716244004139 0 0.03460923092936697 0.19011098295722481 0 0.043032669373384722 0.17236592938519571 0 0.044174740321551477 0.18505716244004139 0 0.052745631132924242 0.16898934162558399 0 0.02204740825594358 0.17713644781285751 0 0.027531931036925281 0.1850939977091576 0 0.044174740321551477 0.18505716244004139 0 0.02204740825594358 0.17713644781285751 0 0.044174740321551477 0.18505716244004139 0 0.033656648754376101 0.17183626113086159 0 0.043032669373384722 0.17236592938519571 0 0.044174740321551477 0.18505716244004139 0 0.044174740321551477 0.18505716244004139 0 0.052745631132924242 0.16898934162558399 0 0.044174740321551477 0.18505716244004139 0 0.055740668117340172 0.18017484572209741 0 0.06597871692555754 0.19286212852931861 0 0.055740668117340172 0.18017484572209741 0 0.06597871692555754 0.19286212852931861 0 0.063647619434929442 0.17289182467022299 0 0.044174740321551477 0.18505716244004139 0 0.055740668117340172 0.18017484572209741 0 0.052745631132924242 0.16898934162558399 0 0.055740668117340172 0.18017484572209741 0 0.052745631132924242 0.16898934162558399 0 0.063647619434929442 0.17289182467022299 0 0.040718626988713591 0.16031604447242639 0 0.052745631132924242 0.16898934162558399 0 0.061316521944299013 0.1529215208111277 0 0.052745631132924242 0.16898934162558399 0 0.061316521944299013 0.1529215208111277 0 0.061316521944299013 0.1529215208111277 0 0.063647619434929442 0.17289182467022299 0 0.052745631132924242 0.16898934162558399 0 0.061316521944299013 0.1529215208111277 0 0.063647619434929442 0.17289182467022299 0 0.040718626988713591 0.16031604447242639 0 0.050968117035017059 0.14689904002260681 0 0.060582577145409093 0.1466338813157318 0 0.040718626988713591 0.16031604447242639 0 0.060582577145409093 0.1466338813157318 0 0.040718626988713591 0.16031604447242639 0 0.061316521944299013 0.1529215208111277 0 0.060582577145409093 0.1466338813157318 0 0.061316521944299013 0.1529215208111277 0 0.060582577145409093 0.1466338813157318 0 0.050968117035017059 0.14689904002260681 0 0.052943974506085373 0.13803341878026859 0 0.045617567762428028 0.1452434590806167 0 0.050968117035017059 0.14689904002260681 0 0.060582577145409093 0.1466338813157318 0 0.052943974506085373 0.13803341878026859 0 0.060582577145409093 0.1466338813157318 0 0.058396373177095957 0.12790486731237569 0 0.060582577145409093 0.1466338813157318 0 0.058396373177095957 0.12790486731237569 0 0.052943974506085373 0.13803341878026859 0 0.058396373177095957 0.12790486731237569 0 0.052943974506085373 0.13803341878026859 0 0.042528862792271811 0.1341257696379593 0 0.060582577145409093 0.1466338813157318 0 0.058396373177095957 0.12790486731237569 0 0.06704479466229149 0.14218274678697079 0 0.05073549382100611 0.11930700509781469 0 0.058396373177095957 0.12790486731237569 0 0.042528862792271811 0.1341257696379593 0 0.052943974506085373 0.13803341878026859 0 0.042528862792271811 0.1341257696379593 0 0.045617567762428028 0.1452434590806167 0 0.05073549382100611 0.11930700509781469 0 0.039332800690571532 0.1224886173184479 0 0.042528862792271811 0.1341257696379593 0 0.039332800690571532 0.1224886173184479 0 0.029835632689531561 0.12997724586586051 0 0.042528862792271811 0.1341257696379593 0 0.029835632689531561 0.12997724586586051 0 0.042528862792271811 0.1341257696379593 0 0.032045911654956662 0.14097461153562851 0 0.030647300405420418 0.15128523735033439 0 0.032045911654956662 0.14097461153562851 0 0.038422181404157298 0.1484871747139575 0 0.042528862792271811 0.1341257696379593 0 0.032045911654956662 0.14097461153562851 0 0.038422181404157298 0.1484871747139575 0 0.030647300405420418 0.15128523735033439 0 0.040718626988713591 0.16031604447242639 0 0.038422181404157298 0.1484871747139575 0 0.040718626988713591 0.16031604447242639 0 0.050968117035017059 0.14689904002260681 0 0.045617567762428028 0.1452434590806167 0 0.040718626988713591 0.16031604447242639 0 0.038422181404157298 0.1484871747139575 0 0.045617567762428028 0.1452434590806167 0 0.042528862792271811 0.1341257696379593 0 0.038422181404157298 0.1484871747139575 0 0.045617567762428028 0.1452434590806167 0 0.022062085370766191 0.24948980786434841 0 0.01475444484588343 0.2220279858294584 0 0.038458767921905411 0.2372486564289448 0 0.022062085370766191 0.24948980786434841 0 0.0069152235249865081 0.24001655582746689 0 0.01475444484588343 0.2220279858294584 0 -0.0013581205314274699 0.25585075003031849 0 0.022062085370766191 0.24948980786434841 0 0.0069152235249865081 0.24001655582746689 0 -0.0070972438617433386 0.2318192067591931 0 0.0069152235249865081 0.24001655582746689 0 0.01475444484588343 0.2220279858294584 0 0.01475444484588343 0.2220279858294584 0 0.038458767921905411 0.2372486564289448 0 0.01475444484588343 0.2220279858294584 0 0.031101013158240629 0.21426358341649121 0 0.038458767921905411 0.2372486564289448 0 0.031101013158240629 0.21426358341649121 0 0.010474193330965579 0.2086963352052455 0 0.021388213061046431 0.19992492512884161 0 0.01475444484588343 0.2220279858294584 0 0.031101013158240629 0.21426358341649121 0 0.010474193330965579 0.2086963352052455 0 -0.0089498782301390065 0.20680731522997281 0 0.01475444484588343 0.2220279858294584 0 -0.001198125073508286 0.20096261394949769 0 -0.0089498782301390065 0.20680731522997281 0 0.010474193330965579 0.2086963352052455 0 -0.0089498782301390065 0.20680731522997281 0 0.01475444484588343 0.2220279858294584 0 0.010474193330965579 0.2086963352052455 0 -0.001198125073508286 0.20096261394949769 0 0.010474193330965579 0.2086963352052455 0 0.021388213061046431 0.19992492512884161 0 -0.001198125073508286 0.20096261394949769 0 0.021388213061046431 0.19992492512884161 0 -0.001198125073508286 0.20096261394949769 0 0.01089648941808311 0.1918434627874944 0 0.021388213061046431 0.19992492512884161 0 -0.001198125073508286 0.20096261394949769 0 0.01089648941808311 0.1918434627874944 0 -0.001198125073508286 0.20096261394949769 0 -0.000617891155602524 0.18583592233474339 0 0.01089648941808311 0.1918434627874944 0 0.01089648941808311 0.1918434627874944 0 0.021794078521947979 0.1917477668598199 0 0.021388213061046431 0.19992492512884161 0 0.017694442714695731 0.18558993045824609 0 0.01089648941808311 0.1918434627874944 0 0.021794078521947979 0.1917477668598199 0 0.021388213061046431 0.19992492512884161 0 0.02862525467261692 0.19404817166579311 0 0.037184734066848107 0.1981613041756318 0 0.017694442714695731 0.18558993045824609 0 0.021794078521947979 0.1917477668598199 0 0.023725842278767929 0.18794485024173849 0 0.021794078521947979 0.1917477668598199 0 0.021388213061046431 0.19992492512884161 0 0.02862525467261692 0.19404817166579311 0 0.02862525467261692 0.19404817166579311 0 0.02788291684150275 0.1893477059397303 0 0.03460923092936697 0.19011098295722481 0 0.027531931036925281 0.1850939977091576 0 0.02788291684150275 0.1893477059397303 0 0.03460923092936697 0.19011098295722481 0 0.021794078521947979 0.1917477668598199 0 0.02788291684150275 0.1893477059397303 0 0.023725842278767929 0.18794485024173849 0 0.021794078521947979 0.1917477668598199 0 0.02862525467261692 0.19404817166579311 0 0.02788291684150275 0.1893477059397303 0 0.021388213061046431 0.19992492512884161 0 0.043974551195601112 0.19888723630818581 0 0.021388213061046431 0.19992492512884161 0 0.037184734066848107 0.1981613041756318 0 0.043974551195601112 0.19888723630818581 0 0.044174740321551477 0.18505716244004139 0 0.03460923092936697 0.19011098295722481 0 0.037184734066848107 0.1981613041756318 0 0.02862525467261692 0.19404817166579311 0 0.03460923092936697 0.19011098295722481 0 0.037184734066848107 0.1981613041756318 0 0.044174740321551477 0.18505716244004139 0 0.037184734066848107 0.1981613041756318 0 0.043974551195601112 0.19888723630818581 0 0.044174740321551477 0.18505716244004139 0 0.037184734066848107 0.1981613041756318 0 0.044174740321551477 0.18505716244004139 0 0.06597871692555754 0.19286212852931861 0 0.043974551195601112 0.19888723630818581 0 0.066560889330155831 0.1978495474875327 0 0.043974551195601112 0.19888723630818581 0 0.066560889330155831 0.1978495474875327 0 0.06597871692555754 0.19286212852931861 0 0.044174740321551477 0.18505716244004139 0 0.043974551195601112 0.19888723630818581 0 0.06597871692555754 0.19286212852931861 0 0.043974551195601112 0.19888723630818581 0 0.051979137696263458 0.2156263135077553 0 0.066560889330155831 0.1978495474875327 0 0.031101013158240629 0.21426358341649121 0 0.021388213061046431 0.19992492512884161 0 0.043974551195601112 0.19888723630818581 0 0.031101013158240629 0.21426358341649121 0 0.043974551195601112 0.19888723630818581 0 0.051979137696263458 0.2156263135077553 0 0.031101013158240629 0.21426358341649121 0 0.051979137696263458 0.2156263135077553 0 0.038458767921905411 0.2372486564289448 0 0.051979137696263458 0.2156263135077553 0 0.058786390356923152 0.23496943861551711 0 0.069385872849641442 0.22205092881451721 0 0.051979137696263458 0.2156263135077553 0 0.058786390356923152 0.23496943861551711 0 0.038458767921905411 0.2372486564289448 0 0.038458767921905411 0.2372486564289448 0 0.062163090997927238 0.25246932702843122 0 0.058786390356923152 0.23496943861551711 0 0.038458767921905411 0.2372486564289448 0 0.062163090997927238 0.25246932702843122 0 0.038458767921905411 0.2372486564289448 0 0.040294956150503269 0.25223707839592702 0 0.062163090997927238 0.25246932702843122 0 0.022062085370766191 0.24948980786434841 0 0.038458767921905411 0.2372486564289448 0 0.040294956150503269 0.25223707839592702 0 0.092298605903505693 0.2416158844505919 0 0.082658622746558649 0.2397877941422116 0 0.1030595415881696 0.22716480263499461 0 0.091543946649292843 0.24997310198023659 0 0.092298605903505693 0.2416158844505919 0 0.082826472274950214 0.24647050934762871 0 0.091543946649292843 0.24997310198023659 0 0.082826472274950214 0.24647050934762871 0 0.085868016482932338 0.25269131097926117 0 0.092298605903505693 0.2416158844505919 0 0.082658622746558649 0.2397877941422116 0 0.082826472274950214 0.24647050934762871 0 0.082658622746558649 0.2397877941422116 0 0.082826472274950214 0.24647050934762871 0 0.077828192347162622 0.247122705985938 0 0.082658622746558649 0.2397877941422116 0 0.082826472274950214 0.24647050934762871 0 0.082826472274950214 0.24647050934762871 0 0.077828192347162622 0.247122705985938 0 0.080280856494467548 0.25090285684720348 0 0.082658622746558649 0.2397877941422116 0 0.077828192347162622 0.247122705985938 0 0.072210856369126331 0.24625231014150181 0 0.082658622746558649 0.2397877941422116 0 0.072210856369126331 0.24625231014150181 0 0.058786390356923152 0.23496943861551711 0 0.072210856369126331 0.24625231014150181 0 0.069385872849641442 0.22205092881451721 0 0.058786390356923152 0.23496943861551711 0 0.072210856369126331 0.24625231014150181 0 0.062163090997927238 0.25246932702843122 0 0.077828192347162622 0.247122705985938 0 0.072506791539930587 0.248787560300406 0 0.07607094232800328 0.25203594905764171 0 0.082658622746558649 0.2397877941422116 0 0.072210856369126331 0.24625231014150181 0 0.069385872849641442 0.22205092881451721 0 0.077828192347162622 0.247122705985938 0 0.072506791539930587 0.248787560300406 0 0.072210856369126331 0.24625231014150181 0 0.072506791539930587 0.248787560300406 0 0.072210856369126331 0.24625231014150181 0 0.072506791539930587 0.248787560300406 0 0.072210856369126331 0.24625231014150181 0 0.062163090997927238 0.25246932702843122 0 0.072210856369126331 0.24625231014150181 0 0.062163090997927238 0.25246932702843122 0 0.082658622746558649 0.2397877941422116 0 0.069385872849641442 0.22205092881451721 0 0.082139624894835103 0.21912455565418451 0 0.072210856369126331 0.24625231014150181 0 0.069385872849641442 0.22205092881451721 0 0.082658622746558649 0.2397877941422116 0 0.1030595415881696 0.22716480263499461 0 0.082658622746558649 0.2397877941422116 0 0.082139624894835103 0.21912455565418451 0 0.1030595415881696 0.22716480263499461 0 0.082658622746558649 0.2397877941422116 0 0.082139624894835103 0.21912455565418451 0 0.082139624894835103 0.21912455565418451 0 0.095585571169227557 0.20346021793194061 0 0.09714791115721369 0.21544213445291999 0 0.082139624894835103 0.21912455565418451 0 0.076696120787780805 0.20506728339069549 0 0.08158792074259083 0.1971591574645242 0 0.082139624894835103 0.21912455565418451 0 0.08158792074259083 0.1971591574645242 0 0.082139624894835103 0.21912455565418451 0 0.08158792074259083 0.1971591574645242 0 0.095585571169227557 0.20346021793194061 0 0.069385872849641442 0.22205092881451721 0 0.066560889330155831 0.1978495474875327 0 0.051979137696263458 0.2156263135077553 0 0.069385872849641442 0.22205092881451721 0 0.066560889330155831 0.1978495474875327 0 0.069385872849641442 0.22205092881451721 0 0.082139624894835103 0.21912455565418451 0 0.074290296389340357 0.21300337527978819 0 0.082139624894835103 0.21912455565418451 0 0.074290296389340357 0.21300337527978819 0 0.076696120787780805 0.20506728339069549 0 0.069385872849641442 0.22205092881451721 0 0.074290296389340357 0.21300337527978819 0 0.068919423373805702 0.2038155699000451 0 0.069385872849641442 0.22205092881451721 0 0.068919423373805702 0.2038155699000451 0 0.066560889330155831 0.1978495474875327 0 0.074290296389340357 0.21300337527978819 0 0.068919423373805702 0.2038155699000451 0 0.076696120787780805 0.20506728339069549 0 0.068919423373805702 0.2038155699000451 0 0.076696120787780805 0.20506728339069549 0 0.075810993686745876 0.19638169691334109 0 0.076696120787780805 0.20506728339069549 0 0.075810993686745876 0.19638169691334109 0 0.078392972137658321 0.19730594365138451 0 0.075810993686745876 0.19638169691334109 0 0.066560889330155831 0.1978495474875327 0 0.068919423373805702 0.2038155699000451 0 0.075810993686745876 0.19638169691334109 0 0.066560889330155831 0.1978495474875327 0 0.075810993686745876 0.19638169691334109 0 0.078392972137658321 0.19730594365138451 0 0.068919423373805702 0.2038155699000451 0 0.075810993686745876 0.19638169691334109 0 0.075810993686745876 0.19638169691334109 0 0.066560889330155831 0.1978495474875327 0 0.06597871692555754 0.19286212852931861 0 0.066560889330155831 0.1978495474875327 0 0.06597871692555754 0.19286212852931861 0 0.075810993686745876 0.19638169691334109 0 0.06597871692555754 0.19286212852931861 0 0.073834092740423615 0.19040044311737489 0 0.075810993686745876 0.19638169691334109 0 0.06597871692555754 0.19286212852931861 0 0.073834092740423615 0.19040044311737489 0 0.081416520305051893 0.19033506733374281 0 0.072130140044340055 0.18202287969309691 0 0.06597871692555754 0.19286212852931861 0 0.073834092740423615 0.19040044311737489 0 0.072130140044340055 0.18202287969309691 0 0.075810993686745876 0.19638169691334109 0 0.073834092740423615 0.19040044311737489 0 0.081416520305051893 0.19033506733374281 0 0.075810993686745876 0.19638169691334109 0 0.081416520305051893 0.19033506733374281 0 0.081416520305051893 0.19033506733374281 0 0.08158792074259083 0.1971591574645242 0 0.081416520305051893 0.19033506733374281 0 0.078392972137658321 0.19730594365138451 0 0.08158792074259083 0.1971591574645242 0 0.075810993686745876 0.19638169691334109 0 0.081416520305051893 0.19033506733374281 0 0.078392972137658321 0.19730594365138451 0 0.078392972137658321 0.19730594365138451 0 0.08158792074259083 0.1971591574645242 0 0.076696120787780805 0.20506728339069549 0 0.078392972137658321 0.19730594365138451 0 0.08158792074259083 0.1971591574645242 0 0.08158792074259083 0.1971591574645242 0 0.095585571169227557 0.20346021793194061 0 0.081416520305051893 0.19033506733374281 0 0.08158792074259083 0.1971591574645242 0 0.09623004371530515 0.18715311733008061 0 0.08158792074259083 0.1971591574645242 0 0.1077727975799239 0.19595614023337909 0 0.08158792074259083 0.1971591574645242 0 0.1077727975799239 0.19595614023337909 0 0.09623004371530515 0.18715311733008061 0 0.08158792074259083 0.1971591574645242 0 0.1077727975799239 0.19595614023337909 0 0.095585571169227557 0.20346021793194061 0 0.1077727975799239 0.19595614023337909 0 0.1082322389923193 0.20974968668547961 0 0.095585571169227557 0.20346021793194061 0 0.1077727975799239 0.19595614023337909 0 0.09623004371530515 0.18715311733008061 0 0.1105475807722241 0.18160118002685391 0 0.1077727975799239 0.19595614023337909 0 0.1105475807722241 0.18160118002685391 0 0.120986044528871 0.18601621363441179 0 0.1077727975799239 0.19595614023337909 0 0.1339576744172567 0.1947531230022336 0 0.1077727975799239 0.19595614023337909 0 0.120986044528871 0.18601621363441179 0 0.1339576744172567 0.1947531230022336 0 0.1077727975799239 0.19595614023337909 0 0.12150083337996349 0.2045424151535698 0 0.1339576744172567 0.1947531230022336 0 0.1077727975799239 0.19595614023337909 0 0.12150083337996349 0.2045424151535698 0 0.1082322389923193 0.20974968668547961 0 0.1234604604297793 0.2145418111277754 0 0.1082322389923193 0.20974968668547961 0 0.1030595415881696 0.22716480263499461 0 0.12150083337996349 0.2045424151535698 0 0.1234604604297793 0.2145418111277754 0 0.1082322389923193 0.20974968668547961 0 0.1082322389923193 0.20974968668547961 0 0.09714791115721369 0.21544213445291999 0 0.1030595415881696 0.22716480263499461 0 0.1082322389923193 0.20974968668547961 0 0.095585571169227557 0.20346021793194061 0 0.09714791115721369 0.21544213445291999 0 0.082139624894835103 0.21912455565418451 0 0.09714791115721369 0.21544213445291999 0 0.1030595415881696 0.22716480263499461 0 0.1234604604297793 0.2145418111277754 0 0.1030595415881696 0.22716480263499461 0 0.1199404235558679 0.23389585646776331 0 0.1234604604297793 0.2145418111277754 0 0.1030595415881696 0.22716480263499461 0 0.1199404235558679 0.23389585646776331 0 0.12695957089482901 0.24747230001415241 0 0.11700612055034661 0.25280059366604207 0 0.1199404235558679 0.23389585646776331 0 0.1057998516311974 0.26008039821654533 0 0.1199404235558679 0.23389585646776331 0 0.11700612055034661 0.25280059366604207 0 0.1057998516311974 0.26008039821654533 0 0.1030595415881696 0.22716480263499461 0 0.1199404235558679 0.23389585646776331 0 0.10140444625855841 0.24468321414788791 0 0.1199404235558679 0.23389585646776331 0 0.10140444625855841 0.24468321414788791 0 0.1057998516311974 0.26008039821654533 0 0.092298605903505693 0.2416158844505919 0 0.1030595415881696 0.22716480263499461 0 0.10140444625855841 0.24468321414788791 0 0.091543946649292843 0.24997310198023659 0 0.092298605903505693 0.2416158844505919 0 0.10140444625855841 0.24468321414788791 0 0.091543946649292843 0.24997310198023659 0 0.10140444625855841 0.24468321414788791 0 0.097171933684521816 0.25511804805167337 0 0.08963547268293702 0.15148332961178179 0 0.080123132603335923 0.13884048320524789 0 0.080769826454193519 0.16458777526949531 0 0.080123132603335923 0.13884048320524789 0 0.080769826454193519 0.16458777526949531 0 0.08963547268293702 0.15148332961178179 0 0.089860524370539124 0.1427399324318048 0 0.080123132603335923 0.13884048320524789 0 0.089860524370539124 0.1427399324318048 0 0.091167059396607353 0.13573593550393959 0 0.080123132603335923 0.13884048320524789 0 0.092874127428698744 0.1243916658413016 0 0.091167059396607353 0.13573593550393959 0 0.079959461045495464 0.13328720631413671 0 0.092874127428698744 0.1243916658413016 0 0.079959461045495464 0.13328720631413671 0 0.091167059396607353 0.13573593550393959 0 0.080123132603335923 0.13884048320524789 0 0.079959461045495464 0.13328720631413671 0 0.081226855773400886 0.1155956834667107 0 0.06704479466229149 0.14218274678697079 0 0.079959461045495464 0.13328720631413671 0 0.06704479466229149 0.14218274678697079 0 0.080123132603335923 0.13884048320524789 0 0.079959461045495464 0.13328720631413671 0 0.06704479466229149 0.14218274678697079 0 0.081226855773400886 0.1155956834667107 0 0.079959461045495464 0.13328720631413671 0 0.06704479466229149 0.14218274678697079 0 0.081226855773400886 0.1155956834667107 0 0.067192531123333551 0.1203097440484758 0 0.06704479466229149 0.14218274678697079 0 0.067192531123333551 0.1203097440484758 0 0.058396373177095957 0.12790486731237569 0 0.06704479466229149 0.14218274678697079 0 0.061316521944299013 0.1529215208111277 0 0.060582577145409093 0.1466338813157318 0 0.06704479466229149 0.14218274678697079 0 0.061316521944299013 0.1529215208111277 0 0.06704479466229149 0.14218274678697079 0 0.060582577145409093 0.1466338813157318 0 0.06704479466229149 0.14218274678697079 0 0.080123132603335923 0.13884048320524789 0 0.07169167292959 0.1539293704675723 0 0.080769826454193519 0.16458777526949531 0 0.080123132603335923 0.13884048320524789 0 0.06704479466229149 0.14218274678697079 0 0.07169167292959 0.1539293704675723 0 0.061316521944299013 0.1529215208111277 0 0.06704479466229149 0.14218274678697079 0 0.07169167292959 0.1539293704675723 0 0.07169167292959 0.1539293704675723 0 0.063647619434929442 0.17289182467022299 0 0.080769826454193519 0.16458777526949531 0 0.061316521944299013 0.1529215208111277 0 0.07169167292959 0.1539293704675723 0 0.063647619434929442 0.17289182467022299 0 0.081416520305051893 0.19033506733374281 0 0.072130140044340055 0.18202287969309691 0 0.080769826454193519 0.16458777526949531 0 0.063647619434929442 0.17289182467022299 0 0.072130140044340055 0.18202287969309691 0 0.080769826454193519 0.16458777526949531 0 0.06597871692555754 0.19286212852931861 0 0.063647619434929442 0.17289182467022299 0 0.072130140044340055 0.18202287969309691 0 0.06597871692555754 0.19286212852931861 0 0.063647619434929442 0.17289182467022299 0 0.081416520305051893 0.19033506733374281 0 0.1017471809217471 0.16840457226550931 0 0.09623004371530515 0.18715311733008061 0 0.081416520305051893 0.19033506733374281 0 0.080769826454193519 0.16458777526949531 0 0.081416520305051893 0.19033506733374281 0 0.080769826454193519 0.16458777526949531 0 0.1017471809217471 0.16840457226550931 0 0.081416520305051893 0.19033506733374281 0 0.1017471809217471 0.16840457226550931 0 0.08963547268293702 0.15148332961178179 0 0.080769826454193519 0.16458777526949531 0 0.1017471809217471 0.16840457226550931 0 0.1017471809217471 0.16840457226550931 0 0.09623004371530515 0.18715311733008061 0 0.1105475807722241 0.18160118002685391 0 0.1017471809217471 0.16840457226550931 0 0.1105475807722241 0.18160118002685391 0 0.1260018371152733 0.17047585667088891 0 0.1105475807722241 0.18160118002685391 0 0.120986044528871 0.18601621363441179 0 0.1260018371152733 0.17047585667088891 0 0.1017471809217471 0.16840457226550931 0 0.1220778415384416 0.1464740771972749 0 0.1260018371152733 0.17047585667088891 0 0.1017471809217471 0.16840457226550931 0 0.1220778415384416 0.1464740771972749 0 0.08963547268293702 0.15148332961178179 0 0.1017471809217471 0.16840457226550931 0 0.1025518898584848 0.14398509630836701 0 0.1017471809217471 0.16840457226550931 0 0.1220778415384416 0.1464740771972749 0 0.1025518898584848 0.14398509630836701 0 0.089860524370539124 0.1427399324318048 0 0.091167059396607353 0.13573593550393959 0 0.1025518898584848 0.14398509630836701 0 0.08963547268293702 0.15148332961178179 0 0.089860524370539124 0.1427399324318048 0 0.1025518898584848 0.14398509630836701 0 0.1025518898584848 0.14398509630836701 0 0.10123277553907251 0.13030272508469959 0 0.1155281386006284 0.12780565999363219 0 0.092874127428698744 0.1243916658413016 0 0.091167059396607353 0.13573593550393959 0 0.10123277553907251 0.13030272508469959 0 0.091167059396607353 0.13573593550393959 0 0.1025518898584848 0.14398509630836701 0 0.10123277553907251 0.13030272508469959 0 0.10474825365104801 0.118871671338058 0 0.10123277553907251 0.13030272508469959 0 0.1155281386006284 0.12780565999363219 0 0.1220778415384416 0.1464740771972749 0 0.1025518898584848 0.14398509630836701 0 0.1155281386006284 0.12780565999363219 0 0.14521027461101521 0.151337732623779 0 0.1661070325660941 0.14078231180355719 0 0.14664782704348681 0.1187352828605238 0 0.1220778415384416 0.1464740771972749 0 0.14521027461101521 0.151337732623779 0 0.14664782704348681 0.1187352828605238 0 0.1220778415384416 0.1464740771972749 0 0.1155281386006284 0.12780565999363219 0 0.14664782704348681 0.1187352828605238 0 0.1220778415384416 0.1464740771972749 0 0.14521027461101521 0.151337732623779 0 0.1260018371152733 0.17047585667088891 0 0.14521027461101521 0.151337732623779 0 0.1260018371152733 0.17047585667088891 0 0.15061865453786899 0.1729179153565196 0 0.1260018371152733 0.17047585667088891 0 0.13534403773305559 0.1823193438380469 0 0.15061865453786899 0.1729179153565196 0 0.120986044528871 0.18601621363441179 0 0.1260018371152733 0.17047585667088891 0 0.13534403773305559 0.1823193438380469 0 0.14515597806600811 0.1874336105261806 0 0.15061865453786899 0.1729179153565196 0 0.16204504681008089 0.18870236575137159 0 0.13534403773305559 0.1823193438380469 0 0.14515597806600811 0.1874336105261806 0 0.15061865453786899 0.1729179153565196 0 0.14521027461101521 0.151337732623779 0 0.15061865453786899 0.1729179153565196 0 0.16395392184436899 0.16048462241307171 0 0.15061865453786899 0.1729179153565196 0 0.16395392184436899 0.16048462241307171 0 0.1722674094181656 0.17455581153491201 0 0.15061865453786899 0.1729179153565196 0 0.1722674094181656 0.17455581153491201 0 0.17259225927221081 0.19094818343649231 0 0.15061865453786899 0.1729179153565196 0 0.16204504681008089 0.18870236575137159 0 0.17259225927221081 0.19094818343649231 0 0.15061865453786899 0.1729179153565196 0 0.17259225927221081 0.19094818343649231 0 0.1722674094181656 0.17455581153491201 0 0.18060778878421629 0.1846173187868661 0 0.17259225927221081 0.19094818343649231 0 0.1722674094181656 0.17455581153491201 0 0.18562052641514501 0.17696147215046901 0 0.18060778878421629 0.1846173187868661 0 0.18562052641514501 0.17696147215046901 0 0.18060778878421629 0.1846173187868661 0 0.18906167100345331 0.18662938262274939 0 0.16395392184436899 0.16048462241307171 0 0.1722674094181656 0.17455581153491201 0 0.1855662380887014 0.16282934074659061 0 0.1722674094181656 0.17455581153491201 0 0.18562052641514501 0.17696147215046901 0 0.1855662380887014 0.16282934074659061 0 0.1855662380887014 0.16282934074659061 0 0.1661070325660941 0.14078231180355719 0 0.16395392184436899 0.16048462241307171 0 0.1855662380887014 0.16282934074659061 0 0.1661070325660941 0.14078231180355719 0 0.1661070325660941 0.14078231180355719 0 0.14664782704348681 0.1187352828605238 0 0.1798032166279758 0.1186054906750668 0 0.1855662380887014 0.16282934074659061 0 0.1661070325660941 0.14078231180355719 0 0.18956359960750219 0.143555508526789 0 0.1661070325660941 0.14078231180355719 0 0.18956359960750219 0.143555508526789 0 0.1798032166279758 0.1186054906750668 0 0.1661070325660941 0.14078231180355719 0 0.14664782704348681 0.1187352828605238 0 0.14521027461101521 0.151337732623779 0 0.16395392184436899 0.16048462241307171 0 0.1661070325660941 0.14078231180355719 0 0.14866603178531401 0.24164403189080999 0 0.13509442225443219 0.2393925532886215 0 0.13953008625823379 0.22557290513474559 0 0.14866603178531401 0.24164403189080999 0 0.13509442225443219 0.2393925532886215 0 0.13457760263714399 0.25216438853103162 0 0.12695957089482901 0.24747230001415241 0 0.13509442225443219 0.2393925532886215 0 0.13457760263714399 0.25216438853103162 0 0.1199404235558679 0.23389585646776331 0 0.12695957089482901 0.24747230001415241 0 0.13509442225443219 0.2393925532886215 0 0.1199404235558679 0.23389585646776331 0 0.13953008625823379 0.22557290513474559 0 0.13408099548053831 0.2077113147189813 0 0.1199404235558679 0.23389585646776331 0 0.13509442225443219 0.2393925532886215 0 0.13953008625823379 0.22557290513474559 0 0.1199404235558679 0.23389585646776331 0 0.13408099548053831 0.2077113147189813 0 0.14866603178531401 0.24164403189080999 0 0.13953008625823379 0.22557290513474559 0 0.15535553929769749 0.21517319882109079 0 0.14866603178531401 0.24164403189080999 0 0.15535553929769749 0.21517319882109079 0 0.16233630100095151 0.2310180010542876 0 0.14866603178531401 0.24164403189080999 0 0.15535553929769749 0.21517319882109079 0 0.13953008625823379 0.22557290513474559 0 0.15535553929769749 0.21517319882109079 0 0.14337373196278419 0.2145413418462308 0 0.14337373196278419 0.2145413418462308 0 0.13408099548053831 0.2077113147189813 0 0.1456570266952637 0.20136728779579699 0 0.15535553929769749 0.21517319882109079 0 0.14337373196278419 0.2145413418462308 0 0.1456570266952637 0.20136728779579699 0 0.1234604604297793 0.2145418111277754 0 0.1199404235558679 0.23389585646776331 0 0.13408099548053831 0.2077113147189813 0 0.13953008625823379 0.22557290513474559 0 0.14337373196278419 0.2145413418462308 0 0.13408099548053831 0.2077113147189813 0 0.12150083337996349 0.2045424151535698 0 0.1234604604297793 0.2145418111277754 0 0.13408099548053831 0.2077113147189813 0 0.13408099548053831 0.2077113147189813 0 0.1339576744172567 0.1947531230022336 0 0.1456570266952637 0.20136728779579699 0 0.12150083337996349 0.2045424151535698 0 0.13408099548053831 0.2077113147189813 0 0.1339576744172567 0.1947531230022336 0 0.120986044528871 0.18601621363441179 0 0.13534403773305559 0.1823193438380469 0 0.1339576744172567 0.1947531230022336 0 0.13534403773305559 0.1823193438380469 0 0.14515597806600811 0.1874336105261806 0 0.1339576744172567 0.1947531230022336 0 0.14515597806600811 0.1874336105261806 0 0.1339576744172567 0.1947531230022336 0 0.1456570266952637 0.20136728779579699 0 0.15535553929769749 0.21517319882109079 0 0.1456570266952637 0.20136728779579699 0 0.16204504681008089 0.18870236575137159 0 0.14515597806600811 0.1874336105261806 0 0.1456570266952637 0.20136728779579699 0 0.16204504681008089 0.18870236575137159 0 0.15535553929769749 0.21517319882109079 0 0.16204504681008089 0.18870236575137159 0 0.16204504681008089 0.18870236575137159 0 0.17259225927221081 0.19094818343649231 0 0.168194367447317 0.20909388772724299 0 0.17259225927221081 0.19094818343649231 0 0.19456586400655301 0.20897845151646449 0 0.17259225927221081 0.19094818343649231 0 0.17831402759608081 0.20782362223470591 0 0.19456586400655301 0.20897845151646449 0 0.17259225927221081 0.19094818343649231 0 0.18591600872025621 0.193152370432459 0 0.19456586400655301 0.20897845151646449 0 0.17259225927221081 0.19094818343649231 0 0.17831402759608081 0.20782362223470591 0 0.168194367447317 0.20909388772724299 0 0.18060778878421629 0.1846173187868661 0 0.17259225927221081 0.19094818343649231 0 0.18591600872025621 0.193152370432459 0 0.18060778878421629 0.1846173187868661 0 0.18591600872025621 0.193152370432459 0 0.18906167100345331 0.18662938262274939 0 0.17831402759608081 0.20782362223470591 0 0.17852303070688069 0.2208979550655101 0 0.19456586400655301 0.20897845151646449 0 0.17831402759608081 0.20782362223470591 0 0.168194367447317 0.20909388772724299 0 0.17852303070688069 0.2208979550655101 0 0.15535553929769749 0.21517319882109079 0 0.16204504681008089 0.18870236575137159 0 0.168194367447317 0.20909388772724299 0 0.15535553929769749 0.21517319882109079 0 0.168194367447317 0.20909388772724299 0 0.16233630100095151 0.2310180010542876 0 0.168194367447317 0.20909388772724299 0 0.16233630100095151 0.2310180010542876 0 0.17852303070688069 0.2208979550655101 0 0.17852303070688069 0.2208979550655101 0 0.17622132364886739 0.23348535781537499 0 0.1893346898766165 0.23735265190416821 0 0.16233630100095151 0.2310180010542876 0 0.17852303070688069 0.2208979550655101 0 0.17622132364886739 0.23348535781537499 0 0.17852303070688069 0.2208979550655101 0 0.1893346898766165 0.23735265190416821 0 0.19456586400655301 0.20897845151646449 0 0.17352967210218409 0.2442277412166384 0 0.1893346898766165 0.23735265190416821 0 0.18701858308565131 0.2417861968994808 0 0.17352967210218409 0.2442277412166384 0 0.1893346898766165 0.23735265190416821 0 0.17622132364886739 0.23348535781537499 0 0.17352967210218409 0.2442277412166384 0 0.1893346898766165 0.23735265190416821 0 0.18701858308565131 0.2417861968994808 0 0.1804468726277432 0.24761129681614499 0 0.17352967210218409 0.2442277412166384 0 0.187719809250948 0.24611186070449331 0 0.18685789544736289 0.25078693256644929 0 0.1804468726277432 0.24761129681614499 0 0.187719809250948 0.24611186070449331 0 0.18685789544736289 0.25078693256644929 0 0.18701858308565131 0.2417861968994808 0 0.1804468726277432 0.24761129681614499 0 0.187719809250948 0.24611186070449331 0 0.18701858308565131 0.2417861968994808 0 0.187719809250948 0.24611186070449331 0 0.1804468726277432 0.24761129681614499 0 0.17352967210218409 0.2442277412166384 0 0.16955028484120149 0.25400044680028072 0 0.17352967210218409 0.2442277412166384 0 0.15772465432775251 0.25110283052911042 0 0.17352967210218409 0.2442277412166384 0 0.15772465432775251 0.25110283052911042 0 0.16955028484120149 0.25400044680028072 0 0.17352967210218409 0.2442277412166384 0 0.1632227123549452 0.2413752297272686 0 0.15772465432775251 0.25110283052911042 0 0.16233630100095151 0.2310180010542876 0 0.17622132364886739 0.23348535781537499 0 0.1632227123549452 0.2413752297272686 0 0.17622132364886739 0.23348535781537499 0 0.17352967210218409 0.2442277412166384 0 0.1632227123549452 0.2413752297272686 0 0.14866603178531401 0.24164403189080999 0 0.16233630100095151 0.2310180010542876 0 0.1632227123549452 0.2413752297272686 0 0.14866603178531401 0.24164403189080999 0 0.1632227123549452 0.2413752297272686 0 0.15772465432775251 0.25110283052911042 0 0.20491155840100941 0.23057680616692949 0 0.20429698142111721 0.2501470961135025 0 0.21549033157304329 0.24085076469811209 0 0.20491155840100941 0.23057680616692949 0 0.20429698142111721 0.2501470961135025 0 0.21549033157304329 0.24085076469811209 0 0.20429698142111721 0.2501470961135025 0 0.21904009887537171 0.25628199394506529 0 0.1962229660311596 0.24341386898229489 0 0.19721509596201389 0.25467587743472492 0 0.20429698142111721 0.2501470961135025 0 0.1962229660311596 0.24341386898229489 0 0.20491155840100941 0.23057680616692949 0 0.20429698142111721 0.2501470961135025 0 0.1962229660311596 0.24341386898229489 0 0.187719809250948 0.24611186070449331 0 0.19721509596201389 0.25467587743472492 0 0.1962229660311596 0.24341386898229489 0 0.187719809250948 0.24611186070449331 0 0.1893346898766165 0.23735265190416821 0 0.18701858308565131 0.2417861968994808 0 0.187719809250948 0.24611186070449331 0 0.1893346898766165 0.23735265190416821 0 0.187719809250948 0.24611186070449331 0 0.1893346898766165 0.23735265190416821 0 0.1962229660311596 0.24341386898229489 0 0.1893346898766165 0.23735265190416821 0 0.20491155840100941 0.23057680616692949 0 0.1893346898766165 0.23735265190416821 0 0.20491155840100941 0.23057680616692949 0 0.20531289487692081 0.21779684294559851 0 0.1893346898766165 0.23735265190416821 0 0.19456586400655301 0.20897845151646449 0 0.1893346898766165 0.23735265190416821 0 0.20531289487692081 0.21779684294559851 0 0.19456586400655301 0.20897845151646449 0 0.1893346898766165 0.23735265190416821 0 0.20491155840100941 0.23057680616692949 0 0.20491155840100941 0.23057680616692949 0 0.2153527361767896 0.2260349555495865 0 0.20531289487692081 0.21779684294559851 0 0.20491155840100941 0.23057680616692949 0 0.20531289487692081 0.21779684294559851 0 0.2153527361767896 0.2260349555495865 0 0.20531289487692081 0.21779684294559851 0 0.20491155840100941 0.23057680616692949 0 0.2153527361767896 0.2260349555495865 0 0.21549033157304329 0.24085076469811209 0 0.20491155840100941 0.23057680616692949 0 0.2153527361767896 0.2260349555495865 0 0.2153527361767896 0.2260349555495865 0 0.20531289487692081 0.21779684294559851 0 0.2194833912603307 0.2128155721655712 0 0.2149046177477649 0.20404989924004049 0 0.20531289487692081 0.21779684294559851 0 0.20608369677067839 0.1932518029493952 0 0.20531289487692081 0.21779684294559851 0 0.20608369677067839 0.1932518029493952 0 0.2149046177477649 0.20404989924004049 0 0.20531289487692081 0.21779684294559851 0 0.2194833912603307 0.2128155721655712 0 0.20531289487692081 0.21779684294559851 0 0.19456586400655301 0.20897845151646449 0 0.20608369677067839 0.1932518029493952 0 0.20531289487692081 0.21779684294559851 0 0.19456586400655301 0.20897845151646449 0 0.19456586400655301 0.20897845151646449 0 0.1918090975125184 0.19379555526253181 0 0.19792206873969201 0.19077419693138359 0 0.19456586400655301 0.20897845151646449 0 0.19792206873969201 0.19077419693138359 0 0.18591600872025621 0.193152370432459 0 0.19456586400655301 0.20897845151646449 0 0.1918090975125184 0.19379555526253181 0 0.19456586400655301 0.20897845151646449 0 0.19792206873969201 0.19077419693138359 0 0.20608369677067839 0.1932518029493952 0 0.1918090975125184 0.19379555526253181 0 0.19792206873969201 0.19077419693138359 0 0.18906167100345331 0.18662938262274939 0 0.18591600872025621 0.193152370432459 0 0.1918090975125184 0.19379555526253181 0 0.18906167100345331 0.18662938262274939 0 0.2149046177477649 0.20404989924004049 0 0.20608369677067839 0.1932518029493952 0 0.21931858683045949 0.1926679520444263 0 0.20608369677067839 0.1932518029493952 0 0.21931858683045949 0.1926679520444263 0 0.21478638293833879 0.1817485154615508 0 0.21931858683045949 0.1926679520444263 0 0.23507586157148941 0.19761143868751971 0 0.22628492123743479 0.18130945986695651 0 0.21931858683045949 0.1926679520444263 0 0.23507586157148941 0.19761143868751971 0 0.2243245190004349 0.2037173260952117 0 0.2149046177477649 0.20404989924004049 0 0.21931858683045949 0.1926679520444263 0 0.2243245190004349 0.2037173260952117 0 0.2475941291823989 0.18769603697772511 0 0.23507586157148941 0.19761143868751971 0 0.22628492123743479 0.18130945986695651 0 0.2475941291823989 0.18769603697772511 0 0.23507586157148941 0.19761143868751971 0 0.25326763791429752 0.20481875588833531 0 0.23507586157148941 0.19761143868751971 0 0.23966537526391099 0.21545910125246351 0 0.25326763791429752 0.20481875588833531 0 0.23507586157148941 0.19761143868751971 0 0.23966537526391099 0.21545910125246351 0 0.2243245190004349 0.2037173260952117 0 0.23966537526391099 0.21545910125246351 0 0.2243245190004349 0.2037173260952117 0 0.2194833912603307 0.2128155721655712 0 0.2153527361767896 0.2260349555495865 0 0.23966537526391099 0.21545910125246351 0 0.2194833912603307 0.2128155721655712 0 0.2149046177477649 0.20404989924004049 0 0.2243245190004349 0.2037173260952117 0 0.2194833912603307 0.2128155721655712 0 0.2153527361767896 0.2260349555495865 0 0.23966537526391099 0.21545910125246351 0 0.2153527361767896 0.2260349555495865 0 0.23966537526391099 0.21545910125246351 0 0.23385028299092811 0.24121297171547751 0 0.2153527361767896 0.2260349555495865 0 0.23385028299092811 0.24121297171547751 0 0.23966537526391099 0.21545910125246351 0 0.23385028299092811 0.24121297171547751 0 0.25384997619844579 0.23452952838135141 0 0.23385028299092811 0.24121297171547751 0 0.25191630733126869 0.24920661226757701 0 0.25384997619844579 0.23452952838135141 0 0.21549033157304329 0.24085076469811209 0 0.23385028299092811 0.24121297171547751 0 0.21904009887537171 0.25628199394506529 0 0.21549033157304329 0.24085076469811209 0 0.2153527361767896 0.2260349555495865 0 0.23385028299092811 0.24121297171547751 0 0.21298583189558429 0.15153276404608659 0 0.20450911964989471 0.13160516091811969 0 0.22432154431681389 0.13454889904547099 0 0.20450911964989471 0.13160516091811969 0 0.22432154431681389 0.13454889904547099 0 0.2063052671444463 0.111586019176762 0 0.20450911964989471 0.13160516091811969 0 0.18956359960750219 0.143555508526789 0 0.1798032166279758 0.1186054906750668 0 0.21298583189558429 0.15153276404608659 0 0.18956359960750219 0.143555508526789 0 0.20030693048026371 0.1623316716944872 0 0.21298583189558429 0.15153276404608659 0 0.20450911964989471 0.13160516091811969 0 0.18956359960750219 0.143555508526789 0 0.1855662380887014 0.16282934074659061 0 0.18956359960750219 0.143555508526789 0 0.20030693048026371 0.1623316716944872 0 0.1855662380887014 0.16282934074659061 0 0.1932951939519815 0.17094962444640241 0 0.20030693048026371 0.1623316716944872 0 0.18562052641514501 0.17696147215046901 0 0.1855662380887014 0.16282934074659061 0 0.1932951939519815 0.17094962444640241 0 0.20030693048026371 0.1623316716944872 0 0.20127827347283081 0.17256994234630249 0 0.20685449866443631 0.1687067629531919 0 0.1932951939519815 0.17094962444640241 0 0.20030693048026371 0.1623316716944872 0 0.20127827347283081 0.17256994234630249 0 0.19792206873969201 0.19077419693138359 0 0.19370400130296681 0.18005569529416271 0 0.20127827347283081 0.17256994234630249 0 0.19792206873969201 0.19077419693138359 0 0.20608369677067839 0.1932518029493952 0 0.20127827347283081 0.17256994234630249 0 0.19792206873969201 0.19077419693138359 0 0.20127827347283081 0.17256994234630249 0 0.19792206873969201 0.19077419693138359 0 0.19370400130296681 0.18005569529416271 0 0.18906167100345331 0.18662938262274939 0 0.18562052641514501 0.17696147215046901 0 0.19370400130296681 0.18005569529416271 0 0.18906167100345331 0.18662938262274939 0 0.18562052641514501 0.17696147215046901 0 0.1932951939519815 0.17094962444640241 0 0.19370400130296681 0.18005569529416271 0 0.1932951939519815 0.17094962444640241 0 0.19370400130296681 0.18005569529416271 0 0.20127827347283081 0.17256994234630249 0 0.20608369677067839 0.1932518029493952 0 0.20685449866443631 0.1687067629531919 0 0.20608369677067839 0.1932518029493952 0 0.21478638293833879 0.1817485154615508 0 0.20685449866443631 0.1687067629531919 0 0.20608369677067839 0.1932518029493952 0 0.20127827347283081 0.17256994234630249 0 0.20685449866443631 0.1687067629531919 0 0.21660550896694419 0.17250843538665739 0 0.21478638293833879 0.1817485154615508 0 0.20685449866443631 0.1687067629531919 0 0.21298583189558429 0.15153276404608659 0 0.20030693048026371 0.1623316716944872 0 0.21203438001877581 0.16414618218578381 0 0.20030693048026371 0.1623316716944872 0 0.20685449866443631 0.1687067629531919 0 0.21203438001877581 0.16414618218578381 0 0.21660550896694419 0.17250843538665739 0 0.21203438001877581 0.16414618218578381 0 0.22341913008665051 0.1656512768484959 0 0.21660550896694419 0.17250843538665739 0 0.20685449866443631 0.1687067629531919 0 0.21203438001877581 0.16414618218578381 0 0.21298583189558429 0.15153276404608659 0 0.21203438001877581 0.16414618218578381 0 0.22341913008665051 0.1656512768484959 0 0.21298583189558429 0.15153276404608659 0 0.22341913008665051 0.1656512768484959 0 0.23112177849973581 0.15343721315908401 0 0.22341913008665051 0.1656512768484959 0 0.2398937274470776 0.1701272920004806 0 0.23112177849973581 0.15343721315908401 0 0.21660550896694419 0.17250843538665739 0 0.22341913008665051 0.1656512768484959 0 0.22628492123743479 0.18130945986695651 0 0.22341913008665051 0.1656512768484959 0 0.22628492123743479 0.18130945986695651 0 0.2398937274470776 0.1701272920004806 0 0.21931858683045949 0.1926679520444263 0 0.21478638293833879 0.1817485154615508 0 0.22628492123743479 0.18130945986695651 0 0.21660550896694419 0.17250843538665739 0 0.21478638293833879 0.1817485154615508 0 0.22628492123743479 0.18130945986695651 0 0.2475941291823989 0.18769603697772511 0 0.22628492123743479 0.18130945986695651 0 0.2398937274470776 0.1701272920004806 0 0.2398937274470776 0.1701272920004806 0 0.23112177849973581 0.15343721315908401 0 0.25299790414357343 0.16100449818938201 0 0.22432154431681389 0.13454889904547099 0 0.2388396102423237 0.1172756265968197 0 0.25663613896196991 0.14035755598763441 0 0.23112177849973581 0.15343721315908401 0 0.25663613896196991 0.14035755598763441 0 0.25299790414357343 0.16100449818938201 0 0.23112177849973581 0.15343721315908401 0 0.22432154431681389 0.13454889904547099 0 0.25663613896196991 0.14035755598763441 0 0.21298583189558429 0.15153276404608659 0 0.23112177849973581 0.15343721315908401 0 0.22432154431681389 0.13454889904547099 0 0.2388396102423237 0.1172756265968197 0 0.25663613896196991 0.14035755598763441 0 0.2388396102423237 0.1172756265968197 0 0.22104308152267779 0.094193697206005289 0 0.2063052671444463 0.111586019176762 0 0.22432154431681389 0.13454889904547099 0 0.2388396102423237 0.1172756265968197 0 0.2063052671444463 0.111586019176762 0 0.2388396102423237 0.1172756265968197 0 0.22104308152267779 0.094193697206005289 0 0.25384944954462069 0.095449856149134135 0 0.2388396102423237 0.1172756265968197 0 0.25384944954462069 0.095449856149134135 0 0.25620984555605009 0.1131725934863051 0 0.2388396102423237 0.1172756265968197 0 0.22104308152267779 0.094193697206005289 0 0.22104308152267779 0.094193697206005289 0 0.2063052671444463 0.111586019176762 0 0.18730886553821691 0.08781597585429643 0 0.2063052671444463 0.111586019176762 0 0.1798032166279758 0.1186054906750668 0 0.18730886553821691 0.08781597585429643 0 0.20450911964989471 0.13160516091811969 0 0.2063052671444463 0.111586019176762 0 0.1798032166279758 0.1186054906750668 0 0.22104308152267779 0.094193697206005289 0 0.20324655280303169 0.071111767815190782 0 0.18730886553821691 0.08781597585429643 0 0.22104308152267779 0.094193697206005289 0 0.20324655280303169 0.071111767815190782 0 0.22195925580639439 0.062532309102022066 0 0.20324655280303169 0.071111767815190782 0 0.17361370821216091 0.061721877539844178 0 0.18730886553821691 0.08781597585429643 0 0.22104308152267779 0.094193697206005289 0 0.20324655280303169 0.071111767815190782 0 0.22104308152267779 0.094193697206005289 0 0.22195925580639439 0.062532309102022066 0 0.23940360910079561 0.072187684139423405 0 0.22104308152267779 0.094193697206005289 0 0.23940360910079561 0.072187684139423405 0 0.25384944954462069 0.095449856149134135 0 0.23940360910079561 0.072187684139423405 0 0.24773452015769859 0.046187867395794058 0 0.25865679783116052 0.070915849861062308 0 0.24773452015769859 0.046187867395794058 0 0.23445404022264399 0.027078552110983731 0 0.21646291908757839 0.042202639179017128 0 0.22195925580639439 0.062532309102022066 0 0.23940360910079561 0.072187684139423405 0 0.24773452015769859 0.046187867395794058 0 0.22195925580639439 0.062532309102022066 0 0.24773452015769859 0.046187867395794058 0 0.21646291908757839 0.042202639179017128 0 0.24773452015769859 0.046187867395794058 0 0.23445404022264399 0.027078552110983731 0 0.25458476701871002 0.02766973368984053 0 0.23445404022264399 0.027078552110983731 0 0.21638436253333779 0.010068207731140181 0 0.21646291908757839 0.042202639179017128 0 0.24502883806765671 0.008523642691556723 0 0.23445404022264399 0.027078552110983731 0 0.25458476701871002 0.02766973368984053 0 0.24502883806765671 0.008523642691556723 0 0.21638436253333779 0.010068207731140181 0 0.2272738753587025 -0.0034298001956333431 0 0.24502883806765671 0.008523642691556723 0 0.23445404022264399 0.027078552110983731 0 0.21638436253333779 0.010068207731140181 0 0.21638436253333779 0.010068207731140181 0 0.21646291908757839 0.042202639179017128 0 0.1998390893961966 0.031665640179217323 0 0.21638436253333779 0.010068207731140181 0 0.2083029964389638 -0.0070788741920749356 0 0.1894849343298263 -0.0017537201251617909 0 0.21638436253333779 0.010068207731140181 0 0.1998390893961966 0.031665640179217323 0 0.18740766400150541 0.016557319534513788 0 0.21638436253333779 0.010068207731140181 0 0.1894849343298263 -0.0017537201251617909 0 0.18740766400150541 0.016557319534513788 0 0.1894849343298263 -0.0017537201251617909 0 0.21638436253333779 0.010068207731140181 0 0.18740766400150541 0.016557319534513788 0 0.1894849343298263 -0.0017537201251617909 0 0.1998390893961966 0.031665640179217323 0 0.18545002408338579 0.048029838424376373 0 0.18740766400150541 0.016557319534513788 0 0.20324655280303169 0.071111767815190782 0 0.22195925580639439 0.062532309102022066 0 0.21646291908757839 0.042202639179017128 0 0.21646291908757839 0.042202639179017128 0 0.1998390893961966 0.031665640179217323 0 0.18545002408338579 0.048029838424376373 0 0.20324655280303169 0.071111767815190782 0 0.18545002408338579 0.048029838424376373 0 0.20324655280303169 0.071111767815190782 0 0.21646291908757839 0.042202639179017128 0 0.18545002408338579 0.048029838424376373 0 0.20324655280303169 0.071111767815190782 0 0.17361370821216091 0.061721877539844178 0 0.18545002408338579 0.048029838424376373 0 0.17361370821216091 0.061721877539844178 0 0.18545002408338579 0.048029838424376373 0 0.17579545676519651 0.043754955661173968 0 0.18545002408338579 0.048029838424376373 0 0.17579545676519651 0.043754955661173968 0 0.16765349536373969 0.02494790903356188 0 0.18545002408338579 0.048029838424376373 0 0.16765349536373969 0.02494790903356188 0 0.17579545676519651 0.043754955661173968 0 0.16765349536373969 0.02494790903356188 0 0.17579545676519651 0.043754955661173968 0 0.16507570311446121 0.038742451836005547 0 0.16765349536373969 0.02494790903356188 0 0.17579545676519651 0.043754955661173968 0 0.16507570311446121 0.038742451836005547 0 0.16384462943634701 0.050235536958613193 0 0.16507570311446121 0.038742451836005547 0 0.15932171988120411 0.033304873215324091 0 0.15876321412581859 0.041468984311354623 0 0.15932171988120411 0.033304873215324091 0 0.15876321412581859 0.041468984311354623 0 0.15215111719157179 0.036457697171418703 0 0.16507570311446121 0.038742451836005547 0 0.15932171988120411 0.033304873215324091 0 0.16765349536373969 0.02494790903356188 0 0.16507570311446121 0.038742451836005547 0 0.15876321412581859 0.041468984311354623 0 0.16384462943634701 0.050235536958613193 0 0.15876321412581859 0.041468984311354623 0 0.16384462943634701 0.050235536958613193 0 0.1505099141279464 0.048420127582463918 0 0.17361370821216091 0.061721877539844178 0 0.17579545676519651 0.043754955661173968 0 0.16384462943634701 0.050235536958613193 0 0.17361370821216091 0.061721877539844178 0 0.16384462943634701 0.050235536958613193 0 0.15699192909955809 0.065095521589841998 0 0.16384462943634701 0.050235536958613193 0 0.1505099141279464 0.048420127582463918 0 0.15699192909955809 0.065095521589841998 0 0.18545002408338579 0.048029838424376373 0 0.18740766400150541 0.016557319534513788 0 0.16765349536373969 0.02494790903356188 0 0.17427265032816189 0.0062943587249405077 0 0.18740766400150541 0.016557319534513788 0 0.1894849343298263 -0.0017537201251617909 0 0.17427265032816189 0.0062943587249405077 0 0.18740766400150541 0.016557319534513788 0 0.16765349536373969 0.02494790903356188 0 0.15932171988120411 0.033304873215324091 0 0.16765349536373969 0.02494790903356188 0 0.15241084410149669 0.02619879540547047 0 0.16765349536373969 0.02494790903356188 0 0.15876811500151389 0.013423654761153011 0 0.16765349536373969 0.02494790903356188 0 0.15876811500151389 0.013423654761153011 0 0.15241084410149669 0.02619879540547047 0 0.16765349536373969 0.02494790903356188 0 0.1579507192313461 0.0025355498805747921 0 0.16765349536373969 0.02494790903356188 0 0.15876811500151389 0.013423654761153011 0 0.1579507192313461 0.0025355498805747921 0 0.17427265032816189 0.0062943587249405077 0 0.16765349536373969 0.02494790903356188 0 0.1579507192313461 0.0025355498805747921 0 0.1487119162446438 0.0039635729940632582 0 0.14334646056476941 0.01109596170614012 0 0.135234418882348 0.001091121526172267 0 0.15876811500151389 0.013423654761153011 0 0.1579507192313461 0.0025355498805747921 0 0.1487119162446438 0.0039635729940632582 0 0.1579507192313461 0.0025355498805747921 0 0.1487119162446438 0.0039635729940632582 0 0.1454750608441174 -0.0051677832411170417 0 0.15876811500151389 0.013423654761153011 0 0.1487119162446438 0.0039635729940632582 0 0.14990273866863299 0.01696258456456963 0 0.1487119162446438 0.0039635729940632582 0 0.14334646056476941 0.01109596170614012 0 0.14990273866863299 0.01696258456456963 0 0.14990273866863299 0.01696258456456963 0 0.15241084410149669 0.02619879540547047 0 0.13903574260425039 0.02412691712435196 0 0.14334646056476941 0.01109596170614012 0 0.14990273866863299 0.01696258456456963 0 0.13903574260425039 0.02412691712435196 0 0.15876811500151389 0.013423654761153011 0 0.14990273866863299 0.01696258456456963 0 0.15241084410149669 0.02619879540547047 0 0.15241084410149669 0.02619879540547047 0 0.13903574260425039 0.02412691712435196 0 0.14242421330164659 0.035715593243810989 0 0.13903574260425039 0.02412691712435196 0 0.128050751869075 0.025433798835772761 0 0.12991484820470231 0.037015230580822421 0 0.12429721647633871 0.014090971846011839 0 0.128050751869075 0.025433798835772761 0 0.1346572895483614 0.01426336048528485 0 0.14334646056476941 0.01109596170614012 0 0.13903574260425039 0.02412691712435196 0 0.1346572895483614 0.01426336048528485 0 0.13903574260425039 0.02412691712435196 0 0.128050751869075 0.025433798835772761 0 0.1346572895483614 0.01426336048528485 0 0.12429721647633871 0.014090971846011839 0 0.1165810207984305 0.0016467845144158069 0 0.135234418882348 0.001091121526172267 0 0.14334646056476941 0.01109596170614012 0 0.1346572895483614 0.01426336048528485 0 0.135234418882348 0.001091121526172267 0 0.12429721647633871 0.014090971846011839 0 0.1346572895483614 0.01426336048528485 0 0.135234418882348 0.001091121526172267 0 0.1505099141279464 0.048420127582463918 0 0.14225132100752391 0.062865418281989383 0 0.15699192909955809 0.065095521589841998 0 0.1505099141279464 0.048420127582463918 0 0.13848013452328559 0.048512085470883898 0 0.14225132100752391 0.062865418281989383 0 0.15876321412581859 0.041468984311354623 0 0.1505099141279464 0.048420127582463918 0 0.15215111719157179 0.036457697171418703 0 0.15932171988120411 0.033304873215324091 0 0.15241084410149669 0.02619879540547047 0 0.15215111719157179 0.036457697171418703 0 0.15241084410149669 0.02619879540547047 0 0.15215111719157179 0.036457697171418703 0 0.14242421330164659 0.035715593243810989 0 0.1505099141279464 0.048420127582463918 0 0.15215111719157179 0.036457697171418703 0 0.14242421330164659 0.035715593243810989 0 0.1505099141279464 0.048420127582463918 0 0.14242421330164659 0.035715593243810989 0 0.13848013452328559 0.048512085470883898 0 0.14242421330164659 0.035715593243810989 0 0.12991484820470231 0.037015230580822421 0 0.13848013452328559 0.048512085470883898 0 0.13903574260425039 0.02412691712435196 0 0.14242421330164659 0.035715593243810989 0 0.12991484820470231 0.037015230580822421 0 0.11738283554026439 0.045919391363933762 0 0.12991484820470231 0.037015230580822421 0 0.12798138470421019 0.049477110941330407 0 0.12991484820470231 0.037015230580822421 0 0.12798138470421019 0.049477110941330407 0 0.13848013452328559 0.048512085470883898 0 0.12798138470421019 0.049477110941330407 0 0.13848013452328559 0.048512085470883898 0 0.13246919736887969 0.05797251858844308 0 0.13848013452328559 0.048512085470883898 0 0.13246919736887969 0.05797251858844308 0 0.14225132100752391 0.062865418281989383 0 0.1226758536221563 0.058754324150062147 0 0.12798138470421019 0.049477110941330407 0 0.13246919736887969 0.05797251858844308 0 0.1226758536221563 0.058754324150062147 0 0.13246919736887969 0.05797251858844308 0 0.1309572929872222 0.07025365409794955 0 0.1309572929872222 0.07025365409794955 0 0.14225132100752391 0.062865418281989383 0 0.14442657521464849 0.084205263511473963 0 0.11893238067756071 0.070271736967853812 0 0.1309572929872222 0.07025365409794955 0 0.12559456041354719 0.080261485087041423 0 0.13246919736887969 0.05797251858844308 0 0.1309572929872222 0.07025365409794955 0 0.14225132100752391 0.062865418281989383 0 0.14225132100752391 0.062865418281989383 0 0.14442657521464849 0.084205263511473963 0 0.15699192909955809 0.065095521589841998 0 0.14442657521464849 0.084205263511473963 0 0.15699192909955809 0.065095521589841998 0 0.16485721109999579 0.079112457857428944 0 0.1309572929872222 0.07025365409794955 0 0.14442657521464849 0.084205263511473963 0 0.12559456041354719 0.080261485087041423 0 0.14442657521464849 0.084205263511473963 0 0.12559456041354719 0.080261485087041423 0 0.12718862152087951 0.096688253917490447 0 0.14442657521464849 0.084205263511473963 0 0.12718862152087951 0.096688253917490447 0 0.14664782704348681 0.1187352828605238 0 0.12718862152087951 0.096688253917490447 0 0.14664782704348681 0.1187352828605238 0 0.1187894170332454 0.1108218881468376 0 0.12718862152087951 0.096688253917490447 0 0.14664782704348681 0.1187352828605238 0 0.14442657521464849 0.084205263511473963 0 0.14664782704348681 0.1187352828605238 0 0.1646087391048647 0.097694894151757986 0 0.1187894170332454 0.1108218881468376 0 0.1155281386006284 0.12780565999363219 0 0.14664782704348681 0.1187352828605238 0 0.14664782704348681 0.1187352828605238 0 0.1646087391048647 0.097694894151757986 0 0.1798032166279758 0.1186054906750668 0 0.1646087391048647 0.097694894151757986 0 0.1798032166279758 0.1186054906750668 0 0.18730886553821691 0.08781597585429643 0 0.1646087391048647 0.097694894151757986 0 0.18730886553821691 0.08781597585429643 0 0.16485721109999579 0.079112457857428944 0 0.17361370821216091 0.061721877539844178 0 0.18730886553821691 0.08781597585429643 0 0.16485721109999579 0.079112457857428944 0 0.17361370821216091 0.061721877539844178 0 0.15699192909955809 0.065095521589841998 0 0.16485721109999579 0.079112457857428944 0 0.14442657521464849 0.084205263511473963 0 0.1646087391048647 0.097694894151757986 0 0.16485721109999579 0.079112457857428944 0 0.10009711227391881 0.48489311495627652 0 0.12011464659773601 0.48433235658234292 0 0.093396366307362089 0.4764985348735149 0 0.12011464659773601 0.48433235658234292 0 0.093396366307362089 0.4764985348735149 0 0.12011464659773601 0.48433235658234292 0 0.1088743842907562 0.46558615548029098 0 0.093396366307362089 0.4764985348735149 0 0.10009711227391881 0.48489311495627652 0 0.093627485550408146 0.4805988143833777 0 0.093396366307362089 0.4764985348735149 0 0.10009711227391881 0.48489311495627652 0 0.1046197908249327 0.49204337521533659 0 0.12011464659773601 0.48433235658234292 0 0.094101002442320308 0.48868348185838978 0 0.10009711227391881 0.48489311495627652 0 0.1046197908249327 0.49204337521533659 0 0.1046197908249327 0.49204337521533659 0 0.1177491038565109 0.5 0 0.089848052195524386 0.5 0 0.094101002442320308 0.48868348185838978 0 0.10009711227391881 0.48489311495627652 0 0.093627485550408146 0.4805988143833777 0 0.094101002442320308 0.48868348185838978 0 0.1046197908249327 0.49204337521533659 0 0.089848052195524386 0.5 0 0.1046197908249327 0.49204337521533659 0 0.1177491038565109 0.5 0 0.12011464659773601 0.48433235658234292 0 0.12011464659773601 0.48433235658234292 0 0.1088743842907562 0.46558615548029098 0 0.12755468689653379 0.46028893177219221 0 0.1109314836818476 0.44843709676897331 0 0.1088743842907562 0.46558615548029098 0 0.12755468689653379 0.46028893177219221 0 0.1109314836818476 0.44843709676897331 0 0.1138513721720477 0.42894489089561411 0 0.1317389345630566 0.44034454998539962 0 0.1109314836818476 0.44843709676897331 0 0.1317389345630566 0.44034454998539962 0 0.12755468689653379 0.46028893177219221 0 0.1109314836818476 0.44843709676897331 0 0.091353109633241947 0.44024917993534918 0 0.1138513721720477 0.42894489089561411 0 0.1109314836818476 0.44843709676897331 0 0.092374737970301088 0.45837385740443209 0 0.091353109633241947 0.44024917993534918 0 0.1109314836818476 0.44843709676897331 0 0.1088743842907562 0.46558615548029098 0 0.092374737970301088 0.45837385740443209 0 0.1088743842907562 0.46558615548029098 0 0.092374737970301088 0.45837385740443209 0 0.093396366307362089 0.4764985348735149 0 0.092374737970301088 0.45837385740443209 0 0.093396366307362089 0.4764985348735149 0 0.092374737970301088 0.45837385740443209 0 0.074153309142655985 0.44889124799887259 0 0.076936337620146983 0.47167244095367838 0 0.092374737970301088 0.45837385740443209 0 0.091353109633241947 0.44024917993534918 0 0.074153309142655985 0.44889124799887259 0 0.091353109633241947 0.44024917993534918 0 0.074153309142655985 0.44889124799887259 0 0.091353109633241947 0.44024917993534918 0 0.074153309142655985 0.44889124799887259 0 0.075454731922514201 0.43004448293053621 0 0.092374737970301088 0.45837385740443209 0 0.091353109633241947 0.44024917993534918 0 0.074153309142655985 0.44889124799887259 0 0.053891522812498309 0.4472661199552147 0 0.075454731922514201 0.43004448293053621 0 0.074153309142655985 0.44889124799887259 0 0.060476308932931683 0.46684634703384248 0 0.053891522812498309 0.4472661199552147 0 0.074153309142655985 0.44889124799887259 0 0.076936337620146983 0.47167244095367838 0 0.060476308932931683 0.46684634703384248 0 0.065142718158770277 0.48141353841007611 0 0.076936337620146983 0.47167244095367838 0 0.060476308932931683 0.46684634703384248 0 0.065142718158770277 0.48141353841007611 0 0.076936337620146983 0.47167244095367838 0 0.082312571366817563 0.48588210473695859 0 0.076936337620146983 0.47167244095367838 0 0.060476308932931683 0.46684634703384248 0 0.076936337620146983 0.47167244095367838 0 0.093396366307362089 0.4764985348735149 0 0.082312571366817563 0.48588210473695859 0 0.076936337620146983 0.47167244095367838 0 0.093396366307362089 0.4764985348735149 0 0.092374737970301088 0.45837385740443209 0 0.076936337620146983 0.47167244095367838 0 0.093396366307362089 0.4764985348735149 0 0.093627485550408146 0.4805988143833777 0 0.093396366307362089 0.4764985348735149 0 0.082312571366817563 0.48588210473695859 0 0.093627485550408146 0.4805988143833777 0 0.093396366307362089 0.4764985348735149 0 0.094101002442320308 0.48868348185838978 0 0.093627485550408146 0.4805988143833777 0 0.082312571366817563 0.48588210473695859 0 0.094101002442320308 0.48868348185838978 0 0.089848052195524386 0.5 0 0.082312571366817563 0.48588210473695859 0 0.065142718158770277 0.48141353841007611 0 0.082312571366817563 0.48588210473695859 0 0.061947000534537833 0.5 0 0.089848052195524386 0.5 0 0.082312571366817563 0.48588210473695859 0 0.061947000534537833 0.5 0 0.065142718158770277 0.48141353841007611 0 0.061947000534537833 0.5 0 0.049204833067628767 0.48261733032857379 0 0.061947000534537833 0.5 0 0.049204833067628767 0.48261733032857379 0 0.034045948873551328 0.5 0 0.049204833067628767 0.48261733032857379 0 0.044749958694282721 0.46164825313029401 0 0.060476308932931683 0.46684634703384248 0 0.065142718158770277 0.48141353841007611 0 0.049204833067628767 0.48261733032857379 0 0.060476308932931683 0.46684634703384248 0 0.049204833067628767 0.48261733032857379 0 0.030622103575757051 0.47222180234901612 0 0.044749958694282721 0.46164825313029401 0 0.049204833067628767 0.48261733032857379 0 0.034045948873551328 0.5 0 0.030622103575757051 0.47222180234901612 0 0.034045948873551328 0.5 0 0.030622103575757051 0.47222180234901612 0 0.01499989984589173 0.4829621854572419 0 0.034045948873551328 0.5 0 0.01499989984589173 0.4829621854572419 0 0.0061448972125648371 0.5 0 0.030622103575757051 0.47222180234901612 0 0.01499989984589173 0.4829621854572419 0 0.0085473494867990066 0.46459041614164148 0 -0.0092351114354999823 0.48349087954534847 0 0.01499989984589173 0.4829621854572419 0 0.0085473494867990066 0.46459041614164148 0 -0.0092351114354999823 0.48349087954534847 0 0.01499989984589173 0.4829621854572419 0 0.0061448972125648371 0.5 0 -0.00069522750787146328 0.44046125278118642 0 0.0085473494867990066 0.46459041614164148 0 0.02659814765231331 0.44386368636820051 0 -0.00069522750787146328 0.44046125278118642 0 0.02659814765231331 0.44386368636820051 0 0.030622103575757051 0.47222180234901612 0 0.0085473494867990066 0.46459041614164148 0 0.02659814765231331 0.44386368636820051 0 0.02659814765231331 0.44386368636820051 0 0.053891522812498309 0.4472661199552147 0 0.049694494685412621 0.42626372438863069 0 0.02659814765231331 0.44386368636820051 0 0.053891522812498309 0.4472661199552147 0 0.02659814765231331 0.44386368636820051 0 0.044749958694282721 0.46164825313029401 0 0.053891522812498309 0.4472661199552147 0 0.030622103575757051 0.47222180234901612 0 0.02659814765231331 0.44386368636820051 0 0.044749958694282721 0.46164825313029401 0 0.044749958694282721 0.46164825313029401 0 0.060476308932931683 0.46684634703384248 0 0.053891522812498309 0.4472661199552147 0 0.053891522812498309 0.4472661199552147 0 0.049694494685412621 0.42626372438863069 0 0.075454731922514201 0.43004448293053621 0 0.049694494685412621 0.42626372438863069 0 0.048261258017039933 0.40484316686163041 0 0.064865154328764829 0.41362356959926488 0 0.049694494685412621 0.42626372438863069 0 0.029096153379345159 0.41794132061693801 0 0.048261258017039933 0.40484316686163041 0 0.02659814765231331 0.44386368636820051 0 0.049694494685412621 0.42626372438863069 0 0.029096153379345159 0.41794132061693801 0 0.02659814765231331 0.44386368636820051 0 0.029096153379345159 0.41794132061693801 0 0.0075383504917777792 0.42465595175508147 0 0.029096153379345159 0.41794132061693801 0 0.011034103982847401 0.40727448451550369 0 0.0075383504917777792 0.42465595175508147 0 0.029096153379345159 0.41794132061693801 0 0.011034103982847401 0.40727448451550369 0 0.029075113301561959 0.39577425007435751 0 -0.0096881018905816407 0.41168354254352257 0 0.011034103982847401 0.40727448451550369 0 0.0075383504917777792 0.42465595175508147 0 -0.00069522750787146328 0.44046125278118642 0 0.02659814765231331 0.44386368636820051 0 0.0075383504917777792 0.42465595175508147 0 -0.0041601498909107099 0.39486415160942412 0 0.01483908157688984 0.38862140294883879 0 0.0022634058800765338 0.37998431242390279 0 0.01483908157688984 0.38862140294883879 0 0.0022634058800765338 0.37998431242390279 0 0.025818984671691279 0.37097480582370601 0 -0.0041601498909107099 0.39486415160942412 0 0.011034103982847401 0.40727448451550369 0 0.01483908157688984 0.38862140294883879 0 0.011034103982847401 0.40727448451550369 0 0.01483908157688984 0.38862140294883879 0 0.029075113301561959 0.39577425007435751 0 0.01483908157688984 0.38862140294883879 0 0.029075113301561959 0.39577425007435751 0 0.025818984671691279 0.37097480582370601 0 0.029075113301561959 0.39577425007435751 0 0.045401098181558172 0.38499031967952818 0 0.025818984671691279 0.37097480582370601 0 0.029096153379345159 0.41794132061693801 0 0.029075113301561959 0.39577425007435751 0 0.048261258017039933 0.40484316686163041 0 0.029075113301561959 0.39577425007435751 0 0.045401098181558172 0.38499031967952818 0 0.048261258017039933 0.40484316686163041 0 0.045401098181558172 0.38499031967952818 0 0.055703029030803132 0.39231097529774461 0 0.048261258017039933 0.40484316686163041 0 0.055703029030803132 0.39231097529774461 0 0.048261258017039933 0.40484316686163041 0 0.064745056577875409 0.39895793694374471 0 0.048261258017039933 0.40484316686163041 0 0.064745056577875409 0.39895793694374471 0 0.064865154328764829 0.41362356959926488 0 0.055703029030803132 0.39231097529774461 0 0.06512784579127287 0.38212022900172399 0 0.064745056577875409 0.39895793694374471 0 0.045401098181558172 0.38499031967952818 0 0.055703029030803132 0.39231097529774461 0 0.06512784579127287 0.38212022900172399 0 0.045401098181558172 0.38499031967952818 0 0.06512784579127287 0.38212022900172399 0 0.050464958159624818 0.3618654206938538 0 0.076031204872737942 0.38502256531649931 0 0.082440637568075459 0.38766137222336561 0 0.074769193725475219 0.39315708161454072 0 0.06512784579127287 0.38212022900172399 0 0.076031204872737942 0.38502256531649931 0 0.074769193725475219 0.39315708161454072 0 0.06512784579127287 0.38212022900172399 0 0.080033909023446495 0.37734509170710351 0 0.075242093832077264 0.36812177147949349 0 0.06512784579127287 0.38212022900172399 0 0.076031204872737942 0.38502256531649931 0 0.080033909023446495 0.37734509170710351 0 0.080033909023446495 0.37734509170710351 0 0.087962013374406206 0.38008784363674408 0 0.086351257356787101 0.37221421831188489 0 0.080033909023446495 0.37734509170710351 0 0.082440637568075459 0.38766137222336561 0 0.087962013374406206 0.38008784363674408 0 0.076031204872737942 0.38502256531649931 0 0.080033909023446495 0.37734509170710351 0 0.082440637568075459 0.38766137222336561 0 0.082440637568075459 0.38766137222336561 0 0.087962013374406206 0.38008784363674408 0 0.088812673538289449 0.39517937990967189 0 0.087962013374406206 0.38008784363674408 0 0.088812673538289449 0.39517937990967189 0 0.096532904564945857 0.38251664013854092 0 0.087962013374406206 0.38008784363674408 0 0.088812673538289449 0.39517937990967189 0 0.087962013374406206 0.38008784363674408 0 0.09643961299419683 0.37351052037200722 0 0.086351257356787101 0.37221421831188489 0 0.087962013374406206 0.38008784363674408 0 0.096532904564945857 0.38251664013854092 0 0.09643961299419683 0.37351052037200722 0 0.082440637568075459 0.38766137222336561 0 0.088812673538289449 0.39517937990967189 0 0.082827070755661258 0.39564070302940169 0 0.088812673538289449 0.39517937990967189 0 0.082827070755661258 0.39564070302940169 0 0.082440637568075459 0.38766137222336561 0 0.082827070755661258 0.39564070302940169 0 0.074769193725475219 0.39315708161454072 0 0.088812673538289449 0.39517937990967189 0 0.082827070755661258 0.39564070302940169 0 0.080195822601730166 0.40873494384734488 0 0.082827070755661258 0.39564070302940169 0 0.074769193725475219 0.39315708161454072 0 0.080195822601730166 0.40873494384734488 0 0.074769193725475219 0.39315708161454072 0 0.064745056577875409 0.39895793694374471 0 0.080195822601730166 0.40873494384734488 0 0.06512784579127287 0.38212022900172399 0 0.074769193725475219 0.39315708161454072 0 0.064745056577875409 0.39895793694374471 0 0.064865154328764829 0.41362356959926488 0 0.075454731922514201 0.43004448293053621 0 0.080195822601730166 0.40873494384734488 0 0.064745056577875409 0.39895793694374471 0 0.064865154328764829 0.41362356959926488 0 0.080195822601730166 0.40873494384734488 0 0.049694494685412621 0.42626372438863069 0 0.064865154328764829 0.41362356959926488 0 0.075454731922514201 0.43004448293053621 0 0.091353109633241947 0.44024917993534918 0 0.090082891585765629 0.41771427992251048 0 0.091353109633241947 0.44024917993534918 0 0.075454731922514201 0.43004448293053621 0 0.090082891585765629 0.41771427992251048 0 0.088812673538289449 0.39517937990967189 0 0.090082891585765629 0.41771427992251048 0 0.080195822601730166 0.40873494384734488 0 0.075454731922514201 0.43004448293053621 0 0.090082891585765629 0.41771427992251048 0 0.080195822601730166 0.40873494384734488 0 0.088812673538289449 0.39517937990967189 0 0.090082891585765629 0.41771427992251048 0 0.090082891585765629 0.41771427992251048 0 0.1060779427916969 0.41078131195843842 0 0.1138513721720477 0.42894489089561411 0 0.088812673538289449 0.39517937990967189 0 0.090082891585765629 0.41771427992251048 0 0.1060779427916969 0.41078131195843842 0 0.091353109633241947 0.44024917993534918 0 0.1138513721720477 0.42894489089561411 0 0.091353109633241947 0.44024917993534918 0 0.090082891585765629 0.41771427992251048 0 0.1138513721720477 0.42894489089561411 0 0.1138513721720477 0.42894489089561411 0 0.1227317005809329 0.40562766670787193 0 0.1363496347108536 0.41764060185587931 0 0.1060779427916969 0.41078131195843842 0 0.1138513721720477 0.42894489089561411 0 0.1227317005809329 0.40562766670787193 0 0.1060779427916969 0.41078131195843842 0 0.1227317005809329 0.40562766670787193 0 0.1091137664510133 0.39361473155986332 0 0.1227317005809329 0.40562766670787193 0 0.1091137664510133 0.39361473155986332 0 0.1222799321900277 0.39262055348189367 0 0.1091137664510133 0.39361473155986332 0 0.1227317005809329 0.40562766670787193 0 0.1222799321900277 0.39262055348189367 0 0.1091137664510133 0.39361473155986332 0 0.1222799321900277 0.39262055348189367 0 0.1110184186627599 0.36813360195802219 0 0.1222799321900277 0.39262055348189367 0 0.107076611827209 0.3820751205349594 0 0.1110184186627599 0.36813360195802219 0 0.1222799321900277 0.39262055348189367 0 0.1110184186627599 0.36813360195802219 0 0.12874840841938939 0.37491499108935422 0 0.1222799321900277 0.39262055348189367 0 0.107076611827209 0.3820751205349594 0 0.1091137664510133 0.39361473155986332 0 0.107076611827209 0.3820751205349594 0 0.096532904564945857 0.38251664013854092 0 0.1091137664510133 0.39361473155986332 0 0.088812673538289449 0.39517937990967189 0 0.096532904564945857 0.38251664013854092 0 0.1091137664510133 0.39361473155986332 0 0.096532904564945857 0.38251664013854092 0 0.1091137664510133 0.39361473155986332 0 0.107076611827209 0.3820751205349594 0 0.096532904564945857 0.38251664013854092 0 0.09643961299419683 0.37351052037200722 0 0.088812673538289449 0.39517937990967189 0 0.1091137664510133 0.39361473155986332 0 0.088812673538289449 0.39517937990967189 0 0.1060779427916969 0.41078131195843842 0 0.1091137664510133 0.39361473155986332 0 0.1110184186627599 0.36813360195802219 0 0.099756905135492152 0.34364665043415082 0 0.1110184186627599 0.36813360195802219 0 0.099756905135492152 0.34364665043415082 0 0.092078657559808735 0.36200586436407639 0 0.09643961299419683 0.37351052037200722 0 0.1110184186627599 0.36813360195802219 0 0.092078657559808735 0.36200586436407639 0 0.107076611827209 0.3820751205349594 0 0.09643961299419683 0.37351052037200722 0 0.1110184186627599 0.36813360195802219 0 0.1110184186627599 0.36813360195802219 0 0.1228937766592843 0.35378028107363041 0 0.12874840841938939 0.37491499108935422 0 0.1110184186627599 0.36813360195802219 0 0.1228937766592843 0.35378028107363041 0 0.099756905135492152 0.34364665043415082 0 0.1228937766592843 0.35378028107363041 0 0.1227400750860225 0.33515185323383878 0 0.099756905135492152 0.34364665043415082 0 0.1227400750860225 0.33515185323383878 0 0.11060005590789219 0.32189636365797358 0 0.099756905135492152 0.34364665043415082 0 0.1227400750860225 0.33515185323383878 0 0.099756905135492152 0.34364665043415082 0 0.1227400750860225 0.33515185323383878 0 0.12478463900003051 0.31834353230628493 0 0.11060005590789219 0.32189636365797358 0 0.12478463900003051 0.31834353230628493 0 0.11060005590789219 0.32189636365797358 0 0.12210241479145061 0.307299179814506 0 0.11060005590789219 0.32189636365797358 0 0.1021840014142613 0.31460156646078768 0 0.1120178259175218 0.30589296060095411 0 0.11060005590789219 0.32189636365797358 0 0.1021840014142613 0.31460156646078768 0 0.091599334821681755 0.32590889002182488 0 0.1021840014142613 0.31460156646078768 0 0.091599334821681755 0.32590889002182488 0 0.094418444669094409 0.30863820847995133 0 0.099756905135492152 0.34364665043415082 0 0.091599334821681755 0.32590889002182488 0 0.11060005590789219 0.32189636365797358 0 0.099756905135492152 0.34364665043415082 0 0.091599334821681755 0.32590889002182488 0 0.099756905135492152 0.34364665043415082 0 0.078717354165385181 0.33648413126336862 0 0.091599334821681755 0.32590889002182488 0 0.091599334821681755 0.32590889002182488 0 0.071868234402458889 0.32191541960626308 0 0.083441764507871455 0.30817112960949877 0 0.091599334821681755 0.32590889002182488 0 0.083441764507871455 0.30817112960949877 0 0.091599334821681755 0.32590889002182488 0 0.083441764507871455 0.30817112960949877 0 0.094418444669094409 0.30863820847995133 0 0.078717354165385181 0.33648413126336862 0 0.091599334821681755 0.32590889002182488 0 0.071868234402458889 0.32191541960626308 0 0.071868234402458889 0.32191541960626308 0 0.053067125874532807 0.32186771128630598 0 0.075732841623420116 0.3040119888776005 0 0.053067125874532807 0.32186771128630598 0 0.075732841623420116 0.3040119888776005 0 0.078717354165385181 0.33648413126336862 0 0.071868234402458889 0.32191541960626308 0 0.060197324006420687 0.34036404380128371 0 0.078717354165385181 0.33648413126336862 0 0.075110931647558235 0.3527560355640017 0 0.060197324006420687 0.34036404380128371 0 0.075110931647558235 0.3527560355640017 0 0.050464958159624818 0.3618654206938538 0 0.099756905135492152 0.34364665043415082 0 0.078717354165385181 0.33648413126336862 0 0.075110931647558235 0.3527560355640017 0 0.099756905135492152 0.34364665043415082 0 0.075110931647558235 0.3527560355640017 0 0.092078657559808735 0.36200586436407639 0 0.099756905135492152 0.34364665043415082 0 0.075110931647558235 0.3527560355640017 0 0.075110931647558235 0.3527560355640017 0 0.092078657559808735 0.36200586436407639 0 0.075242093832077264 0.36812177147949349 0 0.086351257356787101 0.37221421831188489 0 0.092078657559808735 0.36200586436407639 0 0.075242093832077264 0.36812177147949349 0 0.09643961299419683 0.37351052037200722 0 0.086351257356787101 0.37221421831188489 0 0.092078657559808735 0.36200586436407639 0 0.080033909023446495 0.37734509170710351 0 0.086351257356787101 0.37221421831188489 0 0.075242093832077264 0.36812177147949349 0 0.075110931647558235 0.3527560355640017 0 0.075242093832077264 0.36812177147949349 0 0.050464958159624818 0.3618654206938538 0 0.06512784579127287 0.38212022900172399 0 0.075242093832077264 0.36812177147949349 0 0.050464958159624818 0.3618654206938538 0 0.075110931647558235 0.3527560355640017 0 0.050464958159624818 0.3618654206938538 0 0.060197324006420687 0.34036404380128371 0 0.050464958159624818 0.3618654206938538 0 0.040680680837862818 0.34575401892799468 0 0.060197324006420687 0.34036404380128371 0 0.045401098181558172 0.38499031967952818 0 0.050464958159624818 0.3618654206938538 0 0.025818984671691279 0.37097480582370601 0 0.050464958159624818 0.3618654206938538 0 0.025818984671691279 0.37097480582370601 0 0.050464958159624818 0.3618654206938538 0 0.040680680837862818 0.34575401892799468 0 0.025818984671691279 0.37097480582370601 0 0.040680680837862818 0.34575401892799468 0 0.025818984671691279 0.37097480582370601 0 0.022061582341240501 0.34281488287412448 0 0.025818984671691279 0.37097480582370601 0 0.0059313923409791804 0.35407678938915937 0 0.022061582341240501 0.34281488287412448 0 -0.001494834127354011 0.33585963461024471 0 0.0059313923409791804 0.35407678938915937 0 0.022061582341240501 0.34281488287412448 0 -0.0012915132074347089 0.36652510761091239 0 0.025818984671691279 0.37097480582370601 0 0.0059313923409791804 0.35407678938915937 0 -0.0012915132074347089 0.36652510761091239 0 0.0022634058800765338 0.37998431242390279 0 0.025818984671691279 0.37097480582370601 0 -0.00023275053750003791 0.33341522743281798 0 0.011462415831891559 0.31076399510208819 0 -0.00023275053750003791 0.33341522743281798 0 0.015605828027808921 0.32421774229306788 0 0.011462415831891559 0.31076399510208819 0 -0.00023275053750003791 0.33341522743281798 0 -0.0019245325289174609 0.31603531092320553 0 0.011462415831891559 0.31076399510208819 0 -0.00023275053750003791 0.33341522743281798 0 0.015605828027808921 0.32421774229306788 0 0.022061582341240501 0.34281488287412448 0 -0.001494834127354011 0.33585963461024471 0 0.022061582341240501 0.34281488287412448 0 -0.00023275053750003791 0.33341522743281798 0 0.015605828027808921 0.32421774229306788 0 -0.001494834127354011 0.33585963461024471 0 -0.00023275053750003791 0.33341522743281798 0 0.022061582341240501 0.34281488287412448 0 0.015605828027808921 0.32421774229306788 0 0.022061582341240501 0.34281488287412448 0 0.032498930345451621 0.32877260825484939 0 0.015605828027808921 0.32421774229306788 0 0.031617266128864778 0.3100200228130458 0 0.011462415831891559 0.31076399510208819 0 0.015605828027808921 0.32421774229306788 0 0.032498930345451621 0.32877260825484939 0 0.031617266128864778 0.3100200228130458 0 0.032498930345451621 0.32877260825484939 0 0.053067125874532807 0.32186771128630598 0 0.031617266128864778 0.3100200228130458 0 0.040680680837862818 0.34575401892799468 0 0.032498930345451621 0.32877260825484939 0 0.053067125874532807 0.32186771128630598 0 0.040680680837862818 0.34575401892799468 0 0.022061582341240501 0.34281488287412448 0 0.032498930345451621 0.32877260825484939 0 0.040680680837862818 0.34575401892799468 0 0.060197324006420687 0.34036404380128371 0 0.053067125874532807 0.32186771128630598 0 0.071868234402458889 0.32191541960626308 0 0.060197324006420687 0.34036404380128371 0 0.053067125874532807 0.32186771128630598 0 0.053067125874532807 0.32186771128630598 0 0.052017148134365331 0.29987511517419502 0 0.075732841623420116 0.3040119888776005 0 0.052017148134365331 0.29987511517419502 0 0.05677961595488739 0.28913226718906643 0 0.045928031938694089 0.284090574923205 0 0.05677961595488739 0.28913226718906643 0 0.057794091393966018 0.27869543868171248 0 0.067499702154951061 0.28329206196994589 0 0.052017148134365331 0.29987511517419502 0 0.05677961595488739 0.28913226718906643 0 0.065608098098544898 0.2944172868448815 0 0.05677961595488739 0.28913226718906643 0 0.045928031938694089 0.284090574923205 0 0.057794091393966018 0.27869543868171248 0 0.052017148134365331 0.29987511517419502 0 0.038180007100802327 0.29552461892045129 0 0.045928031938694089 0.284090574923205 0 0.038180007100802327 0.29552461892045129 0 0.045928031938694089 0.284090574923205 0 0.02315758220128512 0.28811276277135928 0 0.052017148134365331 0.29987511517419502 0 0.038180007100802327 0.29552461892045129 0 0.031617266128864778 0.3100200228130458 0 0.053067125874532807 0.32186771128630598 0 0.052017148134365331 0.29987511517419502 0 0.031617266128864778 0.3100200228130458 0 0.031617266128864778 0.3100200228130458 0 0.02315758220128512 0.28811276277135928 0 0.011462415831891559 0.31076399510208819 0 0.038180007100802327 0.29552461892045129 0 0.031617266128864778 0.3100200228130458 0 0.02315758220128512 0.28811276277135928 0 0.02315758220128512 0.28811276277135928 0 0.011462415831891559 0.31076399510208819 0 0.02315758220128512 0.28811276277135928 0 0.0074937284318593164 0.28700854176367141 0 0.011462415831891559 0.31076399510208819 0 0.02315758220128512 0.28811276277135928 0 0.0074937284318593164 0.28700854176367141 0 0.013670863725534251 0.27040545475246153 0 -0.0047650251177795587 0.29780240569285532 0 -0.0019245325289174609 0.31603531092320553 0 0.011462415831891559 0.31076399510208819 0 -0.0047650251177795587 0.29780240569285532 0 0.0074937284318593164 0.28700854176367141 0 0.011462415831891559 0.31076399510208819 0 -0.0013581205314274699 0.25585075003031849 0 0.022062085370766191 0.24948980786434841 0 0.013670863725534251 0.27040545475246153 0 -0.0041828416899563313 0.27650933564444069 0 0.0074937284318593164 0.28700854176367141 0 0.013670863725534251 0.27040545475246153 0 -0.0041828416899563313 0.27650933564444069 0 -0.0013581205314274699 0.25585075003031849 0 0.013670863725534251 0.27040545475246153 0 0.02315758220128512 0.28811276277135928 0 0.013670863725534251 0.27040545475246153 0 0.034852748570678667 0.26546153044063048 0 0.02315758220128512 0.28811276277135928 0 0.034852748570678667 0.26546153044063048 0 0.022062085370766191 0.24948980786434841 0 0.013670863725534251 0.27040545475246153 0 0.034852748570678667 0.26546153044063048 0 0.034852748570678667 0.26546153044063048 0 0.049961034940882519 0.27146551024526477 0 0.050942294489417762 0.2594121525026577 0 0.040294956150503269 0.25223707839592702 0 0.034852748570678667 0.26546153044063048 0 0.050942294489417762 0.2594121525026577 0 0.022062085370766191 0.24948980786434841 0 0.040294956150503269 0.25223707839592702 0 0.034852748570678667 0.26546153044063048 0 0.045928031938694089 0.284090574923205 0 0.02315758220128512 0.28811276277135928 0 0.034852748570678667 0.26546153044063048 0 0.045928031938694089 0.284090574923205 0 0.034852748570678667 0.26546153044063048 0 0.049961034940882519 0.27146551024526477 0 0.045928031938694089 0.284090574923205 0 0.049961034940882519 0.27146551024526477 0 0.057794091393966018 0.27869543868171248 0 0.049961034940882519 0.27146551024526477 0 0.060490933005045183 0.26899625079312822 0 0.050942294489417762 0.2594121525026577 0 0.049961034940882519 0.27146551024526477 0 0.060490933005045183 0.26899625079312822 0 0.057794091393966018 0.27869543868171248 0 0.060490933005045183 0.26899625079312822 0 0.057794091393966018 0.27869543868171248 0 0.066797433850478038 0.27473564276939472 0 0.040294956150503269 0.25223707839592702 0 0.050942294489417762 0.2594121525026577 0 0.062163090997927238 0.25246932702843122 0 0.060490933005045183 0.26899625079312822 0 0.050942294489417762 0.2594121525026577 0 0.062906770803120501 0.2607612059882824 0 0.050942294489417762 0.2594121525026577 0 0.062163090997927238 0.25246932702843122 0 0.062906770803120501 0.2607612059882824 0 0.050942294489417762 0.2594121525026577 0 0.062163090997927238 0.25246932702843122 0 0.072506791539930587 0.248787560300406 0 0.062163090997927238 0.25246932702843122 0 0.070756084691097676 0.25798693350248031 0 0.062163090997927238 0.25246932702843122 0 0.062906770803120501 0.2607612059882824 0 0.070756084691097676 0.25798693350248031 0 0.062163090997927238 0.25246932702843122 0 0.070756084691097676 0.25798693350248031 0 0.062906770803120501 0.2607612059882824 0 0.070756084691097676 0.25798693350248031 0 0.071473083047460861 0.26785647109051353 0 0.070756084691097676 0.25798693350248031 0 0.076915197165763907 0.26254735605948859 0 0.078810659039289327 0.25619380886554771 0 0.070756084691097676 0.25798693350248031 0 0.076915197165763907 0.26254735605948859 0 0.071473083047460861 0.26785647109051353 0 0.070756084691097676 0.25798693350248031 0 0.07607094232800328 0.25203594905764171 0 0.078810659039289327 0.25619380886554771 0 0.072506791539930587 0.248787560300406 0 0.070756084691097676 0.25798693350248031 0 0.07607094232800328 0.25203594905764171 0 0.077828192347162622 0.247122705985938 0 0.07607094232800328 0.25203594905764171 0 0.080280856494467548 0.25090285684720348 0 0.085868016482932338 0.25269131097926117 0 0.078810659039289327 0.25619380886554771 0 0.083739207483843864 0.2610654241912041 0 0.080280856494467548 0.25090285684720348 0 0.085868016482932338 0.25269131097926117 0 0.078810659039289327 0.25619380886554771 0 0.07607094232800328 0.25203594905764171 0 0.080280856494467548 0.25090285684720348 0 0.078810659039289327 0.25619380886554771 0 0.082826472274950214 0.24647050934762871 0 0.080280856494467548 0.25090285684720348 0 0.085868016482932338 0.25269131097926117 0 0.076915197165763907 0.26254735605948859 0 0.083739207483843864 0.2610654241912041 0 0.081276855994644265 0.26950265332025941 0 0.076915197165763907 0.26254735605948859 0 0.078810659039289327 0.25619380886554771 0 0.083739207483843864 0.2610654241912041 0 0.091441525093737167 0.25833245974657548 0 0.088862943340454539 0.26705921151237327 0 0.095669898789823349 0.26252106616712179 0 0.083739207483843864 0.2610654241912041 0 0.091441525093737167 0.25833245974657548 0 0.088862943340454539 0.26705921151237327 0 0.091543946649292843 0.24997310198023659 0 0.091441525093737167 0.25833245974657548 0 0.097171933684521816 0.25511804805167337 0 0.085868016482932338 0.25269131097926117 0 0.083739207483843864 0.2610654241912041 0 0.091441525093737167 0.25833245974657548 0 0.091543946649292843 0.24997310198023659 0 0.085868016482932338 0.25269131097926117 0 0.091441525093737167 0.25833245974657548 0 0.087552203047801022 0.28091046705621248 0 0.093415706265350576 0.27244679584878762 0 0.091659279706526875 0.28626493996532743 0 0.087552203047801022 0.28091046705621248 0 0.093415706265350576 0.27244679584878762 0 0.084891474035981657 0.27451051253011682 0 0.093415706265350576 0.27244679584878762 0 0.088862943340454539 0.26705921151237327 0 0.084891474035981657 0.27451051253011682 0 0.093415706265350576 0.27244679584878762 0 0.088862943340454539 0.26705921151237327 0 0.095669898789823349 0.26252106616712179 0 0.083739207483843864 0.2610654241912041 0 0.088862943340454539 0.26705921151237327 0 0.081276855994644265 0.26950265332025941 0 0.081276855994644265 0.26950265332025941 0 0.084891474035981657 0.27451051253011682 0 0.076051686635716126 0.27612186722421411 0 0.088862943340454539 0.26705921151237327 0 0.081276855994644265 0.26950265332025941 0 0.084891474035981657 0.27451051253011682 0 0.084891474035981657 0.27451051253011682 0 0.082189448931923495 0.28102208021885378 0 0.076051686635716126 0.27612186722421411 0 0.087552203047801022 0.28091046705621248 0 0.084891474035981657 0.27451051253011682 0 0.082189448931923495 0.28102208021885378 0 0.082189448931923495 0.28102208021885378 0 0.076051686635716126 0.27612186722421411 0 0.076037788070510259 0.28463723778530797 0 0.076051686635716126 0.27612186722421411 0 0.071473083047460861 0.26785647109051353 0 0.066797433850478038 0.27473564276939472 0 0.081276855994644265 0.26950265332025941 0 0.076051686635716126 0.27612186722421411 0 0.071473083047460861 0.26785647109051353 0 0.076915197165763907 0.26254735605948859 0 0.081276855994644265 0.26950265332025941 0 0.071473083047460861 0.26785647109051353 0 0.060490933005045183 0.26899625079312822 0 0.071473083047460861 0.26785647109051353 0 0.066797433850478038 0.27473564276939472 0 0.060490933005045183 0.26899625079312822 0 0.062906770803120501 0.2607612059882824 0 0.071473083047460861 0.26785647109051353 0 0.057794091393966018 0.27869543868171248 0 0.066797433850478038 0.27473564276939472 0 0.067499702154951061 0.28329206196994589 0 0.076051686635716126 0.27612186722421411 0 0.066797433850478038 0.27473564276939472 0 0.067499702154951061 0.28329206196994589 0 0.05677961595488739 0.28913226718906643 0 0.067499702154951061 0.28329206196994589 0 0.065608098098544898 0.2944172868448815 0 0.067499702154951061 0.28329206196994589 0 0.065608098098544898 0.2944172868448815 0 0.071696653048085757 0.28968910693399808 0 0.065608098098544898 0.2944172868448815 0 0.071696653048085757 0.28968910693399808 0 0.072502271759253556 0.29498051188015251 0 0.071696653048085757 0.28968910693399808 0 0.072502271759253556 0.29498051188015251 0 0.076981797803440943 0.29185554468502839 0 0.067499702154951061 0.28329206196994589 0 0.071696653048085757 0.28968910693399808 0 0.076037788070510259 0.28463723778530797 0 0.076051686635716126 0.27612186722421411 0 0.067499702154951061 0.28329206196994589 0 0.076037788070510259 0.28463723778530797 0 0.071696653048085757 0.28968910693399808 0 0.076981797803440943 0.29185554468502839 0 0.076037788070510259 0.28463723778530797 0 0.071868234402458889 0.32191541960626308 0 0.075732841623420116 0.3040119888776005 0 0.083441764507871455 0.30817112960949877 0 0.052017148134365331 0.29987511517419502 0 0.065608098098544898 0.2944172868448815 0 0.075732841623420116 0.3040119888776005 0 0.065608098098544898 0.2944172868448815 0 0.072502271759253556 0.29498051188015251 0 0.075732841623420116 0.3040119888776005 0 0.072502271759253556 0.29498051188015251 0 0.076981797803440943 0.29185554468502839 0 0.075732841623420116 0.3040119888776005 0 0.075732841623420116 0.3040119888776005 0 0.092765153569987879 0.29841717721940159 0 0.086589551092593475 0.30480962604661299 0 0.075732841623420116 0.3040119888776005 0 0.083441764507871455 0.30817112960949877 0 0.086589551092593475 0.30480962604661299 0 0.092765153569987879 0.29841717721940159 0 0.086589551092593475 0.30480962604661299 0 0.094418444669094409 0.30863820847995133 0 0.083441764507871455 0.30817112960949877 0 0.086589551092593475 0.30480962604661299 0 0.094418444669094409 0.30863820847995133 0 0.076981797803440943 0.29185554468502839 0 0.075732841623420116 0.3040119888776005 0 0.082702891776207182 0.28795189135542282 0 0.075732841623420116 0.3040119888776005 0 0.082702891776207182 0.28795189135542282 0 0.091659279706526875 0.28626493996532743 0 0.075732841623420116 0.3040119888776005 0 0.092765153569987879 0.29841717721940159 0 0.098398557372307224 0.28615626646889508 0 0.075732841623420116 0.3040119888776005 0 0.091659279706526875 0.28626493996532743 0 0.098398557372307224 0.28615626646889508 0 0.075732841623420116 0.3040119888776005 0 0.098398557372307224 0.28615626646889508 0 0.087552203047801022 0.28091046705621248 0 0.082189448931923495 0.28102208021885378 0 0.082702891776207182 0.28795189135542282 0 0.082189448931923495 0.28102208021885378 0 0.076037788070510259 0.28463723778530797 0 0.082702891776207182 0.28795189135542282 0 0.076981797803440943 0.29185554468502839 0 0.076037788070510259 0.28463723778530797 0 0.082702891776207182 0.28795189135542282 0 0.087552203047801022 0.28091046705621248 0 0.082702891776207182 0.28795189135542282 0 0.091659279706526875 0.28626493996532743 0 0.091659279706526875 0.28626493996532743 0 0.098398557372307224 0.28615626646889508 0 0.10580128949717101 0.27349900119884291 0 0.092765153569987879 0.29841717721940159 0 0.098398557372307224 0.28615626646889508 0 0.1000889004062999 0.29453344680216559 0 0.098398557372307224 0.28615626646889508 0 0.1000889004062999 0.29453344680216559 0 0.1047653488464914 0.29132866091398502 0 0.1000889004062999 0.29453344680216559 0 0.1047653488464914 0.29132866091398502 0 0.10641790435142599 0.29763755045375789 0 0.1047653488464914 0.29132866091398502 0 0.10641790435142599 0.29763755045375789 0 0.1112756588917496 0.29141822042140431 0 0.1047653488464914 0.29132866091398502 0 0.107645723210674 0.2868978204237021 0 0.1112756588917496 0.29141822042140431 0 0.098398557372307224 0.28615626646889508 0 0.107645723210674 0.2868978204237021 0 0.1118487505142923 0.28147954616528331 0 0.098398557372307224 0.28615626646889508 0 0.1047653488464914 0.29132866091398502 0 0.107645723210674 0.2868978204237021 0 0.094418444669094409 0.30863820847995133 0 0.099129224883827069 0.30105518776322321 0 0.1034931103707623 0.30580457559702462 0 0.1021840014142613 0.31460156646078768 0 0.094418444669094409 0.30863820847995133 0 0.1034931103707623 0.30580457559702462 0 0.092765153569987879 0.29841717721940159 0 0.094418444669094409 0.30863820847995133 0 0.099129224883827069 0.30105518776322321 0 0.092765153569987879 0.29841717721940159 0 0.1000889004062999 0.29453344680216559 0 0.099129224883827069 0.30105518776322321 0 0.099129224883827069 0.30105518776322321 0 0.10641790435142599 0.29763755045375789 0 0.1034931103707623 0.30580457559702462 0 0.10641790435142599 0.29763755045375789 0 0.1034931103707623 0.30580457559702462 0 0.1120178259175218 0.30589296060095411 0 0.1000889004062999 0.29453344680216559 0 0.099129224883827069 0.30105518776322321 0 0.10641790435142599 0.29763755045375789 0 0.1021840014142613 0.31460156646078768 0 0.1034931103707623 0.30580457559702462 0 0.1120178259175218 0.30589296060095411 0 0.11060005590789219 0.32189636365797358 0 0.1120178259175218 0.30589296060095411 0 0.12210241479145061 0.307299179814506 0 0.10641790435142599 0.29763755045375789 0 0.1120178259175218 0.30589296060095411 0 0.1135346352530001 0.29704207707564939 0 0.1120178259175218 0.30589296060095411 0 0.1135346352530001 0.29704207707564939 0 0.1190757725299877 0.29819696626480441 0 0.1120178259175218 0.30589296060095411 0 0.1190757725299877 0.29819696626480441 0 0.12210241479145061 0.307299179814506 0 0.1190757725299877 0.29819696626480441 0 0.1239384301897994 0.29929535014450731 0 0.12210241479145061 0.307299179814506 0 0.1239384301897994 0.29929535014450731 0 0.12210241479145061 0.307299179814506 0 0.12877559045209441 0.30108494726757462 0 0.1190757725299877 0.29819696626480441 0 0.1239384301897994 0.29929535014450731 0 0.1230793790240486 0.29508203714845938 0 0.1136433697079313 0.28648149958740959 0 0.1161910945020425 0.28955660483759521 0 0.1188661744979385 0.28721596554243117 0 0.1136433697079313 0.28648149958740959 0 0.1188661744979385 0.28721596554243117 0 0.1172648473879533 0.28332745886508498 0 0.1136433697079313 0.28648149958740959 0 0.1118487505142923 0.28147954616528331 0 0.1172648473879533 0.28332745886508498 0 0.107645723210674 0.2868978204237021 0 0.1136433697079313 0.28648149958740959 0 0.1118487505142923 0.28147954616528331 0 0.107645723210674 0.2868978204237021 0 0.1136433697079313 0.28648149958740959 0 0.1112756588917496 0.29141822042140431 0 0.10641790435142599 0.29763755045375789 0 0.1135346352530001 0.29704207707564939 0 0.1112756588917496 0.29141822042140431 0 0.1135346352530001 0.29704207707564939 0 0.1112756588917496 0.29141822042140431 0 0.1167421942733711 0.29334766709660282 0 0.1135346352530001 0.29704207707564939 0 0.1190757725299877 0.29819696626480441 0 0.1167421942733711 0.29334766709660282 0 0.1112756588917496 0.29141822042140431 0 0.1167421942733711 0.29334766709660282 0 0.1161910945020425 0.28955660483759521 0 0.1136433697079313 0.28648149958740959 0 0.1112756588917496 0.29141822042140431 0 0.1161910945020425 0.28955660483759521 0 0.1161910945020425 0.28955660483759521 0 0.11977419260147069 0.29045724641516668 0 0.1188661744979385 0.28721596554243117 0 0.1167421942733711 0.29334766709660282 0 0.11977419260147069 0.29045724641516668 0 0.1206018118619764 0.29341488756499712 0 0.1167421942733711 0.29334766709660282 0 0.1161910945020425 0.28955660483759521 0 0.11977419260147069 0.29045724641516668 0 0.11977419260147069 0.29045724641516668 0 0.1206018118619764 0.29341488756499712 0 0.1227601697665119 0.29146170911707758 0 0.1190757725299877 0.29819696626480441 0 0.1206018118619764 0.29341488756499712 0 0.1230793790240486 0.29508203714845938 0 0.1190757725299877 0.29819696626480441 0 0.1167421942733711 0.29334766709660282 0 0.1206018118619764 0.29341488756499712 0 0.1239384301897994 0.29929535014450731 0 0.1230793790240486 0.29508203714845938 0 0.12631020149541949 0.29557666323730319 0 0.1206018118619764 0.29341488756499712 0 0.1230793790240486 0.29508203714845938 0 0.1227601697665119 0.29146170911707758 0 0.1230793790240486 0.29508203714845938 0 0.1227601697665119 0.29146170911707758 0 0.12578988830059651 0.29254664656206708 0 0.11977419260147069 0.29045724641516668 0 0.1227601697665119 0.29146170911707758 0 0.1220576342069698 0.28839340045616502 0 0.1227601697665119 0.29146170911707758 0 0.12490931994801389 0.28963907956572149 0 0.12578988830059651 0.29254664656206708 0 0.1227601697665119 0.29146170911707758 0 0.12490931994801389 0.28963907956572149 0 0.1220576342069698 0.28839340045616502 0 0.12490931994801389 0.28963907956572149 0 0.1238527032280814 0.28681284791342487 0 0.1220576342069698 0.28839340045616502 0 0.1238527032280814 0.28681284791342487 0 0.1244496799462624 0.28301920687950871 0 0.1264188560381343 0.2878265607545617 0 0.1238527032280814 0.28681284791342487 0 0.1220576342069698 0.28839340045616502 0 0.1213492015771956 0.28513548125517468 0 0.1188661744979385 0.28721596554243117 0 0.1172648473879533 0.28332745886508498 0 0.1213492015771956 0.28513548125517468 0 0.11977419260147069 0.29045724641516668 0 0.1220576342069698 0.28839340045616502 0 0.1188661744979385 0.28721596554243117 0 0.1220576342069698 0.28839340045616502 0 0.1188661744979385 0.28721596554243117 0 0.1213492015771956 0.28513548125517468 0 0.1172648473879533 0.28332745886508498 0 0.12055002055528601 0.28140114906639768 0 0.1213492015771956 0.28513548125517468 0 0.12055002055528601 0.28140114906639768 0 0.1213492015771956 0.28513548125517468 0 0.1244496799462624 0.28301920687950871 0 0.1238527032280814 0.28681284791342487 0 0.1213492015771956 0.28513548125517468 0 0.1244496799462624 0.28301920687950871 0 0.12199157939662671 0.27698983008809058 0 0.11769479446839209 0.27853376824412951 0 0.1210642731211944 0.26830054406018983 0 0.1244496799462624 0.28301920687950871 0 0.12199157939662671 0.27698983008809058 0 0.12596979802228361 0.27358016688650377 0 0.12055002055528601 0.28140114906639768 0 0.1244496799462624 0.28301920687950871 0 0.12199157939662671 0.27698983008809058 0 0.098398557372307224 0.28615626646889508 0 0.1210642731211944 0.26830054406018983 0 0.098398557372307224 0.28615626646889508 0 0.1118487505142923 0.28147954616528331 0 0.1210642731211944 0.26830054406018983 0 0.1172648473879533 0.28332745886508498 0 0.12055002055528601 0.28140114906639768 0 0.11769479446839209 0.27853376824412951 0 0.12055002055528601 0.28140114906639768 0 0.12199157939662671 0.27698983008809058 0 0.11769479446839209 0.27853376824412951 0 0.1118487505142923 0.28147954616528331 0 0.11769479446839209 0.27853376824412951 0 0.1210642731211944 0.26830054406018983 0 0.1118487505142923 0.28147954616528331 0 0.1172648473879533 0.28332745886508498 0 0.11769479446839209 0.27853376824412951 0 0.1210642731211944 0.26830054406018983 0 0.1123226271155921 0.26453376942764828 0 0.10580128949717101 0.27349900119884291 0 0.12199157939662671 0.27698983008809058 0 0.1210642731211944 0.26830054406018983 0 0.12596979802228361 0.27358016688650377 0 0.11700612055034661 0.25280059366604207 0 0.1281792854763541 0.25910810811730373 0 0.12596979802228361 0.27358016688650377 0 0.1210642731211944 0.26830054406018983 0 0.11700612055034661 0.25280059366604207 0 0.12596979802228361 0.27358016688650377 0 0.11700612055034661 0.25280059366604207 0 0.12596979802228361 0.27358016688650377 0 0.12695957089482901 0.24747230001415241 0 0.11700612055034661 0.25280059366604207 0 0.1281792854763541 0.25910810811730373 0 0.1210642731211944 0.26830054406018983 0 0.11700612055034661 0.25280059366604207 0 0.1123226271155921 0.26453376942764828 0 0.11700612055034661 0.25280059366604207 0 0.1123226271155921 0.26453376942764828 0 0.1057998516311974 0.26008039821654533 0 0.10140444625855841 0.24468321414788791 0 0.1057998516311974 0.26008039821654533 0 0.097171933684521816 0.25511804805167337 0 0.1057998516311974 0.26008039821654533 0 0.097171933684521816 0.25511804805167337 0 0.095669898789823349 0.26252106616712179 0 0.093415706265350576 0.27244679584878762 0 0.1057998516311974 0.26008039821654533 0 0.095669898789823349 0.26252106616712179 0 0.091441525093737167 0.25833245974657548 0 0.097171933684521816 0.25511804805167337 0 0.095669898789823349 0.26252106616712179 0 0.091659279706526875 0.28626493996532743 0 0.1057998516311974 0.26008039821654533 0 0.098398557372307224 0.28615626646889508 0 0.1210642731211944 0.26830054406018983 0 0.10580128949717101 0.27349900119884291 0 0.091659279706526875 0.28626493996532743 0 0.1057998516311974 0.26008039821654533 0 0.10580128949717101 0.27349900119884291 0 0.093415706265350576 0.27244679584878762 0 0.091659279706526875 0.28626493996532743 0 0.1057998516311974 0.26008039821654533 0 0.1123226271155921 0.26453376942764828 0 0.1057998516311974 0.26008039821654533 0 0.10580128949717101 0.27349900119884291 0 0.14197652427293059 0.26811486496052911 0 0.15263622647705771 0.27396686122891101 0 0.14873454311733669 0.28390337731332549 0 0.15263622647705771 0.27396686122891101 0 0.14873454311733669 0.28390337731332549 0 0.15798420398973509 0.28234951176469703 0 0.14197652427293059 0.26811486496052911 0 0.15263622647705771 0.27396686122891101 0 0.154228756659956 0.26237374011589493 0 0.15263622647705771 0.27396686122891101 0 0.154228756659956 0.26237374011589493 0 0.16025710434533 0.27309281199010838 0 0.14866603178531401 0.24164403189080999 0 0.14197652427293059 0.26811486496052911 0 0.14866603178531401 0.24164403189080999 0 0.154228756659956 0.26237374011589493 0 0.15772465432775251 0.25110283052911042 0 0.14866603178531401 0.24164403189080999 0 0.14197652427293059 0.26811486496052911 0 0.13457760263714399 0.25216438853103162 0 0.14866603178531401 0.24164403189080999 0 0.14197652427293059 0.26811486496052911 0 0.154228756659956 0.26237374011589493 0 0.14197652427293059 0.26811486496052911 0 0.13457760263714399 0.25216438853103162 0 0.1281792854763541 0.25910810811730373 0 0.12695957089482901 0.24747230001415241 0 0.13457760263714399 0.25216438853103162 0 0.1281792854763541 0.25910810811730373 0 0.14197652427293059 0.26811486496052911 0 0.1281792854763541 0.25910810811730373 0 0.12596979802228361 0.27358016688650377 0 0.14197652427293059 0.26811486496052911 0 0.12596979802228361 0.27358016688650377 0 0.13528701676054711 0.29458569803024831 0 0.12596979802228361 0.27358016688650377 0 0.13528701676054711 0.29458569803024831 0 0.14197652427293059 0.26811486496052911 0 0.13528701676054711 0.29458569803024831 0 0.1244496799462624 0.28301920687950871 0 0.12596979802228361 0.27358016688650377 0 0.1289196302032366 0.28770345449760082 0 0.12596979802228361 0.27358016688650377 0 0.1289196302032366 0.28770345449760082 0 0.13528701676054711 0.29458569803024831 0 0.1289196302032366 0.28770345449760082 0 0.1264188560381343 0.2878265607545617 0 0.12781988685681139 0.29060998845553632 0 0.1244496799462624 0.28301920687950871 0 0.1289196302032366 0.28770345449760082 0 0.1264188560381343 0.2878265607545617 0 0.12490931994801389 0.28963907956572149 0 0.1238527032280814 0.28681284791342487 0 0.1264188560381343 0.2878265607545617 0 0.12490931994801389 0.28963907956572149 0 0.1264188560381343 0.2878265607545617 0 0.12781988685681139 0.29060998845553632 0 0.12490931994801389 0.28963907956572149 0 0.12578988830059651 0.29254664656206708 0 0.12781988685681139 0.29060998845553632 0 0.12781988685681139 0.29060998845553632 0 0.12858465551822981 0.29348888490683689 0 0.12945820845118949 0.29195888502938427 0 0.12578988830059651 0.29254664656206708 0 0.12781988685681139 0.29060998845553632 0 0.12858465551822981 0.29348888490683689 0 0.12781988685681139 0.29060998845553632 0 0.1292904797995186 0.29051467219905219 0 0.12945820845118949 0.29195888502938427 0 0.1289196302032366 0.28770345449760082 0 0.12781988685681139 0.29060998845553632 0 0.1292904797995186 0.29051467219905219 0 0.12578988830059651 0.29254664656206708 0 0.12631020149541949 0.29557666323730319 0 0.12858465551822981 0.29348888490683689 0 0.1230793790240486 0.29508203714845938 0 0.12578988830059651 0.29254664656206708 0 0.12631020149541949 0.29557666323730319 0 0.12631020149541949 0.29557666323730319 0 0.12858465551822981 0.29348888490683689 0 0.13015586812292779 0.29603553887317069 0 0.13015586812292779 0.29603553887317069 0 0.13134127196310669 0.29382019808104243 0 0.13528701676054711 0.29458569803024831 0 0.13134127196310669 0.29382019808104243 0 0.13096419368683679 0.29178636081368747 0 0.13528701676054711 0.29458569803024831 0 0.12858465551822981 0.29348888490683689 0 0.13134127196310669 0.29382019808104243 0 0.12945820845118949 0.29195888502938427 0 0.12858465551822981 0.29348888490683689 0 0.13015586812292779 0.29603553887317069 0 0.13134127196310669 0.29382019808104243 0 0.1289196302032366 0.28770345449760082 0 0.1292904797995186 0.29051467219905219 0 0.13096419368683679 0.29178636081368747 0 0.1289196302032366 0.28770345449760082 0 0.13096419368683679 0.29178636081368747 0 0.13528701676054711 0.29458569803024831 0 0.13134127196310669 0.29382019808104243 0 0.12945820845118949 0.29195888502938427 0 0.13096419368683679 0.29178636081368747 0 0.1292904797995186 0.29051467219905219 0 0.12945820845118949 0.29195888502938427 0 0.13096419368683679 0.29178636081368747 0 0.13528701676054711 0.29458569803024831 0 0.14389715296615771 0.31513931332742717 0 0.13528701676054711 0.29458569803024831 0 0.13163900220183661 0.3096327917829832 0 0.14389715296615771 0.31513931332742717 0 0.12210241479145061 0.307299179814506 0 0.13163900220183661 0.3096327917829832 0 0.12877559045209441 0.30108494726757462 0 0.12478463900003051 0.31834353230628493 0 0.12210241479145061 0.307299179814506 0 0.13163900220183661 0.3096327917829832 0 0.13528701676054711 0.29458569803024831 0 0.13163900220183661 0.3096327917829832 0 0.12877559045209441 0.30108494726757462 0 0.1239384301897994 0.29929535014450731 0 0.12631020149541949 0.29557666323730319 0 0.12877559045209441 0.30108494726757462 0 0.12631020149541949 0.29557666323730319 0 0.13015586812292779 0.29603553887317069 0 0.12877559045209441 0.30108494726757462 0 0.13015586812292779 0.29603553887317069 0 0.13528701676054711 0.29458569803024831 0 0.12877559045209441 0.30108494726757462 0 0.13528701676054711 0.29458569803024831 0 0.15071564245579089 0.30020272468279102 0 0.14389715296615771 0.31513931332742717 0 0.15071564245579089 0.30020272468279102 0 0.15957801344302991 0.31676338393705339 0 0.14389715296615771 0.31513931332742717 0 0.14197652427293059 0.26811486496052911 0 0.13528701676054711 0.29458569803024831 0 0.14873454311733669 0.28390337731332549 0 0.13528701676054711 0.29458569803024831 0 0.15071564245579089 0.30020272468279102 0 0.14873454311733669 0.28390337731332549 0 0.15071564245579089 0.30020272468279102 0 0.14873454311733669 0.28390337731332549 0 0.1575608153581039 0.29132478081480878 0 0.14873454311733669 0.28390337731332549 0 0.15798420398973509 0.28234951176469703 0 0.1575608153581039 0.29132478081480878 0 0.15798420398973509 0.28234951176469703 0 0.1575608153581039 0.29132478081480878 0 0.1667189265736907 0.28873307038160151 0 0.1575608153581039 0.29132478081480878 0 0.1667189265736907 0.28873307038160151 0 0.16365076065396611 0.30143521993162947 0 0.1667189265736907 0.28873307038160151 0 0.16365076065396611 0.30143521993162947 0 0.17803107115646641 0.29905917037317842 0 0.15798420398973509 0.28234951176469703 0 0.1667189265736907 0.28873307038160151 0 0.169425292587597 0.27771472974453631 0 0.15071564245579089 0.30020272468279102 0 0.16365076065396611 0.30143521993162947 0 0.15957801344302991 0.31676338393705339 0 0.15071564245579089 0.30020272468279102 0 0.1575608153581039 0.29132478081480878 0 0.16365076065396611 0.30143521993162947 0 0.16365076065396611 0.30143521993162947 0 0.17371971529449001 0.31447732007997831 0 0.15957801344302991 0.31676338393705339 0 0.16365076065396611 0.30143521993162947 0 0.17803107115646641 0.29905917037317842 0 0.17371971529449001 0.31447732007997831 0 0.17803107115646641 0.29905917037317842 0 0.1857380800218856 0.3101946128211775 0 0.19553670369938941 0.29433204850784539 0 0.17803107115646641 0.29905917037317842 0 0.1857380800218856 0.3101946128211775 0 0.17371971529449001 0.31447732007997831 0 0.17803107115646641 0.29905917037317842 0 0.18035808436305209 0.28367595670557288 0 0.19553670369938941 0.29433204850784539 0 0.1667189265736907 0.28873307038160151 0 0.18035808436305209 0.28367595670557288 0 0.169425292587597 0.27771472974453631 0 0.1667189265736907 0.28873307038160151 0 0.17803107115646641 0.29905917037317842 0 0.18035808436305209 0.28367595670557288 0 0.18035808436305209 0.28367595670557288 0 0.17795044436139351 0.27152030873633798 0 0.1916282564751686 0.27022195460616932 0 0.17795044436139351 0.27152030873633798 0 0.1795230853522479 0.25998084109328518 0 0.1916282564751686 0.27022195460616932 0 0.17795044436139351 0.27152030873633798 0 0.16881750302890189 0.26600806153212631 0 0.1795230853522479 0.25998084109328518 0 0.17795044436139351 0.27152030873633798 0 0.169425292587597 0.27771472974453631 0 0.16881750302890189 0.26600806153212631 0 0.18035808436305209 0.28367595670557288 0 0.17795044436139351 0.27152030873633798 0 0.169425292587597 0.27771472974453631 0 0.169425292587597 0.27771472974453631 0 0.16881750302890189 0.26600806153212631 0 0.16025710434533 0.27309281199010838 0 0.154228756659956 0.26237374011589493 0 0.16881750302890189 0.26600806153212631 0 0.16025710434533 0.27309281199010838 0 0.15263622647705771 0.27396686122891101 0 0.15798420398973509 0.28234951176469703 0 0.16025710434533 0.27309281199010838 0 0.15798420398973509 0.28234951176469703 0 0.169425292587597 0.27771472974453631 0 0.16025710434533 0.27309281199010838 0 0.154228756659956 0.26237374011589493 0 0.15772465432775251 0.25110283052911042 0 0.16955028484120149 0.25400044680028072 0 0.154228756659956 0.26237374011589493 0 0.16881750302890189 0.26600806153212631 0 0.16955028484120149 0.25400044680028072 0 0.1804468726277432 0.24761129681614499 0 0.16955028484120149 0.25400044680028072 0 0.1795230853522479 0.25998084109328518 0 0.1795230853522479 0.25998084109328518 0 0.18685789544736289 0.25078693256644929 0 0.1916282564751686 0.27022195460616932 0 0.16881750302890189 0.26600806153212631 0 0.16955028484120149 0.25400044680028072 0 0.1795230853522479 0.25998084109328518 0 0.1804468726277432 0.24761129681614499 0 0.1795230853522479 0.25998084109328518 0 0.18685789544736289 0.25078693256644929 0 0.187719809250948 0.24611186070449331 0 0.18685789544736289 0.25078693256644929 0 0.1916282564751686 0.27022195460616932 0 0.187719809250948 0.24611186070449331 0 0.19721509596201389 0.25467587743472492 0 0.1916282564751686 0.27022195460616932 0 0.187719809250948 0.24611186070449331 0 0.1916282564751686 0.27022195460616932 0 0.19721509596201389 0.25467587743472492 0 0.1916282564751686 0.27022195460616932 0 0.20620746663167591 0.26348460676716451 0 0.19721509596201389 0.25467587743472492 0 0.20429698142111721 0.2501470961135025 0 0.20620746663167591 0.26348460676716451 0 0.1916282564751686 0.27022195460616932 0 0.20532734483730111 0.27942103697690518 0 0.20620746663167591 0.26348460676716451 0 0.20532734483730111 0.27942103697690518 0 0.20620746663167591 0.26348460676716451 0 0.2221003269749908 0.27195462893896338 0 0.20620746663167591 0.26348460676716451 0 0.21904009887537171 0.25628199394506529 0 0.2221003269749908 0.27195462893896338 0 0.20429698142111721 0.2501470961135025 0 0.20620746663167591 0.26348460676716451 0 0.21904009887537171 0.25628199394506529 0 0.23385028299092811 0.24121297171547751 0 0.21904009887537171 0.25628199394506529 0 0.23607108661280371 0.26109162133878772 0 0.21904009887537171 0.25628199394506529 0 0.2221003269749908 0.27195462893896338 0 0.23607108661280371 0.26109162133878772 0 0.2221003269749908 0.27195462893896338 0 0.23607108661280371 0.26109162133878772 0 0.2389629137609684 0.2846130902196588 0 0.2389629137609684 0.2846130902196588 0 0.25356354251313462 0.26595069759367879 0 0.23607108661280371 0.26109162133878772 0 0.2389629137609684 0.2846130902196588 0 0.25356354251313462 0.26595069759367879 0 0.23607108661280371 0.26109162133878772 0 0.25356354251313462 0.26595069759367879 0 0.25191630733126869 0.24920661226757701 0 0.23385028299092811 0.24121297171547751 0 0.23607108661280371 0.26109162133878772 0 0.25191630733126869 0.24920661226757701 0 0.2341078156037622 0.30485535591847668 0 0.25251902142887422 0.29489883967006508 0 0.25499603709520552 0.31033398653960542 0 0.2389629137609684 0.2846130902196588 0 0.2341078156037622 0.30485535591847668 0 0.25251902142887422 0.29489883967006508 0 0.2221003269749908 0.27195462893896338 0 0.2389629137609684 0.2846130902196588 0 0.22418865365612811 0.28809700268826588 0 0.2389629137609684 0.2846130902196588 0 0.22436228500880229 0.30327548284563888 0 0.2389629137609684 0.2846130902196588 0 0.22418865365612811 0.28809700268826588 0 0.22436228500880229 0.30327548284563888 0 0.2221003269749908 0.27195462893896338 0 0.22418865365612811 0.28809700268826588 0 0.21077273894930049 0.29519838567424261 0 0.22418865365612811 0.28809700268826588 0 0.22436228500880229 0.30327548284563888 0 0.21077273894930049 0.29519838567424261 0 0.2389629137609684 0.2846130902196588 0 0.22436228500880229 0.30327548284563888 0 0.2341078156037622 0.30485535591847668 0 0.22436228500880229 0.30327548284563888 0 0.2341078156037622 0.30485535591847668 0 0.22734196343228341 0.31574302587251879 0 0.22436228500880229 0.30327548284563888 0 0.21596974794844201 0.3152936262123005 0 0.22734196343228341 0.31574302587251879 0 0.22436228500880229 0.30327548284563888 0 0.21077273894930049 0.29519838567424261 0 0.21596974794844201 0.3152936262123005 0 0.21077273894930049 0.29519838567424261 0 0.1994451509236102 0.31844214240952162 0 0.21077273894930049 0.29519838567424261 0 0.1994451509236102 0.31844214240952162 0 0.21596974794844201 0.3152936262123005 0 0.2221003269749908 0.27195462893896338 0 0.21077273894930049 0.29519838567424261 0 0.20532734483730111 0.27942103697690518 0 0.21077273894930049 0.29519838567424261 0 0.19553670369938941 0.29433204850784539 0 0.20532734483730111 0.27942103697690518 0 0.2221003269749908 0.27195462893896338 0 0.21077273894930049 0.29519838567424261 0 0.1916282564751686 0.27022195460616932 0 0.19553670369938941 0.29433204850784539 0 0.18035808436305209 0.28367595670557288 0 0.1916282564751686 0.27022195460616932 0 0.19553670369938941 0.29433204850784539 0 0.1916282564751686 0.27022195460616932 0 0.20532734483730111 0.27942103697690518 0 0.19553670369938941 0.29433204850784539 0 0.21077273894930049 0.29519838567424261 0 0.19553670369938941 0.29433204850784539 0 0.1994451509236102 0.31844214240952162 0 0.1857380800218856 0.3101946128211775 0 0.19553670369938941 0.29433204850784539 0 0.1994451509236102 0.31844214240952162 0 0.19553670369938941 0.29433204850784539 0 0.1994451509236102 0.31844214240952162 0 0.1994451509236102 0.31844214240952162 0 0.19168635826626171 0.33436287404964388 0 0.18464265667118551 0.32217675768258541 0 0.1994451509236102 0.31844214240952162 0 0.19168635826626171 0.33436287404964388 0 0.1857380800218856 0.3101946128211775 0 0.1994451509236102 0.31844214240952162 0 0.18464265667118551 0.32217675768258541 0 0.19168635826626171 0.33436287404964388 0 0.18392756560891321 0.35028360568976619 0 0.1994451509236102 0.31844214240952162 0 0.19168635826626171 0.33436287404964388 0 0.20342038121273751 0.34296420195217148 0 0.19168635826626171 0.33436287404964388 0 0.20342038121273751 0.34296420195217148 0 0.19506063651208211 0.3529699952382333 0 0.1994451509236102 0.31844214240952162 0 0.20342038121273751 0.34296420195217148 0 0.1994451509236102 0.31844214240952162 0 0.20342038121273751 0.34296420195217148 0 0.21312643064864489 0.33022871731107578 0 0.20342038121273751 0.34296420195217148 0 0.21312643064864489 0.33022871731107578 0 0.22093337687049139 0.34497413856024212 0 0.1994451509236102 0.31844214240952162 0 0.21312643064864489 0.33022871731107578 0 0.21596974794844201 0.3152936262123005 0 0.21312643064864489 0.33022871731107578 0 0.21596974794844201 0.3152936262123005 0 0.22586349628794331 0.32946947742114302 0 0.21596974794844201 0.3152936262123005 0 0.22734196343228341 0.31574302587251879 0 0.22586349628794331 0.32946947742114302 0 0.22734196343228341 0.31574302587251879 0 0.22586349628794331 0.32946947742114302 0 0.24674238681088931 0.3286398127048844 0 0.21312643064864489 0.33022871731107578 0 0.22586349628794331 0.32946947742114302 0 0.22093337687049139 0.34497413856024212 0 0.22586349628794331 0.32946947742114302 0 0.2387375449762775 0.34721292339502191 0 0.22093337687049139 0.34497413856024212 0 0.24674238681088931 0.3286398127048844 0 0.2387375449762775 0.34721292339502191 0 0.25937695801801641 0.35242426949129207 0 0.22586349628794331 0.32946947742114302 0 0.24674238681088931 0.3286398127048844 0 0.2387375449762775 0.34721292339502191 0 0.2341078156037622 0.30485535591847668 0 0.22734196343228341 0.31574302587251879 0 0.24674238681088931 0.3286398127048844 0 0.2341078156037622 0.30485535591847668 0 0.24674238681088931 0.3286398127048844 0 0.25499603709520552 0.31033398653960542 0 0.2341078156037622 0.30485535591847668 0 0.24674238681088931 0.3286398127048844 0 0.2387375449762775 0.34721292339502191 0 0.2269594812077923 0.36498825988947398 0 0.25004482850601251 0.37417003650910702 0 0.2387375449762775 0.34721292339502191 0 0.25937695801801641 0.35242426949129207 0 0.25004482850601251 0.37417003650910702 0 0.2387375449762775 0.34721292339502191 0 0.22093337687049139 0.34497413856024212 0 0.2269594812077923 0.36498825988947398 0 0.22093337687049139 0.34497413856024212 0 0.2269594812077923 0.36498825988947398 0 0.20994774256310131 0.3559473632457717 0 0.2269594812077923 0.36498825988947398 0 0.21018188498289969 0.37041141079402012 0 0.21924101697293169 0.38008071570349722 0 0.2269594812077923 0.36498825988947398 0 0.21018188498289969 0.37041141079402012 0 0.20994774256310131 0.3559473632457717 0 0.21018188498289969 0.37041141079402012 0 0.20994774256310131 0.3559473632457717 0 0.20000180513099849 0.36405584316698397 0 0.20342038121273751 0.34296420195217148 0 0.22093337687049139 0.34497413856024212 0 0.20994774256310131 0.3559473632457717 0 0.19168635826626171 0.33436287404964388 0 0.19506063651208211 0.3529699952382333 0 0.18392756560891321 0.35028360568976619 0 0.20342038121273751 0.34296420195217148 0 0.20994774256310131 0.3559473632457717 0 0.19506063651208211 0.3529699952382333 0 0.20994774256310131 0.3559473632457717 0 0.19506063651208211 0.3529699952382333 0 0.20000180513099849 0.36405584316698397 0 0.20000180513099849 0.36405584316698397 0 0.18137996629048009 0.370206083325063 0 0.19707990164758929 0.37617564161942518 0 0.19506063651208211 0.3529699952382333 0 0.20000180513099849 0.36405584316698397 0 0.18137996629048009 0.370206083325063 0 0.21018188498289969 0.37041141079402012 0 0.20000180513099849 0.36405584316698397 0 0.19707990164758929 0.37617564161942518 0 0.18137996629048009 0.370206083325063 0 0.16732396918070891 0.37428345064546698 0 0.1753414352497735 0.37999325161561159 0 0.18137996629048009 0.370206083325063 0 0.16732396918070891 0.37428345064546698 0 0.1621634682197591 0.35762463483837248 0 0.16732396918070891 0.37428345064546698 0 0.1621634682197591 0.35762463483837248 0 0.15243674997175491 0.37430880753351858 0 0.18137996629048009 0.370206083325063 0 0.17090403088766901 0.34760521338760741 0 0.1621634682197591 0.35762463483837248 0 0.17090403088766901 0.34760521338760741 0 0.1621634682197591 0.35762463483837248 0 0.1528608304380947 0.33591888654788887 0 0.19506063651208211 0.3529699952382333 0 0.18137996629048009 0.370206083325063 0 0.18392756560891321 0.35028360568976619 0 0.18137996629048009 0.370206083325063 0 0.17090403088766901 0.34760521338760741 0 0.18392756560891321 0.35028360568976619 0 0.17090403088766901 0.34760521338760741 0 0.18392756560891321 0.35028360568976619 0 0.17262397884968009 0.33340683905260537 0 0.19168635826626171 0.33436287404964388 0 0.17262397884968009 0.33340683905260537 0 0.18464265667118551 0.32217675768258541 0 0.19168635826626171 0.33436287404964388 0 0.18392756560891321 0.35028360568976619 0 0.17262397884968009 0.33340683905260537 0 0.17262397884968009 0.33340683905260537 0 0.18464265667118551 0.32217675768258541 0 0.17371971529449001 0.31447732007997831 0 0.1857380800218856 0.3101946128211775 0 0.18464265667118551 0.32217675768258541 0 0.17371971529449001 0.31447732007997831 0 0.17262397884968009 0.33340683905260537 0 0.17371971529449001 0.31447732007997831 0 0.15957801344302991 0.31676338393705339 0 0.17090403088766901 0.34760521338760741 0 0.17262397884968009 0.33340683905260537 0 0.1528608304380947 0.33591888654788887 0 0.17262397884968009 0.33340683905260537 0 0.15957801344302991 0.31676338393705339 0 0.1528608304380947 0.33591888654788887 0 0.1528608304380947 0.33591888654788887 0 0.14389715296615771 0.31513931332742717 0 0.13775758730280899 0.34464872921492601 0 0.1528608304380947 0.33591888654788887 0 0.14389715296615771 0.31513931332742717 0 0.15957801344302991 0.31676338393705339 0 0.1528608304380947 0.33591888654788887 0 0.14389715296615771 0.31513931332742717 0 0.12478463900003051 0.31834353230628493 0 0.13163900220183661 0.3096327917829832 0 0.14389715296615771 0.31513931332742717 0 0.1227400750860225 0.33515185323383878 0 0.12478463900003051 0.31834353230628493 0 0.14389715296615771 0.31513931332742717 0 0.1227400750860225 0.33515185323383878 0 0.14389715296615771 0.31513931332742717 0 0.13775758730280899 0.34464872921492601 0 0.1228937766592843 0.35378028107363041 0 0.1227400750860225 0.33515185323383878 0 0.13775758730280899 0.34464872921492601 0 0.1228937766592843 0.35378028107363041 0 0.13775758730280899 0.34464872921492601 0 0.13961414348765769 0.36199437147248692 0 0.1228937766592843 0.35378028107363041 0 0.12874840841938939 0.37491499108935422 0 0.13961414348765769 0.36199437147248692 0 0.12874840841938939 0.37491499108935422 0 0.13961414348765769 0.36199437147248692 0 0.15243674997175491 0.37430880753351858 0 0.1621634682197591 0.35762463483837248 0 0.13961414348765769 0.36199437147248692 0 0.15243674997175491 0.37430880753351858 0 0.1621634682197591 0.35762463483837248 0 0.1528608304380947 0.33591888654788887 0 0.13775758730280899 0.34464872921492601 0 0.1621634682197591 0.35762463483837248 0 0.13775758730280899 0.34464872921492601 0 0.13961414348765769 0.36199437147248692 0 0.1437882913174531 0.39094229228056609 0 0.1372841585407342 0.40260431258846258 0 0.16220676888953181 0.40464864223273678 0 0.12874840841938939 0.37491499108935422 0 0.15243674997175491 0.37430880753351858 0 0.1437882913174531 0.39094229228056609 0 0.1437882913174531 0.39094229228056609 0 0.16529822617177711 0.38928447591476889 0 0.15243674997175491 0.37430880753351858 0 0.1437882913174531 0.39094229228056609 0 0.16529822617177711 0.38928447591476889 0 0.1222799321900277 0.39262055348189367 0 0.12874840841938939 0.37491499108935422 0 0.1437882913174531 0.39094229228056609 0 0.1222799321900277 0.39262055348189367 0 0.1437882913174531 0.39094229228056609 0 0.1222799321900277 0.39262055348189367 0 0.1437882913174531 0.39094229228056609 0 0.1372841585407342 0.40260431258846258 0 0.1227317005809329 0.40562766670787193 0 0.1222799321900277 0.39262055348189367 0 0.1372841585407342 0.40260431258846258 0 0.1227317005809329 0.40562766670787193 0 0.1372841585407342 0.40260431258846258 0 0.1363496347108536 0.41764060185587931 0 0.1227317005809329 0.40562766670787193 0 0.1363496347108536 0.41764060185587931 0 0.1138513721720477 0.42894489089561411 0 0.1363496347108536 0.41764060185587931 0 0.1138513721720477 0.42894489089561411 0 0.1363496347108536 0.41764060185587931 0 0.1317389345630566 0.44034454998539962 0 0.1363496347108536 0.41764060185587931 0 0.1537884457638469 0.43302408838470302 0 0.1317389345630566 0.44034454998539962 0 0.1363496347108536 0.41764060185587931 0 0.1537884457638469 0.43302408838470302 0 0.1363496347108536 0.41764060185587931 0 0.16220676888953181 0.40464864223273678 0 0.1363496347108536 0.41764060185587931 0 0.1537884457638469 0.43302408838470302 0 0.16220676888953181 0.40464864223273678 0 0.1372841585407342 0.40260431258846258 0 0.1363496347108536 0.41764060185587931 0 0.16220676888953181 0.40464864223273678 0 0.1537884457638469 0.43302408838470302 0 0.1693091209623078 0.42250197043899468 0 0.16220676888953181 0.40464864223273678 0 0.1693091209623078 0.42250197043899468 0 0.17612150775587521 0.4106352486917193 0 0.16220676888953181 0.40464864223273678 0 0.1537884457638469 0.43302408838470302 0 0.1693091209623078 0.42250197043899468 0 0.17103554889517389 0.43424175840152229 0 0.17103554889517389 0.43424175840152229 0 0.17983075582414079 0.42495162356552768 0 0.18443025573733721 0.4365214456651102 0 0.1693091209623078 0.42250197043899468 0 0.17103554889517389 0.43424175840152229 0 0.17983075582414079 0.42495162356552768 0 0.17983075582414079 0.42495162356552768 0 0.18734664337836329 0.41737809399924608 0 0.1914514770967467 0.42722245564662598 0 0.17983075582414079 0.42495162356552768 0 0.18443025573733721 0.4365214456651102 0 0.1914514770967467 0.42722245564662598 0 0.17612150775587521 0.4106352486917193 0 0.18734664337836329 0.41737809399924608 0 0.18806390306820961 0.3916566826095933 0 0.1693091209623078 0.42250197043899468 0 0.17983075582414079 0.42495162356552768 0 0.17612150775587521 0.4106352486917193 0 0.17983075582414079 0.42495162356552768 0 0.17612150775587521 0.4106352486917193 0 0.18734664337836329 0.41737809399924608 0 0.17612150775587521 0.4106352486917193 0 0.16220676888953181 0.40464864223273678 0 0.18806390306820961 0.3916566826095933 0 0.16220676888953181 0.40464864223273678 0 0.18806390306820961 0.3916566826095933 0 0.1437882913174531 0.39094229228056609 0 0.16220676888953181 0.40464864223273678 0 0.16529822617177711 0.38928447591476889 0 0.16220676888953181 0.40464864223273678 0 0.16529822617177711 0.38928447591476889 0 0.18806390306820961 0.3916566826095933 0 0.16732396918070891 0.37428345064546698 0 0.15243674997175491 0.37430880753351858 0 0.16529822617177711 0.38928447591476889 0 0.16732396918070891 0.37428345064546698 0 0.16529822617177711 0.38928447591476889 0 0.1753414352497735 0.37999325161561159 0 0.18137996629048009 0.370206083325063 0 0.18680816102610101 0.38762665954897041 0 0.16529822617177711 0.38928447591476889 0 0.18680816102610101 0.38762665954897041 0 0.18806390306820961 0.3916566826095933 0 0.16529822617177711 0.38928447591476889 0 0.18680816102610101 0.38762665954897041 0 0.18137996629048009 0.370206083325063 0 0.1753414352497735 0.37999325161561159 0 0.18680816102610101 0.38762665954897041 0 0.16529822617177711 0.38928447591476889 0 0.1753414352497735 0.37999325161561159 0 0.18680816102610101 0.38762665954897041 0 0.18680816102610101 0.38762665954897041 0 0.18806390306820961 0.3916566826095933 0 0.18806390306820961 0.3916566826095933 0 0.20680003534663419 0.38224268211081408 0 0.18137996629048009 0.370206083325063 0 0.18680816102610101 0.38762665954897041 0 0.19707990164758929 0.37617564161942518 0 0.19335983668554779 0.3871217079902996 0 0.18806390306820961 0.3916566826095933 0 0.20680003534663419 0.38224268211081408 0 0.18680816102610101 0.38762665954897041 0 0.19335983668554779 0.3871217079902996 0 0.19707990164758929 0.37617564161942518 0 0.18680816102610101 0.38762665954897041 0 0.19335983668554779 0.3871217079902996 0 0.18806390306820961 0.3916566826095933 0 0.18680816102610101 0.38762665954897041 0 0.19335983668554779 0.3871217079902996 0 0.19335983668554779 0.3871217079902996 0 0.19707990164758929 0.37617564161942518 0 0.20680003534663419 0.38224268211081408 0 0.18806390306820961 0.3916566826095933 0 0.20523195801271341 0.39931720960292111 0 0.1955974854435317 0.4158340292967373 0 0.18806390306820961 0.3916566826095933 0 0.20523195801271341 0.39931720960292111 0 0.20680003534663419 0.38224268211081408 0 0.18806390306820961 0.3916566826095933 0 0.1955974854435317 0.4158340292967373 0 0.20523195801271341 0.39931720960292111 0 0.21820906190716 0.39315049247634692 0 0.20680003534663419 0.38224268211081408 0 0.20523195801271341 0.39931720960292111 0 0.21820906190716 0.39315049247634692 0 0.2235449368783321 0.41060393605962281 0 0.21018188498289969 0.37041141079402012 0 0.19707990164758929 0.37617564161942518 0 0.20680003534663419 0.38224268211081408 0 0.21820906190716 0.39315049247634692 0 0.20680003534663419 0.38224268211081408 0 0.21924101697293169 0.38008071570349722 0 0.21018188498289969 0.37041141079402012 0 0.20680003534663419 0.38224268211081408 0 0.21924101697293169 0.38008071570349722 0 0.2269594812077923 0.36498825988947398 0 0.2339996019264011 0.38852855870250919 0 0.21924101697293169 0.38008071570349722 0 0.21820906190716 0.39315049247634692 0 0.2339996019264011 0.38852855870250919 0 0.21924101697293169 0.38008071570349722 0 0.21820906190716 0.39315049247634692 0 0.2339996019264011 0.38852855870250919 0 0.2235449368783321 0.41060393605962281 0 0.2339996019264011 0.38852855870250919 0 0.24895753347362559 0.38935250427750873 0 0.25149238831313242 0.40537384282250771 0 0.2339996019264011 0.38852855870250919 0 0.2235449368783321 0.41060393605962281 0 0.25149238831313242 0.40537384282250771 0 0.2339996019264011 0.38852855870250919 0 0.24895753347362559 0.38935250427750873 0 0.25004482850601251 0.37417003650910702 0 0.2269594812077923 0.36498825988947398 0 0.2339996019264011 0.38852855870250919 0 0.25004482850601251 0.37417003650910702 0 0.24724286848401511 0.43730588620179572 0 0.23207751412560629 0.42825955018272338 0 0.22717568757193801 0.44504098101581357 0 0.24724286848401511 0.43730588620179572 0 0.24414969820032961 0.41968706205485867 0 0.23207751412560629 0.42825955018272338 0 0.24724286848401511 0.43730588620179572 0 0.25240732138420802 0.43531519637741978 0 0.2235449368783321 0.41060393605962281 0 0.25149238831313242 0.40537384282250771 0 0.24414969820032961 0.41968706205485867 0 0.2235449368783321 0.41060393605962281 0 0.25149238831313242 0.40537384282250771 0 0.24414969820032961 0.41968706205485867 0 0.2235449368783321 0.41060393605962281 0 0.23207751412560629 0.42825955018272338 0 0.23207751412560629 0.42825955018272338 0 0.21738178200857899 0.43217476483214162 0 0.22717568757193801 0.44504098101581357 0 0.2235449368783321 0.41060393605962281 0 0.23207751412560629 0.42825955018272338 0 0.21738178200857899 0.43217476483214162 0 0.21738178200857899 0.43217476483214162 0 0.1955974854435317 0.4158340292967373 0 0.2013529960516974 0.43430505256328322 0 0.2235449368783321 0.41060393605962281 0 0.21738178200857899 0.43217476483214162 0 0.1955974854435317 0.4158340292967373 0 0.20523195801271341 0.39931720960292111 0 0.2235449368783321 0.41060393605962281 0 0.1955974854435317 0.4158340292967373 0 0.2235449368783321 0.41060393605962281 0 0.1955974854435317 0.4158340292967373 0 0.18734664337836329 0.41737809399924608 0 0.18806390306820961 0.3916566826095933 0 0.1955974854435317 0.4158340292967373 0 0.18734664337836329 0.41737809399924608 0 0.1955974854435317 0.4158340292967373 0 0.1914514770967467 0.42722245564662598 0 0.18734664337836329 0.41737809399924608 0 0.1955974854435317 0.4158340292967373 0 0.18443025573733721 0.4365214456651102 0 0.2013529960516974 0.43430505256328322 0 0.1914514770967467 0.42722245564662598 0 0.1955974854435317 0.4158340292967373 0 0.2013529960516974 0.43430505256328322 0 0.1955974854435317 0.4158340292967373 0 0.2013529960516974 0.43430505256328322 0 0.1914514770967467 0.42722245564662598 0 0.2013529960516974 0.43430505256328322 0 0.19067783845617001 0.44754177702281611 0 0.2071085066598605 0.45277607582982998 0 0.18443025573733721 0.4365214456651102 0 0.2013529960516974 0.43430505256328322 0 0.19067783845617001 0.44754177702281611 0 0.19067783845617001 0.44754177702281611 0 0.2071085066598605 0.45277607582982998 0 0.1835494383271204 0.46185715344019501 0 0.2071085066598605 0.45277607582982998 0 0.19716845636802571 0.46997523873954761 0 0.1835494383271204 0.46185715344019501 0 0.2071085066598605 0.45277607582982998 0 0.1835494383271204 0.46185715344019501 0 0.2071085066598605 0.45277607582982998 0 0.2129482677330139 0.47151748210928229 0 0.2071085066598605 0.45277607582982998 0 0.23009556810851589 0.45441168415554051 0 0.2129482677330139 0.47151748210928229 0 0.2071085066598605 0.45277607582982998 0 0.2129482677330139 0.47151748210928229 0 0.19716845636802571 0.46997523873954761 0 0.2071085066598605 0.45277607582982998 0 0.22717568757193801 0.44504098101581357 0 0.21738178200857899 0.43217476483214162 0 0.2013529960516974 0.43430505256328322 0 0.2071085066598605 0.45277607582982998 0 0.21738178200857899 0.43217476483214162 0 0.2071085066598605 0.45277607582982998 0 0.22717568757193801 0.44504098101581357 0 0.2013529960516974 0.43430505256328322 0 0.2071085066598605 0.45277607582982998 0 0.2071085066598605 0.45277607582982998 0 0.22717568757193801 0.44504098101581357 0 0.23009556810851589 0.45441168415554051 0 0.23009556810851589 0.45441168415554051 0 0.2129482677330139 0.47151748210928229 0 0.23009556810851589 0.45441168415554051 0 0.24021490469564979 0.47961038549362472 0 0.2129482677330139 0.47151748210928229 0 0.23009556810851589 0.45441168415554051 0 0.24765392865386529 0.46593673185467921 0 0.24021490469564979 0.47961038549362472 0 0.23009556810851589 0.45441168415554051 0 0.24765392865386529 0.46593673185467921 0 0.2483864631655168 0.45165419251179562 0 0.24724286848401511 0.43730588620179572 0 0.22717568757193801 0.44504098101581357 0 0.23009556810851589 0.45441168415554051 0 0.24724286848401511 0.43730588620179572 0 0.23009556810851589 0.45441168415554051 0 0.2483864631655168 0.45165419251179562 0 0.24724286848401511 0.43730588620179572 0 0.23009556810851589 0.45441168415554051 0 0.24724286848401511 0.43730588620179572 0 0.22717568757193801 0.44504098101581357 0 0.24021490469564979 0.47961038549362472 0 0.22182332741441829 0.50000000000000167 0 0.25148388954744788 0.5 0 0.24021490469564979 0.47961038549362472 0 0.25148388954744788 0.5 0 0.25828005954776762 0.48727387485427581 0 0.24765392865386529 0.46593673185467921 0 0.24021490469564979 0.47961038549362472 0 0.25911904573229272 0.47479080697793091 0 0.24021490469564979 0.47961038549362472 0 0.22182332741441829 0.50000000000000167 0 0.2129482677330139 0.47151748210928229 0 0.22182332741441829 0.50000000000000167 0 0.2129482677330139 0.47151748210928229 0 0.19867245636649919 0.48575874105464428 0 0.22182332741441829 0.50000000000000167 0 0.2129482677330139 0.47151748210928229 0 0.22182332741441829 0.50000000000000167 0 0.20310998620719981 0.5 0 0.19867245636649919 0.48575874105464428 0 0.2129482677330139 0.47151748210928229 0 0.19867245636649919 0.48575874105464428 0 0.19716845636802571 0.46997523873954761 0 0.19867245636649919 0.48575874105464428 0 0.1803369337241785 0.47779034284413852 0 0.2129482677330139 0.47151748210928229 0 0.19716845636802571 0.46997523873954761 0 0.19867245636649919 0.48575874105464428 0 0.19867245636649919 0.48575874105464428 0 0.18439664499998129 0.50000000000000311 0 0.18012483949379141 0.49009330276992918 0 0.20310998620719981 0.5 0 0.19867245636649919 0.48575874105464428 0 0.18439664499998129 0.50000000000000311 0 0.19867245636649919 0.48575874105464428 0 0.18439664499998129 0.50000000000000311 0 0.18012483949379141 0.49009330276992918 0 0.17355120717848371 0.49999999999999989 0 0.16366695519981431 0.48691742995086351 0 0.19867245636649919 0.48575874105464428 0 0.18012483949379141 0.49009330276992918 0 0.1803369337241785 0.47779034284413852 0 0.18012483949379141 0.49009330276992918 0 0.16366695519981431 0.48691742995086351 0 0.1803369337241785 0.47779034284413852 0 0.18439664499998129 0.50000000000000311 0 0.18012483949379141 0.49009330276992918 0 0.17355120717848371 0.49999999999999989 0 0.17355120717848371 0.49999999999999989 0 0.14683292688810981 0.49216617829117132 0 0.17355120717848371 0.49999999999999989 0 0.16366695519981431 0.48691742995086351 0 0.14683292688810981 0.49216617829117132 0 0.16366695519981431 0.48691742995086351 0 0.15999036999437899 0.47093823105055649 0 0.1803369337241785 0.47779034284413852 0 0.16366695519981431 0.48691742995086351 0 0.15999036999437899 0.47093823105055649 0 0.14683292688810981 0.49216617829117132 0 0.19716845636802571 0.46997523873954761 0 0.1803369337241785 0.47779034284413852 0 0.1835494383271204 0.46185715344019501 0 0.15999036999437899 0.47093823105055649 0 0.1803369337241785 0.47779034284413852 0 0.1835494383271204 0.46185715344019501 0 0.18443025573733721 0.4365214456651102 0 0.19067783845617001 0.44754177702281611 0 0.17122725681684139 0.44840757491352518 0 0.19067783845617001 0.44754177702281611 0 0.1835494383271204 0.46185715344019501 0 0.17122725681684139 0.44840757491352518 0 0.17103554889517389 0.43424175840152229 0 0.18443025573733721 0.4365214456651102 0 0.17122725681684139 0.44840757491352518 0 0.1537884457638469 0.43302408838470302 0 0.17122725681684139 0.44840757491352518 0 0.1537884457638469 0.43302408838470302 0 0.17103554889517389 0.43424175840152229 0 0.17122725681684139 0.44840757491352518 0 0.1537884457638469 0.43302408838470302 0 0.17122725681684139 0.44840757491352518 0 0.14795798415321029 0.45373169023503668 0 0.15999036999437899 0.47093823105055649 0 0.1835494383271204 0.46185715344019501 0 0.15999036999437899 0.47093823105055649 0 0.1835494383271204 0.46185715344019501 0 0.17122725681684139 0.44840757491352518 0 0.15999036999437899 0.47093823105055649 0 0.17122725681684139 0.44840757491352518 0 0.14795798415321029 0.45373169023503668 0 0.15999036999437899 0.47093823105055649 0 0.14795798415321029 0.45373169023503668 0 0.1399756814652966 0.47322436359136899 0 0.1537884457638469 0.43302408838470302 0 0.14795798415321029 0.45373169023503668 0 0.1317389345630566 0.44034454998539962 0 0.14795798415321029 0.45373169023503668 0 0.1317389345630566 0.44034454998539962 0 0.12755468689653379 0.46028893177219221 0 0.14795798415321029 0.45373169023503668 0 0.12755468689653379 0.46028893177219221 0 0.1399756814652966 0.47322436359136899 0 0.12011464659773601 0.48433235658234292 0 0.1399756814652966 0.47322436359136899 0 0.14683292688810981 0.49216617829117132 0 0.12011464659773601 0.48433235658234292 0 0.12755468689653379 0.46028893177219221 0 0.1399756814652966 0.47322436359136899 0 0.12011464659773601 0.48433235658234292 0 0.1456501555174973 0.5 0 0.14683292688810981 0.49216617829117132 0 0.12011464659773601 0.48433235658234292 0 0.14683292688810981 0.49216617829117132 0 0.1177491038565109 0.5 0 0.12011464659773601 0.48433235658234292 0 0.1456501555174973 0.5 0 0.17355120717848371 0.49999999999999989 0 0.1456501555174973 0.5 0 0.14683292688810981 0.49216617829117132 0 0.15999036999437899 0.47093823105055649 0 0.1399756814652966 0.47322436359136899 0 0.14683292688810981 0.49216617829117132 0 0.35247684016610892 0.48135519728094223 0 0.36629076891963169 0.4716758837031908 0 0.34808385012194532 0.46833474746431619 0 0.35247684016610892 0.48135519728094223 0 0.34808385012194532 0.46833474746431619 0 0.3409620632552825 0.47917774720394313 0 0.35247684016610892 0.48135519728094223 0 0.3462214490644917 0.48972220560128799 0 0.3409620632552825 0.47917774720394313 0 0.3462214490644917 0.48972220560128799 0 0.37012613807956618 0.5 0 0.34046557594653659 0.5 0 0.35247684016610892 0.48135519728094223 0 0.3462214490644917 0.48972220560128799 0 0.37012613807956618 0.5 0 0.35247684016610892 0.48135519728094223 0 0.37012613807956618 0.5 0 0.36629076891963169 0.4716758837031908 0 0.37012613807956618 0.5 0 0.36629076891963169 0.4716758837031908 0 0.38608907541949888 0.47640493513650201 0 0.36629076891963169 0.4716758837031908 0 0.36042274455222723 0.45828301314078967 0 0.37601462365556942 0.45725266909953982 0 0.36042274455222723 0.45828301314078967 0 0.37023049558979693 0.44243966271604079 0 0.37601462365556942 0.45725266909953982 0 0.36042274455222723 0.45828301314078967 0 0.37023049558979693 0.44243966271604079 0 0.3447891183557612 0.45387917257366528 0 0.37023049558979693 0.44243966271604079 0 0.3447891183557612 0.45387917257366528 0 0.37023049558979693 0.44243966271604079 0 0.3447891183557612 0.45387917257366528 0 0.34683892198368271 0.43497585396448762 0 0.36042274455222723 0.45828301314078967 0 0.3447891183557612 0.45387917257366528 0 0.34808385012194532 0.46833474746431619 0 0.36629076891963169 0.4716758837031908 0 0.36042274455222723 0.45828301314078967 0 0.34808385012194532 0.46833474746431619 0 0.3447891183557612 0.45387917257366528 0 0.34808385012194532 0.46833474746431619 0 0.33183011984920308 0.46912474326968551 0 0.3447891183557612 0.45387917257366528 0 0.31934774112172409 0.46531868243128682 0 0.3447891183557612 0.45387917257366528 0 0.31934774112172409 0.46531868243128682 0 0.33183011984920308 0.46912474326968551 0 0.3447891183557612 0.45387917257366528 0 0.32242768817354062 0.44789604896168522 0 0.31934774112172409 0.46531868243128682 0 0.3447891183557612 0.45387917257366528 0 0.33430974355392468 0.44085677769708592 0 0.34683892198368271 0.43497585396448762 0 0.3447891183557612 0.45387917257366528 0 0.33430974355392468 0.44085677769708592 0 0.32242768817354062 0.44789604896168522 0 0.32242768817354062 0.44789604896168522 0 0.31934774112172409 0.46531868243128682 0 0.30626697613209891 0.4406942702111516 0 0.32242768817354062 0.44789604896168522 0 0.3164422171315201 0.4402182607629207 0 0.30626697613209891 0.4406942702111516 0 0.31934774112172409 0.46531868243128682 0 0.30626697613209891 0.4406942702111516 0 0.33430974355392468 0.44085677769708592 0 0.32242768817354062 0.44789604896168522 0 0.32436539409019788 0.43574810172012018 0 0.32242768817354062 0.44789604896168522 0 0.3164422171315201 0.4402182607629207 0 0.32436539409019788 0.43574810172012018 0 0.31934774112172409 0.46531868243128682 0 0.31753801155939421 0.46613241271709538 0 0.30626697613209891 0.4406942702111516 0 0.31934774112172409 0.46531868243128682 0 0.33183011984920308 0.46912474326968551 0 0.31934774112172409 0.46531868243128682 0 0.31753801155939421 0.46613241271709538 0 0.31704135239685971 0.47479280848595617 0 0.31934774112172409 0.46531868243128682 0 0.31753801155939421 0.46613241271709538 0 0.31934774112172409 0.46531868243128682 0 0.33220994824648092 0.4895316616073454 0 0.31934774112172409 0.46531868243128682 0 0.33183011984920308 0.46912474326968551 0 0.33220994824648092 0.4895316616073454 0 0.31934774112172409 0.46531868243128682 0 0.31704135239685971 0.47479280848595617 0 0.33220994824648092 0.4895316616073454 0 0.31704135239685971 0.47479280848595617 0 0.33220994824648092 0.4895316616073454 0 0.31601690553499961 0.48723098345619159 0 0.31704135239685971 0.47479280848595617 0 0.31601690553499961 0.48723098345619159 0 0.30657958094704779 0.48509405485225621 0 0.34808385012194532 0.46833474746431619 0 0.33183011984920308 0.46912474326968551 0 0.3409620632552825 0.47917774720394313 0 0.33183011984920308 0.46912474326968551 0 0.3409620632552825 0.47917774720394313 0 0.33220994824648092 0.4895316616073454 0 0.3462214490644917 0.48972220560128799 0 0.34046557594653659 0.5 0 0.33220994824648092 0.4895316616073454 0 0.3462214490644917 0.48972220560128799 0 0.3409620632552825 0.47917774720394313 0 0.33220994824648092 0.4895316616073454 0 0.34046557594653659 0.5 0 0.33220994824648092 0.4895316616073454 0 0.310805013813507 0.5 0 0.33220994824648092 0.4895316616073454 0 0.31601690553499961 0.48723098345619159 0 0.310805013813507 0.5 0 0.31601690553499961 0.48723098345619159 0 0.310805013813507 0.5 0 0.30657958094704779 0.48509405485225621 0 0.310805013813507 0.5 0 0.30657958094704779 0.48509405485225621 0 0.2955866676897117 0.489780963721411 0 0.31753801155939421 0.46613241271709538 0 0.29858451182795492 0.4746547008393045 0 0.31704135239685971 0.47479280848595617 0 0.30657958094704779 0.48509405485225621 0 0.29858451182795492 0.4746547008393045 0 0.31753801155939421 0.46613241271709538 0 0.31704135239685971 0.47479280848595617 0 0.29858451182795492 0.4746547008393045 0 0.30657958094704779 0.48509405485225621 0 0.29858451182795492 0.4746547008393045 0 0.2955866676897117 0.489780963721411 0 0.29858451182795492 0.4746547008393045 0 0.28685719333010651 0.48788382429016008 0 0.27963101209651592 0.48317698896151418 0 0.29858451182795492 0.4746547008393045 0 0.28176766377044671 0.47825995933455823 0 0.27963101209651592 0.48317698896151418 0 0.29858451182795492 0.4746547008393045 0 0.27963101209651592 0.48317698896151418 0 0.29858451182795492 0.4746547008393045 0 0.28176766377044671 0.47825995933455823 0 0.29302416088025218 0.46099996179653391 0 0.28176766377044671 0.47825995933455823 0 0.29302416088025218 0.46099996179653391 0 0.29858451182795492 0.4746547008393045 0 0.2955866676897117 0.489780963721411 0 0.28685719333010651 0.48788382429016008 0 0.310805013813507 0.5 0 0.2955866676897117 0.489780963721411 0 0.28114445168047741 0.5 0 0.28685719333010651 0.48788382429016008 0 0.27933932335587208 0.49180646792857102 0 0.27963101209651592 0.48317698896151418 0 0.28685719333010651 0.48788382429016008 0 0.28114445168047741 0.5 0 0.27933932335587208 0.49180646792857102 0 0.2955866676897117 0.489780963721411 0 0.28685719333010651 0.48788382429016008 0 0.28114445168047741 0.5 0 0.28176766377044671 0.47825995933455823 0 0.27051116666064112 0.49551995687258249 0 0.26842771741161398 0.48157839008493719 0 0.28176766377044671 0.47825995933455823 0 0.27051116666064112 0.49551995687258249 0 0.28176766377044671 0.47825995933455823 0 0.27051116666064112 0.49551995687258249 0 0.27963101209651592 0.48317698896151418 0 0.28114445168047741 0.5 0 0.27051116666064112 0.49551995687258249 0 0.27933932335587208 0.49180646792857102 0 0.28114445168047741 0.5 0 0.27051116666064112 0.49551995687258249 0 0.25148388954744788 0.5 0 0.27051116666064112 0.49551995687258249 0 0.26842771741161398 0.48157839008493719 0 0.25828005954776762 0.48727387485427581 0 0.27051116666064112 0.49551995687258249 0 0.27933932335587208 0.49180646792857102 0 0.27963101209651592 0.48317698896151418 0 0.28176766377044671 0.47825995933455823 0 0.27258176991281541 0.47152939632597629 0 0.26842771741161398 0.48157839008493719 0 0.28176766377044671 0.47825995933455823 0 0.27258176991281541 0.47152939632597629 0 0.27951972664659969 0.4667790986528082 0 0.27258176991281541 0.47152939632597629 0 0.26842771741161398 0.48157839008493719 0 0.25911904573229272 0.47479080697793091 0 0.26842771741161398 0.48157839008493719 0 0.25911904573229272 0.47479080697793091 0 0.25828005954776762 0.48727387485427581 0 0.24021490469564979 0.47961038549362472 0 0.25911904573229272 0.47479080697793091 0 0.25828005954776762 0.48727387485427581 0 0.27051116666064112 0.49551995687258249 0 0.25148388954744788 0.5 0 0.25828005954776762 0.48727387485427581 0 0.2483864631655168 0.45165419251179562 0 0.25837369721546982 0.4426692750196789 0 0.2707053120228845 0.45632707715416471 0 0.25837369721546982 0.4426692750196789 0 0.27051154351642132 0.43814050273699728 0 0.26098867471977433 0.43727279513590289 0 0.24724286848401511 0.43730588620179572 0 0.2483864631655168 0.45165419251179562 0 0.25837369721546982 0.4426692750196789 0 0.24724286848401511 0.43730588620179572 0 0.25837369721546982 0.4426692750196789 0 0.25240732138420802 0.43531519637741978 0 0.25837369721546982 0.4426692750196789 0 0.25240732138420802 0.43531519637741978 0 0.26098867471977433 0.43727279513590289 0 0.2483864631655168 0.45165419251179562 0 0.2707053120228845 0.45632707715416471 0 0.24765392865386529 0.46593673185467921 0 0.25911904573229272 0.47479080697793091 0 0.2707053120228845 0.45632707715416471 0 0.24765392865386529 0.46593673185467921 0 0.2483864631655168 0.45165419251179562 0 0.2707053120228845 0.45632707715416471 0 0.2707053120228845 0.45632707715416471 0 0.27951972664659969 0.4667790986528082 0 0.29302416088025218 0.46099996179653391 0 0.27258176991281541 0.47152939632597629 0 0.25911904573229272 0.47479080697793091 0 0.2707053120228845 0.45632707715416471 0 0.27258176991281541 0.47152939632597629 0 0.2707053120228845 0.45632707715416471 0 0.27951972664659969 0.4667790986528082 0 0.2707053120228845 0.45632707715416471 0 0.27051154351642132 0.43814050273699728 0 0.28379226692031312 0.44255647938766612 0 0.25837369721546982 0.4426692750196789 0 0.2707053120228845 0.45632707715416471 0 0.27051154351642132 0.43814050273699728 0 0.28379226692031312 0.44255647938766612 0 0.29636142725062231 0.44344824904590602 0 0.29302416088025218 0.46099996179653391 0 0.28379226692031312 0.44255647938766612 0 0.29636142725062231 0.44344824904590602 0 0.29390832305854531 0.43417925322187051 0 0.28176766377044671 0.47825995933455823 0 0.27951972664659969 0.4667790986528082 0 0.29302416088025218 0.46099996179653391 0 0.2707053120228845 0.45632707715416471 0 0.29302416088025218 0.46099996179653391 0 0.2707053120228845 0.45632707715416471 0 0.28379226692031312 0.44255647938766612 0 0.29302416088025218 0.46099996179653391 0 0.31753801155939421 0.46613241271709538 0 0.29858451182795492 0.4746547008393045 0 0.29302416088025218 0.46099996179653391 0 0.31753801155939421 0.46613241271709538 0 0.29302416088025218 0.46099996179653391 0 0.30626697613209891 0.4406942702111516 0 0.31753801155939421 0.46613241271709538 0 0.29302416088025218 0.46099996179653391 0 0.29302416088025218 0.46099996179653391 0 0.30626697613209891 0.4406942702111516 0 0.29636142725062231 0.44344824904590602 0 0.29302416088025218 0.46099996179653391 0 0.30626697613209891 0.4406942702111516 0 0.29636142725062231 0.44344824904590602 0 0.30515469468720058 0.43860041126439592 0 0.29390832305854531 0.43417925322187051 0 0.29636142725062231 0.44344824904590602 0 0.30515469468720058 0.43860041126439592 0 0.30626697613209891 0.4406942702111516 0 0.3164422171315201 0.4402182607629207 0 0.30626697613209891 0.4406942702111516 0 0.30932145399283378 0.43601072791181339 0 0.30515469468720058 0.43860041126439592 0 0.30626697613209891 0.4406942702111516 0 0.30932145399283378 0.43601072791181339 0 0.30626697613209891 0.4406942702111516 0 0.30932145399283378 0.43601072791181339 0 0.30515469468720058 0.43860041126439592 0 0.30626697613209891 0.4406942702111516 0 0.30515469468720058 0.43860041126439592 0 0.30932145399283378 0.43601072791181339 0 0.30727117653343111 0.4267359414930636 0 0.30515469468720058 0.43860041126439592 0 0.29490039755973552 0.41929679716425189 0 0.30515469468720058 0.43860041126439592 0 0.29490039755973552 0.41929679716425189 0 0.29390832305854531 0.43417925322187051 0 0.30515469468720058 0.43860041126439592 0 0.30727117653343111 0.4267359414930636 0 0.29490039755973552 0.41929679716425189 0 0.30515469468720058 0.43860041126439592 0 0.30932145399283378 0.43601072791181339 0 0.30932145399283378 0.43601072791181339 0 0.30727117653343111 0.4267359414930636 0 0.31652364362590552 0.42496734788669671 0 0.30727117653343111 0.4267359414930636 0 0.31055221728225407 0.41453781267277118 0 0.31652364362590552 0.42496734788669671 0 0.30727117653343111 0.4267359414930636 0 0.31055221728225407 0.41453781267277118 0 0.29490039755973552 0.41929679716425189 0 0.31055221728225407 0.41453781267277118 0 0.29490039755973552 0.41929679716425189 0 0.3027371753967697 0.40187807462993708 0 0.29490039755973552 0.41929679716425189 0 0.28464610043227068 0.3999931830641078 0 0.29490039755973552 0.41929679716425189 0 0.28464610043227068 0.3999931830641078 0 0.3027371753967697 0.40187807462993708 0 0.29490039755973552 0.41929679716425189 0 0.28155236346502521 0.4164755774242338 0 0.28464610043227068 0.3999931830641078 0 0.29490039755973552 0.41929679716425189 0 0.28155236346502521 0.4164755774242338 0 0.28071847140995082 0.42796279483562261 0 0.29490039755973552 0.41929679716425189 0 0.29390832305854531 0.43417925322187051 0 0.28071847140995082 0.42796279483562261 0 0.28379226692031312 0.44255647938766612 0 0.29390832305854531 0.43417925322187051 0 0.28071847140995082 0.42796279483562261 0 0.27051154351642132 0.43814050273699728 0 0.26594448445814362 0.41864953463295251 0 0.26098867471977433 0.43727279513590289 0 0.27051154351642132 0.43814050273699728 0 0.28071847140995082 0.42796279483562261 0 0.26594448445814362 0.41864953463295251 0 0.27051154351642132 0.43814050273699728 0 0.28379226692031312 0.44255647938766612 0 0.28071847140995082 0.42796279483562261 0 0.26594448445814362 0.41864953463295251 0 0.25149238831313242 0.40537384282250771 0 0.27943983974793268 0.40014374958539273 0 0.26594448445814362 0.41864953463295251 0 0.27943983974793268 0.40014374958539273 0 0.28464610043227068 0.3999931830641078 0 0.28155236346502521 0.4164755774242338 0 0.26594448445814362 0.41864953463295251 0 0.28464610043227068 0.3999931830641078 0 0.28155236346502521 0.4164755774242338 0 0.28071847140995082 0.42796279483562261 0 0.26594448445814362 0.41864953463295251 0 0.26594448445814362 0.41864953463295251 0 0.28464610043227068 0.3999931830641078 0 0.24414969820032961 0.41968706205485867 0 0.26594448445814362 0.41864953463295251 0 0.25149238831313242 0.40537384282250771 0 0.24724286848401511 0.43730588620179572 0 0.26594448445814362 0.41864953463295251 0 0.25240732138420802 0.43531519637741978 0 0.24724286848401511 0.43730588620179572 0 0.24414969820032961 0.41968706205485867 0 0.26594448445814362 0.41864953463295251 0 0.26594448445814362 0.41864953463295251 0 0.25240732138420802 0.43531519637741978 0 0.26098867471977433 0.43727279513590289 0 0.24724286848401511 0.43730588620179572 0 0.26594448445814362 0.41864953463295251 0 0.26029331514895648 0.38933757907591121 0 0.27201152922514349 0.37620872627770002 0 0.25004482850601251 0.37417003650910702 0 0.24895753347362559 0.38935250427750873 0 0.26029331514895648 0.38933757907591121 0 0.25004482850601251 0.37417003650910702 0 0.26029331514895648 0.38933757907591121 0 0.25149238831313242 0.40537384282250771 0 0.27943983974793268 0.40014374958539273 0 0.25149238831313242 0.40537384282250771 0 0.27943983974793268 0.40014374958539273 0 0.24895753347362559 0.38935250427750873 0 0.26029331514895648 0.38933757907591121 0 0.25149238831313242 0.40537384282250771 0 0.27943983974793268 0.40014374958539273 0 0.27201152922514349 0.37620872627770002 0 0.28464610043227068 0.3999931830641078 0 0.26029331514895648 0.38933757907591121 0 0.27943983974793268 0.40014374958539273 0 0.27201152922514349 0.37620872627770002 0 0.27201152922514349 0.37620872627770002 0 0.28464610043227068 0.3999931830641078 0 0.27201152922514349 0.37620872627770002 0 0.29667615895540123 0.38799224146035582 0 0.28464610043227068 0.3999931830641078 0 0.27201152922514349 0.37620872627770002 0 0.29667615895540123 0.38799224146035582 0 0.29379146728033478 0.37241021500447918 0 0.29667615895540123 0.38799224146035582 0 0.28464610043227068 0.3999931830641078 0 0.3027371753967697 0.40187807462993708 0 0.29667615895540123 0.38799224146035582 0 0.28464610043227068 0.3999931830641078 0 0.31055221728225407 0.41453781267277118 0 0.3027371753967697 0.40187807462993708 0 0.31956135436067851 0.39952235043662437 0 0.3027371753967697 0.40187807462993708 0 0.30991937728163271 0.38948227525793522 0 0.31956135436067851 0.39952235043662437 0 0.29667615895540123 0.38799224146035582 0 0.3027371753967697 0.40187807462993708 0 0.30991937728163271 0.38948227525793522 0 0.29667615895540123 0.38799224146035582 0 0.30870621747853161 0.37599129985660368 0 0.29667615895540123 0.38799224146035582 0 0.30870621747853161 0.37599129985660368 0 0.29379146728033478 0.37241021500447918 0 0.29667615895540123 0.38799224146035582 0 0.30991937728163271 0.38948227525793522 0 0.30870621747853161 0.37599129985660368 0 0.30991937728163271 0.38948227525793522 0 0.32191598021678253 0.38202740990615491 0 0.31956135436067851 0.39952235043662437 0 0.32191598021678253 0.38202740990615491 0 0.33790673600516452 0.3878871159059491 0 0.31956135436067851 0.39952235043662437 0 0.30991937728163271 0.38948227525793522 0 0.30870621747853161 0.37599129985660368 0 0.32191598021678253 0.38202740990615491 0 0.33790673600516452 0.3878871159059491 0 0.34772436780185922 0.37711320982869923 0 0.33453775718698869 0.36832022575058282 0 0.32191598021678253 0.38202740990615491 0 0.33790673600516452 0.3878871159059491 0 0.33453775718698869 0.36832022575058282 0 0.33790673600516452 0.3878871159059491 0 0.33599144557606297 0.40514754333622249 0 0.31956135436067851 0.39952235043662437 0 0.33790673600516452 0.3878871159059491 0 0.33599144557606297 0.40514754333622249 0 0.35436964554151712 0.40801281798695099 0 0.33599144557606297 0.40514754333622249 0 0.31956135436067851 0.39952235043662437 0 0.32287553722626061 0.41329068756941723 0 0.31055221728225407 0.41453781267277118 0 0.31956135436067851 0.39952235043662437 0 0.32287553722626061 0.41329068756941723 0 0.31055221728225407 0.41453781267277118 0 0.32287553722626061 0.41329068756941723 0 0.31652364362590552 0.42496734788669671 0 0.32287553722626061 0.41329068756941723 0 0.31652364362590552 0.42496734788669671 0 0.33184554976717562 0.42201177294938252 0 0.30932145399283378 0.43601072791181339 0 0.33184554976717562 0.42201177294938252 0 0.30932145399283378 0.43601072791181339 0 0.32436539409019788 0.43574810172012018 0 0.33184554976717562 0.42201177294938252 0 0.30932145399283378 0.43601072791181339 0 0.31652364362590552 0.42496734788669671 0 0.33184554976717562 0.42201177294938252 0 0.3164422171315201 0.4402182607629207 0 0.30932145399283378 0.43601072791181339 0 0.32436539409019788 0.43574810172012018 0 0.30932145399283378 0.43601072791181339 0 0.31652364362590552 0.42496734788669671 0 0.33430974355392468 0.44085677769708592 0 0.32436539409019788 0.43574810172012018 0 0.33433990234874522 0.43339812658276899 0 0.32436539409019788 0.43574810172012018 0 0.33433990234874522 0.43339812658276899 0 0.33184554976717562 0.42201177294938252 0 0.33430974355392468 0.44085677769708592 0 0.33433990234874522 0.43339812658276899 0 0.34683892198368271 0.43497585396448762 0 0.33433990234874522 0.43339812658276899 0 0.33184554976717562 0.42201177294938252 0 0.34683892198368271 0.43497585396448762 0 0.33599144557606297 0.40514754333622249 0 0.32287553722626061 0.41329068756941723 0 0.33184554976717562 0.42201177294938252 0 0.33599144557606297 0.40514754333622249 0 0.33184554976717562 0.42201177294938252 0 0.35436964554151712 0.40801281798695099 0 0.33184554976717562 0.42201177294938252 0 0.35436964554151712 0.40801281798695099 0 0.33184554976717562 0.42201177294938252 0 0.35436964554151712 0.40801281798695099 0 0.35270801134429902 0.42331693779614088 0 0.35436964554151712 0.40801281798695099 0 0.35270801134429902 0.42331693779614088 0 0.36576493885511052 0.4178029688051923 0 0.33184554976717562 0.42201177294938252 0 0.34683892198368271 0.43497585396448762 0 0.35270801134429902 0.42331693779614088 0 0.34683892198368271 0.43497585396448762 0 0.35270801134429902 0.42331693779614088 0 0.36494729189279101 0.43181380661286789 0 0.37023049558979693 0.44243966271604079 0 0.34683892198368271 0.43497585396448762 0 0.36494729189279101 0.43181380661286789 0 0.35270801134429902 0.42331693779614088 0 0.36494729189279101 0.43181380661286789 0 0.36576493885511052 0.4178029688051923 0 0.36494729189279101 0.43181380661286789 0 0.36576493885511052 0.4178029688051923 0 0.37795549308522902 0.41628895699810292 0 0.37023049558979693 0.44243966271604079 0 0.36494729189279101 0.43181380661286789 0 0.38040430343443521 0.43193634251772789 0 0.35436964554151712 0.40801281798695099 0 0.36576493885511052 0.4178029688051923 0 0.3730999423012219 0.40954342286834639 0 0.36576493885511052 0.4178029688051923 0 0.3730999423012219 0.40954342286834639 0 0.37795549308522902 0.41628895699810292 0 0.35436964554151712 0.40801281798695099 0 0.3730999423012219 0.40954342286834639 0 0.37689374131585868 0.39401386302451952 0 0.35436964554151712 0.40801281798695099 0 0.35919616870876131 0.3894606022172864 0 0.37689374131585868 0.39401386302451952 0 0.35436964554151712 0.40801281798695099 0 0.37689374131585868 0.39401386302451952 0 0.35919616870876131 0.3894606022172864 0 0.37532807730040257 0.38316169753815299 0 0.37689374131585868 0.39401386302451952 0 0.35919616870876131 0.3894606022172864 0 0.35925680930652232 0.36278489544097858 0 0.37532807730040257 0.38316169753815299 0 0.34772436780185922 0.37711320982869923 0 0.35919616870876131 0.3894606022172864 0 0.35925680930652232 0.36278489544097858 0 0.33790673600516452 0.3878871159059491 0 0.34772436780185922 0.37711320982869923 0 0.35919616870876131 0.3894606022172864 0 0.33790673600516452 0.3878871159059491 0 0.35436964554151712 0.40801281798695099 0 0.35919616870876131 0.3894606022172864 0 0.35925680930652232 0.36278489544097858 0 0.3431855413126419 0.34240809334380412 0 0.35925680930652232 0.36278489544097858 0 0.3431855413126419 0.34240809334380412 0 0.33245135870072939 0.35324884091370568 0 0.3572965491905824 0.34401749644765389 0 0.35925680930652232 0.36278489544097858 0 0.3431855413126419 0.34240809334380412 0 0.34772436780185922 0.37711320982869923 0 0.35925680930652232 0.36278489544097858 0 0.33453775718698869 0.36832022575058282 0 0.35925680930652232 0.36278489544097858 0 0.37302365365364959 0.35074164613539471 0 0.37579738303020882 0.36700132473203578 0 0.35925680930652232 0.36278489544097858 0 0.37532807730040257 0.38316169753815299 0 0.35925680930652232 0.36278489544097858 0 0.37579738303020882 0.36700132473203578 0 0.37532807730040257 0.38316169753815299 0 0.3572965491905824 0.34401749644765389 0 0.37302365365364959 0.35074164613539471 0 0.36472776161066189 0.33815375545378978 0 0.3572965491905824 0.34401749644765389 0 0.35925680930652232 0.36278489544097858 0 0.37302365365364959 0.35074164613539471 0 0.37302365365364959 0.35074164613539471 0 0.36472776161066189 0.33815375545378978 0 0.37581922482641023 0.33652832221029488 0 0.36472776161066189 0.33815375545378978 0 0.36652404672022781 0.32498938145526818 0 0.37581922482641023 0.33652832221029488 0 0.36472776161066189 0.33815375545378978 0 0.36652404672022781 0.32498938145526818 0 0.35849339535265401 0.33005623103862841 0 0.3572965491905824 0.34401749644765389 0 0.36472776161066189 0.33815375545378978 0 0.35849339535265401 0.33005623103862841 0 0.36652404672022781 0.32498938145526818 0 0.35581066202774619 0.30787794864699841 0 0.37260377894228941 0.31021247519256018 0 0.36652404672022781 0.32498938145526818 0 0.35849339535265401 0.33005623103862841 0 0.35581066202774619 0.30787794864699841 0 0.36652404672022781 0.32498938145526818 0 0.37260377894228941 0.31021247519256018 0 0.37730394880888052 0.32282274240207831 0 0.36652404672022781 0.32498938145526818 0 0.37730394880888052 0.32282274240207831 0 0.37581922482641023 0.33652832221029488 0 0.3481079572140523 0.33524257318942569 0 0.35581066202774619 0.30787794864699841 0 0.3481079572140523 0.33524257318942569 0 0.34111493155921779 0.31747950799532282 0 0.35581066202774619 0.30787794864699841 0 0.35849339535265401 0.33005623103862841 0 0.3481079572140523 0.33524257318942569 0 0.35581066202774619 0.30787794864699841 0 0.3572965491905824 0.34401749644765389 0 0.35849339535265401 0.33005623103862841 0 0.3481079572140523 0.33524257318942569 0 0.3572965491905824 0.34401749644765389 0 0.3481079572140523 0.33524257318942569 0 0.3431855413126419 0.34240809334380412 0 0.3481079572140523 0.33524257318942569 0 0.3431855413126419 0.34240809334380412 0 0.32711427331876147 0.32203129124662971 0 0.3431855413126419 0.34240809334380412 0 0.32711427331876147 0.32203129124662971 0 0.32516140106458868 0.33857662798360483 0 0.3431855413126419 0.34240809334380412 0 0.32711427331876147 0.32203129124662971 0 0.34111493155921779 0.31747950799532282 0 0.32711427331876147 0.32203129124662971 0 0.33342683367631232 0.30476621889823169 0 0.3481079572140523 0.33524257318942569 0 0.34111493155921779 0.31747950799532282 0 0.32711427331876147 0.32203129124662971 0 0.32711427331876147 0.32203129124662971 0 0.30826630799796811 0.32835504542850491 0 0.3110430053248795 0.30165448914945658 0 0.32516140106458868 0.33857662798360483 0 0.3150827727083641 0.34804672426057698 0 0.30826630799796811 0.32835504542850491 0 0.32711427331876147 0.32203129124662971 0 0.32516140106458868 0.33857662798360483 0 0.30826630799796811 0.32835504542850491 0 0.32516140106458868 0.33857662798360483 0 0.3150827727083641 0.34804672426057698 0 0.33245135870072939 0.35324884091370568 0 0.3150827727083641 0.34804672426057698 0 0.33245135870072939 0.35324884091370568 0 0.31944138740024491 0.36549279456248751 0 0.3150827727083641 0.34804672426057698 0 0.31944138740024491 0.36549279456248751 0 0.3055002461498304 0.3606268844613657 0 0.3431855413126419 0.34240809334380412 0 0.32516140106458868 0.33857662798360483 0 0.33245135870072939 0.35324884091370568 0 0.35925680930652232 0.36278489544097858 0 0.33245135870072939 0.35324884091370568 0 0.33453775718698869 0.36832022575058282 0 0.33245135870072939 0.35324884091370568 0 0.33453775718698869 0.36832022575058282 0 0.31944138740024491 0.36549279456248751 0 0.32191598021678253 0.38202740990615491 0 0.33453775718698869 0.36832022575058282 0 0.31944138740024491 0.36549279456248751 0 0.30870621747853161 0.37599129985660368 0 0.32191598021678253 0.38202740990615491 0 0.31944138740024491 0.36549279456248751 0 0.30870621747853161 0.37599129985660368 0 0.31944138740024491 0.36549279456248751 0 0.3055002461498304 0.3606268844613657 0 0.30870621747853161 0.37599129985660368 0 0.3055002461498304 0.3606268844613657 0 0.29379146728033478 0.37241021500447918 0 0.3150827727083641 0.34804672426057698 0 0.3055002461498304 0.3606268844613657 0 0.29938257928849982 0.3431160598511987 0 0.3055002461498304 0.3606268844613657 0 0.29092895157386889 0.35723497281932359 0 0.29938257928849982 0.3431160598511987 0 0.29092895157386889 0.35723497281932359 0 0.27634523968582098 0.34700977391114629 0 0.29938257928849982 0.3431160598511987 0 0.27201152922514349 0.37620872627770002 0 0.29092895157386889 0.35723497281932359 0 0.29379146728033478 0.37241021500447918 0 0.3055002461498304 0.3606268844613657 0 0.29092895157386889 0.35723497281932359 0 0.29379146728033478 0.37241021500447918 0 0.27201152922514349 0.37620872627770002 0 0.29092895157386889 0.35723497281932359 0 0.27634523968582098 0.34700977391114629 0 0.27201152922514349 0.37620872627770002 0 0.25937695801801641 0.35242426949129207 0 0.27201152922514349 0.37620872627770002 0 0.27634523968582098 0.34700977391114629 0 0.25937695801801641 0.35242426949129207 0 0.27201152922514349 0.37620872627770002 0 0.25937695801801641 0.35242426949129207 0 0.25004482850601251 0.37417003650910702 0 0.24674238681088931 0.3286398127048844 0 0.26690523822224732 0.3302769593791362 0 0.25499603709520552 0.31033398653960542 0 0.24674238681088931 0.3286398127048844 0 0.25937695801801641 0.35242426949129207 0 0.26690523822224732 0.3302769593791362 0 0.24674238681088931 0.3286398127048844 0 0.25937695801801641 0.35242426949129207 0 0.27634523968582098 0.34700977391114629 0 0.26690523822224732 0.3302769593791362 0 0.28683162888174829 0.3297042643066464 0 0.27634523968582098 0.34700977391114629 0 0.25937695801801641 0.35242426949129207 0 0.26690523822224732 0.3302769593791362 0 0.26690523822224732 0.3302769593791362 0 0.27713917884180311 0.31354964932124307 0 0.28683162888174829 0.3297042643066464 0 0.26690523822224732 0.3302769593791362 0 0.27713917884180311 0.31354964932124307 0 0.25499603709520552 0.31033398653960542 0 0.27713917884180311 0.31354964932124307 0 0.29468316863929311 0.31440229445898499 0 0.28683162888174829 0.3297042643066464 0 0.29468316863929311 0.31440229445898499 0 0.28683162888174829 0.3297042643066464 0 0.30826630799796811 0.32835504542850491 0 0.27634523968582098 0.34700977391114629 0 0.28683162888174829 0.3297042643066464 0 0.29938257928849982 0.3431160598511987 0 0.3150827727083641 0.34804672426057698 0 0.29938257928849982 0.3431160598511987 0 0.30826630799796811 0.32835504542850491 0 0.28683162888174829 0.3297042643066464 0 0.29938257928849982 0.3431160598511987 0 0.30826630799796811 0.32835504542850491 0 0.29468316863929311 0.31440229445898499 0 0.30826630799796811 0.32835504542850491 0 0.3110430053248795 0.30165448914945658 0 0.3110430053248795 0.30165448914945658 0 0.29013572215006478 0.29874802408907558 0 0.29468316863929311 0.31440229445898499 0 0.3110430053248795 0.30165448914945658 0 0.29013572215006478 0.29874802408907558 0 0.3110430053248795 0.30165448914945658 0 0.29675006063835402 0.28353242775553628 0 0.3110430053248795 0.30165448914945658 0 0.29675006063835402 0.28353242775553628 0 0.29013572215006478 0.29874802408907558 0 0.3110430053248795 0.30165448914945658 0 0.29675006063835402 0.28353242775553628 0 0.32423558215884968 0.27936384155408228 0 0.29675006063835402 0.28353242775553628 0 0.29013572215006478 0.29874802408907558 0 0.28077424788493621 0.28447651677576269 0 0.27713917884180311 0.31354964932124307 0 0.29468316863929311 0.31440229445898499 0 0.29013572215006478 0.29874802408907558 0 0.29013572215006478 0.29874802408907558 0 0.26922843897525062 0.29584155902869158 0 0.27713917884180311 0.31354964932124307 0 0.29013572215006478 0.29874802408907558 0 0.26922843897525062 0.29584155902869158 0 0.27713917884180311 0.31354964932124307 0 0.26922843897525062 0.29584155902869158 0 0.25499603709520552 0.31033398653960542 0 0.28077424788493621 0.28447651677576269 0 0.26922843897525062 0.29584155902869158 0 0.26486669098251298 0.27890221943231658 0 0.29013572215006478 0.29874802408907558 0 0.28077424788493621 0.28447651677576269 0 0.26922843897525062 0.29584155902869158 0 0.26922843897525062 0.29584155902869158 0 0.25251902142887422 0.29489883967006508 0 0.26486669098251298 0.27890221943231658 0 0.2389629137609684 0.2846130902196588 0 0.25251902142887422 0.29489883967006508 0 0.26486669098251298 0.27890221943231658 0 0.26922843897525062 0.29584155902869158 0 0.25251902142887422 0.29489883967006508 0 0.25499603709520552 0.31033398653960542 0 0.25356354251313462 0.26595069759367879 0 0.26816417126529979 0.24728830496769821 0 0.25191630733126869 0.24920661226757701 0 0.25356354251313462 0.26595069759367879 0 0.26816417126529979 0.24728830496769821 0 0.25356354251313462 0.26595069759367879 0 0.26794447515623521 0.26215906315383281 0 0.26816417126529979 0.24728830496769821 0 0.2389629137609684 0.2846130902196588 0 0.25356354251313462 0.26595069759367879 0 0.26486669098251298 0.27890221943231658 0 0.25356354251313462 0.26595069759367879 0 0.26486669098251298 0.27890221943231658 0 0.26794447515623521 0.26215906315383281 0 0.26486669098251298 0.27890221943231658 0 0.26794447515623521 0.26215906315383281 0 0.28245711595182688 0.2654103663616173 0 0.28077424788493621 0.28447651677576269 0 0.26486669098251298 0.27890221943231658 0 0.28245711595182688 0.2654103663616173 0 0.28245711595182688 0.2654103663616173 0 0.26816417126529979 0.24728830496769821 0 0.26794447515623521 0.26215906315383281 0 0.28245711595182688 0.2654103663616173 0 0.26816417126529979 0.24728830496769821 0 0.28245711595182688 0.2654103663616173 0 0.26816417126529979 0.24728830496769821 0 0.29218139916548841 0.2486239686486868 0 0.28245711595182688 0.2654103663616173 0 0.30546640782105078 0.2637116868073705 0 0.29218139916548841 0.2486239686486868 0 0.29675006063835402 0.28353242775553628 0 0.28245711595182688 0.2654103663616173 0 0.29675006063835402 0.28353242775553628 0 0.28077424788493621 0.28447651677576269 0 0.28245711595182688 0.2654103663616173 0 0.29675006063835402 0.28353242775553628 0 0.28245711595182688 0.2654103663616173 0 0.30546640782105078 0.2637116868073705 0 0.29675006063835402 0.28353242775553628 0 0.30546640782105078 0.2637116868073705 0 0.32423558215884968 0.27936384155408228 0 0.30546640782105078 0.2637116868073705 0 0.3122205487373555 0.24745899623115639 0 0.29218139916548841 0.2486239686486868 0 0.30546640782105078 0.2637116868073705 0 0.32495374027443102 0.25788052029314412 0 0.3122205487373555 0.24745899623115639 0 0.35006285604338172 0.26153112420760838 0 0.33629540821485387 0.2436748746166981 0 0.32495374027443102 0.25788052029314412 0 0.35006285604338172 0.26153112420760838 0 0.33629540821485387 0.2436748746166981 0 0.32423558215884968 0.27936384155408228 0 0.34457100366465909 0.28634269707399151 0 0.35006285604338172 0.26153112420760838 0 0.32495374027443102 0.25788052029314412 0 0.32423558215884968 0.27936384155408228 0 0.35006285604338172 0.26153112420760838 0 0.30546640782105078 0.2637116868073705 0 0.32495374027443102 0.25788052029314412 0 0.32423558215884968 0.27936384155408228 0 0.3110430053248795 0.30165448914945658 0 0.32423558215884968 0.27936384155408228 0 0.33342683367631232 0.30476621889823169 0 0.32711427331876147 0.32203129124662971 0 0.3110430053248795 0.30165448914945658 0 0.33342683367631232 0.30476621889823169 0 0.3110430053248795 0.30165448914945658 0 0.33342683367631232 0.30476621889823169 0 0.32711427331876147 0.32203129124662971 0 0.3110430053248795 0.30165448914945658 0 0.34111493155921779 0.31747950799532282 0 0.33342683367631232 0.30476621889823169 0 0.35581066202774619 0.30787794864699841 0 0.32423558215884968 0.27936384155408228 0 0.33342683367631232 0.30476621889823169 0 0.34457100366465909 0.28634269707399151 0 0.34457100366465909 0.28634269707399151 0 0.35581066202774619 0.30787794864699841 0 0.36383030387190901 0.27938737379851919 0 0.33342683367631232 0.30476621889823169 0 0.35581066202774619 0.30787794864699841 0 0.33342683367631232 0.30476621889823169 0 0.34457100366465909 0.28634269707399151 0 0.35581066202774619 0.30787794864699841 0 0.35581066202774619 0.30787794864699841 0 0.37260377894228941 0.31021247519256018 0 0.37661359986437198 0.29596718776831682 0 0.35581066202774619 0.30787794864699841 0 0.37260377894228941 0.31021247519256018 0 0.35581066202774619 0.30787794864699841 0 0.36383030387190901 0.27938737379851919 0 0.36383030387190901 0.27938737379851919 0 0.37661359986437198 0.29596718776831682 0 0.35581066202774619 0.30787794864699841 0 0.36383030387190901 0.27938737379851919 0 0.37661359986437198 0.29596718776831682 0 0.36383030387190901 0.27938737379851919 0 0.38009657457754392 0.2726843797424427 0 0.37661359986437198 0.29596718776831682 0 0.36383030387190901 0.27938737379851919 0 0.37133135415870921 0.25273914700846112 0 0.38009657457754392 0.2726843797424427 0 0.36383030387190901 0.27938737379851919 0 0.37133135415870921 0.25273914700846112 0 0.36383030387190901 0.27938737379851919 0 0.37133135415870921 0.25273914700846112 0 0.35006285604338172 0.26153112420760838 0 0.37133135415870921 0.25273914700846112 0 0.35006285604338172 0.26153112420760838 0 0.35455324959031859 0.2432250833271849 0 0.34457100366465909 0.28634269707399151 0 0.36383030387190901 0.27938737379851919 0 0.35006285604338172 0.26153112420760838 0 0.36383030387190901 0.27938737379851919 0 0.35006285604338172 0.26153112420760838 0 0.39326744300132332 0.26595502407687149 0 0.40263545028097142 0.25928084217375458 0 0.41060613999230161 0.27285338321486652 0 0.39326744300132332 0.26595502407687149 0 0.39140849794397659 0.28353661092897681 0 0.41060613999230161 0.27285338321486652 0 0.39326744300132332 0.26595502407687149 0 0.40263545028097142 0.25928084217375458 0 0.39298284187090288 0.24806444035772329 0 0.40263545028097142 0.25928084217375458 0 0.40504541688886758 0.25083790210330698 0 0.39298284187090288 0.24806444035772329 0 0.39326744300132332 0.26595502407687149 0 0.3842768735112721 0.25920451289538038 0 0.39298284187090288 0.24806444035772329 0 0.37133135415870921 0.25273914700846112 0 0.3842768735112721 0.25920451289538038 0 0.38009657457754392 0.2726843797424427 0 0.37133135415870921 0.25273914700846112 0 0.3842768735112721 0.25920451289538038 0 0.39298284187090288 0.24806444035772329 0 0.39326744300132332 0.26595502407687149 0 0.38009657457754392 0.2726843797424427 0 0.39140849794397659 0.28353661092897681 0 0.39326744300132332 0.26595502407687149 0 0.3842768735112721 0.25920451289538038 0 0.38009657457754392 0.2726843797424427 0 0.37661359986437198 0.29596718776831682 0 0.39693038286618298 0.2984944409360708 0 0.39140849794397659 0.28353661092897681 0 0.38009657457754392 0.2726843797424427 0 0.37661359986437198 0.29596718776831682 0 0.39140849794397659 0.28353661092897681 0 0.37260377894228941 0.31021247519256018 0 0.38939689585683329 0.31254700173811562 0 0.37661359986437198 0.29596718776831682 0 0.38939689585683329 0.31254700173811562 0 0.37661359986437198 0.29596718776831682 0 0.39693038286618298 0.2984944409360708 0 0.38939689585683329 0.31254700173811562 0 0.37260377894228941 0.31021247519256018 0 0.37661359986437198 0.29596718776831682 0 0.38939689585683329 0.31254700173811562 0 0.39693038286618298 0.2984944409360708 0 0.40034520030979998 0.3140690007514233 0 0.38939689585683329 0.31254700173811562 0 0.39693038286618298 0.2984944409360708 0 0.40755282432221368 0.30247078973559838 0 0.40034520030979998 0.3140690007514233 0 0.39140849794397659 0.28353661092897681 0 0.4167997097475582 0.28963258873142939 0 0.39693038286618298 0.2984944409360708 0 0.39140849794397659 0.28353661092897681 0 0.4167997097475582 0.28963258873142939 0 0.39140849794397659 0.28353661092897681 0 0.4167997097475582 0.28963258873142939 0 0.41060613999230161 0.27285338321486652 0 0.39693038286618298 0.2984944409360708 0 0.4167997097475582 0.28963258873142939 0 0.40755282432221368 0.30247078973559838 0 0.4167997097475582 0.28963258873142939 0 0.42720783143089491 0.2823378786142301 0 0.41060613999230161 0.27285338321486652 0 0.40755282432221368 0.30247078973559838 0 0.41613600436531378 0.30768712852347008 0 0.40034520030979998 0.3140690007514233 0 0.4167997097475582 0.28963258873142939 0 0.41613600436531378 0.30768712852347008 0 0.42802450933929481 0.29952944990105379 0 0.4167997097475582 0.28963258873142939 0 0.40755282432221368 0.30247078973559838 0 0.41613600436531378 0.30768712852347008 0 0.41613600436531378 0.30768712852347008 0 0.42872696557319112 0.30838624039872231 0 0.42802450933929481 0.29952944990105379 0 0.41613600436531378 0.30768712852347008 0 0.42872696557319112 0.30838624039872231 0 0.42604550641036693 0.31704602283193151 0 0.42802450933929481 0.29952944990105379 0 0.43660622637406632 0.30352191176619908 0 0.44219092155113982 0.29572856653388208 0 0.42872696557319112 0.30838624039872231 0 0.42802450933929481 0.29952944990105379 0 0.43660622637406632 0.30352191176619908 0 0.42872696557319112 0.30838624039872231 0 0.43756843903768061 0.31137434343748271 0 0.42604550641036693 0.31704602283193151 0 0.42872696557319112 0.30838624039872231 0 0.43660622637406632 0.30352191176619908 0 0.43756843903768061 0.31137434343748271 0 0.4167997097475582 0.28963258873142939 0 0.44219092155113982 0.29572856653388208 0 0.4167997097475582 0.28963258873142939 0 0.43946294555256499 0.29018605432954619 0 0.44219092155113982 0.29572856653388208 0 0.4167997097475582 0.28963258873142939 0 0.42720783143089491 0.2823378786142301 0 0.43946294555256499 0.29018605432954619 0 0.4167997097475582 0.28963258873142939 0 0.42802450933929481 0.29952944990105379 0 0.44219092155113982 0.29572856653388208 0 0.42953427648845771 0.26970723592650447 0 0.43946294555256499 0.29018605432954619 0 0.42720783143089491 0.2823378786142301 0 0.42953427648845771 0.26970723592650447 0 0.41060613999230161 0.27285338321486652 0 0.42720783143089491 0.2823378786142301 0 0.42953427648845771 0.26970723592650447 0 0.43946294555256499 0.29018605432954619 0 0.42953427648845771 0.26970723592650447 0 0.41060613999230161 0.27285338321486652 0 0.41229635062582021 0.25891009303496942 0 0.42953427648845771 0.26970723592650447 0 0.41229635062582021 0.25891009303496942 0 0.41960560742434949 0.24922841752346311 0 0.40263545028097142 0.25928084217375458 0 0.40504541688886758 0.25083790210330698 0 0.41229635062582021 0.25891009303496942 0 0.40504541688886758 0.25083790210330698 0 0.41229635062582021 0.25891009303496942 0 0.41193031943217301 0.24970998685700099 0 0.40263545028097142 0.25928084217375458 0 0.41060613999230161 0.27285338321486652 0 0.41229635062582021 0.25891009303496942 0 0.41229635062582021 0.25891009303496942 0 0.41960560742434949 0.24922841752346311 0 0.41193031943217301 0.24970998685700099 0 0.41229635062582021 0.25891009303496942 0 0.41960560742434949 0.24922841752346311 0 0.42953427648845771 0.26970723592650447 0 0.43333426729933278 0.25521865159253582 0 0.41960560742434949 0.24922841752346311 0 0.42953427648845771 0.26970723592650447 0 0.43333426729933278 0.25521865159253582 0 0.44664308458244012 0.26914281405341878 0 0.42953427648845771 0.26970723592650447 0 0.41960560742434949 0.24922841752346311 0 0.43333426729933278 0.25521865159253582 0 0.44831133843309301 0.25500336940667873 0 0.44046947178534918 0.24381964733491229 0 0.43333426729933278 0.25521865159253582 0 0.44831133843309301 0.25500336940667873 0 0.44664308458244012 0.26914281405341878 0 0.44831133843309301 0.25500336940667873 0 0.44664308458244012 0.26914281405341878 0 0.46169705660053167 0.2595330470036582 0 0.44664308458244012 0.26914281405341878 0 0.46144726737967851 0.27490887408794118 0 0.44537934833550052 0.28600146328744258 0 0.42953427648845771 0.26970723592650447 0 0.44664308458244012 0.26914281405341878 0 0.44537934833550052 0.28600146328744258 0 0.46144726737967851 0.27490887408794118 0 0.46169705660053167 0.2595330470036582 0 0.47750528502099843 0.26373291612348659 0 0.46144726737967851 0.27490887408794118 0 0.44537934833550052 0.28600146328744258 0 0.44664308458244012 0.26914281405341878 0 0.46144726737967851 0.27490887408794118 0 0.46169705660053167 0.2595330470036582 0 0.44831133843309301 0.25500336940667873 0 0.46169705660053167 0.2595330470036582 0 0.45665518821624052 0.2438898889111111 0 0.46169705660053167 0.2595330470036582 0 0.45665518821624052 0.2438898889111111 0 0.4709233871432138 0.24742201075293871 0 0.46169705660053167 0.2595330470036582 0 0.47750528502099843 0.26373291612348659 0 0.4709233871432138 0.24742201075293871 0 0.47750528502099843 0.26373291612348659 0 0.4709233871432138 0.24742201075293871 0 0.47782294313133589 0.26004539001065669 0 0.47750528502099843 0.26373291612348659 0 0.4709233871432138 0.24742201075293871 0 0.47782294313133589 0.26004539001065669 0 0.48374370526303689 0.24651653993241709 0 0.4709233871432138 0.24742201075293871 0 0.47782294313133589 0.26004539001065669 0 0.47750528502099843 0.26373291612348659 0 0.47750528502099843 0.26373291612348659 0 0.48877809303430297 0.29150874977283497 0 0.46144726737967851 0.27490887408794118 0 0.47750528502099843 0.26373291612348659 0 0.47507823455702108 0.2902455862417781 0 0.46144726737967851 0.27490887408794118 0 0.47750528502099843 0.26373291612348659 0 0.47750528502099843 0.26373291612348659 0 0.47507823455702108 0.2902455862417781 0 0.47750528502099843 0.26373291612348659 0 0.5 0.27193510777227242 0 0.48877809303430297 0.29150874977283497 0 0.47750528502099843 0.26373291612348659 0 0.5 0.27193510777227242 0 0.49999999999999978 0.2482937520986134 0 0.47750528502099843 0.26373291612348659 0 0.49999999999999978 0.2482937520986134 0 0.47782294313133589 0.26004539001065669 0 0.49999999999999978 0.2482937520986134 0 0.48374370526303689 0.24651653993241709 0 0.47782294313133589 0.26004539001065669 0 0.47750528502099843 0.26373291612348659 0 0.49999999999999978 0.2482937520986134 0 0.48877809303430297 0.29150874977283497 0 0.49999999999999861 0.31921781911959018 0 0.48877809303430297 0.29150874977283497 0 0.49999999999999861 0.31921781911959018 0 0.48646213891142032 0.31661213570953761 0 0.5 0.29557646344593119 0 0.48877809303430297 0.29150874977283497 0 0.49999999999999861 0.31921781911959018 0 0.48877809303430297 0.29150874977283497 0 0.48071056335763901 0.30408286408121638 0 0.48646213891142032 0.31661213570953761 0 0.5 0.27193510777227242 0 0.5 0.29557646344593119 0 0.48877809303430297 0.29150874977283497 0 0.47750528502099843 0.26373291612348659 0 0.48877809303430297 0.29150874977283497 0 0.47507823455702108 0.2902455862417781 0 0.48877809303430297 0.29150874977283497 0 0.47507823455702108 0.2902455862417781 0 0.48071056335763901 0.30408286408121638 0 0.47507823455702108 0.2902455862417781 0 0.46758213335472149 0.30182454433633471 0 0.46475291792844919 0.29109435281808088 0 0.47507823455702108 0.2902455862417781 0 0.46758213335472149 0.30182454433633471 0 0.47267595286514902 0.31667803855234022 0 0.47507823455702108 0.2902455862417781 0 0.47267595286514902 0.31667803855234022 0 0.47507823455702108 0.2902455862417781 0 0.48071056335763901 0.30408286408121638 0 0.47267595286514902 0.31667803855234022 0 0.48071056335763901 0.30408286408121638 0 0.47267595286514902 0.31667803855234022 0 0.48646213891142032 0.31661213570953761 0 0.46758213335472149 0.30182454433633471 0 0.46094967354055361 0.31329187672128977 0 0.47267595286514902 0.31667803855234022 0 0.46758213335472149 0.30182454433633471 0 0.44219092155113982 0.29572856653388208 0 0.46758213335472149 0.30182454433633471 0 0.45323398251046798 0.30545338751138618 0 0.44219092155113982 0.29572856653388208 0 0.46758213335472149 0.30182454433633471 0 0.45605418754765292 0.29429856067355542 0 0.44219092155113982 0.29572856653388208 0 0.45323398251046798 0.30545338751138618 0 0.44938402965094998 0.31575273385283031 0 0.46094967354055361 0.31329187672128977 0 0.46758213335472149 0.30182454433633471 0 0.45323398251046798 0.30545338751138618 0 0.46094967354055361 0.31329187672128977 0 0.46144726737967851 0.27490887408794118 0 0.46475291792844919 0.29109435281808088 0 0.45667848684856949 0.2861582895343433 0 0.46144726737967851 0.27490887408794118 0 0.45667848684856949 0.2861582895343433 0 0.44537934833550052 0.28600146328744258 0 0.46144726737967851 0.27490887408794118 0 0.47507823455702108 0.2902455862417781 0 0.46475291792844919 0.29109435281808088 0 0.46758213335472149 0.30182454433633471 0 0.46475291792844919 0.29109435281808088 0 0.45605418754765292 0.29429856067355542 0 0.46475291792844919 0.29109435281808088 0 0.45605418754765292 0.29429856067355542 0 0.45667848684856949 0.2861582895343433 0 0.45605418754765292 0.29429856067355542 0 0.45667848684856949 0.2861582895343433 0 0.4485361804569703 0.29133031220973371 0 0.42953427648845771 0.26970723592650447 0 0.44537934833550052 0.28600146328744258 0 0.43946294555256499 0.29018605432954619 0 0.45667848684856949 0.2861582895343433 0 0.44537934833550052 0.28600146328744258 0 0.4485361804569703 0.29133031220973371 0 0.45605418754765292 0.29429856067355542 0 0.4485361804569703 0.29133031220973371 0 0.44219092155113982 0.29572856653388208 0 0.4485361804569703 0.29133031220973371 0 0.43946294555256499 0.29018605432954619 0 0.44219092155113982 0.29572856653388208 0 0.44537934833550052 0.28600146328744258 0 0.4485361804569703 0.29133031220973371 0 0.43946294555256499 0.29018605432954619 0 0.45323398251046798 0.30545338751138618 0 0.44404431769251218 0.3060229858875832 0 0.44938402965094998 0.31575273385283031 0 0.45323398251046798 0.30545338751138618 0 0.44219092155113982 0.29572856653388208 0 0.44404431769251218 0.3060229858875832 0 0.43660622637406632 0.30352191176619908 0 0.44219092155113982 0.29572856653388208 0 0.44404431769251218 0.3060229858875832 0 0.43756843903768061 0.31137434343748271 0 0.44404431769251218 0.3060229858875832 0 0.44938402965094998 0.31575273385283031 0 0.43660622637406632 0.30352191176619908 0 0.43756843903768061 0.31137434343748271 0 0.44404431769251218 0.3060229858875832 0 0.43756843903768061 0.31137434343748271 0 0.44938402965094998 0.31575273385283031 0 0.43697462940589588 0.32402287657681739 0 0.44938402965094998 0.31575273385283031 0 0.44771075551414519 0.32963222049659402 0 0.43697462940589588 0.32402287657681739 0 0.44938402965094998 0.31575273385283031 0 0.44771075551414519 0.32963222049659402 0 0.45940199689259598 0.32680915794138288 0 0.43842951184597551 0.33946090304339388 0 0.44771075551414519 0.32963222049659402 0 0.45410710664842191 0.33987336125922057 0 0.43842951184597551 0.33946090304339388 0 0.44771075551414519 0.32963222049659402 0 0.43697462940589588 0.32402287657681739 0 0.45410710664842191 0.33987336125922057 0 0.45940199689259598 0.32680915794138288 0 0.4702736711732769 0.34311049086290241 0 0.45940199689259598 0.32680915794138288 0 0.47267595286514902 0.31667803855234022 0 0.4702736711732769 0.34311049086290241 0 0.44771075551414519 0.32963222049659402 0 0.45410710664842191 0.33987336125922057 0 0.45940199689259598 0.32680915794138288 0 0.44938402965094998 0.31575273385283031 0 0.45940199689259598 0.32680915794138288 0 0.46094967354055361 0.31329187672128977 0 0.45940199689259598 0.32680915794138288 0 0.46094967354055361 0.31329187672128977 0 0.47267595286514902 0.31667803855234022 0 0.47267595286514902 0.31667803855234022 0 0.48511235432861888 0.33113369636636708 0 0.48646213891142032 0.31661213570953761 0 0.4702736711732769 0.34311049086290241 0 0.48511235432861888 0.33113369636636708 0 0.48388877990178442 0.35667609176681081 0 0.47267595286514902 0.31667803855234022 0 0.4702736711732769 0.34311049086290241 0 0.48511235432861888 0.33113369636636708 0 0.47267595286514902 0.31667803855234022 0 0.4702736711732769 0.34311049086290241 0 0.48511235432861888 0.33113369636636708 0 0.49999999999999861 0.31921781911959018 0 0.5 0.34489965893315011 0 0.48511235432861888 0.33113369636636708 0 0.49999999999999861 0.31921781911959018 0 0.48646213891142032 0.31661213570953761 0 0.5 0.37058149874670993 0 0.48388877990178442 0.35667609176681081 0 0.48089600100104529 0.38309243001123627 0 0.5 0.37058149874670993 0 0.5 0.34489965893315011 0 0.48388877990178442 0.35667609176681081 0 0.48511235432861888 0.33113369636636708 0 0.5 0.34489965893315011 0 0.48388877990178442 0.35667609176681081 0 0.4702736711732769 0.34311049086290241 0 0.48388877990178442 0.35667609176681081 0 0.46705065290776482 0.36723877568049912 0 0.48388877990178442 0.35667609176681081 0 0.46705065290776482 0.36723877568049912 0 0.48089600100104529 0.38309243001123627 0 0.46705065290776482 0.36723877568049912 0 0.4516484817796152 0.37183694549879343 0 0.46109592324506471 0.38403333438402459 0 0.46705065290776482 0.36723877568049912 0 0.45244574368005808 0.35531335036239231 0 0.4516484817796152 0.37183694549879343 0 0.4702736711732769 0.34311049086290241 0 0.46705065290776482 0.36723877568049912 0 0.45244574368005808 0.35531335036239231 0 0.45410710664842191 0.33987336125922057 0 0.4702736711732769 0.34311049086290241 0 0.45244574368005808 0.35531335036239231 0 0.43842951184597551 0.33946090304339388 0 0.45410710664842191 0.33987336125922057 0 0.45244574368005808 0.35531335036239231 0 0.43842951184597551 0.33946090304339388 0 0.45244574368005808 0.35531335036239231 0 0.43202811065726521 0.36783928403482569 0 0.45244574368005808 0.35531335036239231 0 0.4516484817796152 0.37183694549879343 0 0.43202811065726521 0.36783928403482569 0 0.43202811065726521 0.36783928403482569 0 0.41635359526489479 0.37464484016943472 0 0.41781770572378818 0.34940852326925542 0 0.43202811065726521 0.36783928403482569 0 0.41635359526489479 0.37464484016943472 0 0.43033137966059498 0.38218607443813502 0 0.41635359526489479 0.37464484016943472 0 0.41781770572378818 0.34940852326925542 0 0.40114118459310588 0.36354619742478539 0 0.43202811065726521 0.36783928403482569 0 0.41781770572378818 0.34940852326925542 0 0.43842951184597551 0.33946090304339388 0 0.43202811065726521 0.36783928403482569 0 0.41781770572378818 0.34940852326925542 0 0.43842951184597551 0.33946090304339388 0 0.42270953397625771 0.33087103579867222 0 0.43697462940589588 0.32402287657681739 0 0.43842951184597551 0.33946090304339388 0 0.41781770572378818 0.34940852326925542 0 0.42270953397625771 0.33087103579867222 0 0.43756843903768061 0.31137434343748271 0 0.43697462940589588 0.32402287657681739 0 0.42604550641036693 0.31704602283193151 0 0.42270953397625771 0.33087103579867222 0 0.43697462940589588 0.32402287657681739 0 0.42604550641036693 0.31704602283193151 0 0.41613600436531378 0.30768712852347008 0 0.41318212617986461 0.32064139614414922 0 0.40034520030979998 0.3140690007514233 0 0.42270953397625771 0.33087103579867222 0 0.41318212617986461 0.32064139614414922 0 0.40360730079031132 0.3309777625036851 0 0.41613600436531378 0.30768712852347008 0 0.42604550641036693 0.31704602283193151 0 0.41318212617986461 0.32064139614414922 0 0.42270953397625771 0.33087103579867222 0 0.42604550641036693 0.31704602283193151 0 0.41318212617986461 0.32064139614414922 0 0.41781770572378818 0.34940852326925542 0 0.40360730079031132 0.3309777625036851 0 0.41781770572378818 0.34940852326925542 0 0.42270953397625771 0.33087103579867222 0 0.40360730079031132 0.3309777625036851 0 0.41781770572378818 0.34940852326925542 0 0.40360730079031132 0.3309777625036851 0 0.39239522822416101 0.34584800055796361 0 0.40360730079031132 0.3309777625036851 0 0.3874833708212122 0.32974843650369667 0 0.39239522822416101 0.34584800055796361 0 0.40360730079031132 0.3309777625036851 0 0.38939689585683329 0.31254700173811562 0 0.3874833708212122 0.32974843650369667 0 0.41318212617986461 0.32064139614414922 0 0.40360730079031132 0.3309777625036851 0 0.40034520030979998 0.3140690007514233 0 0.40360730079031132 0.3309777625036851 0 0.38939689585683329 0.31254700173811562 0 0.40360730079031132 0.3309777625036851 0 0.40034520030979998 0.3140690007514233 0 0.38939689585683329 0.31254700173811562 0 0.40034520030979998 0.3140690007514233 0 0.38939689585683329 0.31254700173811562 0 0.38939689585683329 0.31254700173811562 0 0.37730394880888052 0.32282274240207831 0 0.3874833708212122 0.32974843650369667 0 0.37260377894228941 0.31021247519256018 0 0.38939689585683329 0.31254700173811562 0 0.37730394880888052 0.32282274240207831 0 0.3874833708212122 0.32974843650369667 0 0.37581922482641023 0.33652832221029488 0 0.39239522822416101 0.34584800055796361 0 0.37730394880888052 0.32282274240207831 0 0.3874833708212122 0.32974843650369667 0 0.37581922482641023 0.33652832221029488 0 0.37302365365364959 0.35074164613539471 0 0.38587261938700118 0.36085772810504618 0 0.39239522822416101 0.34584800055796361 0 0.37302365365364959 0.35074164613539471 0 0.37581922482641023 0.33652832221029488 0 0.39239522822416101 0.34584800055796361 0 0.37302365365364959 0.35074164613539471 0 0.37579738303020882 0.36700132473203578 0 0.38587261938700118 0.36085772810504618 0 0.37579738303020882 0.36700132473203578 0 0.38692681138805168 0.37499690056769608 0 0.38587261938700118 0.36085772810504618 0 0.41635359526489479 0.37464484016943472 0 0.40114118459310588 0.36354619742478539 0 0.40099163377848368 0.3797207577347837 0 0.38692681138805168 0.37499690056769608 0 0.38587261938700118 0.36085772810504618 0 0.40114118459310588 0.36354619742478539 0 0.38692681138805168 0.37499690056769608 0 0.40114118459310588 0.36354619742478539 0 0.40099163377848368 0.3797207577347837 0 0.38587261938700118 0.36085772810504618 0 0.40114118459310588 0.36354619742478539 0 0.39239522822416101 0.34584800055796361 0 0.41781770572378818 0.34940852326925542 0 0.40114118459310588 0.36354619742478539 0 0.39239522822416101 0.34584800055796361 0 0.39139934529428289 0.4035384996353274 0 0.40078117436570598 0.39290601532775637 0 0.3908000809364619 0.38652140353176367 0 0.39139934529428289 0.4035384996353274 0 0.40101267785727651 0.40393239848879298 0 0.40078117436570598 0.39290601532775637 0 0.40101267785727651 0.40393239848879298 0 0.40078117436570598 0.39290601532775637 0 0.4101150540085981 0.39701655448625012 0 0.40078117436570598 0.39290601532775637 0 0.40099163377848368 0.3797207577347837 0 0.41076572187884508 0.38638240430125442 0 0.38692681138805168 0.37499690056769608 0 0.40099163377848368 0.3797207577347837 0 0.3908000809364619 0.38652140353176367 0 0.40078117436570598 0.39290601532775637 0 0.40099163377848368 0.3797207577347837 0 0.3908000809364619 0.38652140353176367 0 0.37579738303020882 0.36700132473203578 0 0.38692681138805168 0.37499690056769608 0 0.37532807730040257 0.38316169753815299 0 0.38692681138805168 0.37499690056769608 0 0.3908000809364619 0.38652140353176367 0 0.37532807730040257 0.38316169753815299 0 0.39139934529428289 0.4035384996353274 0 0.37532807730040257 0.38316169753815299 0 0.39139934529428289 0.4035384996353274 0 0.37532807730040257 0.38316169753815299 0 0.37689374131585868 0.39401386302451952 0 0.39139934529428289 0.4035384996353274 0 0.3908000809364619 0.38652140353176367 0 0.37532807730040257 0.38316169753815299 0 0.39139934529428289 0.4035384996353274 0 0.37689374131585868 0.39401386302451952 0 0.38231913560775782 0.40715105347220543 0 0.3730999423012219 0.40954342286834639 0 0.37689374131585868 0.39401386302451952 0 0.38231913560775782 0.40715105347220543 0 0.3730999423012219 0.40954342286834639 0 0.38231913560775782 0.40715105347220543 0 0.37795549308522902 0.41628895699810292 0 0.37795549308522902 0.41628895699810292 0 0.39076755343132041 0.42249174788358651 0 0.39224715604219651 0.41237052483473102 0 0.38231913560775782 0.40715105347220543 0 0.37795549308522902 0.41628895699810292 0 0.39224715604219651 0.41237052483473102 0 0.39139934529428289 0.4035384996353274 0 0.38231913560775782 0.40715105347220543 0 0.39224715604219651 0.41237052483473102 0 0.37023049558979693 0.44243966271604079 0 0.38040430343443521 0.43193634251772789 0 0.39567187282383282 0.43100015285841642 0 0.36494729189279101 0.43181380661286789 0 0.38040430343443521 0.43193634251772789 0 0.39076755343132041 0.42249174788358651 0 0.36494729189279101 0.43181380661286789 0 0.37795549308522902 0.41628895699810292 0 0.39076755343132041 0.42249174788358651 0 0.36494729189279101 0.43181380661286789 0 0.39076755343132041 0.42249174788358651 0 0.37023049558979693 0.44243966271604079 0 0.39567187282383282 0.43100015285841642 0 0.38040430343443521 0.43193634251772789 0 0.39567187282383282 0.43100015285841642 0 0.39076755343132041 0.42249174788358651 0 0.39567187282383282 0.43100015285841642 0 0.39076755343132041 0.42249174788358651 0 0.41658781496984998 0.41316968915430502 0 0.39567187282383282 0.43100015285841642 0 0.40975977307311767 0.4309440535241707 0 0.40277120807912181 0.44488064963545743 0 0.39076755343132041 0.42249174788358651 0 0.41658781496984998 0.41316968915430502 0 0.39076755343132041 0.42249174788358651 0 0.40194150124873601 0.41210731821130492 0 0.41658781496984998 0.41316968915430502 0 0.40101267785727651 0.40393239848879298 0 0.39224715604219651 0.41237052483473102 0 0.40194150124873601 0.41210731821130492 0 0.39139934529428289 0.4035384996353274 0 0.40101267785727651 0.40393239848879298 0 0.39224715604219651 0.41237052483473102 0 0.39076755343132041 0.42249174788358651 0 0.39224715604219651 0.41237052483473102 0 0.40194150124873601 0.41210731821130492 0 0.40101267785727651 0.40393239848879298 0 0.40194150124873601 0.41210731821130492 0 0.40959183618413952 0.4056554784373882 0 0.40194150124873601 0.41210731821130492 0 0.41658781496984998 0.41316968915430502 0 0.40959183618413952 0.4056554784373882 0 0.39567187282383282 0.43100015285841642 0 0.42111325005786859 0.41956064300079188 0 0.41658781496984998 0.41316968915430502 0 0.41658781496984998 0.41316968915430502 0 0.41869960039594922 0.40172735805792198 0 0.40959183618413952 0.4056554784373882 0 0.40975977307311767 0.4309440535241707 0 0.42151880959243587 0.42871130481571929 0 0.42575029225984629 0.43817658423166628 0 0.39567187282383282 0.43100015285841642 0 0.42111325005786859 0.41956064300079188 0 0.39567187282383282 0.43100015285841642 0 0.42111325005786859 0.41956064300079188 0 0.40975977307311767 0.4309440535241707 0 0.42111325005786859 0.41956064300079188 0 0.40975977307311767 0.4309440535241707 0 0.42151880959243587 0.42871130481571929 0 0.42151880959243587 0.42871130481571929 0 0.42945192297891138 0.42616393850624851 0 0.42575029225984629 0.43817658423166628 0 0.42111325005786859 0.41956064300079188 0 0.42151880959243587 0.42871130481571929 0 0.42945192297891138 0.42616393850624851 0 0.42945192297891138 0.42616393850624851 0 0.43439853854146121 0.43334695253172728 0 0.43857382712131587 0.42666265093457761 0 0.42945192297891138 0.42616393850624851 0 0.43650619774580718 0.41968959887481389 0 0.43857382712131587 0.42666265093457761 0 0.42945192297891138 0.42616393850624851 0 0.43439853854146121 0.43334695253172728 0 0.42575029225984629 0.43817658423166628 0 0.41658781496984998 0.41316968915430502 0 0.44240807650837932 0.40384763042502347 0 0.42111325005786859 0.41956064300079188 0 0.43650619774580718 0.41968959887481389 0 0.44655462729190443 0.40812113314316739 0 0.42111325005786859 0.41956064300079188 0 0.44655462729190443 0.40812113314316739 0 0.42111325005786859 0.41956064300079188 0 0.44240807650837932 0.40384763042502347 0 0.44655462729190443 0.40812113314316739 0 0.41658781496984998 0.41316968915430502 0 0.42792896078149739 0.40351247135290369 0 0.44240807650837932 0.40384763042502347 0 0.42111325005786859 0.41956064300079188 0 0.41658781496984998 0.41316968915430502 0 0.44240807650837932 0.40384763042502347 0 0.42111325005786859 0.41956064300079188 0 0.42945192297891138 0.42616393850624851 0 0.43650619774580718 0.41968959887481389 0 0.4353740106511933 0.39825956239025367 0 0.42792896078149739 0.40351247135290369 0 0.44240807650837932 0.40384763042502347 0 0.4353740106511933 0.39825956239025367 0 0.42774204813440481 0.39712334373661562 0 0.42792896078149739 0.40351247135290369 0 0.4345514642716975 0.3917737885573907 0 0.4353740106511933 0.39825956239025367 0 0.42774204813440481 0.39712334373661562 0 0.42774204813440481 0.39712334373661562 0 0.41869960039594922 0.40172735805792198 0 0.42248521251837517 0.39040241462862763 0 0.4345514642716975 0.3917737885573907 0 0.42774204813440481 0.39712334373661562 0 0.42248521251837517 0.39040241462862763 0 0.42774204813440481 0.39712334373661562 0 0.42792896078149739 0.40351247135290369 0 0.41869960039594922 0.40172735805792198 0 0.41658781496984998 0.41316968915430502 0 0.42792896078149739 0.40351247135290369 0 0.41869960039594922 0.40172735805792198 0 0.41869960039594922 0.40172735805792198 0 0.4101150540085981 0.39701655448625012 0 0.42248521251837517 0.39040241462862763 0 0.4101150540085981 0.39701655448625012 0 0.41076572187884508 0.38638240430125442 0 0.42248521251837517 0.39040241462862763 0 0.40078117436570598 0.39290601532775637 0 0.4101150540085981 0.39701655448625012 0 0.41076572187884508 0.38638240430125442 0 0.41869960039594922 0.40172735805792198 0 0.4101150540085981 0.39701655448625012 0 0.40959183618413952 0.4056554784373882 0 0.40101267785727651 0.40393239848879298 0 0.4101150540085981 0.39701655448625012 0 0.40959183618413952 0.4056554784373882 0 0.41635359526489479 0.37464484016943472 0 0.41076572187884508 0.38638240430125442 0 0.42248521251837517 0.39040241462862763 0 0.41635359526489479 0.37464484016943472 0 0.40099163377848368 0.3797207577347837 0 0.41076572187884508 0.38638240430125442 0 0.4345514642716975 0.3917737885573907 0 0.43033137966059498 0.38218607443813502 0 0.44623851559074218 0.38627004480039617 0 0.41635359526489479 0.37464484016943472 0 0.42248521251837517 0.39040241462862763 0 0.43033137966059498 0.38218607443813502 0 0.43202811065726521 0.36783928403482569 0 0.43033137966059498 0.38218607443813502 0 0.44623851559074218 0.38627004480039617 0 0.4345514642716975 0.3917737885573907 0 0.42248521251837517 0.39040241462862763 0 0.43033137966059498 0.38218607443813502 0 0.43202811065726521 0.36783928403482569 0 0.44623851559074218 0.38627004480039617 0 0.4516484817796152 0.37183694549879343 0 0.43202811065726521 0.36783928403482569 0 0.44623851559074218 0.38627004480039617 0 0.4516484817796152 0.37183694549879343 0 0.44623851559074218 0.38627004480039617 0 0.46109592324506471 0.38403333438402459 0 0.4353740106511933 0.39825956239025367 0 0.44240807650837932 0.40384763042502347 0 0.44282652473359629 0.39558729108871521 0 0.4345514642716975 0.3917737885573907 0 0.4353740106511933 0.39825956239025367 0 0.44282652473359629 0.39558729108871521 0 0.4345514642716975 0.3917737885573907 0 0.44623851559074218 0.38627004480039617 0 0.44282652473359629 0.39558729108871521 0 0.44623851559074218 0.38627004480039617 0 0.44282652473359629 0.39558729108871521 0 0.45273459899318669 0.39887885568927117 0 0.44240807650837932 0.40384763042502347 0 0.44282652473359629 0.39558729108871521 0 0.45273459899318669 0.39887885568927117 0 0.44240807650837932 0.40384763042502347 0 0.45273459899318669 0.39887885568927117 0 0.44655462729190443 0.40812113314316739 0 0.45273459899318669 0.39887885568927117 0 0.44655462729190443 0.40812113314316739 0 0.45286957771966119 0.40726226746935312 0 0.45273459899318669 0.39887885568927117 0 0.46027475656121197 0.40914777417223219 0 0.45286957771966119 0.40726226746935312 0 0.45273459899318669 0.39887885568927117 0 0.46800728919803369 0.3968829546239519 0 0.46027475656121197 0.40914777417223219 0 0.45273459899318669 0.39887885568927117 0 0.46800728919803369 0.3968829546239519 0 0.46109592324506471 0.38403333438402459 0 0.44623851559074218 0.38627004480039617 0 0.45273459899318669 0.39887885568927117 0 0.46109592324506471 0.38403333438402459 0 0.46800728919803369 0.3968829546239519 0 0.46109592324506471 0.38403333438402459 0 0.48089600100104529 0.38309243001123627 0 0.46705065290776482 0.36723877568049912 0 0.46109592324506471 0.38403333438402459 0 0.48089600100104529 0.38309243001123627 0 0.46800728919803369 0.3968829546239519 0 0.48052571866292071 0.40739679007763829 0 0.46027475656121197 0.40914777417223219 0 0.46800728919803369 0.3968829546239519 0 0.48089600100104529 0.38309243001123627 0 0.48052571866292071 0.40739679007763829 0 0.48089600100104529 0.38309243001123627 0 0.5 0.39626333856026991 0 0.48052571866292071 0.40739679007763829 0 0.5 0.37058149874670993 0 0.48089600100104529 0.38309243001123627 0 0.5 0.39626333856026991 0 0.50000000000000044 0.42194517837382972 0 0.49249892689839653 0.44263329761028031 0 0.50000000000000044 0.42194517837382972 0 0.48607059417963511 0.43501980622280018 0 0.48286133816489218 0.42341531305452368 0 0.50000000000000044 0.42194517837382972 0 0.48607059417963511 0.43501980622280018 0 0.49249892689839653 0.44263329761028031 0 0.50000000000000044 0.42194517837382972 0 0.48052571866292071 0.40739679007763829 0 0.48286133816489218 0.42341531305452368 0 0.5 0.39626333856026991 0 0.50000000000000044 0.42194517837382972 0 0.48052571866292071 0.40739679007763829 0 0.48052571866292071 0.40739679007763829 0 0.47164064571526121 0.42103054174742499 0 0.48286133816489218 0.42341531305452368 0 0.48052571866292071 0.40739679007763829 0 0.47164064571526121 0.42103054174742499 0 0.46027475656121197 0.40914777417223219 0 0.47164064571526121 0.42103054174742499 0 0.47629252230745628 0.43202844473993951 0 0.46800990226762612 0.43013335812610792 0 0.47164064571526121 0.42103054174742499 0 0.48286133816489218 0.42341531305452368 0 0.47629252230745628 0.43202844473993951 0 0.48607059417963511 0.43501980622280018 0 0.48286133816489218 0.42341531305452368 0 0.47629252230745628 0.43202844473993951 0 0.48607059417963511 0.43501980622280018 0 0.47629252230745628 0.43202844473993951 0 0.478837816137195 0.44201535685533822 0 0.47629252230745628 0.43202844473993951 0 0.46800990226762612 0.43013335812610792 0 0.47218787177287758 0.44005088821405802 0 0.46800990226762612 0.43013335812610792 0 0.46425145425015418 0.43687243231697598 0 0.45974298735620428 0.42977630280640189 0 0.46800990226762612 0.43013335812610792 0 0.46425145425015418 0.43687243231697598 0 0.47218787177287758 0.44005088821405802 0 0.47164064571526121 0.42103054174742499 0 0.46800990226762612 0.43013335812610792 0 0.46250278901273162 0.42270752863874778 0 0.46800990226762612 0.43013335812610792 0 0.46250278901273162 0.42270752863874778 0 0.45974298735620428 0.42977630280640189 0 0.45974298735620428 0.42977630280640189 0 0.45430531478421671 0.42163543809745929 0 0.45139083174198802 0.43152763394502058 0 0.46250278901273162 0.42270752863874778 0 0.45974298735620428 0.42977630280640189 0 0.45430531478421671 0.42163543809745929 0 0.45806361024958198 0.43689797920671369 0 0.45139083174198802 0.43152763394502058 0 0.45254463300966402 0.44139975658491459 0 0.45806361024958198 0.43689797920671369 0 0.45974298735620428 0.42977630280640189 0 0.45139083174198802 0.43152763394502058 0 0.46425145425015418 0.43687243231697598 0 0.45806361024958198 0.43689797920671369 0 0.45974298735620428 0.42977630280640189 0 0.47164064571526121 0.42103054174742499 0 0.46250278901273162 0.42270752863874778 0 0.46027475656121197 0.40914777417223219 0 0.46250278901273162 0.42270752863874778 0 0.45430531478421671 0.42163543809745929 0 0.46027475656121197 0.40914777417223219 0 0.45430531478421671 0.42163543809745929 0 0.46027475656121197 0.40914777417223219 0 0.45191432803234188 0.4129013068727414 0 0.46027475656121197 0.40914777417223219 0 0.45286957771966119 0.40726226746935312 0 0.45191432803234188 0.4129013068727414 0 0.44655462729190443 0.40812113314316739 0 0.45191432803234188 0.4129013068727414 0 0.44492745993404609 0.41823451345955742 0 0.44655462729190443 0.40812113314316739 0 0.45286957771966119 0.40726226746935312 0 0.45191432803234188 0.4129013068727414 0 0.45430531478421671 0.42163543809745929 0 0.45191432803234188 0.4129013068727414 0 0.44492745993404609 0.41823451345955742 0 0.45430531478421671 0.42163543809745929 0 0.44492745993404609 0.41823451345955742 0 0.4457346137413758 0.42555210637716051 0 0.43650619774580718 0.41968959887481389 0 0.44655462729190443 0.40812113314316739 0 0.44492745993404609 0.41823451345955742 0 0.43650619774580718 0.41968959887481389 0 0.44492745993404609 0.41823451345955742 0 0.44143552463563618 0.42253471741152743 0 0.45139083174198802 0.43152763394502058 0 0.4457346137413758 0.42555210637716051 0 0.4434773561238215 0.43508604963605529 0 0.45139083174198802 0.43152763394502058 0 0.4434773561238215 0.43508604963605529 0 0.45254463300966402 0.44139975658491459 0 0.45430531478421671 0.42163543809745929 0 0.45139083174198802 0.43152763394502058 0 0.4457346137413758 0.42555210637716051 0 0.4457346137413758 0.42555210637716051 0 0.43857382712131587 0.42666265093457761 0 0.4434773561238215 0.43508604963605529 0 0.44492745993404609 0.41823451345955742 0 0.4457346137413758 0.42555210637716051 0 0.44143552463563618 0.42253471741152743 0 0.4457346137413758 0.42555210637716051 0 0.44143552463563618 0.42253471741152743 0 0.43857382712131587 0.42666265093457761 0 0.43650619774580718 0.41968959887481389 0 0.44143552463563618 0.42253471741152743 0 0.43857382712131587 0.42666265093457761 0 0.43439853854146121 0.43334695253172728 0 0.43857382712131587 0.42666265093457761 0 0.4434773561238215 0.43508604963605529 0 0.43439853854146121 0.43334695253172728 0 0.4434773561238215 0.43508604963605529 0 0.43575360864593399 0.44113171836324733 0 0.50000000000000044 0.42194517837382972 0 0.49249892689839653 0.44263329761028031 0 0.5 0.5 0 0.4434773561238215 0.43508604963605529 0 0.44474629534045218 0.44617052995890072 0 0.43575360864593399 0.44113171836324733 0 0.44474629534045218 0.44617052995890072 0 0.44517803447366883 0.45655072862241958 0 0.43084973980950259 0.45383206042618057 0 0.44474629534045218 0.44617052995890072 0 0.44517803447366883 0.45655072862241958 0 0.45376732636665679 0.45011151328119497 0 0.44474629534045218 0.44617052995890072 0 0.45254463300966402 0.44139975658491459 0 0.45376732636665679 0.45011151328119497 0 0.4434773561238215 0.43508604963605529 0 0.44474629534045218 0.44617052995890072 0 0.45254463300966402 0.44139975658491459 0 0.43783080089711851 0.46539504598376757 0 0.44517803447366883 0.45655072862241958 0 0.44904117110839831 0.46539649319527687 0 0.43783080089711851 0.46539504598376757 0 0.44904117110839831 0.46539649319527687 0 0.44214871703036779 0.47530611484236251 0 0.43783080089711851 0.46539504598376757 0 0.44517803447366883 0.45655072862241958 0 0.43084973980950259 0.45383206042618057 0 0.44517803447366883 0.45655072862241958 0 0.45504728875207989 0.45834734607148547 0 0.45376732636665679 0.45011151328119497 0 0.44517803447366883 0.45655072862241958 0 0.44904117110839831 0.46539649319527687 0 0.45504728875207989 0.45834734607148547 0 0.44904117110839831 0.46539649319527687 0 0.45889199650424761 0.46489046585241561 0 0.45504728875207989 0.45834734607148547 0 0.44904117110839831 0.46539649319527687 0 0.45889199650424761 0.46489046585241561 0 0.45442715469970812 0.47339167529063542 0 0.45889199650424761 0.46489046585241561 0 0.45504728875207989 0.45834734607148547 0 0.46161252012912629 0.45985890746288349 0 0.45504728875207989 0.45834734607148547 0 0.46131690946338172 0.45361321798580218 0 0.45376732636665679 0.45011151328119497 0 0.45504728875207989 0.45834734607148547 0 0.46131690946338172 0.45361321798580218 0 0.46161252012912629 0.45985890746288349 0 0.46131690946338172 0.45361321798580218 0 0.46680993144531391 0.45834549759849641 0 0.46806279178197718 0.45279662831304068 0 0.46131690946338172 0.45361321798580218 0 0.46680993144531391 0.45834549759849641 0 0.46161252012912629 0.45985890746288349 0 0.46680993144531391 0.45834549759849641 0 0.46161252012912629 0.45985890746288349 0 0.46568816705597882 0.46416607075614441 0 0.45889199650424761 0.46489046585241561 0 0.46161252012912629 0.45985890746288349 0 0.46568816705597882 0.46416607075614441 0 0.46680993144531391 0.45834549759849641 0 0.46568816705597882 0.46416607075614441 0 0.47076465736658712 0.46271791075287522 0 0.46568816705597882 0.46416607075614441 0 0.47150327765646421 0.46811707751431669 0 0.46453400959088093 0.47147466992026171 0 0.45889199650424761 0.46489046585241561 0 0.46568816705597882 0.46416607075614441 0 0.46453400959088093 0.47147466992026171 0 0.45806361024958198 0.43689797920671369 0 0.45254463300966402 0.44139975658491459 0 0.46238814488989982 0.4449137703802552 0 0.46131690946338172 0.45361321798580218 0 0.45376732636665679 0.45011151328119497 0 0.46238814488989982 0.4449137703802552 0 0.45254463300966402 0.44139975658491459 0 0.45376732636665679 0.45011151328119497 0 0.46238814488989982 0.4449137703802552 0 0.46806279178197718 0.45279662831304068 0 0.46238814488989982 0.4449137703802552 0 0.47069987249768042 0.4470667263486981 0 0.46131690946338172 0.45361321798580218 0 0.46806279178197718 0.45279662831304068 0 0.46238814488989982 0.4449137703802552 0 0.46425145425015418 0.43687243231697598 0 0.45806361024958198 0.43689797920671369 0 0.46238814488989982 0.4449137703802552 0 0.46425145425015418 0.43687243231697598 0 0.46238814488989982 0.4449137703802552 0 0.47218787177287758 0.44005088821405802 0 0.46238814488989982 0.4449137703802552 0 0.47218787177287758 0.44005088821405802 0 0.47069987249768042 0.4470667263486981 0 0.47629252230745628 0.43202844473993951 0 0.47218787177287758 0.44005088821405802 0 0.478837816137195 0.44201535685533822 0 0.48268722049863211 0.44876094882618339 0 0.48222537473757809 0.46099770093019182 0 0.48790110517619822 0.44149655139528737 0 0.48499785379679211 0.46332141684673073 0 0.49249892689839653 0.44263329761028031 0 0.5 0.5 0 0.47218787177287758 0.44005088821405802 0 0.478837816137195 0.44201535685533822 0 0.47608368640705179 0.44702041545276322 0 0.47218787177287758 0.44005088821405802 0 0.47608368640705179 0.44702041545276322 0 0.47069987249768042 0.4470667263486981 0 0.48607059417963511 0.43501980622280018 0 0.478837816137195 0.44201535685533822 0 0.48311779597932691 0.44295686432938147 0 0.478837816137195 0.44201535685533822 0 0.4799151576259208 0.44634586041342622 0 0.47608368640705179 0.44702041545276322 0 0.478837816137195 0.44201535685533822 0 0.48311779597932691 0.44295686432938147 0 0.4799151576259208 0.44634586041342622 0 0.48268722049863211 0.44876094882618339 0 0.478849269107398 0.45097571660346469 0 0.48022170094719779 0.45490746629732298 0 0.48311779597932691 0.44295686432938147 0 0.48268722049863211 0.44876094882618339 0 0.4799151576259208 0.44634586041342622 0 0.48268722049863211 0.44876094882618339 0 0.4799151576259208 0.44634586041342622 0 0.478849269107398 0.45097571660346469 0 0.4799151576259208 0.44634586041342622 0 0.478849269107398 0.45097571660346469 0 0.47608368640705179 0.44702041545276322 0 0.478849269107398 0.45097571660346469 0 0.47419340825614442 0.45226494510500981 0 0.4777091772080917 0.455998753672333 0 0.478849269107398 0.45097571660346469 0 0.47419340825614442 0.45226494510500981 0 0.47608368640705179 0.44702041545276322 0 0.47419340825614442 0.45226494510500981 0 0.47608368640705179 0.44702041545276322 0 0.47069987249768042 0.4470667263486981 0 0.46806279178197718 0.45279662831304068 0 0.47419340825614442 0.45226494510500981 0 0.47069987249768042 0.4470667263486981 0 0.48222537473757809 0.46099770093019182 0 0.48499785379679211 0.46332141684673073 0 0.47654964429895802 0.48049885046509611 0 0.46680993144531391 0.45834549759849641 0 0.46806279178197718 0.45279662831304068 0 0.4732346064364199 0.45829311474669382 0 0.46806279178197718 0.45279662831304068 0 0.47419340825614442 0.45226494510500981 0 0.4732346064364199 0.45829311474669382 0 0.46680993144531391 0.45834549759849641 0 0.4732346064364199 0.45829311474669382 0 0.47076465736658712 0.46271791075287522 0 0.4732346064364199 0.45829311474669382 0 0.47586222766662412 0.46326910972328061 0 0.47792326309971789 0.45939403703327819 0 0.4732346064364199 0.45829311474669382 0 0.4777091772080917 0.455998753672333 0 0.47792326309971789 0.45939403703327819 0 0.47419340825614442 0.45226494510500981 0 0.4732346064364199 0.45829311474669382 0 0.4777091772080917 0.455998753672333 0 0.46568816705597882 0.46416607075614441 0 0.47150327765646421 0.46811707751431669 0 0.47076465736658712 0.46271791075287522 0 0.4732346064364199 0.45829311474669382 0 0.47076465736658712 0.46271791075287522 0 0.47586222766662412 0.46326910972328061 0 0.47150327765646421 0.46811707751431669 0 0.47076465736658712 0.46271791075287522 0 0.47586222766662412 0.46326910972328061 0 0.47150327765646421 0.46811707751431669 0 0.47586222766662412 0.46326910972328061 0 0.47642929061743872 0.46914306749639789 0 0.47586222766662412 0.46326910972328061 0 0.48222537473757809 0.46099770093019182 0 0.47642929061743872 0.46914306749639789 0 0.47586222766662412 0.46326910972328061 0 0.48222537473757809 0.46099770093019182 0 0.47792326309971789 0.45939403703327819 0 0.48268722049863211 0.44876094882618339 0 0.48222537473757809 0.46099770093019182 0 0.48022170094719779 0.45490746629732298 0 0.478849269107398 0.45097571660346469 0 0.48022170094719779 0.45490746629732298 0 0.4777091772080917 0.455998753672333 0 0.48022170094719779 0.45490746629732298 0 0.4777091772080917 0.455998753672333 0 0.47963746318428868 0.45780421145444222 0 0.4777091772080917 0.455998753672333 0 0.47792326309971789 0.45939403703327819 0 0.47963746318428868 0.45780421145444222 0 0.48222537473757809 0.46099770093019182 0 0.47792326309971789 0.45939403703327819 0 0.47963746318428868 0.45780421145444222 0 0.48222537473757809 0.46099770093019182 0 0.48022170094719779 0.45490746629732298 0 0.47963746318428868 0.45780421145444222 0 0.48222537473757809 0.46099770093019182 0 0.48499785379679211 0.46332141684673073 0 0.49249892689839653 0.44263329761028031 0 0.48222537473757809 0.46099770093019182 0 0.49249892689839653 0.44263329761028031 0 0.48790110517619822 0.44149655139528737 0 0.48222537473757809 0.46099770093019182 0 0.48790110517619822 0.44149655139528737 0 0.48499785379679211 0.46332141684673073 0 0.49249892689839653 0.44263329761028031 0 0.48607059417963511 0.43501980622280018 0 0.48311779597932691 0.44295686432938147 0 0.48790110517619822 0.44149655139528737 0 0.48607059417963511 0.43501980622280018 0 0.49249892689839653 0.44263329761028031 0 0.48790110517619822 0.44149655139528737 0 0.48311779597932691 0.44295686432938147 0 0.48268722049863211 0.44876094882618339 0 0.48790110517619822 0.44149655139528737 0 0.48499785379679211 0.46332141684673073 0 0.5 0.5 0 0.47749678069518769 0.48400953608318109 0 0.48222537473757809 0.46099770093019182 0 0.47642929061743872 0.46914306749639789 0 0.47654964429895802 0.48049885046509611 0 0.48499785379679211 0.46332141684673073 0 0.47749678069518769 0.48400953608318109 0 0.47654964429895802 0.48049885046509611 0 0.48222537473757809 0.46099770093019182 0 0.47654964429895802 0.48049885046509611 0 0.48499785379679211 0.46332141684673073 0 0.47749678069518769 0.48400953608318109 0 0.47642929061743872 0.46914306749639789 0 0.47448605097646152 0.47405048004114331 0 0.47654964429895802 0.48049885046509611 0 0.47642929061743872 0.46914306749639789 0 0.47329548218010697 0.47113994435722911 0 0.47448605097646152 0.47405048004114331 0 0.47150327765646421 0.46811707751431669 0 0.47642929061743872 0.46914306749639789 0 0.47329548218010697 0.47113994435722911 0 0.47329548218010697 0.47113994435722911 0 0.47448605097646152 0.47405048004114331 0 0.4707633094700639 0.47324915237705828 0 0.47448605097646152 0.47405048004114331 0 0.4707633094700639 0.47324915237705828 0 0.47210616269094863 0.47776178102838379 0 0.4707633094700639 0.47324915237705828 0 0.47210616269094863 0.47776178102838379 0 0.4677179246096117 0.47743489494516078 0 0.47150327765646421 0.46811707751431669 0 0.47329548218010697 0.47113994435722911 0 0.4707633094700639 0.47324915237705828 0 0.47150327765646421 0.46811707751431669 0 0.4707633094700639 0.47324915237705828 0 0.46453400959088093 0.47147466992026171 0 0.47654964429895802 0.48049885046509611 0 0.47210616269094863 0.47776178102838379 0 0.46809850492932159 0.48422788912264819 0 0.47448605097646152 0.47405048004114331 0 0.47654964429895802 0.48049885046509611 0 0.47210616269094863 0.47776178102838379 0 0.47210616269094863 0.47776178102838379 0 0.4677179246096117 0.47743489494516078 0 0.46809850492932159 0.48422788912264819 0 0.47654964429895802 0.48049885046509611 0 0.47087391386033778 0.50000000000000044 0 0.46809850492932159 0.48422788912264819 0 0.5 0.5 0 0.47749678069518769 0.48400953608318109 0 0.47087391386033778 0.50000000000000044 0 0.47749678069518769 0.48400953608318109 0 0.47654964429895802 0.48049885046509611 0 0.47087391386033778 0.50000000000000044 0 0.47654964429895802 0.48049885046509611 0 0.47087391386033778 0.50000000000000044 0 0.47087391386033778 0.50000000000000044 0 0.4589338953039 0.48981752427484171 0 0.45016058810298148 0.5 0 0.47087391386033778 0.50000000000000044 0 0.4589338953039 0.48981752427484171 0 0.46809850492932159 0.48422788912264819 0 0.4589338953039 0.48981752427484171 0 0.46119825929785901 0.47992428533449999 0 0.46809850492932159 0.48422788912264819 0 0.4589338953039 0.48981752427484171 0 0.45016058810298148 0.5 0 0.45070790059203542 0.48443967219459588 0 0.4589338953039 0.48981752427484171 0 0.46119825929785901 0.47992428533449999 0 0.45070790059203542 0.48443967219459588 0 0.46453400959088093 0.47147466992026171 0 0.46119825929785901 0.47992428533449999 0 0.4677179246096117 0.47743489494516078 0 0.4707633094700639 0.47324915237705828 0 0.46453400959088093 0.47147466992026171 0 0.4677179246096117 0.47743489494516078 0 0.46119825929785901 0.47992428533449999 0 0.4677179246096117 0.47743489494516078 0 0.46809850492932159 0.48422788912264819 0 0.46119825929785901 0.47992428533449999 0 0.45442715469970812 0.47339167529063542 0 0.45070790059203542 0.48443967219459588 0 0.45889199650424761 0.46489046585241561 0 0.46453400959088093 0.47147466992026171 0 0.45442715469970812 0.47339167529063542 0 0.46453400959088093 0.47147466992026171 0 0.46119825929785901 0.47992428533449999 0 0.45442715469970812 0.47339167529063542 0 0.44904117110839831 0.46539649319527687 0 0.45442715469970812 0.47339167529063542 0 0.44214871703036779 0.47530611484236251 0 0.45442715469970812 0.47339167529063542 0 0.44214871703036779 0.47530611484236251 0 0.45070790059203542 0.48443967219459588 0 0.44214871703036779 0.47530611484236251 0 0.45070790059203542 0.48443967219459588 0 0.43824157364856797 0.4877632263931444 0 0.45016058810298148 0.5 0 0.43824157364856797 0.4877632263931444 0 0.4294472623456253 0.50000000000000222 0 0.45016058810298148 0.5 0 0.45070790059203542 0.48443967219459588 0 0.43824157364856797 0.4877632263931444 0 0.43824157364856797 0.4877632263931444 0 0.4294472623456253 0.50000000000000222 0 0.42288476592145569 0.47698135117472512 0 0.4294472623456253 0.50000000000000222 0 0.42288476592145569 0.47698135117472512 0 0.42288476592145569 0.47698135117472512 0 0.40397616743830389 0.46823404704707622 0 0.39978670021259571 0.5 0 0.4294472623456253 0.50000000000000222 0 0.42288476592145569 0.47698135117472512 0 0.39978670021259571 0.5 0 0.43783080089711851 0.46539504598376757 0 0.44214871703036779 0.47530611484236251 0 0.42288476592145569 0.47698135117472512 0 0.44214871703036779 0.47530611484236251 0 0.43824157364856797 0.4877632263931444 0 0.42288476592145569 0.47698135117472512 0 0.43783080089711851 0.46539504598376757 0 0.42288476592145569 0.47698135117472512 0 0.43084973980950259 0.45383206042618057 0 0.42288476592145569 0.47698135117472512 0 0.43084973980950259 0.45383206042618057 0 0.41632226949728668 0.45396270234944791 0 0.43084973980950259 0.45383206042618057 0 0.43575360864593399 0.44113171836324733 0 0.42575029225984629 0.43817658423166628 0 0.43084973980950259 0.45383206042618057 0 0.42575029225984629 0.43817658423166628 0 0.41632226949728668 0.45396270234944791 0 0.43439853854146121 0.43334695253172728 0 0.43575360864593399 0.44113171836324733 0 0.42575029225984629 0.43817658423166628 0 0.44474629534045218 0.44617052995890072 0 0.43084973980950259 0.45383206042618057 0 0.43575360864593399 0.44113171836324733 0 0.40975977307311767 0.4309440535241707 0 0.41632226949728668 0.45396270234944791 0 0.40975977307311767 0.4309440535241707 0 0.41632226949728668 0.45396270234944791 0 0.40277120807912181 0.44488064963545743 0 0.40975977307311767 0.4309440535241707 0 0.42575029225984629 0.43817658423166628 0 0.41632226949728668 0.45396270234944791 0 0.41632226949728668 0.45396270234944791 0 0.40397616743830389 0.46823404704707622 0 0.40277120807912181 0.44488064963545743 0 0.42288476592145569 0.47698135117472512 0 0.41632226949728668 0.45396270234944791 0 0.42288476592145569 0.47698135117472512 0 0.41632226949728668 0.45396270234944791 0 0.40397616743830389 0.46823404704707622 0 0.40397616743830389 0.46823404704707622 0 0.3914315947512424 0.45558027212499541 0 0.38608907541949888 0.47640493513650201 0 0.40397616743830389 0.46823404704707622 0 0.3914315947512424 0.45558027212499541 0 0.40277120807912181 0.44488064963545743 0 0.3914315947512424 0.45558027212499541 0 0.40277120807912181 0.44488064963545743 0 0.38996981265582331 0.44267230085881909 0 0.39567187282383282 0.43100015285841642 0 0.40277120807912181 0.44488064963545743 0 0.38996981265582331 0.44267230085881909 0 0.37023049558979693 0.44243966271604079 0 0.39567187282383282 0.43100015285841642 0 0.38996981265582331 0.44267230085881909 0 0.37023049558979693 0.44243966271604079 0 0.38996981265582331 0.44267230085881909 0 0.38191163166310799 0.44948622619984879 0 0.3914315947512424 0.45558027212499541 0 0.38996981265582331 0.44267230085881909 0 0.38191163166310799 0.44948622619984879 0 0.37023049558979693 0.44243966271604079 0 0.38191163166310799 0.44948622619984879 0 0.37601462365556942 0.45725266909953982 0 0.36629076891963169 0.4716758837031908 0 0.37601462365556942 0.45725266909953982 0 0.38608907541949888 0.47640493513650201 0 0.3914315947512424 0.45558027212499541 0 0.37601462365556942 0.45725266909953982 0 0.38608907541949888 0.47640493513650201 0 0.3914315947512424 0.45558027212499541 0 0.38191163166310799 0.44948622619984879 0 0.37601462365556942 0.45725266909953982 0 0.40397616743830389 0.46823404704707622 0 0.38608907541949888 0.47640493513650201 0 0.39978670021259571 0.5 0 0.37012613807956618 0.5 0 0.38608907541949888 0.47640493513650201 0 0.39978670021259571 0.5 0 0.34141921861735719 0.067579393527610526 0 0.33466390169128768 0.095467244696698567 0 0.35301293421369478 0.077169886295031048 0 0.34141921861735719 0.067579393527610526 0 0.33466390169128768 0.095467244696698567 0 0.34141921861735719 0.067579393527610526 0 0.32443758592830457 0.080711647831618966 0 0.33466390169128768 0.095467244696698567 0 0.34141921861735719 0.067579393527610526 0 0.32443758592830457 0.080711647831618966 0 0.32730167687102829 0.060217632285516881 0 0.32730167687102829 0.060217632285516881 0 0.30642881819862838 0.080743722212510485 0 0.32730167687102829 0.060217632285516881 0 0.30841852684153609 0.058545680878099637 0 0.30642881819862838 0.080743722212510485 0 0.32443758592830457 0.080711647831618966 0 0.32730167687102829 0.060217632285516881 0 0.30642881819862838 0.080743722212510485 0 0.32443758592830457 0.080711647831618966 0 0.33466390169128768 0.095467244696698567 0 0.30802282078042859 0.1034634579887893 0 0.32443758592830457 0.080711647831618966 0 0.30642881819862838 0.080743722212510485 0 0.30802282078042859 0.1034634579887893 0 0.32912443987471829 0.11261861215727779 0 0.33466390169128768 0.095467244696698567 0 0.30802282078042859 0.1034634579887893 0 0.31654185007284819 0.12022243899103451 0 0.32912443987471829 0.11261861215727779 0 0.30802282078042859 0.1034634579887893 0 0.31654185007284819 0.12022243899103451 0 0.32912443987471829 0.11261861215727779 0 0.3293260288753706 0.12662057091205531 0 0.32912443987471829 0.11261861215727779 0 0.3400679449540831 0.12102442402254431 0 0.34612409287429202 0.10891353633254459 0 0.32912443987471829 0.11261861215727779 0 0.3400679449540831 0.12102442402254431 0 0.3293260288753706 0.12662057091205531 0 0.32912443987471829 0.11261861215727779 0 0.33466390169128768 0.095467244696698567 0 0.34612409287429202 0.10891353633254459 0 0.33466390169128768 0.095467244696698567 0 0.34612409287429202 0.10891353633254459 0 0.3619662266091811 0.089262460385423889 0 0.34612409287429202 0.10891353633254459 0 0.36112302224135773 0.11277521153298881 0 0.3619662266091811 0.089262460385423889 0 0.34612409287429202 0.10891353633254459 0 0.36112302224135773 0.11277521153298881 0 0.35131572215963902 0.12563937409389231 0 0.36112302224135773 0.11277521153298881 0 0.35131572215963902 0.12563937409389231 0 0.36027981787353441 0.13628796268055371 0 0.3400679449540831 0.12102442402254431 0 0.34612409287429202 0.10891353633254459 0 0.35131572215963902 0.12563937409389231 0 0.36112302224135773 0.11277521153298881 0 0.3737374959112344 0.1047415756277144 0 0.3772864422104612 0.1215050391393626 0 0.36112302224135773 0.11277521153298881 0 0.36027981787353441 0.13628796268055371 0 0.36112302224135773 0.11277521153298881 0 0.36027981787353441 0.13628796268055371 0 0.3772864422104612 0.1215050391393626 0 0.36112302224135773 0.11277521153298881 0 0.3737374959112344 0.1047415756277144 0 0.3619662266091811 0.089262460385423889 0 0.36112302224135773 0.11277521153298881 0 0.3619662266091811 0.089262460385423889 0 0.3737374959112344 0.1047415756277144 0 0.3619662266091811 0.089262460385423889 0 0.37901036843610469 0.078043396751232272 0 0.33466390169128768 0.095467244696698567 0 0.3619662266091811 0.089262460385423889 0 0.35301293421369478 0.077169886295031048 0 0.3619662266091811 0.089262460385423889 0 0.35301293421369478 0.077169886295031048 0 0.36280943097700458 0.065749709237859 0 0.34141921861735719 0.067579393527610526 0 0.35301293421369478 0.077169886295031048 0 0.3531558131185013 0.057673261749419537 0 0.35301293421369478 0.077169886295031048 0 0.36280943097700458 0.065749709237859 0 0.3531558131185013 0.057673261749419537 0 0.3619662266091811 0.089262460385423889 0 0.36280943097700458 0.065749709237859 0 0.3619662266091811 0.089262460385423889 0 0.36280943097700458 0.065749709237859 0 0.37901036843610469 0.078043396751232272 0 0.36280943097700458 0.065749709237859 0 0.37036712815049061 0.048210502621681417 0 0.38428324096097499 0.05134521787475009 0 0.36280943097700458 0.065749709237859 0 0.36078310898827642 0.05385930791073916 0 0.37036712815049061 0.048210502621681417 0 0.36078310898827642 0.05385930791073916 0 0.37036712815049061 0.048210502621681417 0 0.35680006370710921 0.043803758033996679 0 0.37036712815049061 0.048210502621681417 0 0.37317808859647822 0.034225398516132828 0 0.35680006370710921 0.043803758033996679 0 0.37317808859647822 0.034225398516132828 0 0.35680006370710921 0.043803758033996679 0 0.36599914633082947 0.022163058614241029 0 0.37317808859647822 0.034225398516132828 0 0.35680006370710921 0.043803758033996679 0 0.34817453554342748 0.039691542358522652 0 0.35214543196535542 0.02329856337107488 0 0.34817453554342748 0.039691542358522652 0 0.35680006370710921 0.043803758033996679 0 0.36599914633082947 0.022163058614241029 0 0.34141921861735719 0.067579393527610526 0 0.34817453554342748 0.039691542358522652 0 0.3531558131185013 0.057673261749419537 0 0.34817453554342748 0.039691542358522652 0 0.35680006370710921 0.043803758033996679 0 0.3531558131185013 0.057673261749419537 0 0.34141921861735719 0.067579393527610526 0 0.34817453554342748 0.039691542358522652 0 0.36280943097700458 0.065749709237859 0 0.36078310898827642 0.05385930791073916 0 0.3531558131185013 0.057673261749419537 0 0.36078310898827642 0.05385930791073916 0 0.35680006370710921 0.043803758033996679 0 0.3531558131185013 0.057673261749419537 0 0.36459978185581599 0.0016197853629371991 0 0.38382375711823202 0.0046345748699598427 0 0.36599914633082947 0.022163058614241029 0 0.38382375711823202 0.0046345748699598427 0 0.36459978185581599 0.0016197853629371991 0 0.36453688913150201 0.011724313320365521 0 0.38382375711823202 0.0046345748699598427 0 0.36453688913150201 0.011724313320365521 0 0.36599914633082947 0.022163058614241029 0 0.38382375711823202 0.0046345748699598427 0 0.36459978185581599 0.0016197853629371991 0 0.35611632838728552 0.0069055843836276897 0 0.35766033028314259 0.00053150962912805184 0 0.36459978185581599 0.0016197853629371991 0 0.36453688913150201 0.011724313320365521 0 0.35611632838728552 0.0069055843836276897 0 0.36459978185581599 0.0016197853629371991 0 0.35611632838728552 0.0069055843836276897 0 0.36459978185581599 0.0016197853629371991 0 0.35766033028314259 0.00053150962912805184 0 0.36453688913150201 0.011724313320365521 0 0.36599914633082947 0.022163058614241029 0 0.35214543196535542 0.02329856337107488 0 0.37317808859647822 0.034225398516132828 0 0.36599914633082947 0.022163058614241029 0 0.37778714102223682 0.02331484962467225 0 0.34817453554342748 0.039691542358522652 0 0.36599914633082947 0.022163058614241029 0 0.35214543196535542 0.02329856337107488 0 0.34817453554342748 0.039691542358522652 0 0.36599914633082947 0.022163058614241029 0 0.34817453554342748 0.039691542358522652 0 0.35214543196535542 0.02329856337107488 0 0.34073010365916312 0.029606654903674989 0 0.34396446868085268 0.020327156331984911 0 0.35214543196535542 0.02329856337107488 0 0.34073010365916312 0.029606654903674989 0 0.34396446868085268 0.020327156331984911 0 0.35214543196535542 0.02329856337107488 0 0.3486391139840414 0.01378171327663134 0 0.35611632838728552 0.0069055843836276897 0 0.35766033028314259 0.00053150962912805184 0 0.34186169234775288 -0.0019461032070706239 0 0.35214543196535542 0.02329856337107488 0 0.3486391139840414 0.01378171327663134 0 0.35611632838728552 0.0069055843836276897 0 0.36453688913150201 0.011724313320365521 0 0.35214543196535542 0.02329856337107488 0 0.35611632838728552 0.0069055843836276897 0 0.35214543196535542 0.02329856337107488 0 0.35611632838728552 0.0069055843836276897 0 0.34788587975520718 0.01203374327326698 0 0.35611632838728552 0.0069055843836276897 0 0.34788587975520718 0.01203374327326698 0 0.3486391139840414 0.01378171327663134 0 0.35611632838728552 0.0069055843836276897 0 0.34396446868085268 0.020327156331984911 0 0.34788587975520718 0.01203374327326698 0 0.3486391139840414 0.01378171327663134 0 0.34788587975520718 0.01203374327326698 0 0.3486391139840414 0.01378171327663134 0 0.34788587975520718 0.01203374327326698 0 0.35611632838728552 0.0069055843836276897 0 0.34186169234775288 -0.0019461032070706239 0 0.34788587975520718 0.01203374327326698 0 0.34186169234775288 -0.0019461032070706239 0 0.35611632838728552 0.0069055843836276897 0 0.35766033028314259 0.00053150962912805184 0 0.34788587975520718 0.01203374327326698 0 0.33040276643443328 0.0077194922335834752 0 0.34186169234775288 -0.0019461032070706239 0 0.34788587975520718 0.01203374327326698 0 0.33040276643443328 0.0077194922335834752 0 0.33042181404049609 0.022915106835276582 0 0.33042181404049609 0.022915106835276582 0 0.34073010365916312 0.029606654903674989 0 0.32916694000703273 0.041137671269217399 0 0.34396446868085268 0.020327156331984911 0 0.34788587975520718 0.01203374327326698 0 0.33042181404049609 0.022915106835276582 0 0.34788587975520718 0.01203374327326698 0 0.33042181404049609 0.022915106835276582 0 0.34396446868085268 0.020327156331984911 0 0.33042181404049609 0.022915106835276582 0 0.34073010365916312 0.029606654903674989 0 0.33042181404049609 0.022915106835276582 0 0.31665256165565792 0.012274888616195721 0 0.31295774832578521 0.033796470397286393 0 0.33042181404049609 0.022915106835276582 0 0.31295774832578521 0.033796470397286393 0 0.33040276643443328 0.0077194922335834752 0 0.31665256165565792 0.012274888616195721 0 0.3153171152914937 -0.0061089421248620053 0 0.33040276643443328 0.0077194922335834752 0 0.33042181404049609 0.022915106835276582 0 0.31665256165565792 0.012274888616195721 0 0.34141921861735719 0.067579393527610526 0 0.34817453554342748 0.039691542358522652 0 0.32730167687102829 0.060217632285516881 0 0.34817453554342748 0.039691542358522652 0 0.32916694000703273 0.041137671269217399 0 0.32730167687102829 0.060217632285516881 0 0.34817453554342748 0.039691542358522652 0 0.32730167687102829 0.060217632285516881 0 0.34817453554342748 0.039691542358522652 0 0.34073010365916312 0.029606654903674989 0 0.32916694000703273 0.041137671269217399 0 0.32916694000703273 0.041137671269217399 0 0.31295774832578521 0.033796470397286393 0 0.30841852684153609 0.058545680878099637 0 0.33042181404049609 0.022915106835276582 0 0.32916694000703273 0.041137671269217399 0 0.31295774832578521 0.033796470397286393 0 0.32916694000703273 0.041137671269217399 0 0.32730167687102829 0.060217632285516881 0 0.30841852684153609 0.058545680878099637 0 0.30841852684153609 0.058545680878099637 0 0.29549368261107423 0.044677833959296212 0 0.29116922898793479 0.065304421801999329 0 0.31295774832578521 0.033796470397286393 0 0.30841852684153609 0.058545680878099637 0 0.29549368261107423 0.044677833959296212 0 0.31295774832578521 0.033796470397286393 0 0.29549368261107423 0.044677833959296212 0 0.29002010253153498 0.029240258759704641 0 0.31295774832578521 0.033796470397286393 0 0.29549368261107423 0.044677833959296212 0 0.29549368261107423 0.044677833959296212 0 0.29002010253153498 0.029240258759704641 0 0.27280963139467213 0.037002697350774501 0 0.29549368261107423 0.044677833959296212 0 0.27447269405752689 0.057703547068217037 0 0.29116922898793479 0.065304421801999329 0 0.31665256165565792 0.012274888616195721 0 0.29594264507526558 0.01116838319107246 0 0.3153171152914937 -0.0061089421248620053 0 0.31295774832578521 0.033796470397286393 0 0.29002010253153498 0.029240258759704641 0 0.29594264507526558 0.01116838319107246 0 0.31665256165565792 0.012274888616195721 0 0.31295774832578521 0.033796470397286393 0 0.29594264507526558 0.01116838319107246 0 0.29002010253153498 0.029240258759704641 0 0.29594264507526558 0.01116838319107246 0 0.27289680525087828 0.01955590890009366 0 0.29594264507526558 0.01116838319107246 0 0.27345126597006592 0.00071225981742997107 0 0.2887725382352363 -0.01027178104266422 0 0.29594264507526558 0.01116838319107246 0 0.27345126597006592 0.00071225981742997107 0 0.27289680525087828 0.01955590890009366 0 0.29002010253153498 0.029240258759704641 0 0.27289680525087828 0.01955590890009366 0 0.27280963139467213 0.037002697350774501 0 0.27289680525087828 0.01955590890009366 0 0.25458476701871002 0.02766973368984053 0 0.27280963139467213 0.037002697350774501 0 0.24502883806765671 0.008523642691556723 0 0.27289680525087828 0.01955590890009366 0 0.25458476701871002 0.02766973368984053 0 0.24502883806765671 0.008523642691556723 0 0.27345126597006592 0.00071225981742997107 0 0.27289680525087828 0.01955590890009366 0 0.29549368261107423 0.044677833959296212 0 0.27447269405752689 0.057703547068217037 0 0.27280963139467213 0.037002697350774501 0 0.24773452015769859 0.046187867395794058 0 0.25458476701871002 0.02766973368984053 0 0.27280963139467213 0.037002697350774501 0 0.24773452015769859 0.046187867395794058 0 0.27447269405752689 0.057703547068217037 0 0.25865679783116052 0.070915849861062308 0 0.24773452015769859 0.046187867395794058 0 0.27447269405752689 0.057703547068217037 0 0.27280963139467213 0.037002697350774501 0 0.25865679783116052 0.070915849861062308 0 0.27616036645407022 0.081171112570811929 0 0.25384944954462069 0.095449856149134135 0 0.23940360910079561 0.072187684139423405 0 0.25865679783116052 0.070915849861062308 0 0.25384944954462069 0.095449856149134135 0 0.27616036645407022 0.081171112570811929 0 0.26943926039456972 0.099795050200150268 0 0.25384944954462069 0.095449856149134135 0 0.27616036645407022 0.081171112570811929 0 0.28555595952622859 0.10126981213950439 0 0.27447269405752689 0.057703547068217037 0 0.25865679783116052 0.070915849861062308 0 0.27616036645407022 0.081171112570811929 0 0.27447269405752689 0.057703547068217037 0 0.27616036645407022 0.081171112570811929 0 0.29116922898793479 0.065304421801999329 0 0.27616036645407022 0.081171112570811929 0 0.29116922898793479 0.065304421801999329 0 0.30642881819862838 0.080743722212510485 0 0.27616036645407022 0.081171112570811929 0 0.30642881819862838 0.080743722212510485 0 0.28555595952622859 0.10126981213950439 0 0.30642881819862838 0.080743722212510485 0 0.28555595952622859 0.10126981213950439 0 0.30841852684153609 0.058545680878099637 0 0.29116922898793479 0.065304421801999329 0 0.30642881819862838 0.080743722212510485 0 0.31654185007284819 0.12022243899103451 0 0.30802282078042859 0.1034634579887893 0 0.3052906345432434 0.12599964084974211 0 0.30802282078042859 0.1034634579887893 0 0.29424027191342261 0.1198469668002466 0 0.3052906345432434 0.12599964084974211 0 0.30642881819862838 0.080743722212510485 0 0.30802282078042859 0.1034634579887893 0 0.28555595952622859 0.10126981213950439 0 0.30802282078042859 0.1034634579887893 0 0.28555595952622859 0.10126981213950439 0 0.29424027191342261 0.1198469668002466 0 0.28555595952622859 0.10126981213950439 0 0.29424027191342261 0.1198469668002466 0 0.28555595952622859 0.10126981213950439 0 0.29424027191342261 0.1198469668002466 0 0.27064383871955061 0.1159341922076164 0 0.29424027191342261 0.1198469668002466 0 0.27064383871955061 0.1159341922076164 0 0.27836593757777162 0.12622500564243611 0 0.28555595952622859 0.10126981213950439 0 0.27064383871955061 0.1159341922076164 0 0.26943926039456972 0.099795050200150268 0 0.27616036645407022 0.081171112570811929 0 0.28555595952622859 0.10126981213950439 0 0.26943926039456972 0.099795050200150268 0 0.28555595952622859 0.10126981213950439 0 0.27064383871955061 0.1159341922076164 0 0.26943926039456972 0.099795050200150268 0 0.25384944954462069 0.095449856149134135 0 0.25620984555605009 0.1131725934863051 0 0.2388396102423237 0.1172756265968197 0 0.25620984555605009 0.1131725934863051 0 0.25573171791287269 0.13059857227572849 0 0.27064383871955061 0.1159341922076164 0 0.25620984555605009 0.1131725934863051 0 0.25573171791287269 0.13059857227572849 0 0.27064383871955061 0.1159341922076164 0 0.26943926039456972 0.099795050200150268 0 0.25620984555605009 0.1131725934863051 0 0.27064383871955061 0.1159341922076164 0 0.25573171791287269 0.13059857227572849 0 0.27064383871955061 0.1159341922076164 0 0.25573171791287269 0.13059857227572849 0 0.26474489835187032 0.13327120188759109 0 0.25663613896196991 0.14035755598763441 0 0.26474489835187032 0.13327120188759109 0 0.27429386623587182 0.14432025961747261 0 0.2388396102423237 0.1172756265968197 0 0.25573171791287269 0.13059857227572849 0 0.25663613896196991 0.14035755598763441 0 0.25573171791287269 0.13059857227572849 0 0.25663613896196991 0.14035755598763441 0 0.26474489835187032 0.13327120188759109 0 0.26474489835187032 0.13327120188759109 0 0.27836593757777162 0.12622500564243611 0 0.2838347413262432 0.13584766167429049 0 0.26474489835187032 0.13327120188759109 0 0.2838347413262432 0.13584766167429049 0 0.26474489835187032 0.13327120188759109 0 0.27429386623587182 0.14432025961747261 0 0.2838347413262432 0.13584766167429049 0 0.27064383871955061 0.1159341922076164 0 0.26474489835187032 0.13327120188759109 0 0.27836593757777162 0.12622500564243611 0 0.25663613896196991 0.14035755598763441 0 0.27429386623587182 0.14432025961747261 0 0.27443266768161589 0.16343948537844899 0 0.27429386623587182 0.14432025961747261 0 0.27443266768161589 0.16343948537844899 0 0.29182088485765978 0.14868539315939769 0 0.25663613896196991 0.14035755598763441 0 0.27443266768161589 0.16343948537844899 0 0.25663613896196991 0.14035755598763441 0 0.25299790414357343 0.16100449818938201 0 0.27443266768161589 0.16343948537844899 0 0.2398937274470776 0.1701272920004806 0 0.25299790414357343 0.16100449818938201 0 0.26290520812746782 0.1776609444212616 0 0.25299790414357343 0.16100449818938201 0 0.26290520812746782 0.1776609444212616 0 0.27443266768161589 0.16343948537844899 0 0.2475941291823989 0.18769603697772511 0 0.2398937274470776 0.1701272920004806 0 0.26290520812746782 0.1776609444212616 0 0.26290520812746782 0.1776609444212616 0 0.27443266768161589 0.16343948537844899 0 0.27827491417824468 0.1876060113889412 0 0.27443266768161589 0.16343948537844899 0 0.29952215514580832 0.1666340054519716 0 0.29182088485765978 0.14868539315939769 0 0.27443266768161589 0.16343948537844899 0 0.29222919640126049 0.18652141476926479 0 0.27443266768161589 0.16343948537844899 0 0.29222919640126049 0.18652141476926479 0 0.29952215514580832 0.1666340054519716 0 0.27443266768161589 0.16343948537844899 0 0.29222919640126049 0.18652141476926479 0 0.27827491417824468 0.1876060113889412 0 0.29222919640126049 0.18652141476926479 0 0.29952215514580832 0.1666340054519716 0 0.30186684762655891 0.18706314627180651 0 0.31878666198549099 0.1723556818718206 0 0.29222919640126049 0.18652141476926479 0 0.30186684762655891 0.18706314627180651 0 0.29952215514580832 0.1666340054519716 0 0.30186684762655891 0.18706314627180651 0 0.29952215514580832 0.1666340054519716 0 0.31878666198549099 0.1723556818718206 0 0.29952215514580832 0.1666340054519716 0 0.30681511389035809 0.14674659613467919 0 0.29952215514580832 0.1666340054519716 0 0.30681511389035809 0.14674659613467919 0 0.31878666198549099 0.1723556818718206 0 0.29952215514580832 0.1666340054519716 0 0.30681511389035809 0.14674659613467919 0 0.29182088485765978 0.14868539315939769 0 0.30681511389035809 0.14674659613467919 0 0.3029245843006162 0.13842412146098901 0 0.29182088485765978 0.14868539315939769 0 0.30681511389035809 0.14674659613467919 0 0.30953966586774662 0.13931692564310591 0 0.31977433524352539 0.15291883525178929 0 0.30681511389035809 0.14674659613467919 0 0.3029245843006162 0.13842412146098901 0 0.30681511389035809 0.14674659613467919 0 0.30953966586774662 0.13931692564310591 0 0.3029245843006162 0.13842412146098901 0 0.30681511389035809 0.14674659613467919 0 0.30953966586774662 0.13931692564310591 0 0.30953966586774662 0.13931692564310591 0 0.3052906345432434 0.12599964084974211 0 0.3029245843006162 0.13842412146098901 0 0.31654185007284819 0.12022243899103451 0 0.30953966586774662 0.13931692564310591 0 0.3052906345432434 0.12599964084974211 0 0.29424027191342261 0.1198469668002466 0 0.3052906345432434 0.12599964084974211 0 0.3029245843006162 0.13842412146098901 0 0.29424027191342261 0.1198469668002466 0 0.3029245843006162 0.13842412146098901 0 0.30953966586774662 0.13931692564310591 0 0.3029245843006162 0.13842412146098901 0 0.3029245843006162 0.13842412146098901 0 0.2838347413262432 0.13584766167429049 0 0.29424027191342261 0.1198469668002466 0 0.27836593757777162 0.12622500564243611 0 0.2838347413262432 0.13584766167429049 0 0.29424027191342261 0.1198469668002466 0 0.3029245843006162 0.13842412146098901 0 0.2838347413262432 0.13584766167429049 0 0.27429386623587182 0.14432025961747261 0 0.2838347413262432 0.13584766167429049 0 0.29182088485765978 0.14868539315939769 0 0.3029245843006162 0.13842412146098901 0 0.2838347413262432 0.13584766167429049 0 0.29182088485765978 0.14868539315939769 0 0.26816417126529979 0.24728830496769821 0 0.28191036028008071 0.22971804954519179 0 0.29218139916548841 0.2486239686486868 0 0.26816417126529979 0.24728830496769821 0 0.28191036028008071 0.22971804954519179 0 0.26816417126529979 0.24728830496769821 0 0.26935092184594922 0.23199051857883521 0 0.28191036028008071 0.22971804954519179 0 0.26575823541941801 0.2442378127097945 0 0.26816417126529979 0.24728830496769821 0 0.26935092184594922 0.23199051857883521 0 0.26575823541941801 0.2442378127097945 0 0.26816417126529979 0.24728830496769821 0 0.26575823541941801 0.2442378127097945 0 0.26816417126529979 0.24728830496769821 0 0.25191630733126869 0.24920661226757701 0 0.26575823541941801 0.2442378127097945 0 0.25191630733126869 0.24920661226757701 0 0.25384997619844579 0.23452952838135141 0 0.26575823541941801 0.2442378127097945 0 0.25384997619844579 0.23452952838135141 0 0.26935092184594922 0.23199051857883521 0 0.25384997619844579 0.23452952838135141 0 0.26117317217072289 0.21972062922760091 0 0.26935092184594922 0.23199051857883521 0 0.23966537526391099 0.21545910125246351 0 0.25384997619844579 0.23452952838135141 0 0.26117317217072289 0.21972062922760091 0 0.26117317217072289 0.21972062922760091 0 0.26935092184594922 0.23199051857883521 0 0.27777523544604321 0.21630652393113339 0 0.26935092184594922 0.23199051857883521 0 0.27777523544604321 0.21630652393113339 0 0.28191036028008071 0.22971804954519179 0 0.26117317217072289 0.21972062922760091 0 0.27777523544604321 0.21630652393113339 0 0.2716253392386293 0.19992191555020641 0 0.26117317217072289 0.21972062922760091 0 0.25326763791429752 0.20481875588833531 0 0.2716253392386293 0.19992191555020641 0 0.23966537526391099 0.21545910125246351 0 0.26117317217072289 0.21972062922760091 0 0.25326763791429752 0.20481875588833531 0 0.2475941291823989 0.18769603697772511 0 0.26290520812746782 0.1776609444212616 0 0.2716253392386293 0.19992191555020641 0 0.2475941291823989 0.18769603697772511 0 0.2716253392386293 0.19992191555020641 0 0.2475941291823989 0.18769603697772511 0 0.25326763791429752 0.20481875588833531 0 0.2716253392386293 0.19992191555020641 0 0.26290520812746782 0.1776609444212616 0 0.2716253392386293 0.19992191555020641 0 0.27827491417824468 0.1876060113889412 0 0.2716253392386293 0.19992191555020641 0 0.27827491417824468 0.1876060113889412 0 0.28821981343768271 0.19745473317944121 0 0.29222919640126049 0.18652141476926479 0 0.28821981343768271 0.19745473317944121 0 0.30388165286261343 0.20163454056516239 0 0.29222919640126049 0.18652141476926479 0 0.27827491417824468 0.1876060113889412 0 0.28821981343768271 0.19745473317944121 0 0.29222919640126049 0.18652141476926479 0 0.28821981343768271 0.19745473317944121 0 0.30186684762655891 0.18706314627180651 0 0.30388165286261343 0.20163454056516239 0 0.3171863871435624 0.1846285486212508 0 0.30388165286261343 0.20163454056516239 0 0.3171863871435624 0.1846285486212508 0 0.29222919640126049 0.18652141476926479 0 0.30388165286261343 0.20163454056516239 0 0.29222919640126049 0.18652141476926479 0 0.30186684762655891 0.18706314627180651 0 0.30388165286261343 0.20163454056516239 0 0.30388165286261343 0.20163454056516239 0 0.29565654929486113 0.2121477941226852 0 0.31320480662446809 0.21372658279547629 0 0.29565654929486113 0.2121477941226852 0 0.32252796038632769 0.22581862502578651 0 0.31320480662446809 0.21372658279547629 0 0.30388165286261343 0.20163454056516239 0 0.29565654929486113 0.2121477941226852 0 0.30388165286261343 0.20163454056516239 0 0.31320480662446809 0.21372658279547629 0 0.2716253392386293 0.19992191555020641 0 0.28821981343768271 0.19745473317944121 0 0.29565654929486113 0.2121477941226852 0 0.28821981343768271 0.19745473317944121 0 0.30388165286261343 0.20163454056516239 0 0.29565654929486113 0.2121477941226852 0 0.2716253392386293 0.19992191555020641 0 0.29565654929486113 0.2121477941226852 0 0.27777523544604321 0.21630652393113339 0 0.2716253392386293 0.19992191555020641 0 0.29565654929486113 0.2121477941226852 0 0.29565654929486113 0.2121477941226852 0 0.28191036028008071 0.22971804954519179 0 0.30030798342997039 0.2325199636831389 0 0.27777523544604321 0.21630652393113339 0 0.29565654929486113 0.2121477941226852 0 0.28191036028008071 0.22971804954519179 0 0.29565654929486113 0.2121477941226852 0 0.28191036028008071 0.22971804954519179 0 0.29565654929486113 0.2121477941226852 0 0.30030798342997039 0.2325199636831389 0 0.32252796038632769 0.22581862502578651 0 0.29565654929486113 0.2121477941226852 0 0.32252796038632769 0.22581862502578651 0 0.30030798342997039 0.2325199636831389 0 0.3122205487373555 0.24745899623115639 0 0.32252796038632769 0.22581862502578651 0 0.30030798342997039 0.2325199636831389 0 0.3122205487373555 0.24745899623115639 0 0.29218139916548841 0.2486239686486868 0 0.28191036028008071 0.22971804954519179 0 0.30030798342997039 0.2325199636831389 0 0.29218139916548841 0.2486239686486868 0 0.33629540821485387 0.2436748746166981 0 0.32252796038632769 0.22581862502578651 0 0.33629540821485387 0.2436748746166981 0 0.33259714760517339 0.2309413242145944 0 0.34517725015399459 0.23419145631923749 0 0.32495374027443102 0.25788052029314412 0 0.3122205487373555 0.24745899623115639 0 0.33629540821485387 0.2436748746166981 0 0.3122205487373555 0.24745899623115639 0 0.33629540821485387 0.2436748746166981 0 0.32252796038632769 0.22581862502578651 0 0.32252796038632769 0.22581862502578651 0 0.33259714760517339 0.2309413242145944 0 0.32252796038632769 0.22581862502578651 0 0.31320480662446809 0.21372658279547629 0 0.32252796038632769 0.22581862502578651 0 0.33125267367822342 0.22180789749000551 0 0.32499489453936248 0.21536776646307501 0 0.33629540821485387 0.2436748746166981 0 0.32252796038632769 0.22581862502578651 0 0.33259714760517339 0.2309413242145944 0 0.33125267367822342 0.22180789749000551 0 0.33259714760517339 0.2309413242145944 0 0.34099383609916878 0.22334663104871949 0 0.33125267367822342 0.22180789749000551 0 0.34099383609916878 0.22334663104871949 0 0.33515739454658738 0.21268098105655289 0 0.32252796038632769 0.22581862502578651 0 0.33125267367822342 0.22180789749000551 0 0.33259714760517339 0.2309413242145944 0 0.33259714760517339 0.2309413242145944 0 0.34099383609916878 0.22334663104871949 0 0.34517725015399459 0.23419145631923749 0 0.34216459535668692 0.20736929626569989 0 0.33515739454658738 0.21268098105655289 0 0.34721285934184382 0.21480265649415151 0 0.34099383609916878 0.22334663104871949 0 0.33515739454658738 0.21268098105655289 0 0.34721285934184382 0.21480265649415151 0 0.34216459535668692 0.20736929626569989 0 0.33515739454658738 0.21268098105655289 0 0.3365767396857155 0.1989611500322046 0 0.33515739454658738 0.21268098105655289 0 0.32283556985395873 0.2023626661269039 0 0.3365767396857155 0.1989611500322046 0 0.33125267367822342 0.22180789749000551 0 0.33515739454658738 0.21268098105655289 0 0.32499489453936248 0.21536776646307501 0 0.30388165286261343 0.20163454056516239 0 0.31320480662446809 0.21372658279547629 0 0.32283556985395873 0.2023626661269039 0 0.32252796038632769 0.22581862502578651 0 0.32499489453936248 0.21536776646307501 0 0.31320480662446809 0.21372658279547629 0 0.32499489453936248 0.21536776646307501 0 0.31320480662446809 0.21372658279547629 0 0.32283556985395873 0.2023626661269039 0 0.33515739454658738 0.21268098105655289 0 0.32499489453936248 0.21536776646307501 0 0.32283556985395873 0.2023626661269039 0 0.30388165286261343 0.20163454056516239 0 0.32283556985395873 0.2023626661269039 0 0.3171863871435624 0.1846285486212508 0 0.32283556985395873 0.2023626661269039 0 0.3171863871435624 0.1846285486212508 0 0.3295368398265357 0.18729136490401671 0 0.3365767396857155 0.1989611500322046 0 0.34927238032072683 0.19186984734859511 0 0.34059438102493128 0.18288190306238539 0 0.3365767396857155 0.1989611500322046 0 0.3295368398265357 0.18729136490401671 0 0.34059438102493128 0.18288190306238539 0 0.32283556985395873 0.2023626661269039 0 0.3365767396857155 0.1989611500322046 0 0.3295368398265357 0.18729136490401671 0 0.34216459535668692 0.20736929626569989 0 0.3365767396857155 0.1989611500322046 0 0.3497113878526007 0.2030323974798908 0 0.3365767396857155 0.1989611500322046 0 0.34927238032072683 0.19186984734859511 0 0.3497113878526007 0.2030323974798908 0 0.34927238032072683 0.19186984734859511 0 0.3497113878526007 0.2030323974798908 0 0.35886656107151288 0.19922652711687289 0 0.34927238032072683 0.19186984734859511 0 0.35886656107151288 0.19922652711687289 0 0.35970402978413618 0.18937113729802901 0 0.36748578966362211 0.19369679982271309 0 0.37387192337018721 0.20442911734433289 0 0.37701840052955249 0.18497325936672221 0 0.35970402978413618 0.18937113729802901 0 0.36748578966362211 0.19369679982271309 0 0.36465881969693392 0.18140316239184731 0 0.35886656107151288 0.19922652711687289 0 0.35970402978413618 0.18937113729802901 0 0.36748578966362211 0.19369679982271309 0 0.36748578966362211 0.19369679982271309 0 0.36667714106039462 0.20514567274092979 0 0.37387192337018721 0.20442911734433289 0 0.35886656107151288 0.19922652711687289 0 0.36748578966362211 0.19369679982271309 0 0.36667714106039462 0.20514567274092979 0 0.37387192337018721 0.20442911734433289 0 0.36688434978973189 0.21722535848888341 0 0.37883240444550981 0.22609092021840321 0 0.35886656107151288 0.19922652711687289 0 0.36667714106039462 0.20514567274092979 0 0.3578788630559987 0.21102444092517639 0 0.36667714106039462 0.20514567274092979 0 0.37387192337018721 0.20442911734433289 0 0.36688434978973189 0.21722535848888341 0 0.36667714106039462 0.20514567274092979 0 0.36688434978973189 0.21722535848888341 0 0.3578788630559987 0.21102444092517639 0 0.36688434978973189 0.21722535848888341 0 0.3578788630559987 0.21102444092517639 0 0.35456962366194128 0.2252133908971263 0 0.3578788630559987 0.21102444092517639 0 0.34721285934184382 0.21480265649415151 0 0.35456962366194128 0.2252133908971263 0 0.3497113878526007 0.2030323974798908 0 0.35886656107151288 0.19922652711687289 0 0.3578788630559987 0.21102444092517639 0 0.3497113878526007 0.2030323974798908 0 0.3578788630559987 0.21102444092517639 0 0.34721285934184382 0.21480265649415151 0 0.34216459535668692 0.20736929626569989 0 0.3497113878526007 0.2030323974798908 0 0.34721285934184382 0.21480265649415151 0 0.34517725015399459 0.23419145631923749 0 0.35456962366194128 0.2252133908971263 0 0.35455324959031859 0.2432250833271849 0 0.35456962366194128 0.2252133908971263 0 0.36523419632924231 0.23289877998801181 0 0.35455324959031859 0.2432250833271849 0 0.34099383609916878 0.22334663104871949 0 0.34721285934184382 0.21480265649415151 0 0.35456962366194128 0.2252133908971263 0 0.34099383609916878 0.22334663104871949 0 0.34517725015399459 0.23419145631923749 0 0.35456962366194128 0.2252133908971263 0 0.36688434978973189 0.21722535848888341 0 0.35456962366194128 0.2252133908971263 0 0.36523419632924231 0.23289877998801181 0 0.36688434978973189 0.21722535848888341 0 0.36523419632924231 0.23289877998801181 0 0.37883240444550981 0.22609092021840321 0 0.37133135415870921 0.25273914700846112 0 0.36523419632924231 0.23289877998801181 0 0.37883240444550981 0.22609092021840321 0 0.37133135415870921 0.25273914700846112 0 0.36523419632924231 0.23289877998801181 0 0.35455324959031859 0.2432250833271849 0 0.35006285604338172 0.26153112420760838 0 0.33629540821485387 0.2436748746166981 0 0.35455324959031859 0.2432250833271849 0 0.33629540821485387 0.2436748746166981 0 0.34517725015399459 0.23419145631923749 0 0.35455324959031859 0.2432250833271849 0 0.3290299395161187 0.14194742953746481 0 0.34852021316449078 0.1445779334318236 0 0.34379585570545929 0.1506165647334268 0 0.3290299395161187 0.14194742953746481 0 0.34852021316449078 0.1445779334318236 0 0.3290299395161187 0.14194742953746481 0 0.3309728473276447 0.15174223820632621 0 0.34379585570545929 0.1506165647334268 0 0.3309728473276447 0.15174223820632621 0 0.331291258845476 0.16148612330262471 0 0.34379585570545929 0.1506165647334268 0 0.331291258845476 0.16148612330262471 0 0.34379585570545929 0.1506165647334268 0 0.3290299395161187 0.14194742953746481 0 0.34262265432247851 0.1325211199087368 0 0.34852021316449078 0.1445779334318236 0 0.3400679449540831 0.12102442402254431 0 0.34262265432247851 0.1325211199087368 0 0.3293260288753706 0.12662057091205531 0 0.3290299395161187 0.14194742953746481 0 0.34262265432247851 0.1325211199087368 0 0.3293260288753706 0.12662057091205531 0 0.31654185007284819 0.12022243899103451 0 0.30953966586774662 0.13931692564310591 0 0.30953966586774662 0.13931692564310591 0 0.3290299395161187 0.14194742953746481 0 0.32081699214401271 0.13278931797889121 0 0.31654185007284819 0.12022243899103451 0 0.30953966586774662 0.13931692564310591 0 0.32081699214401271 0.13278931797889121 0 0.3290299395161187 0.14194742953746481 0 0.3293260288753706 0.12662057091205531 0 0.32081699214401271 0.13278931797889121 0 0.31654185007284819 0.12022243899103451 0 0.3293260288753706 0.12662057091205531 0 0.32081699214401271 0.13278931797889121 0 0.30953966586774662 0.13931692564310591 0 0.3290299395161187 0.14194742953746481 0 0.30953966586774662 0.13931692564310591 0 0.3290299395161187 0.14194742953746481 0 0.31977433524352539 0.15291883525178929 0 0.3309728473276447 0.15174223820632621 0 0.31977433524352539 0.15291883525178929 0 0.331291258845476 0.16148612330262471 0 0.3290299395161187 0.14194742953746481 0 0.3309728473276447 0.15174223820632621 0 0.31977433524352539 0.15291883525178929 0 0.30681511389035809 0.14674659613467919 0 0.31878666198549099 0.1723556818718206 0 0.31977433524352539 0.15291883525178929 0 0.31878666198549099 0.1723556818718206 0 0.331291258845476 0.16148612330262471 0 0.30681511389035809 0.14674659613467919 0 0.31977433524352539 0.15291883525178929 0 0.31878666198549099 0.1723556818718206 0 0.31878666198549099 0.1723556818718206 0 0.331291258845476 0.16148612330262471 0 0.31878666198549099 0.1723556818718206 0 0.331291258845476 0.16148612330262471 0 0.33049112142451048 0.16762255667733861 0 0.30186684762655891 0.18706314627180651 0 0.3171863871435624 0.1846285486212508 0 0.31878666198549099 0.1723556818718206 0 0.32183656014499212 0.17868473922752609 0 0.3295368398265357 0.18729136490401671 0 0.33049112142451048 0.16762255667733861 0 0.3171863871435624 0.1846285486212508 0 0.32183656014499212 0.17868473922752609 0 0.3171863871435624 0.1846285486212508 0 0.31878666198549099 0.1723556818718206 0 0.32183656014499212 0.17868473922752609 0 0.31878666198549099 0.1723556818718206 0 0.32183656014499212 0.17868473922752609 0 0.31878666198549099 0.1723556818718206 0 0.32183656014499212 0.17868473922752609 0 0.33049112142451048 0.16762255667733861 0 0.32183656014499212 0.17868473922752609 0 0.33049112142451048 0.16762255667733861 0 0.3171863871435624 0.1846285486212508 0 0.32183656014499212 0.17868473922752609 0 0.3295368398265357 0.18729136490401671 0 0.3295368398265357 0.18729136490401671 0 0.34059438102493128 0.18288190306238539 0 0.33049112142451048 0.16762255667733861 0 0.34059438102493128 0.18288190306238539 0 0.33049112142451048 0.16762255667733861 0 0.34471721193040689 0.17151378765888639 0 0.33049112142451048 0.16762255667733861 0 0.34610762234637588 0.1612531120542243 0 0.34379585570545929 0.1506165647334268 0 0.331291258845476 0.16148612330262471 0 0.33049112142451048 0.16762255667733861 0 0.34379585570545929 0.1506165647334268 0 0.33049112142451048 0.16762255667733861 0 0.34379585570545929 0.1506165647334268 0 0.33049112142451048 0.16762255667733861 0 0.34610762234637588 0.1612531120542243 0 0.34471721193040689 0.17151378765888639 0 0.34610762234637588 0.1612531120542243 0 0.35140991738353028 0.16856248684795361 0 0.35427836449105049 0.15907746409333559 0 0.35901193667472159 0.17164282592599631 0 0.35427836449105049 0.15907746409333559 0 0.35992731542079281 0.1461174924677778 0 0.34610762234637588 0.1612531120542243 0 0.35427836449105049 0.15907746409333559 0 0.35078077963301002 0.15209425129682119 0 0.34610762234637588 0.1612531120542243 0 0.35140991738353028 0.16856248684795361 0 0.34471721193040689 0.17151378765888639 0 0.35140991738353028 0.16856248684795361 0 0.35901193667472159 0.17164282592599631 0 0.35427836449105049 0.15907746409333559 0 0.34927238032072683 0.19186984734859511 0 0.34059438102493128 0.18288190306238539 0 0.3529344514750965 0.17932524450732529 0 0.35140991738353028 0.16856248684795361 0 0.34471721193040689 0.17151378765888639 0 0.3529344514750965 0.17932524450732529 0 0.34059438102493128 0.18288190306238539 0 0.34471721193040689 0.17151378765888639 0 0.3529344514750965 0.17932524450732529 0 0.35901193667472159 0.17164282592599631 0 0.3529344514750965 0.17932524450732529 0 0.36465881969693392 0.18140316239184731 0 0.35140991738353028 0.16856248684795361 0 0.35901193667472159 0.17164282592599631 0 0.3529344514750965 0.17932524450732529 0 0.35970402978413618 0.18937113729802901 0 0.3529344514750965 0.17932524450732529 0 0.36465881969693392 0.18140316239184731 0 0.34927238032072683 0.19186984734859511 0 0.35970402978413618 0.18937113729802901 0 0.3529344514750965 0.17932524450732529 0 0.35901193667472159 0.17164282592599631 0 0.36465881969693392 0.18140316239184731 0 0.36770334632679152 0.1705038253050993 0 0.36770334632679152 0.1705038253050993 0 0.37701840052955249 0.18497325936672221 0 0.37701474254214568 0.17422418068080639 0 0.36465881969693392 0.18140316239184731 0 0.36770334632679152 0.1705038253050993 0 0.37701840052955249 0.18497325936672221 0 0.36770334632679152 0.1705038253050993 0 0.37701840052955249 0.18497325936672221 0 0.36748578966362211 0.19369679982271309 0 0.36465881969693392 0.18140316239184731 0 0.37701840052955249 0.18497325936672221 0 0.35901193667472159 0.17164282592599631 0 0.36804920991237622 0.15925058011246179 0 0.35992731542079281 0.1461174924677778 0 0.35901193667472159 0.17164282592599631 0 0.35992731542079281 0.1461174924677778 0 0.35901193667472159 0.17164282592599631 0 0.36770334632679152 0.1705038253050993 0 0.36804920991237622 0.15925058011246179 0 0.36770334632679152 0.1705038253050993 0 0.37676134109315701 0.16414884220615661 0 0.37701474254214568 0.17422418068080639 0 0.36770334632679152 0.1705038253050993 0 0.36804920991237622 0.15925058011246179 0 0.37676134109315701 0.16414884220615661 0 0.36804920991237622 0.15925058011246179 0 0.3779440566209013 0.14854912112243801 0 0.37676134109315701 0.16414884220615661 0 0.36804920991237622 0.15925058011246179 0 0.35992731542079281 0.1461174924677778 0 0.3779440566209013 0.14854912112243801 0 0.36816019919183401 0.14157705952426 0 0.35992731542079281 0.1461174924677778 0 0.3779440566209013 0.14854912112243801 0 0.35992731542079281 0.1461174924677778 0 0.3779440566209013 0.14854912112243801 0 0.36816019919183401 0.14157705952426 0 0.37448960685210758 0.1353536618262707 0 0.3779440566209013 0.14854912112243801 0 0.36816019919183401 0.14157705952426 0 0.35992731542079281 0.1461174924677778 0 0.36027981787353441 0.13628796268055371 0 0.35992731542079281 0.1461174924677778 0 0.36027981787353441 0.13628796268055371 0 0.35427836449105049 0.15907746409333559 0 0.35992731542079281 0.1461174924677778 0 0.35078077963301002 0.15209425129682119 0 0.35992731542079281 0.1461174924677778 0 0.35044412065935482 0.14483759351915529 0 0.35078077963301002 0.15209425129682119 0 0.35992731542079281 0.1461174924677778 0 0.35044412065935482 0.14483759351915529 0 0.36027981787353441 0.13628796268055371 0 0.35044412065935482 0.14483759351915529 0 0.34852021316449078 0.1445779334318236 0 0.35574433956713031 0.13534411990267761 0 0.35992731542079281 0.1461174924677778 0 0.35044412065935482 0.14483759351915529 0 0.35044412065935482 0.14483759351915529 0 0.34852021316449078 0.1445779334318236 0 0.34852021316449078 0.1445779334318236 0 0.34379585570545929 0.1506165647334268 0 0.35044412065935482 0.14483759351915529 0 0.34379585570545929 0.1506165647334268 0 0.35044412065935482 0.14483759351915529 0 0.34852021316449078 0.1445779334318236 0 0.34379585570545929 0.1506165647334268 0 0.34610762234637588 0.1612531120542243 0 0.34379585570545929 0.1506165647334268 0 0.35078077963301002 0.15209425129682119 0 0.35044412065935482 0.14483759351915529 0 0.34379585570545929 0.1506165647334268 0 0.35078077963301002 0.15209425129682119 0 0.3400679449540831 0.12102442402254431 0 0.34262265432247851 0.1325211199087368 0 0.35131572215963902 0.12563937409389231 0 0.34262265432247851 0.1325211199087368 0 0.35131572215963902 0.12563937409389231 0 0.35003335113921552 0.13175881806893369 0 0.34262265432247851 0.1325211199087368 0 0.34852021316449078 0.1445779334318236 0 0.34939507859688079 0.13570997898241949 0 0.34852021316449078 0.1445779334318236 0 0.34939507859688079 0.13570997898241949 0 0.35574433956713031 0.13534411990267761 0 0.34262265432247851 0.1325211199087368 0 0.35003335113921552 0.13175881806893369 0 0.34939507859688079 0.13570997898241949 0 0.34852021316449078 0.1445779334318236 0 0.35574433956713031 0.13534411990267761 0 0.35044412065935482 0.14483759351915529 0 0.36027981787353441 0.13628796268055371 0 0.35044412065935482 0.14483759351915529 0 0.35574433956713031 0.13534411990267761 0 0.36027981787353441 0.13628796268055371 0 0.35003335113921552 0.13175881806893369 0 0.34939507859688079 0.13570997898241949 0 0.35574433956713031 0.13534411990267761 0 0.35131572215963902 0.12563937409389231 0 0.35574433956713031 0.13534411990267761 0 0.36027981787353441 0.13628796268055371 0 0.35131572215963902 0.12563937409389231 0 0.35003335113921552 0.13175881806893369 0 0.35574433956713031 0.13534411990267761 0 0.36027981787353441 0.13628796268055371 0 0.3772864422104612 0.1215050391393626 0 0.36027981787353441 0.13628796268055371 0 0.37448960685210758 0.1353536618262707 0 0.3772864422104612 0.1215050391393626 0 0.36816019919183401 0.14157705952426 0 0.36027981787353441 0.13628796268055371 0 0.37448960685210758 0.1353536618262707 0 0.37448960685210758 0.1353536618262707 0 0.39354960417489132 0.13240510493107291 0 0.3772864422104612 0.1215050391393626 0 0.37448960685210758 0.1353536618262707 0 0.39354960417489132 0.13240510493107291 0 0.3779440566209013 0.14854912112243801 0 0.39354960417489132 0.13240510493107291 0 0.4140019186303075 0.12822819622514059 0 0.40952130728670239 0.14328475965468879 0 0.39354960417489132 0.13240510493107291 0 0.4140019186303075 0.12822819622514059 0 0.40657417080820651 0.11523193835467981 0 0.39354960417489132 0.13240510493107291 0 0.39596079782100979 0.15098074977709819 0 0.40952130728670239 0.14328475965468879 0 0.39596079782100979 0.15098074977709819 0 0.3779440566209013 0.14854912112243801 0 0.39354960417489132 0.13240510493107291 0 0.39596079782100979 0.15098074977709819 0 0.3779440566209013 0.14854912112243801 0 0.39596079782100979 0.15098074977709819 0 0.3779440566209013 0.14854912112243801 0 0.38754869977955092 0.1619079067846057 0 0.3779440566209013 0.14854912112243801 0 0.37676134109315701 0.16414884220615661 0 0.38754869977955092 0.1619079067846057 0 0.37676134109315701 0.16414884220615661 0 0.38309065021169469 0.17181772474481941 0 0.37701474254214568 0.17422418068080639 0 0.37676134109315701 0.16414884220615661 0 0.38309065021169469 0.17181772474481941 0 0.38754869977955092 0.1619079067846057 0 0.38309065021169469 0.17181772474481941 0 0.38754869977955092 0.1619079067846057 0 0.39109280163370053 0.1735765317390463 0 0.37701840052955249 0.18497325936672221 0 0.38152488929701961 0.1791926217000957 0 0.3858201504572657 0.18551455577770859 0 0.37701840052955249 0.18497325936672221 0 0.38152488929701961 0.1791926217000957 0 0.37701474254214568 0.17422418068080639 0 0.38309065021169469 0.17181772474481941 0 0.38152488929701961 0.1791926217000957 0 0.37701474254214568 0.17422418068080639 0 0.38309065021169469 0.17181772474481941 0 0.38673033223941389 0.17846412776814419 0 0.39109280163370053 0.1735765317390463 0 0.38673033223941389 0.17846412776814419 0 0.39145968851851098 0.17908558128872451 0 0.39109280163370053 0.1735765317390463 0 0.38309065021169469 0.17181772474481941 0 0.38152488929701961 0.1791926217000957 0 0.38673033223941389 0.17846412776814419 0 0.38152488929701961 0.1791926217000957 0 0.38673033223941389 0.17846412776814419 0 0.3858201504572657 0.18551455577770859 0 0.38673033223941389 0.17846412776814419 0 0.38920674522441168 0.18214034211247229 0 0.3858201504572657 0.18551455577770859 0 0.38673033223941389 0.17846412776814419 0 0.38920674522441168 0.18214034211247229 0 0.39145968851851098 0.17908558128872451 0 0.38920674522441168 0.18214034211247229 0 0.3883360758904571 0.18509015364955081 0 0.38968885722907032 0.18752229251290789 0 0.38920674522441168 0.18214034211247229 0 0.3883360758904571 0.18509015364955081 0 0.3858201504572657 0.18551455577770859 0 0.38920674522441168 0.18214034211247229 0 0.39192026792225931 0.18481100013101301 0 0.38968885722907032 0.18752229251290789 0 0.3883360758904571 0.18509015364955081 0 0.3858201504572657 0.18551455577770859 0 0.38968885722907032 0.18752229251290789 0 0.39748094171833931 0.1849949950301128 0 0.39504611515198351 0.1879339769907416 0 0.39852843986709102 0.1892889698195403 0 0.39748094171833931 0.1849949950301128 0 0.39365862851270311 0.18570185087627639 0 0.39367470471629501 0.18278830301368959 0 0.39748094171833931 0.1849949950301128 0 0.39365862851270311 0.18570185087627639 0 0.39504611515198351 0.1879339769907416 0 0.39365862851270311 0.18570185087627639 0 0.3923414998734609 0.1875781385279997 0 0.39504611515198351 0.1879339769907416 0 0.39365862851270311 0.18570185087627639 0 0.39192026792225931 0.18481100013101301 0 0.3923414998734609 0.1875781385279997 0 0.39192026792225931 0.18481100013101301 0 0.38968885722907032 0.18752229251290789 0 0.3923414998734609 0.1875781385279997 0 0.39365862851270311 0.18570185087627639 0 0.39192026792225931 0.18481100013101301 0 0.39367470471629501 0.18278830301368959 0 0.39367470471629501 0.18278830301368959 0 0.39659385877873349 0.1784586018102701 0 0.39145968851851098 0.17908558128872451 0 0.38920674522441168 0.18214034211247229 0 0.39192026792225931 0.18481100013101301 0 0.39367470471629501 0.18278830301368959 0 0.38920674522441168 0.18214034211247229 0 0.39367470471629501 0.18278830301368959 0 0.39145968851851098 0.17908558128872451 0 0.39748094171833931 0.1849949950301128 0 0.39367470471629501 0.18278830301368959 0 0.39659385877873349 0.1784586018102701 0 0.39659385877873349 0.1784586018102701 0 0.39109280163370053 0.1735765317390463 0 0.40022718646642719 0.16799052750858229 0 0.39659385877873349 0.1784586018102701 0 0.39145968851851098 0.17908558128872451 0 0.39109280163370053 0.1735765317390463 0 0.40523975154182817 0.1820809015611842 0 0.40022718646642719 0.16799052750858229 0 0.4108632937158348 0.173418010651472 0 0.39659385877873349 0.1784586018102701 0 0.40523975154182817 0.1820809015611842 0 0.40022718646642719 0.16799052750858229 0 0.39748094171833931 0.1849949950301128 0 0.39659385877873349 0.1784586018102701 0 0.40523975154182817 0.1820809015611842 0 0.40523975154182817 0.1820809015611842 0 0.40213665071755927 0.18764125549320981 0 0.4072056290230654 0.1917314599979453 0 0.39748094171833931 0.1849949950301128 0 0.40523975154182817 0.1820809015611842 0 0.40213665071755927 0.18764125549320981 0 0.39748094171833931 0.1849949950301128 0 0.40213665071755927 0.18764125549320981 0 0.39852843986709102 0.1892889698195403 0 0.39596079782100979 0.15098074977709819 0 0.38754869977955092 0.1619079067846057 0 0.40022718646642719 0.16799052750858229 0 0.39596079782100979 0.15098074977709819 0 0.40022718646642719 0.16799052750858229 0 0.41459021086811132 0.1591680749185411 0 0.38754869977955092 0.1619079067846057 0 0.39109280163370053 0.1735765317390463 0 0.40022718646642719 0.16799052750858229 0 0.40022718646642719 0.16799052750858229 0 0.41459021086811132 0.1591680749185411 0 0.4108632937158348 0.173418010651472 0 0.41459021086811132 0.1591680749185411 0 0.4108632937158348 0.173418010651472 0 0.42309504939347048 0.1741737562075191 0 0.40523975154182817 0.1820809015611842 0 0.41475516907587529 0.1836022759679049 0 0.4072056290230654 0.1917314599979453 0 0.40523975154182817 0.1820809015611842 0 0.4108632937158348 0.173418010651472 0 0.41475516907587529 0.1836022759679049 0 0.4108632937158348 0.173418010651472 0 0.41475516907587529 0.1836022759679049 0 0.42309504939347048 0.1741737562075191 0 0.41475516907587529 0.1836022759679049 0 0.42445923864125951 0.185647925583247 0 0.42309504939347048 0.1741737562075191 0 0.42309504939347048 0.1741737562075191 0 0.43605395734202002 0.18019968627054031 0 0.43386868853765292 0.16244718732545349 0 0.42445923864125951 0.185647925583247 0 0.43605395734202002 0.18019968627054031 0 0.42998576701167962 0.19644016238761469 0 0.42445923864125951 0.185647925583247 0 0.42309504939347048 0.1741737562075191 0 0.43605395734202002 0.18019968627054031 0 0.41459021086811132 0.1591680749185411 0 0.42309504939347048 0.1741737562075191 0 0.43386868853765292 0.16244718732545349 0 0.43386868853765292 0.16244718732545349 0 0.42934325676537699 0.14186600891046811 0 0.44347952873763791 0.1495458162240092 0 0.41459021086811132 0.1591680749185411 0 0.43386868853765292 0.16244718732545349 0 0.42934325676537699 0.14186600891046811 0 0.42934325676537699 0.14186600891046811 0 0.42759536995770181 0.12741842698392269 0 0.44164427294959729 0.1236138555640913 0 0.42934325676537699 0.14186600891046811 0 0.42759536995770181 0.12741842698392269 0 0.4140019186303075 0.12822819622514059 0 0.42934325676537699 0.14186600891046811 0 0.4140019186303075 0.12822819622514059 0 0.40952130728670239 0.14328475965468879 0 0.41459021086811132 0.1591680749185411 0 0.42934325676537699 0.14186600891046811 0 0.40952130728670239 0.14328475965468879 0 0.39596079782100979 0.15098074977709819 0 0.41459021086811132 0.1591680749185411 0 0.40952130728670239 0.14328475965468879 0 0.40603105077845342 0.24396416794525669 0 0.40175235186532171 0.23615893359935289 0 0.39298284187090288 0.24806444035772329 0 0.40504541688886758 0.25083790210330698 0 0.40603105077845342 0.24396416794525669 0 0.39298284187090288 0.24806444035772329 0 0.40175235186532171 0.23615893359935289 0 0.39298284187090288 0.24806444035772329 0 0.38873350533157658 0.2362065207873173 0 0.37133135415870921 0.25273914700846112 0 0.39298284187090288 0.24806444035772329 0 0.38873350533157658 0.2362065207873173 0 0.37133135415870921 0.25273914700846112 0 0.37883240444550981 0.22609092021840321 0 0.37133135415870921 0.25273914700846112 0 0.38873350533157658 0.2362065207873173 0 0.37883240444550981 0.22609092021840321 0 0.38873350533157658 0.2362065207873173 0 0.37883240444550981 0.22609092021840321 0 0.4004861264089794 0.22142658586351921 0 0.4004861264089794 0.22142658586351921 0 0.39966110729416549 0.2080910008497586 0 0.40963335735925788 0.2286597091866106 0 0.40175235186532171 0.23615893359935289 0 0.4004861264089794 0.22142658586351921 0 0.41463879808564519 0.24341047829869331 0 0.40175235186532171 0.23615893359935289 0 0.38873350533157658 0.2362065207873173 0 0.4004861264089794 0.22142658586351921 0 0.39966110729416549 0.2080910008497586 0 0.40963335735925788 0.2286597091866106 0 0.4004861264089794 0.22142658586351921 0 0.38633345473231229 0.1994426934283457 0 0.39966110729416549 0.2080910008497586 0 0.40900361774870198 0.212249797078188 0 0.40963335735925788 0.2286597091866106 0 0.4004861264089794 0.22142658586351921 0 0.39966110729416549 0.2080910008497586 0 0.38633345473231229 0.1994426934283457 0 0.37883240444550981 0.22609092021840321 0 0.4004861264089794 0.22142658586351921 0 0.38633345473231229 0.1994426934283457 0 0.37883240444550981 0.22609092021840321 0 0.38633345473231229 0.1994426934283457 0 0.37387192337018721 0.20442911734433289 0 0.37883240444550981 0.22609092021840321 0 0.38633345473231229 0.1994426934283457 0 0.37387192337018721 0.20442911734433289 0 0.37701840052955249 0.18497325936672221 0 0.38633345473231229 0.1994426934283457 0 0.37701840052955249 0.18497325936672221 0 0.38633345473231229 0.1994426934283457 0 0.3858201504572657 0.18551455577770859 0 0.38633345473231229 0.1994426934283457 0 0.38968885722907032 0.18752229251290789 0 0.38633345473231229 0.1994426934283457 0 0.38968885722907032 0.18752229251290789 0 0.37701840052955249 0.18497325936672221 0 0.3858201504572657 0.18551455577770859 0 0.38633345473231229 0.1994426934283457 0 0.38968885722907032 0.18752229251290789 0 0.3923414998734609 0.1875781385279997 0 0.39441444091453798 0.18939047469457221 0 0.39966110729416549 0.2080910008497586 0 0.38968885722907032 0.18752229251290789 0 0.39966110729416549 0.2080910008497586 0 0.38633345473231229 0.1994426934283457 0 0.38968885722907032 0.18752229251290789 0 0.38968885722907032 0.18752229251290789 0 0.39441444091453798 0.18939047469457221 0 0.39646729245108397 0.19462899562167121 0 0.39966110729416549 0.2080910008497586 0 0.38968885722907032 0.18752229251290789 0 0.39646729245108397 0.19462899562167121 0 0.3923414998734609 0.1875781385279997 0 0.39441444091453798 0.18939047469457221 0 0.39504611515198351 0.1879339769907416 0 0.39441444091453798 0.18939047469457221 0 0.39646729245108397 0.19462899562167121 0 0.39852843986709102 0.1892889698195403 0 0.39441444091453798 0.18939047469457221 0 0.39504611515198351 0.1879339769907416 0 0.39852843986709102 0.1892889698195403 0 0.39966110729416549 0.2080910008497586 0 0.39646729245108397 0.19462899562167121 0 0.40336821791877731 0.198056836680921 0 0.39966110729416549 0.2080910008497586 0 0.40336821791877731 0.198056836680921 0 0.41064078569669921 0.2026793871130036 0 0.40336821791877731 0.198056836680921 0 0.40168830634048408 0.1925901160696635 0 0.4072056290230654 0.1917314599979453 0 0.40213665071755927 0.18764125549320981 0 0.40168830634048408 0.1925901160696635 0 0.4072056290230654 0.1917314599979453 0 0.40213665071755927 0.18764125549320981 0 0.39852843986709102 0.1892889698195403 0 0.40168830634048408 0.1925901160696635 0 0.39646729245108397 0.19462899562167121 0 0.40336821791877731 0.198056836680921 0 0.40168830634048408 0.1925901160696635 0 0.39646729245108397 0.19462899562167121 0 0.39852843986709102 0.1892889698195403 0 0.40168830634048408 0.1925901160696635 0 0.41475516907587529 0.1836022759679049 0 0.4072056290230654 0.1917314599979453 0 0.41840625038325202 0.1938237470826559 0 0.4072056290230654 0.1917314599979453 0 0.41064078569669921 0.2026793871130036 0 0.41840625038325202 0.1938237470826559 0 0.40336821791877731 0.198056836680921 0 0.4072056290230654 0.1917314599979453 0 0.41064078569669921 0.2026793871130036 0 0.41064078569669921 0.2026793871130036 0 0.41840625038325202 0.1938237470826559 0 0.42198038387554659 0.20313031309463131 0 0.41475516907587529 0.1836022759679049 0 0.42445923864125951 0.185647925583247 0 0.41840625038325202 0.1938237470826559 0 0.42998576701167962 0.19644016238761469 0 0.43244019304630932 0.21041812494154549 0 0.44463840581531799 0.19317719379591711 0 0.43605395734202002 0.18019968627054031 0 0.42998576701167962 0.19644016238761469 0 0.44463840581531799 0.19317719379591711 0 0.42445923864125951 0.185647925583247 0 0.41840625038325202 0.1938237470826559 0 0.42998576701167962 0.19644016238761469 0 0.41840625038325202 0.1938237470826559 0 0.42998576701167962 0.19644016238761469 0 0.42198038387554659 0.20313031309463131 0 0.42198038387554659 0.20313031309463131 0 0.43244019304630932 0.21041812494154549 0 0.41842892323979269 0.2122901439483367 0 0.42998576701167962 0.19644016238761469 0 0.42198038387554659 0.20313031309463131 0 0.43244019304630932 0.21041812494154549 0 0.43244019304630932 0.21041812494154549 0 0.41842892323979269 0.2122901439483367 0 0.42211349285480132 0.2240848132599354 0 0.41842892323979269 0.2122901439483367 0 0.40900361774870198 0.212249797078188 0 0.41479484780063852 0.21932111586826769 0 0.41842892323979269 0.2122901439483367 0 0.41479484780063852 0.21932111586826769 0 0.42211349285480132 0.2240848132599354 0 0.41064078569669921 0.2026793871130036 0 0.42198038387554659 0.20313031309463131 0 0.41842892323979269 0.2122901439483367 0 0.41064078569669921 0.2026793871130036 0 0.41842892323979269 0.2122901439483367 0 0.40900361774870198 0.212249797078188 0 0.39966110729416549 0.2080910008497586 0 0.41064078569669921 0.2026793871130036 0 0.40900361774870198 0.212249797078188 0 0.4004861264089794 0.22142658586351921 0 0.41463879808564519 0.24341047829869331 0 0.4004861264089794 0.22142658586351921 0 0.40963335735925788 0.2286597091866106 0 0.41463879808564519 0.24341047829869331 0 0.40900361774870198 0.212249797078188 0 0.40963335735925788 0.2286597091866106 0 0.41479484780063852 0.21932111586826769 0 0.40963335735925788 0.2286597091866106 0 0.4209513074311263 0.2338054307977854 0 0.42211349285480132 0.2240848132599354 0 0.40963335735925788 0.2286597091866106 0 0.41479484780063852 0.21932111586826769 0 0.42211349285480132 0.2240848132599354 0 0.43244019304630932 0.21041812494154549 0 0.42211349285480132 0.2240848132599354 0 0.43515910734204272 0.22862660486014841 0 0.4209513074311263 0.2338054307977854 0 0.42211349285480132 0.2240848132599354 0 0.43515910734204272 0.22862660486014841 0 0.43515910734204272 0.22862660486014841 0 0.41960560742434949 0.24922841752346311 0 0.43515910734204272 0.22862660486014841 0 0.41960560742434949 0.24922841752346311 0 0.44046947178534918 0.24381964733491229 0 0.4209513074311263 0.2338054307977854 0 0.43515910734204272 0.22862660486014841 0 0.41960560742434949 0.24922841752346311 0 0.43333426729933278 0.25521865159253582 0 0.41960560742434949 0.24922841752346311 0 0.44046947178534918 0.24381964733491229 0 0.40963335735925788 0.2286597091866106 0 0.41960560742434949 0.24922841752346311 0 0.40963335735925788 0.2286597091866106 0 0.4209513074311263 0.2338054307977854 0 0.41960560742434949 0.24922841752346311 0 0.40963335735925788 0.2286597091866106 0 0.41960560742434949 0.24922841752346311 0 0.41463879808564519 0.24341047829869331 0 0.41960560742434949 0.24922841752346311 0 0.41463879808564519 0.24341047829869331 0 0.41193031943217301 0.24970998685700099 0 0.40603105077845342 0.24396416794525669 0 0.40175235186532171 0.23615893359935289 0 0.41463879808564519 0.24341047829869331 0 0.40603105077845342 0.24396416794525669 0 0.41463879808564519 0.24341047829869331 0 0.41193031943217301 0.24970998685700099 0 0.40504541688886758 0.25083790210330698 0 0.40603105077845342 0.24396416794525669 0 0.41193031943217301 0.24970998685700099 0 0.45665518821624052 0.2438898889111111 0 0.46435139066828729 0.2311944741473449 0 0.4709233871432138 0.24742201075293871 0 0.46435139066828729 0.2311944741473449 0 0.4709233871432138 0.24742201075293871 0 0.45665518821624052 0.2438898889111111 0 0.44946955305433117 0.23111108149007009 0 0.46435139066828729 0.2311944741473449 0 0.44831133843309301 0.25500336940667873 0 0.45665518821624052 0.2438898889111111 0 0.44046947178534918 0.24381964733491229 0 0.45665518821624052 0.2438898889111111 0 0.44046947178534918 0.24381964733491229 0 0.44946955305433117 0.23111108149007009 0 0.43515910734204272 0.22862660486014841 0 0.44046947178534918 0.24381964733491229 0 0.44946955305433117 0.23111108149007009 0 0.43515910734204272 0.22862660486014841 0 0.44946955305433117 0.23111108149007009 0 0.45071260725973611 0.2080247921968339 0 0.44946955305433117 0.23111108149007009 0 0.46435139066828729 0.2311944741473449 0 0.45071260725973611 0.2080247921968339 0 0.46435139066828729 0.2311944741473449 0 0.45071260725973611 0.2080247921968339 0 0.4774668000841949 0.2103691858651891 0 0.43244019304630932 0.21041812494154549 0 0.43515910734204272 0.22862660486014841 0 0.45071260725973611 0.2080247921968339 0 0.43515910734204272 0.22862660486014841 0 0.45071260725973611 0.2080247921968339 0 0.43244019304630932 0.21041812494154549 0 0.45071260725973611 0.2080247921968339 0 0.44463840581531799 0.19317719379591711 0 0.45071260725973611 0.2080247921968339 0 0.4774668000841949 0.2103691858651891 0 0.46626610717742972 0.1874229795335193 0 0.45071260725973611 0.2080247921968339 0 0.46626610717742972 0.1874229795335193 0 0.45071260725973611 0.2080247921968339 0 0.44463840581531799 0.19317719379591711 0 0.46626610717742972 0.1874229795335193 0 0.5 0.18864431420976499 0 0.4774668000841949 0.2103691858651891 0 0.46626610717742972 0.1874229795335193 0 0.5 0.18864431420976499 0 0.5 0.2184690331541892 0 0.4774668000841949 0.2103691858651891 0 0.46435139066828729 0.2311944741473449 0 0.4774668000841949 0.2103691858651891 0 0.48310174223308672 0.23113876210711809 0 0.5 0.2184690331541892 0 0.48310174223308672 0.23113876210711809 0 0.49999999999999978 0.2482937520986134 0 0.5 0.2184690331541892 0 0.4774668000841949 0.2103691858651891 0 0.48310174223308672 0.23113876210711809 0 0.48310174223308672 0.23113876210711809 0 0.49999999999999978 0.2482937520986134 0 0.48374370526303689 0.24651653993241709 0 0.46435139066828729 0.2311944741473449 0 0.48310174223308672 0.23113876210711809 0 0.4709233871432138 0.24742201075293871 0 0.48310174223308672 0.23113876210711809 0 0.48374370526303689 0.24651653993241709 0 0.4709233871432138 0.24742201075293871 0 0.45941912895137732 0.1473680259051349 0 0.46732480033342449 0.16303508961350319 0 0.47887403501588072 0.1448113977995823 0 0.45941912895137732 0.1473680259051349 0 0.46264032088443419 0.1288421885786912 0 0.47887403501588072 0.1448113977995823 0 0.45941912895137732 0.1473680259051349 0 0.46264032088443419 0.1288421885786912 0 0.4485061422843038 0.13718111093321531 0 0.46264032088443419 0.1288421885786912 0 0.4485061422843038 0.13718111093321531 0 0.44164427294959729 0.1236138555640913 0 0.42934325676537699 0.14186600891046811 0 0.4485061422843038 0.13718111093321531 0 0.44164427294959729 0.1236138555640913 0 0.45941912895137732 0.1473680259051349 0 0.4485061422843038 0.13718111093321531 0 0.44347952873763791 0.1495458162240092 0 0.45941912895137732 0.1473680259051349 0 0.44347952873763791 0.1495458162240092 0 0.45024512342731171 0.1687518779590749 0 0.42934325676537699 0.14186600891046811 0 0.4485061422843038 0.13718111093321531 0 0.44347952873763791 0.1495458162240092 0 0.43605395734202002 0.18019968627054031 0 0.43386868853765292 0.16244718732545349 0 0.45024512342731171 0.1687518779590749 0 0.43386868853765292 0.16244718732545349 0 0.44347952873763791 0.1495458162240092 0 0.45024512342731171 0.1687518779590749 0 0.43605395734202002 0.18019968627054031 0 0.44463840581531799 0.19317719379591711 0 0.45024512342731171 0.1687518779590749 0 0.44463840581531799 0.19317719379591711 0 0.45024512342731171 0.1687518779590749 0 0.46626610717742972 0.1874229795335193 0 0.45024512342731171 0.1687518779590749 0 0.46626610717742972 0.1874229795335193 0 0.46732480033342449 0.16303508961350319 0 0.45941912895137732 0.1473680259051349 0 0.45024512342731171 0.1687518779590749 0 0.46732480033342449 0.16303508961350319 0 0.5 0.18864431420976499 0 0.46626610717742972 0.1874229795335193 0 0.48181960709512323 0.16682116687020471 0 0.46732480033342449 0.16303508961350319 0 0.48181960709512323 0.16682116687020471 0 0.47887403501588072 0.1448113977995823 0 0.46626610717742972 0.1874229795335193 0 0.46732480033342449 0.16303508961350319 0 0.48181960709512323 0.16682116687020471 0 0.46626610717742972 0.1874229795335193 0 0.48181960709512323 0.16682116687020471 0 0.48181960709512323 0.16682116687020471 0 0.5 0.1588195952653407 0 0.47887403501588072 0.1448113977995823 0 0.5 0.18864431420976499 0 0.48181960709512323 0.16682116687020471 0 0.5 0.1588195952653407 0 0.5 0.1588195952653407 0 0.47887403501588072 0.1448113977995823 0 0.5 0.12899487632091661 0 0.46264032088443419 0.1288421885786912 0 0.47887403501588072 0.1448113977995823 0 0.48150805756809162 0.1234629709036128 0 0.47887403501588072 0.1448113977995823 0 0.5 0.12899487632091661 0 0.48150805756809162 0.1234629709036128 0 0.5 0.12899487632091661 0 0.5 0.099170157376492374 0 0.48150805756809162 0.1234629709036128 0 0.5 0.099170157376492374 0 0.46906253122839331 0.10767259656258441 0 0.48161863208253869 0.083109236145439941 0 0.5 0.099170157376492374 0 0.46906253122839331 0.10767259656258441 0 0.48150805756809162 0.1234629709036128 0 0.46264032088443419 0.1288421885786912 0 0.46906253122839331 0.10767259656258441 0 0.48150805756809162 0.1234629709036128 0 0.50000000000000067 0.069345438432068085 0 0.47050981111710038 0.064702358747088753 0 0.50000000000000067 0.069345438432068085 0 0.47050981111710038 0.064702358747088753 0 0.48616510334546681 0.057250162076796812 0 0.5 0.099170157376492374 0 0.50000000000000067 0.069345438432068085 0 0.48161863208253869 0.083109236145439941 0 0.46906253122839331 0.10767259656258441 0 0.48161863208253869 0.083109236145439941 0 0.46155367765226207 0.085257994772241386 0 0.50000000000000067 0.069345438432068085 0 0.48161863208253869 0.083109236145439941 0 0.47050981111710038 0.064702358747088753 0 0.48161863208253869 0.083109236145439941 0 0.47050981111710038 0.064702358747088753 0 0.46155367765226207 0.085257994772241386 0 0.47050981111710038 0.064702358747088753 0 0.45357773844926091 0.07281603556646013 0 0.44101962223420038 0.060059279062109019 0 0.47050981111710038 0.064702358747088753 0 0.45357773844926091 0.07281603556646013 0 0.46155367765226207 0.085257994772241386 0 0.44122784279348071 0.081244509684401375 0 0.44143606335276159 0.1024297403066937 0 0.42998921844653848 0.089695133087693696 0 0.45357773844926091 0.07281603556646013 0 0.46155367765226207 0.085257994772241386 0 0.44122784279348071 0.081244509684401375 0 0.44122784279348071 0.081244509684401375 0 0.44143606335276159 0.1024297403066937 0 0.46155367765226207 0.085257994772241386 0 0.44122784279348071 0.081244509684401375 0 0.44143606335276159 0.1024297403066937 0 0.44122784279348071 0.081244509684401375 0 0.44101962223420038 0.060059279062109019 0 0.45357773844926091 0.07281603556646013 0 0.44122784279348071 0.081244509684401375 0 0.44101962223420038 0.060059279062109019 0 0.46264032088443419 0.1288421885786912 0 0.46906253122839331 0.10767259656258441 0 0.44164427294959729 0.1236138555640913 0 0.46906253122839331 0.10767259656258441 0 0.44143606335276159 0.1024297403066937 0 0.46906253122839331 0.10767259656258441 0 0.46155367765226207 0.085257994772241386 0 0.44143606335276159 0.1024297403066937 0 0.44143606335276159 0.1024297403066937 0 0.44164427294959729 0.1236138555640913 0 0.46906253122839331 0.10767259656258441 0 0.44143606335276159 0.1024297403066937 0 0.44164427294959729 0.1236138555640913 0 0.42759536995770181 0.12741842698392269 0 0.44164427294959729 0.1236138555640913 0 0.42535235701690932 0.1140294360496955 0 0.44143606335276159 0.1024297403066937 0 0.44164427294959729 0.1236138555640913 0 0.42535235701690932 0.1140294360496955 0 0.42759536995770181 0.12741842698392269 0 0.4140019186303075 0.12822819622514059 0 0.42535235701690932 0.1140294360496955 0 0.4140019186303075 0.12822819622514059 0 0.42535235701690932 0.1140294360496955 0 0.40657417080820651 0.11523193835467981 0 0.42535235701690932 0.1140294360496955 0 0.40657417080820651 0.11523193835467981 0 0.41538907986049273 0.097486633176080695 0 0.44143606335276159 0.1024297403066937 0 0.41538907986049273 0.097486633176080695 0 0.42998921844653848 0.089695133087693696 0 0.44143606335276159 0.1024297403066937 0 0.41538907986049273 0.097486633176080695 0 0.44143606335276159 0.1024297403066937 0 0.42535235701690932 0.1140294360496955 0 0.41538907986049273 0.097486633176080695 0 0.44122784279348071 0.081244509684401375 0 0.42998921844653848 0.089695133087693696 0 0.42190388777941912 0.077619649183598982 0 0.41538907986049273 0.097486633176080695 0 0.42998921844653848 0.089695133087693696 0 0.42190388777941912 0.077619649183598982 0 0.44122784279348071 0.081244509684401375 0 0.42190388777941912 0.077619649183598982 0 0.44101962223420038 0.060059279062109019 0 0.42190388777941912 0.077619649183598982 0 0.41843956690449668 0.056504164627157669 0 0.44101962223420038 0.060059279062109019 0 0.42190388777941912 0.077619649183598982 0 0.40480856524449732 0.083460059192286051 0 0.40413226790965529 0.070632643065209805 0 0.42190388777941912 0.077619649183598982 0 0.40413226790965529 0.070632643065209805 0 0.41843956690449668 0.056504164627157669 0 0.41538907986049273 0.097486633176080695 0 0.42190388777941912 0.077619649183598982 0 0.40480856524449732 0.083460059192286051 0 0.41538907986049273 0.097486633176080695 0 0.40480856524449732 0.083460059192286051 0 0.38934209636822309 0.0925435260454706 0 0.40480856524449732 0.083460059192286051 0 0.39327549430469622 0.079017844491070133 0 0.38934209636822309 0.0925435260454706 0 0.40413226790965529 0.070632643065209805 0 0.3920208138579182 0.06717964046938639 0 0.39940269767815972 0.056859100164669669 0 0.40480856524449732 0.083460059192286051 0 0.39327549430469622 0.079017844491070133 0 0.40413226790965529 0.070632643065209805 0 0.39327549430469622 0.079017844491070133 0 0.40413226790965529 0.070632643065209805 0 0.3920208138579182 0.06717964046938639 0 0.36280943097700458 0.065749709237859 0 0.37901036843610469 0.078043396751232272 0 0.38428324096097499 0.05134521787475009 0 0.3920208138579182 0.06717964046938639 0 0.37901036843610469 0.078043396751232272 0 0.38428324096097499 0.05134521787475009 0 0.37901036843610469 0.078043396751232272 0 0.38428324096097499 0.05134521787475009 0 0.39327549430469622 0.079017844491070133 0 0.3920208138579182 0.06717964046938639 0 0.37901036843610469 0.078043396751232272 0 0.3737374959112344 0.1047415756277144 0 0.37901036843610469 0.078043396751232272 0 0.38934209636822309 0.0925435260454706 0 0.3737374959112344 0.1047415756277144 0 0.37901036843610469 0.078043396751232272 0 0.39327549430469622 0.079017844491070133 0 0.37901036843610469 0.078043396751232272 0 0.38934209636822309 0.0925435260454706 0 0.3737374959112344 0.1047415756277144 0 0.38934209636822309 0.0925435260454706 0 0.39429306654738788 0.1067221155981713 0 0.39354960417489132 0.13240510493107291 0 0.3772864422104612 0.1215050391393626 0 0.3929258209352367 0.1189660495058216 0 0.3737374959112344 0.1047415756277144 0 0.3772864422104612 0.1215050391393626 0 0.39429306654738788 0.1067221155981713 0 0.3772864422104612 0.1215050391393626 0 0.3929258209352367 0.1189660495058216 0 0.39429306654738788 0.1067221155981713 0 0.3772864422104612 0.1215050391393626 0 0.39429306654738788 0.1067221155981713 0 0.39354960417489132 0.13240510493107291 0 0.40657417080820651 0.11523193835467981 0 0.3929258209352367 0.1189660495058216 0 0.40657417080820651 0.11523193835467981 0 0.3929258209352367 0.1189660495058216 0 0.39429306654738788 0.1067221155981713 0 0.41538907986049273 0.097486633176080695 0 0.38934209636822309 0.0925435260454706 0 0.41538907986049273 0.097486633176080695 0 0.38934209636822309 0.0925435260454706 0 0.39429306654738788 0.1067221155981713 0 0.40657417080820651 0.11523193835467981 0 0.41538907986049273 0.097486633176080695 0 0.39429306654738788 0.1067221155981713 0 0.38955611348584679 0.024647038998268121 0 0.41532753770718023 0.0095751381954073643 0 0.39321760861815841 0.0061077605428421378 0 0.38955611348584679 0.024647038998268121 0 0.39321760861815841 0.0061077605428421378 0 0.40866897052541401 0.00084043267164977053 0 0.41532753770718023 0.0095751381954073643 0 0.39321760861815841 0.0061077605428421378 0 0.38955611348584679 0.024647038998268121 0 0.41532753770718023 0.0095751381954073643 0 0.39321760861815841 0.0061077605428421378 0 0.41532753770718023 0.0095751381954073643 0 0.39321760861815841 0.0061077605428421378 0 0.40866897052541401 0.00084043267164977053 0 0.40336105594536298 -0.0041477388281668708 0 0.39321760861815841 0.0061077605428421378 0 0.38382375711823202 0.0046345748699598427 0 0.39584289766833841 -0.0071848871236637746 0 0.39321760861815841 0.0061077605428421378 0 0.38382375711823202 0.0046345748699598427 0 0.38955611348584679 0.024647038998268121 0 0.39321760861815841 0.0061077605428421378 0 0.38382375711823202 0.0046345748699598427 0 0.36599914633082947 0.022163058614241029 0 0.38382375711823202 0.0046345748699598427 0 0.37778714102223682 0.02331484962467225 0 0.37317808859647822 0.034225398516132828 0 0.38955611348584679 0.024647038998268121 0 0.38382375711823202 0.0046345748699598427 0 0.38955611348584679 0.024647038998268121 0 0.37778714102223682 0.02331484962467225 0 0.37317808859647822 0.034225398516132828 0 0.38955611348584679 0.024647038998268121 0 0.37778714102223682 0.02331484962467225 0 0.37317808859647822 0.034225398516132828 0 0.38955611348584679 0.024647038998268121 0 0.38428324096097499 0.05134521787475009 0 0.37036712815049061 0.048210502621681417 0 0.37317808859647822 0.034225398516132828 0 0.38428324096097499 0.05134521787475009 0 0.38955611348584679 0.024647038998268121 0 0.38428324096097499 0.05134521787475009 0 0.38428324096097499 0.05134521787475009 0 0.39940269767815972 0.056859100164669669 0 0.40206542685979041 0.040987403890005117 0 0.3920208138579182 0.06717964046938639 0 0.38428324096097499 0.05134521787475009 0 0.39940269767815972 0.056859100164669669 0 0.38955611348584679 0.024647038998268121 0 0.40206542685979041 0.040987403890005117 0 0.41531896041239791 0.0306196393110271 0 0.38955611348584679 0.024647038998268121 0 0.38428324096097499 0.05134521787475009 0 0.40206542685979041 0.040987403890005117 0 0.40206542685979041 0.040987403890005117 0 0.42436234114541821 0.042403717605747238 0 0.41531896041239791 0.0306196393110271 0 0.40206542685979041 0.040987403890005117 0 0.41843956690449668 0.056504164627157669 0 0.42436234114541821 0.042403717605747238 0 0.39940269767815972 0.056859100164669669 0 0.40206542685979041 0.040987403890005117 0 0.41843956690449668 0.056504164627157669 0 0.40413226790965529 0.070632643065209805 0 0.39940269767815972 0.056859100164669669 0 0.41843956690449668 0.056504164627157669 0 0.41843956690449668 0.056504164627157669 0 0.43116323785720961 0.049969518581928898 0 0.44101962223420038 0.060059279062109019 0 0.41843956690449668 0.056504164627157669 0 0.44101962223420038 0.060059279062109019 0 0.41843956690449668 0.056504164627157669 0 0.43116323785720961 0.049969518581928898 0 0.42436234114541821 0.042403717605747238 0 0.42436234114541821 0.042403717605747238 0 0.42778464214072442 0.029501398292696459 0 0.44083142114472312 0.040910913032701647 0 0.43116323785720961 0.049969518581928898 0 0.42436234114541821 0.042403717605747238 0 0.44083142114472312 0.040910913032701647 0 0.42436234114541821 0.042403717605747238 0 0.42778464214072442 0.029501398292696459 0 0.41531896041239791 0.0306196393110271 0 0.42778464214072442 0.029501398292696459 0 0.41532753770718023 0.0095751381954073643 0 0.44064322005524559 0.02176254700329432 0 0.42778464214072442 0.029501398292696459 0 0.44064322005524559 0.02176254700329432 0 0.44083142114472312 0.040910913032701647 0 0.38955611348584679 0.024647038998268121 0 0.41531896041239791 0.0306196393110271 0 0.41532753770718023 0.0095751381954073643 0 0.42778464214072442 0.029501398292696459 0 0.41531896041239791 0.0306196393110271 0 0.41532753770718023 0.0095751381954073643 0 0.41532753770718023 0.0095751381954073643 0 0.42611381172438428 0.0032670020744285789 0 0.40866897052541401 0.00084043267164977053 0 0.41532753770718023 0.0095751381954073643 0 0.41902260763332583 -0.0018871477833984119 0 0.41532753770718023 0.0095751381954073643 0 0.42611381172438428 0.0032670020744285789 0 0.41902260763332583 -0.0018871477833984119 0 0.41532753770718023 0.0095751381954073643 0 0.44188439354677878 0.01373990272674726 0 0.44064322005524559 0.02176254700329432 0 0.42611381172438428 0.0032670020744285789 0 0.44188439354677878 0.01373990272674726 0 0.42902897096264492 -0.0042686482322491174 0 0.41532753770718023 0.0095751381954073643 0 0.44188439354677878 0.01373990272674726 0 0.41532753770718023 0.0095751381954073643 0 0.42611381172438428 0.0032670020744285789 0 0.44188439354677878 0.01373990272674726 0 0.44188439354677878 0.01373990272674726 0 0.42902897096264492 -0.0042686482322491174 0 0.44188439354677878 0.01373990272674726 0 0.45799276648461301 0.0039916399069799451 0 0.4440821215548531 -0.0020077937309988859 0 0.44188439354677878 0.01373990272674726 0 0.4440821215548531 -0.0020077937309988859 0 0.42902897096264492 -0.0042686482322491174 0 0.44188439354677878 0.01373990272674726 0 0.44064322005524559 0.02176254700329432 0 0.44985002839194782 0.024898582271573631 0 0.44064322005524559 0.02176254700329432 0 0.44985002839194782 0.024898582271573631 0 0.44429059077557681 0.039235925349123957 0 0.44188439354677878 0.01373990272674726 0 0.44985002839194782 0.024898582271573631 0 0.4659390172436681 0.01751225605776692 0 0.44188439354677878 0.01373990272674726 0 0.44985002839194782 0.024898582271573631 0 0.44985002839194782 0.024898582271573631 0 0.4659390172436681 0.01751225605776692 0 0.46041353625474563 0.035419735428311942 0 0.44188439354677878 0.01373990272674726 0 0.4659390172436681 0.01751225605776692 0 0.4659390172436681 0.01751225605776692 0 0.46041353625474563 0.035419735428311942 0 0.4659390172436681 0.01751225605776692 0 0.45799276648461301 0.0039916399069799451 0 0.47238720687794861 -0.0033856210835209021 0 0.44188439354677878 0.01373990272674726 0 0.4659390172436681 0.01751225605776692 0 0.45799276648461301 0.0039916399069799451 0 0.44101962223420038 0.060059279062109019 0 0.44083142114472312 0.040910913032701647 0 0.44101962223420038 0.060059279062109019 0 0.44670962429745897 0.047701173100663352 0 0.44083142114472312 0.040910913032701647 0 0.43116323785720961 0.049969518581928898 0 0.44101962223420038 0.060059279062109019 0 0.44083142114472312 0.040910913032701647 0 0.44101962223420038 0.060059279062109019 0 0.44670962429745897 0.047701173100663352 0 0.45613378378570812 0.049289944954666952 0 0.45188688377837238 0.042911694708191617 0 0.44429059077557681 0.039235925349123957 0 0.46041353625474563 0.035419735428311942 0 0.44985002839194782 0.024898582271573631 0 0.44429059077557681 0.039235925349123957 0 0.46041353625474563 0.035419735428311942 0 0.44429059077557681 0.039235925349123957 0 0.46041353625474563 0.035419735428311942 0 0.44064322005524559 0.02176254700329432 0 0.44083142114472312 0.040910913032701647 0 0.44429059077557681 0.039235925349123957 0 0.44064322005524559 0.02176254700329432 0 0.44083142114472312 0.040910913032701647 0 0.44670962429745897 0.047701173100663352 0 0.45188688377837238 0.042911694708191617 0 0.44429059077557681 0.039235925349123957 0 0.44670962429745897 0.047701173100663352 0 0.45188688377837238 0.042911694708191617 0 0.45613378378570812 0.049289944954666952 0 0.44670962429745897 0.047701173100663352 0 0.44083142114472312 0.040910913032701647 0 0.44429059077557681 0.039235925349123957 0 0.46041353625474563 0.035419735428311942 0 0.45613378378570812 0.049289944954666952 0 0.47415060226476652 0.047255185577138779 0 0.45188688377837238 0.042911694708191617 0 0.46041353625474563 0.035419735428311942 0 0.45613378378570812 0.049289944954666952 0 0.46041353625474563 0.035419735428311942 0 0.45613378378570812 0.049289944954666952 0 0.47050981111710038 0.064702358747088753 0 0.45613378378570812 0.049289944954666952 0 0.47415060226476652 0.047255185577138779 0 0.47050981111710038 0.064702358747088753 0 0.44101962223420038 0.060059279062109019 0 0.45613378378570812 0.049289944954666952 0 0.47050981111710038 0.064702358747088753 0 0.44101962223420038 0.060059279062109019 0 0.47050981111710038 0.064702358747088753 0 0.47415060226476652 0.047255185577138779 0 0.48616510334546681 0.057250162076796812 0 0.46041353625474563 0.035419735428311942 0 0.48020676812737478 0.030734814049014049 0 0.46041353625474563 0.035419735428311942 0 0.47415060226476652 0.047255185577138779 0 0.48020676812737478 0.030734814049014049 0 0.47415060226476652 0.047255185577138779 0 0.5 0.04769766555089161 0 0.48020676812737478 0.030734814049014049 0 0.5 0.04769766555089161 0 0.48020676812737478 0.030734814049014049 0 0.50000000000000366 0.026049892669715049 0 0.50000000000000067 0.069345438432068085 0 0.5 0.04769766555089161 0 0.48616510334546681 0.057250162076796812 0 0.47415060226476652 0.047255185577138779 0 0.5 0.04769766555089161 0 0.48616510334546681 0.057250162076796812 0 0.4659390172436681 0.01751225605776692 0 0.47683851853448012 0.0098621813465796185 0 0.47238720687794861 -0.0033856210835209021 0 0.4659390172436681 0.01751225605776692 0 0.47238720687794861 -0.0033856210835209021 0 0.47683851853448012 0.0098621813465796185 0 0.48296950862183657 0.020183053642827829 0 0.4860583413944673 0.0051390367692453389 0 0.47683851853448012 0.0098621813465796185 0 0.4860583413944673 0.0051390367692453389 0 0.47238720687794861 -0.0033856210835209021 0 0.4659390172436681 0.01751225605776692 0 0.48020676812737478 0.030734814049014049 0 0.48296950862183657 0.020183053642827829 0 0.4659390172436681 0.01751225605776692 0 0.46041353625474563 0.035419735428311942 0 0.48020676812737478 0.030734814049014049 0 0.4659390172436681 0.01751225605776692 0 0.48296950862183657 0.020183053642827829 0 0.4659390172436681 0.01751225605776692 0 0.47683851853448012 0.0098621813465796185 0 0.48296950862183657 0.020183053642827829 0 0.48296950862183657 0.020183053642827829 0 0.50000000000000366 0.026049892669715049 0 0.50000000000000488 0.022853851227890191 0 0.48020676812737478 0.030734814049014049 0 0.50000000000000366 0.026049892669715049 0 0.48296950862183657 0.020183053642827829 0 0.50000000000000488 0.022853851227890191 0 0.48296950862183657 0.020183053642827829 0 0.50000000000000488 0.022853851227890191 0 0.4860583413944673 0.0051390367692453389 0 0.48020676812737478 0.030734814049014049 0 0.48296950862183657 0.020183053642827829 0 0.50000000000000366 0.026049892669715049 0 0.50000000000000488 0.022853851227890191 0 0.4860583413944673 0.0051390367692453389 0 0.5 -0.0070502846343831749 0 0.4860583413944673 0.0051390367692453389 0 0.48539293578850629 -0.010816366411807421 0 0.5 -0.0070502846343831749 0 0.4860583413944673 0.0051390367692453389 0 0.48539293578850629 -0.010816366411807421 0 0.47238720687794861 -0.0033856210835209021 0 0.47250816997415718 -0.01065708789369822 0 0.47238720687794861 -0.0033856210835209021 0 0.47883539651222401 -0.024283498224810209 0 0.47238720687794861 -0.0033856210835209021 0 0.47883539651222401 -0.024283498224810209 0 0.48539293578850629 -0.010816366411807421 0 0.47238720687794861 -0.0033856210835209021 0 0.47883539651222401 -0.024283498224810209 0 0.48539293578850629 -0.010816366411807421 0 0.47883539651222401 -0.024283498224810209 0 0.5 -0.036954420496656537 0 0.48539293578850629 -0.010816366411807421 0 0.5 -0.0070502846343831749 0 0.5 -0.036954420496656537 0 0.47883539651222401 -0.024283498224810209 0 0.5 -0.036954420496656537 0 0.47785653815921098 -0.04992989538101706 0 0.5 -0.036954420496656537 0 0.47785653815921098 -0.04992989538101706 0 0.5 -0.066858556358929899 0 0.47785653815921098 -0.04992989538101706 0 0.47750845018693938 -0.072180340200545146 0 0.45665965976846451 -0.064400147530065191 0 0.47883539651222401 -0.024283498224810209 0 0.47785653815921098 -0.04992989538101706 0 0.46766689801967642 -0.036140532834496232 0 0.46766689801967642 -0.036140532834496232 0 0.45396681631203528 -0.04368193354200342 0 0.45387504267478662 -0.022536102640373021 0 0.47785653815921098 -0.04992989538101706 0 0.46766689801967642 -0.036140532834496232 0 0.45396681631203528 -0.04368193354200342 0 0.47785653815921098 -0.04992989538101706 0 0.45396681631203528 -0.04368193354200342 0 0.45665965976846451 -0.064400147530065191 0 0.45665965976846451 -0.064400147530065191 0 0.43663422392225493 -0.055347139831893363 0 0.45396681631203528 -0.04368193354200342 0 0.45665965976846451 -0.064400147530065191 0 0.43663422392225493 -0.055347139831893363 0 0.45396681631203528 -0.04368193354200342 0 0.43524191537541601 -0.034415117387047833 0 0.43663422392225493 -0.055347139831893363 0 0.45396681631203528 -0.04368193354200342 0 0.45387504267478662 -0.022536102640373021 0 0.43524191537541601 -0.034415117387047833 0 0.45387504267478662 -0.022536102640373021 0 0.43524191537541601 -0.034415117387047833 0 0.44156621616131281 -0.015461818203072551 0 0.45387504267478662 -0.022536102640373021 0 0.43524191537541601 -0.034415117387047833 0 0.44156621616131281 -0.015461818203072551 0 0.4440821215548531 -0.0020077937309988859 0 0.43639355291961263 -0.0093908309790168235 0 0.44156621616131281 -0.015461818203072551 0 0.4440821215548531 -0.0020077937309988859 0 0.45728196880795452 -0.0077390437691694201 0 0.44156621616131281 -0.015461818203072551 0 0.45728196880795452 -0.0077390437691694201 0 0.45387504267478662 -0.022536102640373021 0 0.45799276648461301 0.0039916399069799451 0 0.4440821215548531 -0.0020077937309988859 0 0.45728196880795452 -0.0077390437691694201 0 0.47250816997415718 -0.01065708789369822 0 0.45728196880795452 -0.0077390437691694201 0 0.45387504267478662 -0.022536102640373021 0 0.47250816997415718 -0.01065708789369822 0 0.47238720687794861 -0.0033856210835209021 0 0.45728196880795452 -0.0077390437691694201 0 0.45799276648461301 0.0039916399069799451 0 0.47238720687794861 -0.0033856210835209021 0 0.45728196880795452 -0.0077390437691694201 0 0.47250816997415718 -0.01065708789369822 0 0.47883539651222401 -0.024283498224810209 0 0.45387504267478662 -0.022536102640373021 0 0.47883539651222401 -0.024283498224810209 0 0.46766689801967642 -0.036140532834496232 0 0.45387504267478662 -0.022536102640373021 0 0.47250816997415718 -0.01065708789369822 0 0.45387504267478662 -0.022536102640373021 0 0.48243877335194602 -0.11164641300803679 0 0.45909133198292129 -0.1097405911914678 0 0.47141046065717251 -0.13259826916789391 0 0.48243877335194602 -0.11164641300803679 0 0.5 -0.096762692221203261 0 0.5 -0.12666682808347679 0 0.48243877335194602 -0.11164641300803679 0 0.5 -0.12666682808347679 0 0.47141046065717251 -0.13259826916789391 0 0.48243877335194602 -0.11164641300803679 0 0.5 -0.096762692221203261 0 0.47401098260232088 -0.094859863720988855 0 0.48243877335194602 -0.11164641300803679 0 0.47401098260232088 -0.094859863720988855 0 0.45909133198292129 -0.1097405911914678 0 0.5 -0.096762692221203261 0 0.47401098260232088 -0.094859863720988855 0 0.47750845018693938 -0.072180340200545146 0 0.5 -0.096762692221203261 0 0.5 -0.066858556358929899 0 0.47750845018693938 -0.072180340200545146 0 0.47785653815921098 -0.04992989538101706 0 0.5 -0.066858556358929899 0 0.47750845018693938 -0.072180340200545146 0 0.47750845018693938 -0.072180340200545146 0 0.45665965976846451 -0.064400147530065191 0 0.45167029117592372 -0.083572868370439798 0 0.44441122164829788 -0.070311632498723492 0 0.43268071172654882 -0.077926374262495587 0 0.43663422392225493 -0.055347139831893363 0 0.45665965976846451 -0.064400147530065191 0 0.44441122164829788 -0.070311632498723492 0 0.43663422392225493 -0.055347139831893363 0 0.45665965976846451 -0.064400147530065191 0 0.44441122164829788 -0.070311632498723492 0 0.45167029117592372 -0.083572868370439798 0 0.44441122164829788 -0.070311632498723492 0 0.45167029117592372 -0.083572868370439798 0 0.43268071172654882 -0.077926374262495587 0 0.45167029117592372 -0.083572868370439798 0 0.43961583453722758 -0.1023112712011507 0 0.43268071172654882 -0.077926374262495587 0 0.47401098260232088 -0.094859863720988855 0 0.47750845018693938 -0.072180340200545146 0 0.45167029117592372 -0.083572868370439798 0 0.47401098260232088 -0.094859863720988855 0 0.45167029117592372 -0.083572868370439798 0 0.45909133198292129 -0.1097405911914678 0 0.45167029117592372 -0.083572868370439798 0 0.43961583453722758 -0.1023112712011507 0 0.45909133198292129 -0.1097405911914678 0 0.43961583453722758 -0.1023112712011507 0 0.45909133198292129 -0.1097405911914678 0 0.44655095734790629 -0.1266961681398058 0 0.43961583453722758 -0.1023112712011507 0 0.44655095734790629 -0.1266961681398058 0 0.45909133198292129 -0.1097405911914678 0 0.44655095734790629 -0.1266961681398058 0 0.47141046065717251 -0.13259826916789391 0 0.42599102573534869 -0.12054499986971449 0 0.41631695511098549 -0.1001062752680104 0 0.4000778861949239 -0.1169583502240253 0 0.43961583453722758 -0.1023112712011507 0 0.42599102573534869 -0.12054499986971449 0 0.44655095734790629 -0.1266961681398058 0 0.43961583453722758 -0.1023112712011507 0 0.42599102573534869 -0.12054499986971449 0 0.41631695511098549 -0.1001062752680104 0 0.41631695511098549 -0.1001062752680104 0 0.43268071172654882 -0.077926374262495587 0 0.40567417254765298 -0.080610831813335393 0 0.43961583453722758 -0.1023112712011507 0 0.43268071172654882 -0.077926374262495587 0 0.43961583453722758 -0.1023112712011507 0 0.41631695511098549 -0.1001062752680104 0 0.43268071172654882 -0.077926374262495587 0 0.43268071172654882 -0.077926374262495587 0 0.42574558891587011 -0.053541477323840347 0 0.43268071172654882 -0.077926374262495587 0 0.41269990568370712 -0.066447160205438338 0 0.42574558891587011 -0.053541477323840347 0 0.43268071172654882 -0.077926374262495587 0 0.41269990568370712 -0.066447160205438338 0 0.40567417254765298 -0.080610831813335393 0 0.41631695511098549 -0.1001062752680104 0 0.38397765249956251 -0.092453403817774643 0 0.40567417254765298 -0.080610831813335393 0 0.39788563835686469 -0.068957556063373227 0 0.38715483983987359 -0.074637146742684624 0 0.40567417254765298 -0.080610831813335393 0 0.41269990568370712 -0.066447160205438338 0 0.39788563835686469 -0.068957556063373227 0 0.40308599478014512 -0.060837850326274617 0 0.41269990568370712 -0.066447160205438338 0 0.39788563835686469 -0.068957556063373227 0 0.40567417254765298 -0.080610831813335393 0 0.39788563835686469 -0.068957556063373227 0 0.38712880738954242 -0.064020364886393691 0 0.39414164869935348 -0.056652903392408277 0 0.39788563835686469 -0.068957556063373227 0 0.38712880738954242 -0.064020364886393691 0 0.38715483983987359 -0.074637146742684624 0 0.38712880738954242 -0.064020364886393691 0 0.37860592874597487 -0.065910332619155132 0 0.38715483983987359 -0.074637146742684624 0 0.37860592874597487 -0.065910332619155132 0 0.38715483983987359 -0.074637146742684624 0 0.367877418804201 -0.067948457411523944 0 0.38397765249956251 -0.092453403817774643 0 0.367877418804201 -0.067948457411523944 0 0.38715483983987359 -0.074637146742684624 0 0.38397765249956251 -0.092453403817774643 0 0.367877418804201 -0.067948457411523944 0 0.38715483983987359 -0.074637146742684624 0 0.38397765249956251 -0.092453403817774643 0 0.40567417254765298 -0.080610831813335393 0 0.41631695511098549 -0.1001062752680104 0 0.38397765249956251 -0.092453403817774643 0 0.4000778861949239 -0.1169583502240253 0 0.38397765249956251 -0.092453403817774643 0 0.4000778861949239 -0.1169583502240253 0 0.38397765249956251 -0.092453403817774643 0 0.377531650343081 -0.11818312845693291 0 0.4000778861949239 -0.1169583502240253 0 0.377531650343081 -0.11818312845693291 0 0.4000778861949239 -0.1169583502240253 0 0.39081372193917802 -0.13921075430993471 0 0.41617354837850401 -0.022277199191240549 0 0.40331812579436482 -0.040285750150233238 0 0.40004134521566709 -0.028442921163632829 0 0.41617354837850401 -0.022277199191240549 0 0.40568453858840048 -0.019707946809430801 0 0.40004134521566709 -0.028442921163632829 0 0.41617354837850401 -0.022277199191240549 0 0.42200058775885591 -0.031806908612775457 0 0.41452526250194238 -0.035165997521992877 0 0.41617354837850401 -0.022277199191240549 0 0.41343808224476869 -0.011039096853305791 0 0.40568453858840048 -0.019707946809430801 0 0.41343808224476869 -0.011039096853305791 0 0.40568453858840048 -0.019707946809430801 0 0.40595925382499881 -0.01323156054509427 0 0.41617354837850401 -0.022277199191240549 0 0.41343808224476869 -0.011039096853305791 0 0.42902897096264492 -0.0042686482322491174 0 0.40728443312674051 -0.009432454321143896 0 0.41343808224476869 -0.011039096853305791 0 0.40595925382499881 -0.01323156054509427 0 0.40728443312674051 -0.009432454321143896 0 0.41343808224476869 -0.011039096853305791 0 0.41241604272304189 -0.0054458487684321318 0 0.40866897052541401 0.00084043267164977053 0 0.41241604272304189 -0.0054458487684321318 0 0.41902260763332583 -0.0018871477833984119 0 0.40728443312674051 -0.009432454321143896 0 0.41241604272304189 -0.0054458487684321318 0 0.40336105594536298 -0.0041477388281668708 0 0.40866897052541401 0.00084043267164977053 0 0.41241604272304189 -0.0054458487684321318 0 0.40336105594536298 -0.0041477388281668708 0 0.41343808224476869 -0.011039096853305791 0 0.41241604272304189 -0.0054458487684321318 0 0.41902260763332583 -0.0018871477833984119 0 0.41343808224476869 -0.011039096853305791 0 0.41902260763332583 -0.0018871477833984119 0 0.42902897096264492 -0.0042686482322491174 0 0.41617354837850401 -0.022277199191240549 0 0.42902897096264492 -0.0042686482322491174 0 0.42930457856916521 -0.018754168978605879 0 0.41617354837850401 -0.022277199191240549 0 0.42902897096264492 -0.0042686482322491174 0 0.42611381172438428 0.0032670020744285789 0 0.41902260763332583 -0.0018871477833984119 0 0.42902897096264492 -0.0042686482322491174 0 0.4440821215548531 -0.0020077937309988859 0 0.42902897096264492 -0.0042686482322491174 0 0.43639355291961263 -0.0093908309790168235 0 0.42902897096264492 -0.0042686482322491174 0 0.43639355291961263 -0.0093908309790168235 0 0.42930457856916521 -0.018754168978605879 0 0.44156621616131281 -0.015461818203072551 0 0.43639355291961263 -0.0093908309790168235 0 0.42930457856916521 -0.018754168978605879 0 0.42930457856916521 -0.018754168978605879 0 0.43524191537541601 -0.034415117387047833 0 0.42200058775885591 -0.031806908612775457 0 0.44156621616131281 -0.015461818203072551 0 0.42930457856916521 -0.018754168978605879 0 0.43524191537541601 -0.034415117387047833 0 0.41617354837850401 -0.022277199191240549 0 0.42930457856916521 -0.018754168978605879 0 0.42200058775885591 -0.031806908612775457 0 0.43524191537541601 -0.034415117387047833 0 0.41660878807604512 -0.046294132133722271 0 0.43524191537541601 -0.034415117387047833 0 0.42200058775885591 -0.031806908612775457 0 0.41660878807604512 -0.046294132133722271 0 0.43524191537541601 -0.034415117387047833 0 0.43663422392225493 -0.055347139831893363 0 0.41660878807604512 -0.046294132133722271 0 0.43268071172654882 -0.077926374262495587 0 0.43663422392225493 -0.055347139831893363 0 0.42574558891587011 -0.053541477323840347 0 0.43663422392225493 -0.055347139831893363 0 0.42574558891587011 -0.053541477323840347 0 0.41660878807604512 -0.046294132133722271 0 0.43663422392225493 -0.055347139831893363 0 0.41660878807604512 -0.046294132133722271 0 0.41269990568370712 -0.066447160205438338 0 0.42574558891587011 -0.053541477323840347 0 0.4124232741800965 -0.056362711209388933 0 0.42574558891587011 -0.053541477323840347 0 0.4124232741800965 -0.056362711209388933 0 0.41660878807604512 -0.046294132133722271 0 0.41660878807604512 -0.046294132133722271 0 0.40380515982995763 -0.054456717313471577 0 0.40546178997150689 -0.047152760207232088 0 0.4124232741800965 -0.056362711209388933 0 0.41660878807604512 -0.046294132133722271 0 0.40380515982995763 -0.054456717313471577 0 0.41660878807604512 -0.046294132133722271 0 0.40380515982995763 -0.054456717313471577 0 0.41269990568370712 -0.066447160205438338 0 0.4124232741800965 -0.056362711209388933 0 0.40308599478014512 -0.060837850326274617 0 0.4124232741800965 -0.056362711209388933 0 0.40308599478014512 -0.060837850326274617 0 0.40380515982995763 -0.054456717313471577 0 0.41617354837850401 -0.022277199191240549 0 0.40331812579436482 -0.040285750150233238 0 0.41617354837850401 -0.022277199191240549 0 0.41452526250194238 -0.035165997521992877 0 0.40331812579436482 -0.040285750150233238 0 0.42200058775885591 -0.031806908612775457 0 0.41452526250194238 -0.035165997521992877 0 0.41660878807604512 -0.046294132133722271 0 0.41660878807604512 -0.046294132133722271 0 0.40331812579436482 -0.040285750150233238 0 0.41660878807604512 -0.046294132133722271 0 0.40331812579436482 -0.040285750150233238 0 0.40546178997150689 -0.047152760207232088 0 0.41452526250194238 -0.035165997521992877 0 0.41660878807604512 -0.046294132133722271 0 0.40331812579436482 -0.040285750150233238 0 0.40331812579436482 -0.040285750150233238 0 0.38489540429013558 -0.031957290241550522 0 0.39040469671237632 -0.043485170247506678 0 0.40331812579436482 -0.040285750150233238 0 0.38489540429013558 -0.031957290241550522 0 0.40004134521566709 -0.028442921163632829 0 0.40331812579436482 -0.040285750150233238 0 0.38489540429013558 -0.031957290241550522 0 0.40331812579436482 -0.040285750150233238 0 0.39811508618566022 -0.047574441231501258 0 0.40331812579436482 -0.040285750150233238 0 0.40546178997150689 -0.047152760207232088 0 0.39811508618566022 -0.047574441231501258 0 0.40331812579436482 -0.040285750150233238 0 0.39811508618566022 -0.047574441231501258 0 0.39040469671237632 -0.043485170247506678 0 0.40308599478014512 -0.060837850326274617 0 0.40380515982995763 -0.054456717313471577 0 0.39414164869935348 -0.056652903392408277 0 0.40380515982995763 -0.054456717313471577 0 0.39811508618566022 -0.047574441231501258 0 0.39414164869935348 -0.056652903392408277 0 0.40380515982995763 -0.054456717313471577 0 0.40546178997150689 -0.047152760207232088 0 0.39811508618566022 -0.047574441231501258 0 0.39811508618566022 -0.047574441231501258 0 0.39075267398097352 -0.050566671785063563 0 0.39414164869935348 -0.056652903392408277 0 0.39811508618566022 -0.047574441231501258 0 0.39075267398097352 -0.050566671785063563 0 0.39040469671237632 -0.043485170247506678 0 0.39075267398097352 -0.050566671785063563 0 0.39414164869935348 -0.056652903392408277 0 0.38716095432298497 -0.05577919591507341 0 0.39788563835686469 -0.068957556063373227 0 0.40308599478014512 -0.060837850326274617 0 0.39414164869935348 -0.056652903392408277 0 0.38712880738954242 -0.064020364886393691 0 0.38716095432298497 -0.05577919591507341 0 0.37790393092896729 -0.057362288634667587 0 0.38712880738954242 -0.064020364886393691 0 0.39414164869935348 -0.056652903392408277 0 0.38716095432298497 -0.05577919591507341 0 0.38716095432298497 -0.05577919591507341 0 0.38394098398449239 -0.049341648138828152 0 0.37790393092896729 -0.057362288634667587 0 0.39075267398097352 -0.050566671785063563 0 0.38716095432298497 -0.05577919591507341 0 0.38394098398449239 -0.049341648138828152 0 0.39075267398097352 -0.050566671785063563 0 0.38394098398449239 -0.049341648138828152 0 0.39040469671237632 -0.043485170247506678 0 0.38394098398449239 -0.049341648138828152 0 0.37790393092896729 -0.057362288634667587 0 0.37256074689908181 -0.048143954845173878 0 0.38712880738954242 -0.064020364886393691 0 0.37860592874597487 -0.065910332619155132 0 0.37790393092896729 -0.057362288634667587 0 0.37860592874597487 -0.065910332619155132 0 0.37790393092896729 -0.057362288634667587 0 0.37256210544576412 -0.062113062608914471 0 0.38489540429013558 -0.031957290241550522 0 0.37984251461446161 -0.041867490335570363 0 0.36741074118622208 -0.03640938820479258 0 0.38394098398449239 -0.049341648138828152 0 0.39040469671237632 -0.043485170247506678 0 0.37984251461446161 -0.041867490335570363 0 0.38489540429013558 -0.031957290241550522 0 0.39040469671237632 -0.043485170247506678 0 0.37984251461446161 -0.041867490335570363 0 0.38394098398449239 -0.049341648138828152 0 0.37984251461446161 -0.041867490335570363 0 0.37256074689908181 -0.048143954845173878 0 0.38489540429013558 -0.031957290241550522 0 0.36647268278590661 -0.023628830332867449 0 0.38489540429013558 -0.031957290241550522 0 0.37926200528762849 -0.020296695835783529 0 0.36647268278590661 -0.023628830332867449 0 0.37926200528762849 -0.020296695835783529 0 0.3897001344472939 -0.02095124803312887 0 0.38712380876863389 -0.01241429637512821 0 0.38489540429013558 -0.031957290241550522 0 0.37926200528762849 -0.020296695835783529 0 0.3897001344472939 -0.02095124803312887 0 0.38489540429013558 -0.031957290241550522 0 0.3897001344472939 -0.02095124803312887 0 0.40004134521566709 -0.028442921163632829 0 0.40004134521566709 -0.028442921163632829 0 0.39584289766833841 -0.0071848871236637746 0 0.40568453858840048 -0.019707946809430801 0 0.40004134521566709 -0.028442921163632829 0 0.39983447257892601 -0.01111014848105445 0 0.3897001344472939 -0.02095124803312887 0 0.40004134521566709 -0.028442921163632829 0 0.39584289766833841 -0.0071848871236637746 0 0.40004134521566709 -0.028442921163632829 0 0.39983447257892601 -0.01111014848105445 0 0.39584289766833841 -0.0071848871236637746 0 0.40336105594536298 -0.0041477388281668708 0 0.39983447257892601 -0.01111014848105445 0 0.39584289766833841 -0.0071848871236637746 0 0.40728443312674051 -0.009432454321143896 0 0.40595925382499881 -0.01323156054509427 0 0.39983447257892601 -0.01111014848105445 0 0.40568453858840048 -0.019707946809430801 0 0.40595925382499881 -0.01323156054509427 0 0.39983447257892601 -0.01111014848105445 0 0.40728443312674051 -0.009432454321143896 0 0.40336105594536298 -0.0041477388281668708 0 0.39983447257892601 -0.01111014848105445 0 0.3897001344472939 -0.02095124803312887 0 0.39584289766833841 -0.0071848871236637746 0 0.38712380876863389 -0.01241429637512821 0 0.39983447257892601 -0.01111014848105445 0 0.39584289766833841 -0.0071848871236637746 0 0.39321760861815841 0.0061077605428421378 0 0.40336105594536298 -0.0041477388281668708 0 0.39584289766833841 -0.0071848871236637746 0 0.39321760861815841 0.0061077605428421378 0 0.39584289766833841 -0.0071848871236637746 0 0.38382375711823202 0.0046345748699598427 0 0.39584289766833841 -0.0071848871236637746 0 0.37926200528762849 -0.020296695835783529 0 0.38712380876863389 -0.01241429637512821 0 0.36958213714694382 -0.01070440389615673 0 0.36459978185581599 0.0016197853629371991 0 0.38382375711823202 0.0046345748699598427 0 0.38712380876863389 -0.01241429637512821 0 0.38382375711823202 0.0046345748699598427 0 0.39584289766833841 -0.0071848871236637746 0 0.38712380876863389 -0.01241429637512821 0 0.36459978185581599 0.0016197853629371991 0 0.38712380876863389 -0.01241429637512821 0 0.36459978185581599 0.0016197853629371991 0 0.38712380876863389 -0.01241429637512821 0 0.36958213714694382 -0.01070440389615673 0 0.36958213714694382 -0.01070440389615673 0 0.36390959287229319 -0.00571944909010089 0 0.34804996128167759 -0.0153003704241844 0 0.36459978185581599 0.0016197853629371991 0 0.36958213714694382 -0.01070440389615673 0 0.36390959287229319 -0.00571944909010089 0 0.36459978185581599 0.0016197853629371991 0 0.35766033028314259 0.00053150962912805184 0 0.35857616837682899 -0.0032493280030100671 0 0.36459978185581599 0.0016197853629371991 0 0.36390959287229319 -0.00571944909010089 0 0.35857616837682899 -0.0032493280030100671 0 0.36647268278590661 -0.023628830332867449 0 0.35061344207100081 -0.031077514328909681 0 0.36741074118622208 -0.03640938820479258 0 0.36958213714694382 -0.01070440389615673 0 0.36647268278590661 -0.023628830332867449 0 0.34804996128167759 -0.0153003704241844 0 0.38489540429013558 -0.031957290241550522 0 0.36647268278590661 -0.023628830332867449 0 0.36741074118622208 -0.03640938820479258 0 0.37926200528762849 -0.020296695835783529 0 0.36958213714694382 -0.01070440389615673 0 0.36647268278590661 -0.023628830332867449 0 0.36647268278590661 -0.023628830332867449 0 0.34804996128167759 -0.0153003704241844 0 0.36647268278590661 -0.023628830332867449 0 0.35061344207100081 -0.031077514328909681 0 0.34804996128167759 -0.0153003704241844 0 0.35766033028314259 0.00053150962912805184 0 0.34186169234775288 -0.0019461032070706239 0 0.35766033028314259 0.00053150962912805184 0 0.35074932873207337 -0.0056413875646207229 0 0.34186169234775288 -0.0019461032070706239 0 0.36390959287229319 -0.00571944909010089 0 0.35857616837682899 -0.0032493280030100671 0 0.34804996128167759 -0.0153003704241844 0 0.35766033028314259 0.00053150962912805184 0 0.35857616837682899 -0.0032493280030100671 0 0.35074932873207337 -0.0056413875646207229 0 0.35766033028314259 0.00053150962912805184 0 0.35857616837682899 -0.0032493280030100671 0 0.35857616837682899 -0.0032493280030100671 0 0.34804996128167759 -0.0153003704241844 0 0.35074932873207337 -0.0056413875646207229 0 0.34804996128167759 -0.0153003704241844 0 0.35074932873207337 -0.0056413875646207229 0 0.34186169234775288 -0.0019461032070706239 0 0.34186169234775288 -0.0019461032070706239 0 0.33141434204394188 -0.026190427544278371 0 0.33040276643443328 0.0077194922335834752 0 0.34186169234775288 -0.0019461032070706239 0 0.3153171152914937 -0.0061089421248620053 0 0.34186169234775288 -0.0019461032070706239 0 0.3153171152914937 -0.0061089421248620053 0 0.34186169234775288 -0.0019461032070706239 0 0.33141434204394188 -0.026190427544278371 0 0.3153171152914937 -0.0061089421248620053 0 0.34804996128167759 -0.0153003704241844 0 0.34186169234775288 -0.0019461032070706239 0 0.33141434204394188 -0.026190427544278371 0 0.35061344207100081 -0.031077514328909681 0 0.34804996128167759 -0.0153003704241844 0 0.33141434204394188 -0.026190427544278371 0 0.33141434204394188 -0.026190427544278371 0 0.3153171152914937 -0.0061089421248620053 0 0.31048683641877761 -0.02647334588461828 0 0.3209669917401119 -0.050434751881478029 0 0.31198502812308032 -0.071278471368552754 0 0.33141434204394188 -0.026190427544278371 0 0.3209669917401119 -0.050434751881478029 0 0.33141434204394188 -0.026190427544278371 0 0.3209669917401119 -0.050434751881478029 0 0.31048683641877761 -0.02647334588461828 0 0.33141434204394188 -0.026190427544278371 0 0.3209669917401119 -0.050434751881478029 0 0.33855574001941718 -0.04149255846206204 0 0.35061344207100081 -0.031077514328909681 0 0.33141434204394188 -0.026190427544278371 0 0.33855574001941718 -0.04149255846206204 0 0.3209669917401119 -0.050434751881478029 0 0.34287915089856957 -0.057469557547578237 0 0.32994565146579879 -0.070408000129971129 0 0.3209669917401119 -0.050434751881478029 0 0.34287915089856957 -0.057469557547578237 0 0.3209669917401119 -0.050434751881478029 0 0.33855574001941718 -0.04149255846206204 0 0.34287915089856957 -0.057469557547578237 0 0.34287915089856957 -0.057469557547578237 0 0.36536635039603249 -0.064126550355458833 0 0.3517771851088396 -0.04344351100527323 0 0.36536635039603249 -0.064126550355458833 0 0.34287915089856957 -0.057469557547578237 0 0.3517771851088396 -0.04344351100527323 0 0.36536635039603249 -0.064126550355458833 0 0.33855574001941718 -0.04149255846206204 0 0.34287915089856957 -0.057469557547578237 0 0.3517771851088396 -0.04344351100527323 0 0.35061344207100081 -0.031077514328909681 0 0.3517771851088396 -0.04344351100527323 0 0.36741074118622208 -0.03640938820479258 0 0.35061344207100081 -0.031077514328909681 0 0.33855574001941718 -0.04149255846206204 0 0.3517771851088396 -0.04344351100527323 0 0.3517771851088396 -0.04344351100527323 0 0.36472778273402628 -0.046144250895080723 0 0.36741074118622208 -0.03640938820479258 0 0.37984251461446161 -0.041867490335570363 0 0.36741074118622208 -0.03640938820479258 0 0.37256074689908181 -0.048143954845173878 0 0.36472778273402628 -0.046144250895080723 0 0.36741074118622208 -0.03640938820479258 0 0.37256074689908181 -0.048143954845173878 0 0.3517771851088396 -0.04344351100527323 0 0.36716245774196171 -0.056580149525083182 0 0.36536635039603249 -0.064126550355458833 0 0.3517771851088396 -0.04344351100527323 0 0.36472778273402628 -0.046144250895080723 0 0.36716245774196171 -0.056580149525083182 0 0.37790393092896729 -0.057362288634667587 0 0.36716245774196171 -0.056580149525083182 0 0.37256074689908181 -0.048143954845173878 0 0.36472778273402628 -0.046144250895080723 0 0.36716245774196171 -0.056580149525083182 0 0.37256074689908181 -0.048143954845173878 0 0.36716245774196171 -0.056580149525083182 0 0.37256210544576412 -0.062113062608914471 0 0.367877418804201 -0.067948457411523944 0 0.37790393092896729 -0.057362288634667587 0 0.36716245774196171 -0.056580149525083182 0 0.37256210544576412 -0.062113062608914471 0 0.37860592874597487 -0.065910332619155132 0 0.37256210544576412 -0.062113062608914471 0 0.367877418804201 -0.067948457411523944 0 0.36716245774196171 -0.056580149525083182 0 0.367877418804201 -0.067948457411523944 0 0.36536635039603249 -0.064126550355458833 0 0.36536635039603249 -0.064126550355458833 0 0.36199140161628118 -0.070693499331433679 0 0.35432834397913621 -0.068042042597914673 0 0.367877418804201 -0.067948457411523944 0 0.36536635039603249 -0.064126550355458833 0 0.367877418804201 -0.067948457411523944 0 0.36536635039603249 -0.064126550355458833 0 0.36199140161628118 -0.070693499331433679 0 0.367877418804201 -0.067948457411523944 0 0.36199140161628118 -0.070693499331433679 0 0.36681486797569479 -0.079448043400362392 0 0.36199140161628118 -0.070693499331433679 0 0.36681486797569479 -0.079448043400362392 0 0.35701387758556968 -0.076067074508636423 0 0.38397765249956251 -0.092453403817774643 0 0.367877418804201 -0.067948457411523944 0 0.36681486797569479 -0.079448043400362392 0 0.38397765249956251 -0.092453403817774643 0 0.36328287045184932 -0.090591602182129582 0 0.36681486797569479 -0.079448043400362392 0 0.36328287045184932 -0.090591602182129582 0 0.36681486797569479 -0.079448043400362392 0 0.35701387758556968 -0.076067074508636423 0 0.36328287045184932 -0.090591602182129582 0 0.3503140659036772 -0.084187620873411792 0 0.35701387758556968 -0.076067074508636423 0 0.3503140659036772 -0.084187620873411792 0 0.34496597973823279 -0.071475718388247636 0 0.33602886641856522 -0.088125389228978279 0 0.36328287045184932 -0.090591602182129582 0 0.3503140659036772 -0.084187620873411792 0 0.3486820652911754 -0.097691542219808747 0 0.3503140659036772 -0.084187620873411792 0 0.3486820652911754 -0.097691542219808747 0 0.33602886641856522 -0.088125389228978279 0 0.34287915089856957 -0.057469557547578237 0 0.36536635039603249 -0.064126550355458833 0 0.35432834397913621 -0.068042042597914673 0 0.3503140659036772 -0.084187620873411792 0 0.34496597973823279 -0.071475718388247636 0 0.35701387758556968 -0.076067074508636423 0 0.34287915089856957 -0.057469557547578237 0 0.34496597973823279 -0.071475718388247636 0 0.35432834397913621 -0.068042042597914673 0 0.36199140161628118 -0.070693499331433679 0 0.35432834397913621 -0.068042042597914673 0 0.35701387758556968 -0.076067074508636423 0 0.34496597973823279 -0.071475718388247636 0 0.35432834397913621 -0.068042042597914673 0 0.35701387758556968 -0.076067074508636423 0 0.377531650343081 -0.11818312845693291 0 0.3605480264482771 -0.1076531473471193 0 0.35743407601693239 -0.1234387315732044 0 0.38397765249956251 -0.092453403817774643 0 0.36328287045184932 -0.090591602182129582 0 0.3605480264482771 -0.1076531473471193 0 0.38397765249956251 -0.092453403817774643 0 0.377531650343081 -0.11818312845693291 0 0.3605480264482771 -0.1076531473471193 0 0.36328287045184932 -0.090591602182129582 0 0.3605480264482771 -0.1076531473471193 0 0.3486820652911754 -0.097691542219808747 0 0.3605480264482771 -0.1076531473471193 0 0.3486820652911754 -0.097691542219808747 0 0.34549152156418572 -0.11268068622347339 0 0.35743407601693239 -0.1234387315732044 0 0.34549152156418572 -0.11268068622347339 0 0.33916847671495948 -0.1272035077980376 0 0.3605480264482771 -0.1076531473471193 0 0.35743407601693239 -0.1234387315732044 0 0.34549152156418572 -0.11268068622347339 0 0.34549152156418572 -0.11268068622347339 0 0.32951021368732453 -0.1144084130127828 0 0.33916847671495948 -0.1272035077980376 0 0.32951021368732453 -0.1144084130127828 0 0.32166324728259499 -0.13135633786462661 0 0.33916847671495948 -0.1272035077980376 0 0.34549152156418572 -0.11268068622347339 0 0.32951021368732453 -0.1144084130127828 0 0.33665901951003208 -0.1023726452224928 0 0.32951021368732453 -0.1144084130127828 0 0.33665901951003208 -0.1023726452224928 0 0.32142436305900579 -0.099761858768234152 0 0.3486820652911754 -0.097691542219808747 0 0.34549152156418572 -0.11268068622347339 0 0.33665901951003208 -0.1023726452224928 0 0.3486820652911754 -0.097691542219808747 0 0.33665901951003208 -0.1023726452224928 0 0.33602886641856522 -0.088125389228978279 0 0.33665901951003208 -0.1023726452224928 0 0.32142436305900579 -0.099761858768234152 0 0.33602886641856522 -0.088125389228978279 0 0.32951021368732453 -0.1144084130127828 0 0.32142436305900579 -0.099761858768234152 0 0.31265465399316889 -0.11307544219983209 0 0.31265465399316889 -0.11307544219983209 0 0.30585118941309869 -0.12691687349975089 0 0.32166324728259499 -0.13135633786462661 0 0.32951021368732453 -0.1144084130127828 0 0.31265465399316889 -0.11307544219983209 0 0.32166324728259499 -0.13135633786462661 0 0.34496597973823279 -0.071475718388247636 0 0.32994565146579879 -0.070408000129971129 0 0.33602886641856522 -0.088125389228978279 0 0.34287915089856957 -0.057469557547578237 0 0.34496597973823279 -0.071475718388247636 0 0.32994565146579879 -0.070408000129971129 0 0.32994565146579879 -0.070408000129971129 0 0.33602886641856522 -0.088125389228978279 0 0.32304291409474239 -0.084410454359534426 0 0.32142436305900579 -0.099761858768234152 0 0.32304291409474239 -0.084410454359534426 0 0.3030030645060493 -0.0921221908556277 0 0.32304291409474239 -0.084410454359534426 0 0.31198502812308032 -0.071278471368552754 0 0.3030030645060493 -0.0921221908556277 0 0.32304291409474239 -0.084410454359534426 0 0.3030030645060493 -0.0921221908556277 0 0.32142436305900579 -0.099761858768234152 0 0.33602886641856522 -0.088125389228978279 0 0.32304291409474239 -0.084410454359534426 0 0.32994565146579879 -0.070408000129971129 0 0.32304291409474239 -0.084410454359534426 0 0.31198502812308032 -0.071278471368552754 0 0.3209669917401119 -0.050434751881478029 0 0.32994565146579879 -0.070408000129971129 0 0.31198502812308032 -0.071278471368552754 0 0.31198502812308032 -0.071278471368552754 0 0.29969182285399132 -0.062832736685797821 0 0.29546637918640728 -0.07763776604170057 0 0.31198502812308032 -0.071278471368552754 0 0.3030030645060493 -0.0921221908556277 0 0.29546637918640728 -0.07763776604170057 0 0.31198502812308032 -0.071278471368552754 0 0.3030030645060493 -0.0921221908556277 0 0.3030030645060493 -0.0921221908556277 0 0.28427873383264662 -0.08643932501553736 0 0.29546637918640728 -0.07763776604170057 0 0.3030030645060493 -0.0921221908556277 0 0.28427873383264662 -0.08643932501553736 0 0.27608284085717177 -0.10248163343912969 0 0.28427873383264662 -0.08643932501553736 0 0.29546637918640728 -0.07763776604170057 0 0.27612109171129889 -0.072480719732976595 0 0.29969182285399132 -0.062832736685797821 0 0.27612109171129889 -0.072480719732976595 0 0.29969182285399132 -0.062832736685797821 0 0.27612109171129889 -0.072480719732976595 0 0.28162267234533322 -0.054423897587784917 0 0.29969182285399132 -0.062832736685797821 0 0.29546637918640728 -0.07763776604170057 0 0.27612109171129889 -0.072480719732976595 0 0.29380685764977238 -0.11346308737115909 0 0.29097746285681292 -0.13296084054707949 0 0.30585118941309869 -0.12691687349975089 0 0.31265465399316889 -0.11307544219983209 0 0.29380685764977238 -0.11346308737115909 0 0.30585118941309869 -0.12691687349975089 0 0.31265465399316889 -0.11307544219983209 0 0.3030030645060493 -0.0921221908556277 0 0.29380685764977238 -0.11346308737115909 0 0.32142436305900579 -0.099761858768234152 0 0.31265465399316889 -0.11307544219983209 0 0.3030030645060493 -0.0921221908556277 0 0.3030030645060493 -0.0921221908556277 0 0.29380685764977238 -0.11346308737115909 0 0.3030030645060493 -0.0921221908556277 0 0.27608284085717177 -0.10248163343912969 0 0.3030030645060493 -0.0921221908556277 0 0.29380685764977238 -0.11346308737115909 0 0.27608284085717177 -0.10248163343912969 0 0.29380685764977238 -0.11346308737115909 0 0.2759419647077706 -0.11943119333582231 0 0.29097746285681292 -0.13296084054707949 0 0.29380685764977238 -0.11346308737115909 0 0.2759419647077706 -0.11943119333582231 0 0.27608284085717177 -0.10248163343912969 0 0.2759419647077706 -0.11943119333582231 0 0.27608284085717177 -0.10248163343912969 0 0.24916261720829391 -0.1128410760226309 0 0.27608284085717177 -0.10248163343912969 0 0.24916261720829391 -0.1128410760226309 0 0.27608284085717177 -0.10248163343912969 0 0.27072029290230593 -0.087474315008252257 0 0.24916261720829391 -0.1128410760226309 0 0.27072029290230593 -0.087474315008252257 0 0.25255036056860641 -0.082128702780155355 0 0.24916261720829391 -0.1128410760226309 0 0.2759419647077706 -0.11943119333582231 0 0.26968004496680192 -0.1354093292991122 0 0.24916261720829391 -0.1128410760226309 0 0.27612109171129889 -0.072480719732976595 0 0.27072029290230593 -0.087474315008252257 0 0.25255036056860641 -0.082128702780155355 0 0.28427873383264662 -0.08643932501553736 0 0.27612109171129889 -0.072480719732976595 0 0.27072029290230593 -0.087474315008252257 0 0.28427873383264662 -0.08643932501553736 0 0.27608284085717177 -0.10248163343912969 0 0.27072029290230593 -0.087474315008252257 0 0.27612109171129889 -0.072480719732976595 0 0.25255036056860641 -0.082128702780155355 0 0.25614171351425058 -0.057605891013993667 0 0.27612109171129889 -0.072480719732976595 0 0.25255036056860641 -0.082128702780155355 0 0.25614171351425058 -0.057605891013993667 0 0.2740950910354541 -0.035386727162715348 0 0.28162267234533322 -0.054423897587784917 0 0.27612109171129889 -0.072480719732976595 0 0.25614171351425058 -0.057605891013993667 0 0.28162267234533322 -0.054423897587784917 0 0.25614171351425058 -0.057605891013993667 0 0.2740950910354541 -0.035386727162715348 0 0.24403893135934571 -0.037256147821468667 0 0.2740950910354541 -0.035386727162715348 0 0.26222796117897867 -0.01443461996046645 0 0.24403893135934571 -0.037256147821468667 0 0.24502883806765671 0.008523642691556723 0 0.27345126597006592 0.00071225981742997107 0 0.26222796117897867 -0.01443461996046645 0 0.26222796117897867 -0.01443461996046645 0 0.2887725382352363 -0.01027178104266422 0 0.27345126597006592 0.00071225981742997107 0 0.26222796117897867 -0.01443461996046645 0 0.2887725382352363 -0.01027178104266422 0 0.2740950910354541 -0.035386727162715348 0 0.26222796117897867 -0.01443461996046645 0 0.2887725382352363 -0.01027178104266422 0 0.2740950910354541 -0.035386727162715348 0 0.29296786011376652 -0.028107680413614649 0 0.2887725382352363 -0.01027178104266422 0 0.3153171152914937 -0.0061089421248620053 0 0.2887725382352363 -0.01027178104266422 0 0.3153171152914937 -0.0061089421248620053 0 0.2887725382352363 -0.01027178104266422 0 0.31048683641877761 -0.02647334588461828 0 0.29594264507526558 0.01116838319107246 0 0.3153171152914937 -0.0061089421248620053 0 0.2887725382352363 -0.01027178104266422 0 0.29296786011376652 -0.028107680413614649 0 0.2887725382352363 -0.01027178104266422 0 0.31048683641877761 -0.02647334588461828 0 0.3209669917401119 -0.050434751881478029 0 0.31048683641877761 -0.02647334588461828 0 0.2975310413877828 -0.042910739522097223 0 0.3209669917401119 -0.050434751881478029 0 0.2975310413877828 -0.042910739522097223 0 0.29296786011376652 -0.028107680413614649 0 0.31048683641877761 -0.02647334588461828 0 0.2975310413877828 -0.042910739522097223 0 0.3209669917401119 -0.050434751881478029 0 0.31198502812308032 -0.071278471368552754 0 0.29969182285399132 -0.062832736685797821 0 0.3209669917401119 -0.050434751881478029 0 0.29969182285399132 -0.062832736685797821 0 0.2975310413877828 -0.042910739522097223 0 0.29969182285399132 -0.062832736685797821 0 0.2975310413877828 -0.042910739522097223 0 0.28162267234533322 -0.054423897587784917 0 0.2740950910354541 -0.035386727162715348 0 0.29296786011376652 -0.028107680413614649 0 0.2975310413877828 -0.042910739522097223 0 0.2740950910354541 -0.035386727162715348 0 0.2975310413877828 -0.042910739522097223 0 0.28162267234533322 -0.054423897587784917 0 0.2740950910354541 -0.035386727162715348 0 0.2975310413877828 -0.042910739522097223 0 0.28599713250703918 -0.20031163355485249 0 0.30096916920491351 -0.21264004708164749 0 0.28860803900635101 -0.2222818645608142 0 0.28599713250703918 -0.20031163355485249 0 0.28860803900635101 -0.2222818645608142 0 0.27472451538918602 -0.21515400219702141 0 0.28599713250703918 -0.20031163355485249 0 0.27934977169502012 -0.18132833357158179 0 0.30297614009657281 -0.18293099963707701 0 0.28599713250703918 -0.20031163355485249 0 0.3105875994156681 -0.20078733944699301 0 0.30297614009657281 -0.18293099963707701 0 0.3105875994156681 -0.20078733944699301 0 0.30297614009657281 -0.18293099963707701 0 0.3211547771963868 -0.18823870198864109 0 0.28599713250703918 -0.20031163355485249 0 0.3105875994156681 -0.20078733944699301 0 0.30096916920491351 -0.21264004708164749 0 0.3105875994156681 -0.20078733944699301 0 0.30096916920491351 -0.21264004708164749 0 0.31487138951265148 -0.21656650482682349 0 0.30096916920491351 -0.21264004708164749 0 0.30282141040025518 -0.2244224621518692 0 0.31487138951265148 -0.21656650482682349 0 0.30282141040025518 -0.2244224621518692 0 0.29233168041781638 -0.237437495347567 0 0.31732677385954328 -0.23318639894249371 0 0.30282141040025518 -0.2244224621518692 0 0.31487138951265148 -0.21656650482682349 0 0.31732677385954328 -0.23318639894249371 0 0.30096916920491351 -0.21264004708164749 0 0.30282141040025518 -0.2244224621518692 0 0.28860803900635101 -0.2222818645608142 0 0.29233168041781638 -0.237437495347567 0 0.31732677385954328 -0.23318639894249371 0 0.30812350189974758 -0.24139148326430979 0 0.30334697131571631 -0.24598665396577821 0 0.31948858200591429 -0.24895538480140031 0 0.30812350189974758 -0.24139148326430979 0 0.29233168041781638 -0.237437495347567 0 0.31732677385954328 -0.23318639894249371 0 0.30812350189974758 -0.24139148326430979 0 0.30334697131571631 -0.24598665396577821 0 0.29233168041781638 -0.237437495347567 0 0.30334697131571631 -0.24598665396577821 0 0.31948858200591429 -0.24895538480140031 0 0.30270319855564731 -0.25083068480389359 0 0.30334697131571631 -0.24598665396577821 0 0.29342444761073561 -0.2490154373494701 0 0.30270319855564731 -0.25083068480389359 0 0.29233168041781638 -0.237437495347567 0 0.28475750139054989 -0.24680621714445891 0 0.26733658697608947 -0.2416885917526401 0 0.30334697131571631 -0.24598665396577821 0 0.29342444761073561 -0.2490154373494701 0 0.29233168041781638 -0.237437495347567 0 0.29342444761073561 -0.2490154373494701 0 0.29233168041781638 -0.237437495347567 0 0.28475750139054989 -0.24680621714445891 0 0.29342444761073561 -0.2490154373494701 0 0.28475750139054989 -0.24680621714445891 0 0.28855536188488351 -0.25406702018922561 0 0.29233168041781638 -0.237437495347567 0 0.28860803900635101 -0.2222818645608142 0 0.27336691787881301 -0.2280363603538669 0 0.30282141040025518 -0.2244224621518692 0 0.29233168041781638 -0.237437495347567 0 0.28860803900635101 -0.2222818645608142 0 0.27336691787881301 -0.2280363603538669 0 0.26733658697608947 -0.2416885917526401 0 0.25700636866691529 -0.23229792619875059 0 0.28860803900635101 -0.2222818645608142 0 0.27336691787881301 -0.2280363603538669 0 0.27472451538918602 -0.21515400219702141 0 0.27336691787881301 -0.2280363603538669 0 0.26115909430663092 -0.21897946382591371 0 0.27472451538918602 -0.21515400219702141 0 0.29233168041781638 -0.237437495347567 0 0.26733658697608947 -0.2416885917526401 0 0.28475750139054989 -0.24680621714445891 0 0.26733658697608947 -0.2416885917526401 0 0.27900645603208429 -0.25229706430207338 0 0.29233168041781638 -0.237437495347567 0 0.27336691787881301 -0.2280363603538669 0 0.26733658697608947 -0.2416885917526401 0 0.26733658697608947 -0.2416885917526401 0 0.27900645603208429 -0.25229706430207338 0 0.26733658697608947 -0.2416885917526401 0 0.2538276387990735 -0.243986156319283 0 0.26146442537082609 -0.25583685081005042 0 0.26733658697608947 -0.2416885917526401 0 0.2538276387990735 -0.243986156319283 0 0.26733658697608947 -0.2416885917526401 0 0.25700636866691529 -0.23229792619875059 0 0.26733658697608947 -0.2416885917526401 0 0.2538276387990735 -0.243986156319283 0 0.25700636866691529 -0.23229792619875059 0 0.2538276387990735 -0.243986156319283 0 0.25700636866691529 -0.23229792619875059 0 0.24490165686425211 -0.23528228860034259 0 0.27336691787881301 -0.2280363603538669 0 0.26115909430663092 -0.21897946382591371 0 0.25700636866691529 -0.23229792619875059 0 0.26115909430663092 -0.21897946382591371 0 0.25700636866691529 -0.23229792619875059 0 0.2474680867721589 -0.22346196655244499 0 0.26115909430663092 -0.21897946382591371 0 0.25071911215742437 -0.20927805116274709 0 0.2474680867721589 -0.22346196655244499 0 0.25071911215742437 -0.20927805116274709 0 0.26553192509875939 -0.20550449456077191 0 0.25474998502698032 -0.19691874005317461 0 0.26115909430663092 -0.21897946382591371 0 0.25071911215742437 -0.20927805116274709 0 0.26553192509875939 -0.20550449456077191 0 0.26115909430663092 -0.21897946382591371 0 0.26553192509875939 -0.20550449456077191 0 0.27472451538918602 -0.21515400219702141 0 0.28599713250703918 -0.20031163355485249 0 0.26553192509875939 -0.20550449456077191 0 0.27472451538918602 -0.21515400219702141 0 0.28599713250703918 -0.20031163355485249 0 0.26553192509875939 -0.20550449456077191 0 0.26654543567081013 -0.19131702701194489 0 0.28599713250703918 -0.20031163355485249 0 0.26654543567081013 -0.19131702701194489 0 0.27934977169502012 -0.18132833357158179 0 0.25474998502698032 -0.19691874005317461 0 0.25706624972303532 -0.17543805633142839 0 0.24002367982415451 -0.19374267904470141 0 0.26654543567081013 -0.19131702701194489 0 0.25474998502698032 -0.19691874005317461 0 0.25706624972303532 -0.17543805633142839 0 0.26553192509875939 -0.20550449456077191 0 0.26654543567081013 -0.19131702701194489 0 0.25474998502698032 -0.19691874005317461 0 0.25706624972303532 -0.17543805633142839 0 0.27680814305248802 -0.16466095624802721 0 0.26247388047373083 -0.15483700496883221 0 0.25706624972303532 -0.17543805633142839 0 0.26247388047373083 -0.15483700496883221 0 0.24384523969761221 -0.14863354701755199 0 0.27680814305248802 -0.16466095624802721 0 0.26247388047373083 -0.15483700496883221 0 0.28587983052980898 -0.15032919588913951 0 0.26654543567081013 -0.19131702701194489 0 0.25706624972303532 -0.17543805633142839 0 0.27934977169502012 -0.18132833357158179 0 0.25706624972303532 -0.17543805633142839 0 0.27680814305248802 -0.16466095624802721 0 0.27934977169502012 -0.18132833357158179 0 0.26968004496680192 -0.1354093292991122 0 0.24916261720829391 -0.1128410760226309 0 0.24384523969761221 -0.14863354701755199 0 0.26247388047373083 -0.15483700496883221 0 0.26968004496680192 -0.1354093292991122 0 0.24384523969761221 -0.14863354701755199 0 0.26968004496680192 -0.1354093292991122 0 0.24384523969761221 -0.14863354701755199 0 0.26247388047373083 -0.15483700496883221 0 0.26968004496680192 -0.1354093292991122 0 0.28587983052980898 -0.15032919588913951 0 0.2759419647077706 -0.11943119333582231 0 0.26968004496680192 -0.1354093292991122 0 0.29097746285681292 -0.13296084054707949 0 0.26968004496680192 -0.1354093292991122 0 0.29097746285681292 -0.13296084054707949 0 0.28587983052980898 -0.15032919588913951 0 0.29097746285681292 -0.13296084054707949 0 0.28587983052980898 -0.15032919588913951 0 0.30902832676855202 -0.1463287366881352 0 0.28587983052980898 -0.15032919588913951 0 0.30902832676855202 -0.1463287366881352 0 0.29758277532553101 -0.16510799318255129 0 0.29097746285681292 -0.13296084054707949 0 0.30902832676855202 -0.1463287366881352 0 0.30585118941309869 -0.12691687349975089 0 0.30902832676855202 -0.1463287366881352 0 0.30585118941309869 -0.12691687349975089 0 0.32166324728259499 -0.13135633786462661 0 0.27934977169502012 -0.18132833357158179 0 0.29758277532553101 -0.16510799318255129 0 0.30297614009657281 -0.18293099963707701 0 0.27680814305248802 -0.16466095624802721 0 0.28587983052980898 -0.15032919588913951 0 0.29758277532553101 -0.16510799318255129 0 0.27680814305248802 -0.16466095624802721 0 0.27934977169502012 -0.18132833357158179 0 0.29758277532553101 -0.16510799318255129 0 0.30902832676855202 -0.1463287366881352 0 0.29758277532553101 -0.16510799318255129 0 0.32014315144259708 -0.1671158802551084 0 0.29758277532553101 -0.16510799318255129 0 0.30297614009657281 -0.18293099963707701 0 0.32014315144259708 -0.1671158802551084 0 0.30297614009657281 -0.18293099963707701 0 0.32014315144259708 -0.1671158802551084 0 0.3211547771963868 -0.18823870198864109 0 0.32014315144259708 -0.1671158802551084 0 0.33607407970480141 -0.18141609537731751 0 0.3211547771963868 -0.18823870198864109 0 0.33751965399993589 -0.165035750869688 0 0.33406292577867708 -0.14895917159312161 0 0.35393355286250311 -0.16404111759013801 0 0.32014315144259708 -0.1671158802551084 0 0.33751965399993589 -0.165035750869688 0 0.33607407970480141 -0.18141609537731751 0 0.32014315144259708 -0.1671158802551084 0 0.33751965399993589 -0.165035750869688 0 0.33406292577867708 -0.14895917159312161 0 0.33607407970480141 -0.18141609537731751 0 0.35181632405452712 -0.18225122765141341 0 0.33952255019030481 -0.19740788659300501 0 0.33751965399993589 -0.165035750869688 0 0.33607407970480141 -0.18141609537731751 0 0.35181632405452712 -0.18225122765141341 0 0.30902832676855202 -0.1463287366881352 0 0.32166324728259499 -0.13135633786462661 0 0.33406292577867708 -0.14895917159312161 0 0.30902832676855202 -0.1463287366881352 0 0.32014315144259708 -0.1671158802551084 0 0.33406292577867708 -0.14895917159312161 0 0.32166324728259499 -0.13135633786462661 0 0.33406292577867708 -0.14895917159312161 0 0.33916847671495948 -0.1272035077980376 0 0.33406292577867708 -0.14895917159312161 0 0.33916847671495948 -0.1272035077980376 0 0.35143322607792538 -0.1392080240126416 0 0.35743407601693239 -0.1234387315732044 0 0.33916847671495948 -0.1272035077980376 0 0.35143322607792538 -0.1392080240126416 0 0.33406292577867708 -0.14895917159312161 0 0.35143322607792538 -0.1392080240126416 0 0.35393355286250311 -0.16404111759013801 0 0.35143322607792538 -0.1392080240126416 0 0.36317328408474442 -0.15056839290755411 0 0.35393355286250311 -0.16404111759013801 0 0.36317328408474442 -0.15056839290755411 0 0.37043155495316582 -0.13570389560102139 0 0.37748824702897688 -0.15844041801785649 0 0.35143322607792538 -0.1392080240126416 0 0.36317328408474442 -0.15056839290755411 0 0.37043155495316582 -0.13570389560102139 0 0.377531650343081 -0.11818312845693291 0 0.35743407601693239 -0.1234387315732044 0 0.37043155495316582 -0.13570389560102139 0 0.35743407601693239 -0.1234387315732044 0 0.35143322607792538 -0.1392080240126416 0 0.37043155495316582 -0.13570389560102139 0 0.35181632405452712 -0.18225122765141341 0 0.35393355286250311 -0.16404111759013801 0 0.36799527080895472 -0.17575353387052289 0 0.33751965399993589 -0.165035750869688 0 0.35181632405452712 -0.18225122765141341 0 0.35393355286250311 -0.16404111759013801 0 0.35393355286250311 -0.16404111759013801 0 0.36799527080895472 -0.17575353387052289 0 0.37748824702897688 -0.15844041801785649 0 0.36317328408474442 -0.15056839290755411 0 0.35393355286250311 -0.16404111759013801 0 0.37748824702897688 -0.15844041801785649 0 0.35181632405452712 -0.18225122765141341 0 0.36799527080895472 -0.17575353387052289 0 0.36910296642835988 -0.19322893042875181 0 0.36910296642835988 -0.19322893042875181 0 0.36093814601367208 -0.20591459616417759 0 0.37529156238419897 -0.20727319872900471 0 0.36910296642835988 -0.19322893042875181 0 0.36093814601367208 -0.20591459616417759 0 0.35427653325422431 -0.19748133037764881 0 0.37146636834626762 -0.21746005090504539 0 0.36384916509106152 -0.21443038616939331 0 0.37529156238419897 -0.20727319872900471 0 0.36093814601367208 -0.20591459616417759 0 0.36384916509106152 -0.21443038616939331 0 0.37529156238419897 -0.20727319872900471 0 0.36093814601367208 -0.20591459616417759 0 0.36384916509106152 -0.21443038616939331 0 0.35572062353684553 -0.2149042470782114 0 0.36384916509106152 -0.21443038616939331 0 0.35572062353684553 -0.2149042470782114 0 0.36154188385719332 -0.22218708165319939 0 0.37146636834626762 -0.21746005090504539 0 0.36384916509106152 -0.21443038616939331 0 0.36154188385719332 -0.22218708165319939 0 0.36093814601367208 -0.20591459616417759 0 0.34895003846154449 -0.20707969951931771 0 0.35427653325422431 -0.19748133037764881 0 0.36093814601367208 -0.20591459616417759 0 0.35572062353684553 -0.2149042470782114 0 0.34895003846154449 -0.20707969951931771 0 0.35572062353684553 -0.2149042470782114 0 0.34895003846154449 -0.20707969951931771 0 0.34681287085581031 -0.21537326103128851 0 0.35572062353684553 -0.2149042470782114 0 0.34681287085581031 -0.21537326103128851 0 0.34942674832653742 -0.22305165922821979 0 0.34895003846154449 -0.20707969951931771 0 0.34681287085581031 -0.21537326103128851 0 0.33862139625010212 -0.21163835397800809 0 0.35181632405452712 -0.18225122765141341 0 0.36910296642835988 -0.19322893042875181 0 0.35427653325422431 -0.19748133037764881 0 0.34895003846154449 -0.20707969951931771 0 0.35427653325422431 -0.19748133037764881 0 0.33952255019030481 -0.19740788659300501 0 0.35181632405452712 -0.18225122765141341 0 0.35427653325422431 -0.19748133037764881 0 0.33952255019030481 -0.19740788659300501 0 0.33607407970480141 -0.18141609537731751 0 0.33952255019030481 -0.19740788659300501 0 0.3211547771963868 -0.18823870198864109 0 0.33952255019030481 -0.19740788659300501 0 0.32581763571721373 -0.20626962156498749 0 0.3211547771963868 -0.18823870198864109 0 0.34895003846154449 -0.20707969951931771 0 0.33952255019030481 -0.19740788659300501 0 0.33862139625010212 -0.21163835397800809 0 0.33862139625010212 -0.21163835397800809 0 0.32581763571721373 -0.20626962156498749 0 0.32892855306271462 -0.2221251257289133 0 0.34681287085581031 -0.21537326103128851 0 0.33862139625010212 -0.21163835397800809 0 0.34134554770402181 -0.22019234535268589 0 0.33862139625010212 -0.21163835397800809 0 0.32892855306271462 -0.2221251257289133 0 0.34134554770402181 -0.22019234535268589 0 0.33952255019030481 -0.19740788659300501 0 0.33862139625010212 -0.21163835397800809 0 0.32581763571721373 -0.20626962156498749 0 0.32581763571721373 -0.20626962156498749 0 0.31487138951265148 -0.21656650482682349 0 0.32892855306271462 -0.2221251257289133 0 0.3105875994156681 -0.20078733944699301 0 0.32581763571721373 -0.20626962156498749 0 0.31487138951265148 -0.21656650482682349 0 0.3105875994156681 -0.20078733944699301 0 0.32581763571721373 -0.20626962156498749 0 0.3211547771963868 -0.18823870198864109 0 0.31732677385954328 -0.23318639894249371 0 0.32986217040025001 -0.23920084951267939 0 0.33348379557066721 -0.23496701437411699 0 0.30812350189974758 -0.24139148326430979 0 0.31948858200591429 -0.24895538480140031 0 0.31732677385954328 -0.23318639894249371 0 0.31948858200591429 -0.24895538480140031 0 0.31732677385954328 -0.23318639894249371 0 0.32986217040025001 -0.23920084951267939 0 0.31487138951265148 -0.21656650482682349 0 0.31732677385954328 -0.23318639894249371 0 0.32892855306271462 -0.2221251257289133 0 0.31732677385954328 -0.23318639894249371 0 0.32892855306271462 -0.2221251257289133 0 0.34232186730127001 -0.22893530253742039 0 0.31732677385954328 -0.23318639894249371 0 0.34232186730127001 -0.22893530253742039 0 0.33348379557066721 -0.23496701437411699 0 0.31732677385954328 -0.23318639894249371 0 0.34232186730127001 -0.22893530253742039 0 0.32892855306271462 -0.2221251257289133 0 0.34134554770402181 -0.22019234535268589 0 0.34232186730127001 -0.22893530253742039 0 0.34232186730127001 -0.22893530253742039 0 0.33348379557066721 -0.23496701437411699 0 0.34442437072160559 -0.23854550650387449 0 0.31948858200591429 -0.24895538480140031 0 0.34442437072160559 -0.23854550650387449 0 0.32810416354918359 -0.25546771460389628 0 0.31948858200591429 -0.24895538480140031 0 0.32986217040025001 -0.23920084951267939 0 0.34442437072160559 -0.23854550650387449 0 0.35206922458546819 -0.2425929435678775 0 0.32810416354918359 -0.25546771460389628 0 0.31948858200591429 -0.24895538480140031 0 0.34442437072160559 -0.23854550650387449 0 0.34442437072160559 -0.23854550650387449 0 0.35206922458546819 -0.2425929435678775 0 0.32810416354918359 -0.25546771460389628 0 0.32986217040025001 -0.23920084951267939 0 0.33348379557066721 -0.23496701437411699 0 0.34442437072160559 -0.23854550650387449 0 0.34442437072160559 -0.23854550650387449 0 0.35206922458546819 -0.2425929435678775 0 0.36936015943729689 -0.22813562820634881 0 0.35206922458546819 -0.2425929435678775 0 0.36421571969384159 -0.24460496201461249 0 0.35162734258361761 -0.25242186516885701 0 0.34442437072160559 -0.23854550650387449 0 0.36936015943729689 -0.22813562820634881 0 0.34442437072160559 -0.23854550650387449 0 0.3558739584365066 -0.2296493917759232 0 0.36936015943729689 -0.22813562820634881 0 0.34681287085581031 -0.21537326103128851 0 0.34134554770402181 -0.22019234535268589 0 0.34942674832653742 -0.22305165922821979 0 0.34134554770402181 -0.22019234535268589 0 0.34232186730127001 -0.22893530253742039 0 0.34942674832653742 -0.22305165922821979 0 0.34232186730127001 -0.22893530253742039 0 0.34442437072160559 -0.23854550650387449 0 0.34801173619647979 -0.2300454650113595 0 0.34942674832653742 -0.22305165922821979 0 0.34801173619647979 -0.2300454650113595 0 0.3558739584365066 -0.2296493917759232 0 0.34442437072160559 -0.23854550650387449 0 0.34801173619647979 -0.2300454650113595 0 0.3558739584365066 -0.2296493917759232 0 0.34232186730127001 -0.22893530253742039 0 0.34942674832653742 -0.22305165922821979 0 0.34801173619647979 -0.2300454650113595 0 0.35572062353684553 -0.2149042470782114 0 0.34942674832653742 -0.22305165922821979 0 0.36154188385719332 -0.22218708165319939 0 0.34942674832653742 -0.22305165922821979 0 0.3558739584365066 -0.2296493917759232 0 0.36154188385719332 -0.22218708165319939 0 0.35206922458546819 -0.2425929435678775 0 0.36936015943729689 -0.22813562820634881 0 0.37603428562175278 -0.22971817253185869 0 0.3558739584365066 -0.2296493917759232 0 0.36154188385719332 -0.22218708165319939 0 0.36936015943729689 -0.22813562820634881 0 0.37146636834626762 -0.21746005090504539 0 0.36154188385719332 -0.22218708165319939 0 0.36936015943729689 -0.22813562820634881 0 0.35206922458546819 -0.2425929435678775 0 0.37603428562175278 -0.22971817253185869 0 0.35206922458546819 -0.2425929435678775 0 0.36421571969384159 -0.24460496201461249 0 0.37603428562175278 -0.22971817253185869 0 0.36421571969384159 -0.24460496201461249 0 0.37178074500542491 -0.24902341934924671 0 0.35852737192959488 -0.25473250193359598 0 0.36421571969384159 -0.24460496201461249 0 0.37434333852477197 -0.24063481326921241 0 0.37603428562175278 -0.22971817253185869 0 0.36421571969384159 -0.24460496201461249 0 0.37434333852477197 -0.24063481326921241 0 0.37178074500542491 -0.24902341934924671 0 0.37434333852477197 -0.24063481326921241 0 0.37178074500542491 -0.24902341934924671 0 0.38388338791819782 -0.24158300915388869 0 0.37178074500542491 -0.24902341934924671 0 0.38388338791819782 -0.24158300915388869 0 0.38850651680992782 -0.25425160754921949 0 0.38388338791819782 -0.24158300915388869 0 0.39198724449361738 -0.23258288145297071 0 0.37603428562175278 -0.22971817253185869 0 0.37434333852477197 -0.24063481326921241 0 0.38388338791819782 -0.24158300915388869 0 0.37603428562175278 -0.22971817253185869 0 0.38388338791819782 -0.24158300915388869 0 0.40053146605475087 -0.24463834674800181 0 0.38850651680992782 -0.25425160754921949 0 0.38388338791819782 -0.24158300915388869 0 0.40053146605475087 -0.24463834674800181 0 0.39198724449361738 -0.23258288145297071 0 0.40053146605475087 -0.24463834674800181 0 0.40519113472039719 -0.22924912892228111 0 0.39198724449361738 -0.23258288145297071 0 0.40519113472039719 -0.22924912892228111 0 0.39198724449361738 -0.23258288145297071 0 0.39429594815298818 -0.21772574990882301 0 0.36936015943729689 -0.22813562820634881 0 0.39429594815298818 -0.21772574990882301 0 0.36936015943729689 -0.22813562820634881 0 0.37603428562175278 -0.22971817253185869 0 0.39429594815298818 -0.21772574990882301 0 0.39198724449361738 -0.23258288145297071 0 0.37603428562175278 -0.22971817253185869 0 0.39429594815298818 -0.21772574990882301 0 0.37146636834626762 -0.21746005090504539 0 0.36936015943729689 -0.22813562820634881 0 0.39429594815298818 -0.21772574990882301 0 0.37529156238419897 -0.20727319872900471 0 0.39240247956416952 -0.19866561412211581 0 0.39429594815298818 -0.21772574990882301 0 0.37146636834626762 -0.21746005090504539 0 0.37529156238419897 -0.20727319872900471 0 0.39429594815298818 -0.21772574990882301 0 0.36910296642835988 -0.19322893042875181 0 0.39240247956416952 -0.19866561412211581 0 0.38879519631929338 -0.18002677349278989 0 0.36910296642835988 -0.19322893042875181 0 0.37529156238419897 -0.20727319872900471 0 0.39240247956416952 -0.19866561412211581 0 0.39240247956416952 -0.19866561412211581 0 0.40885620483640162 -0.18820474957671321 0 0.38879519631929338 -0.18002677349278989 0 0.39240247956416952 -0.19866561412211581 0 0.39429594815298818 -0.21772574990882301 0 0.41923173686867959 -0.20731587161129719 0 0.40519113472039719 -0.22924912892228111 0 0.39429594815298818 -0.21772574990882301 0 0.41923173686867959 -0.20731587161129719 0 0.39429594815298818 -0.21772574990882301 0 0.41923173686867959 -0.20731587161129719 0 0.39240247956416952 -0.19866561412211581 0 0.41923173686867959 -0.20731587161129719 0 0.40885620483640162 -0.18820474957671321 0 0.41923173686867959 -0.20731587161129719 0 0.40885620483640162 -0.18820474957671321 0 0.43150182027404649 -0.18401999969678151 0 0.41923173686867959 -0.20731587161129719 0 0.44416752558437111 -0.1969059933137714 0 0.41923173686867959 -0.20731587161129719 0 0.43150182027404649 -0.18401999969678151 0 0.44416752558437111 -0.1969059933137714 0 0.41923173686867959 -0.20731587161129719 0 0.43793780326323839 -0.22010071050784141 0 0.43764031473814058 -0.20869901504486141 0 0.41923173686867959 -0.20731587161129719 0 0.43764031473814058 -0.20869901504486141 0 0.44416752558437111 -0.1969059933137714 0 0.41923173686867959 -0.20731587161129719 0 0.42215984558340891 -0.2359521077738598 0 0.43793780326323839 -0.22010071050784141 0 0.42215984558340891 -0.2359521077738598 0 0.44456519172895659 -0.23924963380793271 0 0.43793780326323839 -0.22010071050784141 0 0.42215984558340891 -0.2359521077738598 0 0.44456519172895659 -0.23924963380793271 0 0.43216559270086402 -0.25737884658375371 0 0.40053146605475087 -0.24463834674800181 0 0.40519113472039719 -0.22924912892228111 0 0.42215984558340891 -0.2359521077738598 0 0.40053146605475087 -0.24463834674800181 0 0.42215984558340891 -0.2359521077738598 0 0.41358604713730163 -0.25721063449283432 0 0.40519113472039719 -0.22924912892228111 0 0.41923173686867959 -0.20731587161129719 0 0.42215984558340891 -0.2359521077738598 0 0.4000778861949239 -0.1169583502240253 0 0.39081372193917802 -0.13921075430993471 0 0.4161781198902853 -0.1414632966302761 0 0.377531650343081 -0.11818312845693291 0 0.37043155495316582 -0.13570389560102139 0 0.39081372193917802 -0.13921075430993471 0 0.37043155495316582 -0.13570389560102139 0 0.39081372193917802 -0.13921075430993471 0 0.37748824702897688 -0.15844041801785649 0 0.39081372193917802 -0.13921075430993471 0 0.39712501526671051 -0.15802734628228779 0 0.37748824702897688 -0.15844041801785649 0 0.39081372193917802 -0.13921075430993471 0 0.39712501526671051 -0.15802734628228779 0 0.4161781198902853 -0.1414632966302761 0 0.39712501526671051 -0.15802734628228779 0 0.38879519631929338 -0.18002677349278989 0 0.41234979115581899 -0.17099548896058189 0 0.39712501526671051 -0.15802734628228779 0 0.37748824702897688 -0.15844041801785649 0 0.38879519631929338 -0.18002677349278989 0 0.36799527080895472 -0.17575353387052289 0 0.37748824702897688 -0.15844041801785649 0 0.38879519631929338 -0.18002677349278989 0 0.36799527080895472 -0.17575353387052289 0 0.36910296642835988 -0.19322893042875181 0 0.38879519631929338 -0.18002677349278989 0 0.40885620483640162 -0.18820474957671321 0 0.38879519631929338 -0.18002677349278989 0 0.41234979115581899 -0.17099548896058189 0 0.40885620483640162 -0.18820474957671321 0 0.43150182027404649 -0.18401999969678151 0 0.41234979115581899 -0.17099548896058189 0 0.43150182027404649 -0.18401999969678151 0 0.43227835358564681 -0.1659682430365268 0 0.41234979115581899 -0.17099548896058189 0 0.43150182027404649 -0.18401999969678151 0 0.43227835358564681 -0.1659682430365268 0 0.44837858728100821 -0.1904731894427775 0 0.39712501526671051 -0.15802734628228779 0 0.41234979115581899 -0.17099548896058189 0 0.4161781198902853 -0.1414632966302761 0 0.43227835358564681 -0.1659682430365268 0 0.41234979115581899 -0.17099548896058189 0 0.4161781198902853 -0.1414632966302761 0 0.43227835358564681 -0.1659682430365268 0 0.4161781198902853 -0.1414632966302761 0 0.43568461662669689 -0.14296521253873459 0 0.43227835358564681 -0.1659682430365268 0 0.4161781198902853 -0.1414632966302761 0 0.42599102573534869 -0.12054499986971449 0 0.4161781198902853 -0.1414632966302761 0 0.43568461662669689 -0.14296521253873459 0 0.42599102573534869 -0.12054499986971449 0 0.43568461662669689 -0.14296521253873459 0 0.44655095734790629 -0.1266961681398058 0 0.4000778861949239 -0.1169583502240253 0 0.4161781198902853 -0.1414632966302761 0 0.42599102573534869 -0.12054499986971449 0 0.4000778861949239 -0.1169583502240253 0 0.4161781198902853 -0.1414632966302761 0 0.44655095734790629 -0.1266961681398058 0 0.45348608015858499 -0.15108106507846081 0 0.47141046065717251 -0.13259826916789391 0 0.44655095734790629 -0.1266961681398058 0 0.45348608015858499 -0.15108106507846081 0 0.43568461662669689 -0.14296521253873459 0 0.44655095734790629 -0.1266961681398058 0 0.45348608015858499 -0.15108106507846081 0 0.43227835358564681 -0.1659682430365268 0 0.43568461662669689 -0.14296521253873459 0 0.45348608015858499 -0.15108106507846081 0 0.45348608015858499 -0.15108106507846081 0 0.47274063334608651 -0.15656820004917271 0 0.47141046065717251 -0.13259826916789391 0 0.45348608015858499 -0.15108106507846081 0 0.4591449490306756 -0.1709063341138389 0 0.47274063334608651 -0.15656820004917271 0 0.43227835358564681 -0.1659682430365268 0 0.45348608015858499 -0.15108106507846081 0 0.4591449490306756 -0.1709063341138389 0 0.43227835358564681 -0.1659682430365268 0 0.4591449490306756 -0.1709063341138389 0 0.44837858728100821 -0.1904731894427775 0 0.43227835358564681 -0.1659682430365268 0 0.44837858728100821 -0.1904731894427775 0 0.4591449490306756 -0.1709063341138389 0 0.46910331430006258 -0.1864961150162455 0 0.47676347545130621 -0.17077431955379191 0 0.4591449490306756 -0.1709063341138389 0 0.46910331430006258 -0.1864961150162455 0 0.44837858728100821 -0.1904731894427775 0 0.46910331430006258 -0.1864961150162455 0 0.4940391030157541 -0.1760862367187197 0 0.47676347545130621 -0.17077431955379191 0 0.46910331430006258 -0.1864961150162455 0 0.4940391030157541 -0.1760862367187197 0 0.48362395040724809 -0.19187600385120321 0 0.46910331430006258 -0.1864961150162455 0 0.4940391030157541 -0.1760862367187197 0 0.4940391030157541 -0.1760862367187197 0 0.5 -0.18647509980802399 0 0.5 -0.1565709639457504 0 0.4940391030157541 -0.1760862367187197 0 0.5 -0.18647509980802399 0 0.48362395040724809 -0.19187600385120321 0 0.4940391030157541 -0.1760862367187197 0 0.48595251878240708 -0.16107838505580399 0 0.47676347545130621 -0.17077431955379191 0 0.4940391030157541 -0.1760862367187197 0 0.5 -0.1565709639457504 0 0.48595251878240708 -0.16107838505580399 0 0.48595251878240708 -0.16107838505580399 0 0.47676347545130621 -0.17077431955379191 0 0.47274063334608651 -0.15656820004917271 0 0.4591449490306756 -0.1709063341138389 0 0.47676347545130621 -0.17077431955379191 0 0.47274063334608651 -0.15656820004917271 0 0.48595251878240708 -0.16107838505580399 0 0.47274063334608651 -0.15656820004917271 0 0.48621938209888871 -0.1453922050115852 0 0.47274063334608651 -0.15656820004917271 0 0.48621938209888871 -0.1453922050115852 0 0.47141046065717251 -0.13259826916789391 0 0.5 -0.1565709639457504 0 0.48595251878240708 -0.16107838505580399 0 0.48621938209888871 -0.1453922050115852 0 0.5 -0.1565709639457504 0 0.48621938209888871 -0.1453922050115852 0 0.5 -0.12666682808347679 0 0.48621938209888871 -0.1453922050115852 0 0.5 -0.12666682808347679 0 0.47141046065717251 -0.13259826916789391 0 0.4548114650637799 -0.2233014153366113 0 0.46358778151453828 -0.2371091749627624 0 0.46988322935749749 -0.2177843034645959 0 0.4548114650637799 -0.2233014153366113 0 0.46358778151453828 -0.2371091749627624 0 0.44456519172895659 -0.23924963380793271 0 0.46358778151453828 -0.2371091749627624 0 0.44456519172895659 -0.23924963380793271 0 0.45788204121143278 -0.25923937752425191 0 0.46358778151453828 -0.2371091749627624 0 0.48028109801640212 -0.24525901446801709 0 0.45788204121143278 -0.25923937752425191 0 0.4548114650637799 -0.2233014153366113 0 0.44456519172895659 -0.23924963380793271 0 0.43793780326323839 -0.22010071050784141 0 0.4548114650637799 -0.2233014153366113 0 0.43793780326323839 -0.22010071050784141 0 0.44922419323627338 -0.21047348474653571 0 0.43793780326323839 -0.22010071050784141 0 0.43764031473814058 -0.20869901504486141 0 0.44922419323627338 -0.21047348474653571 0 0.43764031473814058 -0.20869901504486141 0 0.44922419323627338 -0.21047348474653571 0 0.44416752558437111 -0.1969059933137714 0 0.43150182027404649 -0.18401999969678151 0 0.44837858728100821 -0.1904731894427775 0 0.44416752558437111 -0.1969059933137714 0 0.44922419323627338 -0.21047348474653571 0 0.44416752558437111 -0.1969059933137714 0 0.45916538343800528 -0.20115421453925381 0 0.46910331430006258 -0.1864961150162455 0 0.44416752558437111 -0.1969059933137714 0 0.46910331430006258 -0.1864961150162455 0 0.44416752558437111 -0.1969059933137714 0 0.45916538343800528 -0.20115421453925381 0 0.46910331430006258 -0.1864961150162455 0 0.44837858728100821 -0.1904731894427775 0 0.44416752558437111 -0.1969059933137714 0 0.46910331430006258 -0.1864961150162455 0 0.45916538343800528 -0.20115421453925381 0 0.47222363910876891 -0.20215710136058629 0 0.4617553433454597 -0.21105432866842819 0 0.46988322935749749 -0.2177843034645959 0 0.47222363910876891 -0.20215710136058629 0 0.4548114650637799 -0.2233014153366113 0 0.44922419323627338 -0.21047348474653571 0 0.4617553433454597 -0.21105432866842819 0 0.44922419323627338 -0.21047348474653571 0 0.45916538343800528 -0.20115421453925381 0 0.4617553433454597 -0.21105432866842819 0 0.45916538343800528 -0.20115421453925381 0 0.4617553433454597 -0.21105432866842819 0 0.47222363910876891 -0.20215710136058629 0 0.4548114650637799 -0.2233014153366113 0 0.4617553433454597 -0.21105432866842819 0 0.46988322935749749 -0.2177843034645959 0 0.46988322935749749 -0.2177843034645959 0 0.48512725635516979 -0.20633959514265729 0 0.48179389075726892 -0.22674420531652989 0 0.46988322935749749 -0.2177843034645959 0 0.47222363910876891 -0.20215710136058629 0 0.48512725635516979 -0.20633959514265729 0 0.46910331430006258 -0.1864961150162455 0 0.47222363910876891 -0.20215710136058629 0 0.48362395040724809 -0.19187600385120321 0 0.47222363910876891 -0.20215710136058629 0 0.48362395040724809 -0.19187600385120321 0 0.48512725635516979 -0.20633959514265729 0 0.5 -0.18647509980802399 0 0.48362395040724809 -0.19187600385120321 0 0.48512725635516979 -0.20633959514265729 0 0.5 -0.18647509980802399 0 0.4999999999999995 -0.21637923567029749 0 0.48512725635516979 -0.20633959514265729 0 0.4999999999999995 -0.21637923567029749 0 0.48512725635516979 -0.20633959514265729 0 0.48179389075726892 -0.22674420531652989 0 0.4999999999999995 -0.21637923567029749 0 0.48179389075726892 -0.22674420531652989 0 0.4999999999999995 -0.21637923567029749 0 0.48179389075726892 -0.22674420531652989 0 0.5 -0.2457434582493791 0 0.46358778151453828 -0.2371091749627624 0 0.48179389075726892 -0.22674420531652989 0 0.46358778151453828 -0.2371091749627624 0 0.46988322935749749 -0.2177843034645959 0 0.48179389075726892 -0.22674420531652989 0 0.46358778151453828 -0.2371091749627624 0 0.48179389075726892 -0.22674420531652989 0 0.48028109801640212 -0.24525901446801709 0 0.48179389075726892 -0.22674420531652989 0 0.48028109801640212 -0.24525901446801709 0 0.5 -0.2457434582493791 0 0.48028109801640212 -0.24525901446801709 0 0.5 -0.2457434582493791 0 0.48000624335297942 -0.26467602007376773 0 0.5 -0.2457434582493791 0 0.48000624335297942 -0.26467602007376773 0 0.5 -0.28491853366847941 0 0.48000624335297942 -0.26467602007376773 0 0.46410817167890178 -0.2900625350446418 0 0.5 -0.28491853366847941 0 0.48028109801640212 -0.24525901446801709 0 0.48000624335297942 -0.26467602007376773 0 0.45788204121143278 -0.25923937752425191 0 0.48000624335297942 -0.26467602007376773 0 0.45788204121143278 -0.25923937752425191 0 0.46410817167890178 -0.2900625350446418 0 0.45788204121143278 -0.25923937752425191 0 0.44012465357312031 -0.28215677747919299 0 0.46410817167890178 -0.2900625350446418 0 0.45788204121143278 -0.25923937752425191 0 0.44012465357312031 -0.28215677747919299 0 0.43216559270086402 -0.25737884658375371 0 0.44456519172895659 -0.23924963380793271 0 0.45788204121143278 -0.25923937752425191 0 0.43216559270086402 -0.25737884658375371 0 0.44667694186927448 -0.31064688789394312 0 0.44012465357312031 -0.28215677747919299 0 0.46410817167890178 -0.2900625350446418 0 0.44667694186927448 -0.31064688789394312 0 0.46410817167890178 -0.2900625350446418 0 0.46811354018726709 -0.31867409174409439 0 0.46410817167890178 -0.2900625350446418 0 0.46811354018726709 -0.31867409174409439 0 0.46410817167890178 -0.2900625350446418 0 0.48305542796654222 -0.30771363213866132 0 0.46811354018726709 -0.31867409174409439 0 0.5 -0.28491853366847941 0 0.48305542796654222 -0.30771363213866132 0 0.5 -0.33719936809742979 0 0.46410817167890178 -0.2900625350446418 0 0.5 -0.28491853366847941 0 0.48305542796654222 -0.30771363213866132 0 0.48305542796654222 -0.30771363213866132 0 0.5 -0.33719936809742979 0 0.46811354018726709 -0.31867409174409439 0 0.5 -0.33719936809742979 0 0.47211890869563261 -0.34728564844354692 0 0.46811354018726709 -0.31867409174409439 0 0.5 -0.33719936809742979 0 0.5 -0.40695687264915381 0 0.47612427720399791 -0.37589720514299929 0 0.47211890869563261 -0.34728564844354692 0 0.46811354018726709 -0.31867409174409439 0 0.5 -0.33719936809742979 0 0.47211890869563261 -0.34728564844354692 0 0.47612427720399791 -0.37589720514299929 0 0.47211890869563261 -0.34728564844354692 0 0.45821727882586549 -0.36139513288848268 0 0.47612427720399791 -0.37589720514299929 0 0.47211890869563261 -0.34728564844354692 0 0.47612427720399791 -0.37589720514299929 0 0.45821727882586549 -0.36139513288848268 0 0.47612427720399791 -0.37589720514299929 0 0.45246596930531557 -0.38027639429684068 0 0.47211890869563261 -0.34728564844354692 0 0.45821727882586549 -0.36139513288848268 0 0.45243406367133149 -0.33867658347413548 0 0.43794317525305021 -0.36483983308489099 0 0.45243406367133149 -0.33867658347413548 0 0.43055229420191687 -0.33704372213728567 0 0.45821727882586549 -0.36139513288848268 0 0.43794317525305021 -0.36483983308489099 0 0.45243406367133149 -0.33867658347413548 0 0.45821727882586549 -0.36139513288848268 0 0.43794317525305021 -0.36483983308489099 0 0.45246596930531557 -0.38027639429684068 0 0.44667694186927448 -0.31064688789394312 0 0.46811354018726709 -0.31867409174409439 0 0.45243406367133149 -0.33867658347413548 0 0.47211890869563261 -0.34728564844354692 0 0.46811354018726709 -0.31867409174409439 0 0.45243406367133149 -0.33867658347413548 0 0.44667694186927448 -0.31064688789394312 0 0.45243406367133149 -0.33867658347413548 0 0.43055229420191687 -0.33704372213728567 0 0.43055229420191687 -0.33704372213728567 0 0.42316141315078348 -0.30924761118968019 0 0.44667694186927448 -0.31064688789394312 0 0.43055229420191687 -0.33704372213728567 0 0.42316141315078348 -0.30924761118968019 0 0.43055229420191687 -0.33704372213728567 0 0.40692787713057599 -0.32836954693800607 0 0.41337981830548259 -0.34583960885143239 0 0.43055229420191687 -0.33704372213728567 0 0.40692787713057599 -0.32836954693800607 0 0.42316141315078348 -0.30924761118968019 0 0.40692787713057599 -0.32836954693800607 0 0.40147669905715039 -0.30662017309328349 0 0.42316141315078348 -0.30924761118968019 0 0.43794317525305021 -0.36483983308489099 0 0.41190905644720388 -0.36511364591329298 0 0.43137278571327298 -0.38063131481786328 0 0.43794317525305021 -0.36483983308489099 0 0.43055229420191687 -0.33704372213728567 0 0.41337981830548259 -0.34583960885143239 0 0.43794317525305021 -0.36483983308489099 0 0.43055229420191687 -0.33704372213728567 0 0.41337981830548259 -0.34583960885143239 0 0.41190905644720388 -0.36511364591329298 0 0.39731930301535812 -0.34632239286915728 0 0.43794317525305021 -0.36483983308489099 0 0.41337981830548259 -0.34583960885143239 0 0.41190905644720388 -0.36511364591329298 0 0.41190905644720388 -0.36511364591329298 0 0.39294362352409112 -0.37362758972254678 0 0.39173477139546747 -0.36034459423782927 0 0.41190905644720388 -0.36511364591329298 0 0.39294362352409112 -0.37362758972254678 0 0.40300458737144101 -0.38190116100390969 0 0.41190905644720388 -0.36511364591329298 0 0.39173477139546747 -0.36034459423782927 0 0.39731930301535812 -0.34632239286915728 0 0.39173477139546747 -0.36034459423782927 0 0.39731930301535812 -0.34632239286915728 0 0.38434941408998641 -0.35431111120547643 0 0.39731930301535812 -0.34632239286915728 0 0.38434941408998641 -0.35431111120547643 0 0.38516897933142669 -0.34134708612902498 0 0.37725125690826539 -0.350326147703383 0 0.38434941408998641 -0.35431111120547643 0 0.38516897933142669 -0.34134708612902498 0 0.37725125690826539 -0.350326147703383 0 0.38516897933142669 -0.34134708612902498 0 0.37219439069436278 -0.33973455654827522 0 0.37725125690826539 -0.350326147703383 0 0.38434941408998641 -0.35431111120547643 0 0.37653734604282962 -0.36071243495520089 0 0.39294362352409112 -0.37362758972254678 0 0.38439364276721599 -0.36549691650697369 0 0.37655859199567587 -0.37356725680210112 0 0.39173477139546747 -0.36034459423782927 0 0.38434941408998641 -0.35431111120547643 0 0.38439364276721599 -0.36549691650697369 0 0.39294362352409112 -0.37362758972254678 0 0.39173477139546747 -0.36034459423782927 0 0.38439364276721599 -0.36549691650697369 0 0.38439364276721599 -0.36549691650697369 0 0.37653734604282962 -0.36071243495520089 0 0.37655859199567587 -0.37356725680210112 0 0.38434941408998641 -0.35431111120547643 0 0.38439364276721599 -0.36549691650697369 0 0.37653734604282962 -0.36071243495520089 0 0.40692787713057599 -0.32836954693800607 0 0.38899088554071098 -0.32222889487932332 0 0.40147669905715039 -0.30662017309328349 0 0.40692787713057599 -0.32836954693800607 0 0.39731930301535812 -0.34632239286915728 0 0.39460176125451801 -0.33456698020387787 0 0.40692787713057599 -0.32836954693800607 0 0.39460176125451801 -0.33456698020387787 0 0.38899088554071098 -0.32222889487932332 0 0.40692787713057599 -0.32836954693800607 0 0.41337981830548259 -0.34583960885143239 0 0.39731930301535812 -0.34632239286915728 0 0.39731930301535812 -0.34632239286915728 0 0.39460176125451801 -0.33456698020387787 0 0.38516897933142669 -0.34134708612902498 0 0.38516897933142669 -0.34134708612902498 0 0.38899088554071098 -0.32222889487932332 0 0.37219439069436278 -0.33973455654827522 0 0.38899088554071098 -0.32222889487932332 0 0.37463532271886968 -0.3304806410833328 0 0.37219439069436278 -0.33973455654827522 0 0.38899088554071098 -0.32222889487932332 0 0.37219439069436278 -0.33973455654827522 0 0.39460176125451801 -0.33456698020387787 0 0.38516897933142669 -0.34134708612902498 0 0.38899088554071098 -0.32222889487932332 0 0.38899088554071098 -0.32222889487932332 0 0.37704019807901118 -0.31821116939100041 0 0.37463532271886968 -0.3304806410833328 0 0.38899088554071098 -0.32222889487932332 0 0.37704019807901118 -0.31821116939100041 0 0.38623838138964378 -0.30797187654088221 0 0.38623838138964378 -0.30797187654088221 0 0.38725332723018258 -0.29083006818484031 0 0.36907421003950408 -0.30734622852578569 0 0.37704019807901118 -0.31821116939100041 0 0.38623838138964378 -0.30797187654088221 0 0.36907421003950408 -0.30734622852578569 0 0.38623838138964378 -0.30797187654088221 0 0.40147669905715039 -0.30662017309328349 0 0.38725332723018258 -0.29083006818484031 0 0.38899088554071098 -0.32222889487932332 0 0.38623838138964378 -0.30797187654088221 0 0.40147669905715039 -0.30662017309328349 0 0.40147669905715039 -0.30662017309328349 0 0.38725332723018258 -0.29083006818484031 0 0.4157705320996502 -0.28145150024207488 0 0.38725332723018258 -0.29083006818484031 0 0.37662082769964689 -0.2774383894982605 0 0.39730279924783418 -0.26663237111648119 0 0.37662082769964689 -0.2774383894982605 0 0.37844154921457002 -0.26294067859328962 0 0.39730279924783418 -0.26663237111648119 0 0.38850651680992782 -0.25425160754921949 0 0.37844154921457002 -0.26294067859328962 0 0.39730279924783418 -0.26663237111648119 0 0.37178074500542491 -0.24902341934924671 0 0.38850651680992782 -0.25425160754921949 0 0.37844154921457002 -0.26294067859328962 0 0.40053146605475087 -0.24463834674800181 0 0.38850651680992782 -0.25425160754921949 0 0.39730279924783418 -0.26663237111648119 0 0.40053146605475087 -0.24463834674800181 0 0.39730279924783418 -0.26663237111648119 0 0.41358604713730163 -0.25721063449283432 0 0.38725332723018258 -0.29083006818484031 0 0.39730279924783418 -0.26663237111648119 0 0.4157705320996502 -0.28145150024207488 0 0.39730279924783418 -0.26663237111648119 0 0.41358604713730163 -0.25721063449283432 0 0.4157705320996502 -0.28145150024207488 0 0.41358604713730163 -0.25721063449283432 0 0.43216559270086402 -0.25737884658375371 0 0.4157705320996502 -0.28145150024207488 0 0.42215984558340891 -0.2359521077738598 0 0.41358604713730163 -0.25721063449283432 0 0.43216559270086402 -0.25737884658375371 0 0.44012465357312031 -0.28215677747919299 0 0.43216559270086402 -0.25737884658375371 0 0.4157705320996502 -0.28145150024207488 0 0.44012465357312031 -0.28215677747919299 0 0.42316141315078348 -0.30924761118968019 0 0.4157705320996502 -0.28145150024207488 0 0.44667694186927448 -0.31064688789394312 0 0.44012465357312031 -0.28215677747919299 0 0.42316141315078348 -0.30924761118968019 0 0.40147669905715039 -0.30662017309328349 0 0.42316141315078348 -0.30924761118968019 0 0.4157705320996502 -0.28145150024207488 0 0.42316141315078348 -0.30924761118968019 0 0.4157705320996502 -0.28145150024207488 0 0.5 -0.5 0 0.46914370415076678 -0.47301642599581623 0 0.49064868510325071 -0.43539540273925742 0 0.5 -0.5 0 0.49064868510325071 -0.43539540273925742 0 0.5 -0.40695687264915381 0 0.5 -0.5 0 0.46914370415076678 -0.47301642599581623 0 0.43721955460278877 -0.49999999999999828 0 0.44247203224431247 -0.47815634278871638 0 0.46914370415076678 -0.47301642599581623 0 0.43721955460278877 -0.49999999999999828 0 0.44247203224431247 -0.47815634278871638 0 0.43721955460278877 -0.49999999999999828 0 0.44247203224431247 -0.47815634278871638 0 0.46914370415076678 -0.47301642599581623 0 0.44772450988583518 -0.45631268557743432 0 0.46914370415076678 -0.47301642599581623 0 0.46918659749454272 -0.44585404415834551 0 0.49064868510325071 -0.43539540273925742 0 0.46918659749454272 -0.44585404415834551 0 0.49064868510325071 -0.43539540273925742 0 0.46918659749454272 -0.44585404415834551 0 0.47243248537644261 -0.43298411113964819 0 0.49064868510325071 -0.43539540273925742 0 0.46918659749454272 -0.44585404415834551 0 0.46218535996508531 -0.4385038619470667 0 0.47243248537644261 -0.43298411113964819 0 0.46918659749454272 -0.44585404415834551 0 0.44772450988583518 -0.45631268557743432 0 0.46218535996508531 -0.4385038619470667 0 0.44772450988583518 -0.45631268557743432 0 0.45203538837569007 -0.43864732698586451 0 0.46918659749454272 -0.44585404415834551 0 0.46218535996508531 -0.4385038619470667 0 0.44772450988583518 -0.45631268557743432 0 0.46914370415076678 -0.47301642599581623 0 0.46918659749454272 -0.44585404415834551 0 0.44772450988583518 -0.45631268557743432 0 0.44772450988583518 -0.45631268557743432 0 0.43871194631166388 -0.44304653507354458 0 0.43348570467526287 -0.46325136557206642 0 0.44247203224431247 -0.47815634278871638 0 0.44772450988583518 -0.45631268557743432 0 0.43348570467526287 -0.46325136557206642 0 0.44247203224431247 -0.47815634278871638 0 0.44772450988583518 -0.45631268557743432 0 0.44772450988583518 -0.45631268557743432 0 0.43348570467526287 -0.46325136557206642 0 0.44772450988583518 -0.45631268557743432 0 0.43871194631166388 -0.44304653507354458 0 0.45203538837569007 -0.43864732698586451 0 0.44772450988583518 -0.45631268557743432 0 0.45203538837569007 -0.43864732698586451 0 0.43871194631166388 -0.44304653507354458 0 0.45203538837569007 -0.43864732698586451 0 0.43871194631166388 -0.44304653507354458 0 0.45203538837569007 -0.43864732698586451 0 0.44656967234976253 -0.43496071651682422 0 0.44981551902942513 -0.42646863519196232 0 0.45309121800415653 -0.43399397420152658 0 0.44656967234976253 -0.43496071651682422 0 0.44981551902942513 -0.42646863519196232 0 0.44656967234976253 -0.43496071651682422 0 0.44204334581928578 -0.43016722962667542 0 0.45203538837569007 -0.43864732698586451 0 0.45309121800415653 -0.43399397420152658 0 0.45203538837569007 -0.43864732698586451 0 0.45309121800415653 -0.43399397420152658 0 0.44656967234976253 -0.43496071651682422 0 0.43871194631166388 -0.44304653507354458 0 0.44656967234976253 -0.43496071651682422 0 0.44204334581928578 -0.43016722962667542 0 0.43871194631166388 -0.44304653507354458 0 0.44204334581928578 -0.43016722962667542 0 0.44981551902942513 -0.42646863519196232 0 0.44204334581928578 -0.43016722962667542 0 0.44158562497290849 -0.42029651392787232 0 0.44204334581928578 -0.43016722962667542 0 0.44158562497290849 -0.42029651392787232 0 0.4291623469563175 -0.42963089929852272 0 0.44158562497290849 -0.42029651392787232 0 0.4465725370873892 -0.40899083793849211 0 0.43361634334994159 -0.41188893264196619 0 0.44981551902942513 -0.42646863519196232 0 0.44158562497290849 -0.42029651392787232 0 0.455748687922305 -0.41682208002756949 0 0.44158562497290849 -0.42029651392787232 0 0.4465725370873892 -0.40899083793849211 0 0.455748687922305 -0.41682208002756949 0 0.455748687922305 -0.41682208002756949 0 0.46115012668705879 -0.42802601489631198 0 0.47335454489212181 -0.42011393876180769 0 0.4465725370873892 -0.40899083793849211 0 0.455748687922305 -0.41682208002756949 0 0.46175668853996438 -0.40109910467033338 0 0.455748687922305 -0.41682208002756949 0 0.47335454489212181 -0.42011393876180769 0 0.46175668853996438 -0.40109910467033338 0 0.44981551902942513 -0.42646863519196232 0 0.455748687922305 -0.41682208002756949 0 0.46115012668705879 -0.42802601489631198 0 0.44981551902942513 -0.42646863519196232 0 0.45309121800415653 -0.43399397420152658 0 0.46115012668705879 -0.42802601489631198 0 0.46218535996508531 -0.4385038619470667 0 0.45309121800415653 -0.43399397420152658 0 0.46115012668705879 -0.42802601489631198 0 0.46218535996508531 -0.4385038619470667 0 0.45203538837569007 -0.43864732698586451 0 0.45309121800415653 -0.43399397420152658 0 0.46218535996508531 -0.4385038619470667 0 0.46115012668705879 -0.42802601489631198 0 0.47243248537644261 -0.43298411113964819 0 0.5 -0.40695687264915381 0 0.47335454489212181 -0.42011393876180769 0 0.46175668853996438 -0.40109910467033338 0 0.47243248537644261 -0.43298411113964819 0 0.49064868510325071 -0.43539540273925742 0 0.47335454489212181 -0.42011393876180769 0 0.46115012668705879 -0.42802601489631198 0 0.47243248537644261 -0.43298411113964819 0 0.47335454489212181 -0.42011393876180769 0 0.49064868510325071 -0.43539540273925742 0 0.5 -0.40695687264915381 0 0.47335454489212181 -0.42011393876180769 0 0.5 -0.40695687264915381 0 0.47612427720399791 -0.37589720514299929 0 0.46175668853996438 -0.40109910467033338 0 0.47612427720399791 -0.37589720514299929 0 0.46175668853996438 -0.40109910467033338 0 0.45246596930531557 -0.38027639429684068 0 0.46175668853996438 -0.40109910467033338 0 0.44015534065182649 -0.39484755842471919 0 0.45246596930531557 -0.38027639429684068 0 0.4465725370873892 -0.40899083793849211 0 0.46175668853996438 -0.40109910467033338 0 0.44015534065182649 -0.39484755842471919 0 0.4465725370873892 -0.40899083793849211 0 0.44015534065182649 -0.39484755842471919 0 0.43361634334994159 -0.41188893264196619 0 0.44015534065182649 -0.39484755842471919 0 0.45246596930531557 -0.38027639429684068 0 0.43137278571327298 -0.38063131481786328 0 0.43794317525305021 -0.36483983308489099 0 0.45246596930531557 -0.38027639429684068 0 0.43137278571327298 -0.38063131481786328 0 0.43137278571327298 -0.38063131481786328 0 0.42167524284075558 -0.39955158098274091 0 0.41571582335337143 -0.3820960462712551 0 0.44015534065182649 -0.39484755842471919 0 0.43137278571327298 -0.38063131481786328 0 0.42167524284075558 -0.39955158098274091 0 0.44015534065182649 -0.39484755842471919 0 0.42167524284075558 -0.39955158098274091 0 0.43361634334994159 -0.41188893264196619 0 0.42167524284075558 -0.39955158098274091 0 0.40467817922441629 -0.39435368903658219 0 0.4059920081115887 -0.4111142878910744 0 0.42167524284075558 -0.39955158098274091 0 0.41571582335337143 -0.3820960462712551 0 0.40467817922441629 -0.39435368903658219 0 0.41571582335337143 -0.3820960462712551 0 0.40300458737144101 -0.38190116100390969 0 0.40467817922441629 -0.39435368903658219 0 0.41190905644720388 -0.36511364591329298 0 0.41571582335337143 -0.3820960462712551 0 0.40300458737144101 -0.38190116100390969 0 0.41190905644720388 -0.36511364591329298 0 0.43137278571327298 -0.38063131481786328 0 0.41571582335337143 -0.3820960462712551 0 0.40300458737144101 -0.38190116100390969 0 0.38925678516405798 -0.38718477970959558 0 0.40467817922441629 -0.39435368903658219 0 0.39294362352409112 -0.37362758972254678 0 0.40300458737144101 -0.38190116100390969 0 0.38925678516405798 -0.38718477970959558 0 0.39294362352409112 -0.37362758972254678 0 0.37655859199567587 -0.37356725680210112 0 0.38925678516405798 -0.38718477970959558 0 0.37655859199567587 -0.37356725680210112 0 0.38925678516405798 -0.38718477970959558 0 0.37330473209329468 -0.38652264201337289 0 0.38925678516405798 -0.38718477970959558 0 0.37994999016683761 -0.39569750069821019 0 0.37330473209329468 -0.38652264201337289 0 0.38925678516405798 -0.38718477970959558 0 0.37994999016683761 -0.39569750069821019 0 0.39157393497893173 -0.40229763305841792 0 0.37724184313777309 -0.40502327110628372 0 0.37994999016683761 -0.39569750069821019 0 0.39157393497893173 -0.40229763305841792 0 0.39157393497893173 -0.40229763305841792 0 0.40467817922441629 -0.39435368903658219 0 0.4059920081115887 -0.4111142878910744 0 0.38925678516405798 -0.38718477970959558 0 0.39157393497893173 -0.40229763305841792 0 0.40467817922441629 -0.39435368903658219 0 0.4059920081115887 -0.4111142878910744 0 0.38921930119492387 -0.41636953781766922 0 0.40115039908813588 -0.42294277018906401 0 0.39157393497893173 -0.40229763305841792 0 0.4059920081115887 -0.4111142878910744 0 0.38921930119492387 -0.41636953781766922 0 0.37724184313777309 -0.40502327110628372 0 0.39157393497893173 -0.40229763305841792 0 0.38921930119492387 -0.41636953781766922 0 0.38921930119492387 -0.41636953781766922 0 0.37675352626854169 -0.42749082062860438 0 0.36114900456627291 -0.41416542628647413 0 0.37724184313777309 -0.40502327110628372 0 0.38921930119492387 -0.41636953781766922 0 0.36114900456627291 -0.41416542628647413 0 0.38921930119492387 -0.41636953781766922 0 0.36114900456627291 -0.41416542628647413 0 0.37675352626854169 -0.42749082062860438 0 0.39634139065743068 -0.43689968762724812 0 0.38364425218113479 -0.44214978882543837 0 0.38921930119492387 -0.41636953781766922 0 0.37675352626854169 -0.42749082062860438 0 0.39634139065743068 -0.43689968762724812 0 0.39634139065743068 -0.43689968762724812 0 0.40115039908813588 -0.42294277018906401 0 0.41304889638860021 -0.4273875674202644 0 0.38921930119492387 -0.41636953781766922 0 0.39634139065743068 -0.43689968762724812 0 0.40115039908813588 -0.42294277018906401 0 0.41304889638860021 -0.4273875674202644 0 0.4291623469563175 -0.42963089929852272 0 0.41562283893173169 -0.45067022476536722 0 0.41304889638860021 -0.4273875674202644 0 0.42069896752944069 -0.41591465364691382 0 0.4291623469563175 -0.42963089929852272 0 0.42167524284075558 -0.39955158098274091 0 0.4059920081115887 -0.4111142878910744 0 0.42069896752944069 -0.41591465364691382 0 0.4059920081115887 -0.4111142878910744 0 0.40115039908813588 -0.42294277018906401 0 0.41304889638860021 -0.4273875674202644 0 0.4059920081115887 -0.4111142878910744 0 0.41304889638860021 -0.4273875674202644 0 0.42069896752944069 -0.41591465364691382 0 0.42167524284075558 -0.39955158098274091 0 0.42069896752944069 -0.41591465364691382 0 0.43361634334994159 -0.41188893264196619 0 0.42069896752944069 -0.41591465364691382 0 0.43361634334994159 -0.41188893264196619 0 0.4291623469563175 -0.42963089929852272 0 0.44158562497290849 -0.42029651392787232 0 0.43361634334994159 -0.41188893264196619 0 0.4291623469563175 -0.42963089929852272 0 0.43871194631166388 -0.44304653507354458 0 0.44204334581928578 -0.43016722962667542 0 0.4291623469563175 -0.42963089929852272 0 0.43871194631166388 -0.44304653507354458 0 0.41562283893173169 -0.45067022476536722 0 0.43871194631166388 -0.44304653507354458 0 0.4291623469563175 -0.42963089929852272 0 0.41562283893173169 -0.45067022476536722 0 0.43871194631166388 -0.44304653507354458 0 0.43348570467526287 -0.46325136557206642 0 0.41562283893173169 -0.45067022476536722 0 0.43348570467526287 -0.46325136557206642 0 0.41383203898520182 -0.47282874899210248 0 0.43871194631166388 -0.44304653507354458 0 0.43348570467526287 -0.46325136557206642 0 0.41562283893173169 -0.45067022476536722 0 0.40023509062496182 -0.46988081925770508 0 0.41383203898520182 -0.47282874899210248 0 0.43348570467526287 -0.46325136557206642 0 0.41562283893173169 -0.45067022476536722 0 0.41383203898520182 -0.47282874899210248 0 0.39634139065743068 -0.43689968762724812 0 0.41304889638860021 -0.4273875674202644 0 0.41562283893173169 -0.45067022476536722 0 0.39634139065743068 -0.43689968762724812 0 0.41562283893173169 -0.45067022476536722 0 0.39253373155179971 -0.45829391445718981 0 0.39634139065743068 -0.43689968762724812 0 0.38364425218113479 -0.44214978882543837 0 0.39253373155179971 -0.45829391445718981 0 0.38364425218113479 -0.44214978882543837 0 0.39253373155179971 -0.45829391445718981 0 0.36894836024676703 -0.4459147325887115 0 0.37675352626854169 -0.42749082062860438 0 0.38364425218113479 -0.44214978882543837 0 0.36894836024676703 -0.4459147325887115 0 0.39253373155179971 -0.45829391445718981 0 0.36944462417186769 -0.4659176041490124 0 0.39253373155179971 -0.45829391445718981 0 0.38481180180543689 -0.47093280811495503 0 0.36944462417186769 -0.4659176041490124 0 0.39253373155179971 -0.45829391445718981 0 0.36944462417186769 -0.4659176041490124 0 0.36894836024676703 -0.4459147325887115 0 0.41562283893173169 -0.45067022476536722 0 0.39253373155179971 -0.45829391445718981 0 0.41562283893173169 -0.45067022476536722 0 0.39253373155179971 -0.45829391445718981 0 0.40023509062496182 -0.46988081925770508 0 0.39253373155179971 -0.45829391445718981 0 0.40023509062496182 -0.46988081925770508 0 0.38481180180543689 -0.47093280811495503 0 0.39417837329514038 -0.48240613241213792 0 0.40870373472020072 -0.48326191071644931 0 0.41383203898520182 -0.47282874899210248 0 0.39417837329514038 -0.48240613241213792 0 0.41383203898520182 -0.47282874899210248 0 0.40023509062496182 -0.46988081925770508 0 0.39417837329514038 -0.48240613241213792 0 0.41383203898520182 -0.47282874899210248 0 0.39417837329514038 -0.48240613241213792 0 0.39872958156394089 -0.4849177273275086 0 0.40870373472020072 -0.48326191071644931 0 0.40023509062496182 -0.46988081925770508 0 0.39417837329514038 -0.48240613241213792 0 0.38481180180543689 -0.47093280811495503 0 0.39872958156394089 -0.4849177273275086 0 0.37254254917793822 -0.47922951058416979 0 0.39417837329514038 -0.48240613241213792 0 0.38481180180543689 -0.47093280811495503 0 0.37254254917793822 -0.47922951058416979 0 0.39417837329514038 -0.48240613241213792 0 0.39872958156394089 -0.4849177273275086 0 0.37254254917793822 -0.47922951058416979 0 0.38481180180543689 -0.47093280811495503 0 0.37254254917793822 -0.47922951058416979 0 0.36944462417186769 -0.4659176041490124 0 0.38309445967137129 -0.49192120796377908 0 0.37087931350645942 -0.5 0 0.37254254917793822 -0.47922951058416979 0 0.39014186006510432 -0.4896234286503095 0 0.38309445967137129 -0.49192120796377908 0 0.37254254917793822 -0.47922951058416979 0 0.38309445967137129 -0.49192120796377908 0 0.39742975347278658 -0.5 0 0.37087931350645942 -0.5 0 0.39014186006510432 -0.4896234286503095 0 0.39872958156394089 -0.4849177273275086 0 0.37254254917793822 -0.47922951058416979 0 0.39014186006510432 -0.4896234286503095 0 0.38309445967137129 -0.49192120796377908 0 0.39742975347278658 -0.5 0 0.39014186006510432 -0.4896234286503095 0 0.39742975347278658 -0.5 0 0.3989129564394841 -0.49204869737608981 0 0.39014186006510432 -0.4896234286503095 0 0.39872958156394089 -0.4849177273275086 0 0.3989129564394841 -0.49204869737608981 0 0.3989129564394841 -0.49204869737608981 0 0.40383549929632362 -0.48824914480023129 0 0.40944636037366139 -0.49232509949704312 0 0.39872958156394089 -0.4849177273275086 0 0.40383549929632362 -0.48824914480023129 0 0.40870373472020072 -0.48326191071644931 0 0.39872958156394089 -0.4849177273275086 0 0.3989129564394841 -0.49204869737608981 0 0.40383549929632362 -0.48824914480023129 0 0.39742975347278658 -0.5 0 0.3989129564394841 -0.49204869737608981 0 0.40944636037366139 -0.49232509949704312 0 0.39742975347278658 -0.5 0 0.40944636037366139 -0.49232509949704312 0 0.42398019343911392 -0.50000000000000133 0 0.40944636037366139 -0.49232509949704312 0 0.41811538250540692 -0.48650103938460831 0 0.42398019343911392 -0.50000000000000133 0 0.40944636037366139 -0.49232509949704312 0 0.41811538250540692 -0.48650103938460831 0 0.40870373472020072 -0.48326191071644931 0 0.40383549929632362 -0.48824914480023129 0 0.40944636037366139 -0.49232509949704312 0 0.40870373472020072 -0.48326191071644931 0 0.41811538250540692 -0.48650103938460831 0 0.40870373472020072 -0.48326191071644931 0 0.41383203898520182 -0.47282874899210248 0 0.41811538250540692 -0.48650103938460831 0 0.41383203898520182 -0.47282874899210248 0 0.42873294905718839 -0.48162568278603379 0 0.44247203224431247 -0.47815634278871638 0 0.43348570467526287 -0.46325136557206642 0 0.42873294905718839 -0.48162568278603379 0 0.43348570467526287 -0.46325136557206642 0 0.42873294905718839 -0.48162568278603379 0 0.43348570467526287 -0.46325136557206642 0 0.41383203898520182 -0.47282874899210248 0 0.42873294905718839 -0.48162568278603379 0 0.41811538250540692 -0.48650103938460831 0 0.42873294905718839 -0.48162568278603379 0 0.42398019343911392 -0.50000000000000133 0 0.42873294905718839 -0.48162568278603379 0 0.43721955460278877 -0.49999999999999828 0 0.42398019343911392 -0.50000000000000133 0 0.44247203224431247 -0.47815634278871638 0 0.42873294905718839 -0.48162568278603379 0 0.43721955460278877 -0.49999999999999828 0 0.42873294905718839 -0.48162568278603379 0 0.42398019343911392 -0.50000000000000133 0 0.31777843357380497 -0.49999999999999889 0 0.32740914194814302 -0.4797971130986885 0 0.30846276710435028 -0.48605293235654179 0 0.31777843357380497 -0.49999999999999889 0 0.30846276710435028 -0.48605293235654179 0 0.31708404780773519 -0.4746163573441714 0 0.32740914194814302 -0.4797971130986885 0 0.30846276710435028 -0.48605293235654179 0 0.32740914194814302 -0.4797971130986885 0 0.30846276710435028 -0.48605293235654179 0 0.31708404780773519 -0.4746163573441714 0 0.32761604647806858 -0.46947079943621839 0 0.30887657616420161 -0.46540030503160568 0 0.31708404780773519 -0.4746163573441714 0 0.32761604647806858 -0.46947079943621839 0 0.32740914194814302 -0.4797971130986885 0 0.32761604647806858 -0.46947079943621839 0 0.3463555167919351 -0.47354129384083321 0 0.32740914194814302 -0.4797971130986885 0 0.3463555167919351 -0.47354129384083321 0 0.32761604647806858 -0.46947079943621839 0 0.32740914194814302 -0.4797971130986885 0 0.3463555167919351 -0.47354129384083321 0 0.31777843357380497 -0.49999999999999889 0 0.32740914194814302 -0.4797971130986885 0 0.3443288735401322 -0.5 0 0.32740914194814302 -0.4797971130986885 0 0.3443288735401322 -0.5 0 0.3463555167919351 -0.47354129384083321 0 0.3569992528753847 -0.4876635362854686 0 0.3443288735401322 -0.5 0 0.37087931350645942 -0.5 0 0.3569992528753847 -0.4876635362854686 0 0.3443288735401322 -0.5 0 0.3463555167919351 -0.47354129384083321 0 0.3569992528753847 -0.4876635362854686 0 0.37087931350645942 -0.5 0 0.37254254917793822 -0.47922951058416979 0 0.37254254917793822 -0.47922951058416979 0 0.3463555167919351 -0.47354129384083321 0 0.36944462417186769 -0.4659176041490124 0 0.37254254917793822 -0.47922951058416979 0 0.3463555167919351 -0.47354129384083321 0 0.3569992528753847 -0.4876635362854686 0 0.37254254917793822 -0.47922951058416979 0 0.3463555167919351 -0.47354129384083321 0 0.3463555167919351 -0.47354129384083321 0 0.36944462417186769 -0.4659176041490124 0 0.3463555167919351 -0.47354129384083321 0 0.35650231948554362 -0.45623110614981077 0 0.33905499650725568 -0.45422779571067851 0 0.3463555167919351 -0.47354129384083321 0 0.35650231948554362 -0.45623110614981077 0 0.36944462417186769 -0.4659176041490124 0 0.35650231948554362 -0.45623110614981077 0 0.36944462417186769 -0.4659176041490124 0 0.36894836024676703 -0.4459147325887115 0 0.35650231948554362 -0.45623110614981077 0 0.36894836024676703 -0.4459147325887115 0 0.35361871733544981 -0.43305537036686109 0 0.35650231948554362 -0.45623110614981077 0 0.33905499650725568 -0.45422779571067851 0 0.35361871733544981 -0.43305537036686109 0 0.33048390840235781 -0.43861992010511791 0 0.33905499650725568 -0.45422779571067851 0 0.319753470550179 -0.45444828436522738 0 0.33048390840235781 -0.43861992010511791 0 0.33905499650725568 -0.45422779571067851 0 0.35361871733544981 -0.43305537036686109 0 0.32761604647806858 -0.46947079943621839 0 0.33905499650725568 -0.45422779571067851 0 0.319753470550179 -0.45444828436522738 0 0.32761604647806858 -0.46947079943621839 0 0.3463555167919351 -0.47354129384083321 0 0.33905499650725568 -0.45422779571067851 0 0.32761604647806858 -0.46947079943621839 0 0.30887657616420161 -0.46540030503160568 0 0.32761604647806858 -0.46947079943621839 0 0.319753470550179 -0.45444828436522738 0 0.30887657616420161 -0.46540030503160568 0 0.33048390840235781 -0.43861992010511791 0 0.30734909946926581 -0.44418446984337462 0 0.33048390840235781 -0.43861992010511791 0 0.319753470550179 -0.45444828436522738 0 0.30734909946926581 -0.44418446984337462 0 0.33048390840235781 -0.43861992010511791 0 0.31666566748996022 -0.42825861813861232 0 0.30734909946926581 -0.44418446984337462 0 0.33048390840235781 -0.43861992010511791 0 0.31666566748996022 -0.42825861813861232 0 0.33307870793762168 -0.41196131475527897 0 0.33307870793762168 -0.41196131475527897 0 0.30500841130897061 -0.4097572032240831 0 0.33307870793762168 -0.41196131475527897 0 0.30500841130897061 -0.4097572032240831 0 0.31024346633473221 -0.41792040565894878 0 0.31666566748996022 -0.42825861813861232 0 0.33307870793762168 -0.41196131475527897 0 0.31024346633473221 -0.41792040565894878 0 0.33048390840235781 -0.43861992010511791 0 0.35361871733544981 -0.43305537036686109 0 0.33048390840235781 -0.43861992010511791 0 0.33307870793762168 -0.41196131475527897 0 0.35361871733544981 -0.43305537036686109 0 0.37675352626854169 -0.42749082062860438 0 0.35361871733544981 -0.43305537036686109 0 0.37675352626854169 -0.42749082062860438 0 0.35361871733544981 -0.43305537036686109 0 0.36114900456627291 -0.41416542628647413 0 0.37675352626854169 -0.42749082062860438 0 0.36894836024676703 -0.4459147325887115 0 0.35361871733544981 -0.43305537036686109 0 0.33307870793762168 -0.41196131475527897 0 0.35361871733544981 -0.43305537036686109 0 0.36114900456627291 -0.41416542628647413 0 0.33307870793762168 -0.41196131475527897 0 0.36114900456627291 -0.41416542628647413 0 0.33307870793762168 -0.41196131475527897 0 0.36114900456627291 -0.41416542628647413 0 0.34590450666672939 -0.39969137298690349 0 0.36114900456627291 -0.41416542628647413 0 0.34590450666672939 -0.39969137298690349 0 0.36431698478189922 -0.39658625767064681 0 0.34590450666672939 -0.39969137298690349 0 0.36431698478189922 -0.39658625767064681 0 0.34748867884538298 -0.38560494389043559 0 0.37724184313777309 -0.40502327110628372 0 0.37994999016683761 -0.39569750069821019 0 0.36431698478189922 -0.39658625767064681 0 0.37994999016683761 -0.39569750069821019 0 0.36431698478189922 -0.39658625767064681 0 0.37330473209329468 -0.38652264201337289 0 0.37724184313777309 -0.40502327110628372 0 0.36114900456627291 -0.41416542628647413 0 0.36431698478189922 -0.39658625767064681 0 0.36431698478189922 -0.39658625767064681 0 0.37330473209329468 -0.38652264201337289 0 0.36294720531266811 -0.38018066368018399 0 0.37655859199567587 -0.37356725680210112 0 0.37330473209329468 -0.38652264201337289 0 0.36294720531266811 -0.38018066368018399 0 0.36431698478189922 -0.39658625767064681 0 0.36294720531266811 -0.38018066368018399 0 0.34748867884538298 -0.38560494389043559 0 0.36294720531266811 -0.38018066368018399 0 0.34748867884538298 -0.38560494389043559 0 0.35135706915401588 -0.37017394756356969 0 0.34748867884538298 -0.38560494389043559 0 0.35135706915401588 -0.37017394756356969 0 0.33860140100166652 -0.37474587988617891 0 0.32180490615531843 -0.39225154155513092 0 0.33860140100166652 -0.37474587988617891 0 0.34748867884538298 -0.38560494389043559 0 0.32180490615531843 -0.39225154155513092 0 0.33860140100166652 -0.37474587988617891 0 0.33307870793762168 -0.41196131475527897 0 0.34590450666672939 -0.39969137298690349 0 0.32180490615531843 -0.39225154155513092 0 0.34590450666672939 -0.39969137298690349 0 0.34748867884538298 -0.38560494389043559 0 0.32180490615531843 -0.39225154155513092 0 0.33307870793762168 -0.41196131475527897 0 0.32180490615531843 -0.39225154155513092 0 0.30500841130897061 -0.4097572032240831 0 0.32180490615531843 -0.39225154155513092 0 0.30500841130897061 -0.4097572032240831 0 0.32180490615531843 -0.39225154155513092 0 0.33860140100166652 -0.37474587988617891 0 0.31323691028295181 -0.37098663086795219 0 0.32180490615531843 -0.39225154155513092 0 0.30376608135307642 -0.38256574588337439 0 0.31323691028295181 -0.37098663086795219 0 0.32180490615531843 -0.39225154155513092 0 0.30376608135307642 -0.38256574588337439 0 0.30731149415820402 -0.39515612727383359 0 0.30376608135307642 -0.38256574588337439 0 0.30731149415820402 -0.39515612727383359 0 0.29337198732769459 -0.39866819468633308 0 0.32180490615531843 -0.39225154155513092 0 0.30731149415820402 -0.39515612727383359 0 0.30500841130897061 -0.4097572032240831 0 0.30731149415820402 -0.39515612727383359 0 0.29337198732769459 -0.39866819468633308 0 0.30500841130897061 -0.4097572032240831 0 0.29337198732769459 -0.39866819468633308 0 0.2799407683096225 -0.4077888634617477 0 0.30500841130897061 -0.4097572032240831 0 0.29337198732769459 -0.39866819468633308 0 0.278149446005374 -0.39788240814120979 0 0.2799407683096225 -0.4077888634617477 0 0.29337198732769459 -0.39866819468633308 0 0.28877460187089993 -0.38482352348357052 0 0.278149446005374 -0.39788240814120979 0 0.30376608135307642 -0.38256574588337439 0 0.29337198732769459 -0.39866819468633308 0 0.28877460187089993 -0.38482352348357052 0 0.28877460187089993 -0.38482352348357052 0 0.28059514594661789 -0.37749688251145941 0 0.276430809046046 -0.38800123371271289 0 0.30376608135307642 -0.38256574588337439 0 0.28877460187089993 -0.38482352348357052 0 0.29406281218487668 -0.37110195615280478 0 0.28877460187089993 -0.38482352348357052 0 0.28059514594661789 -0.37749688251145941 0 0.29406281218487668 -0.37110195615280478 0 0.27063627606564722 -0.38146981263072172 0 0.26290172883027341 -0.38265145819369878 0 0.27307123056561983 -0.36208788657748658 0 0.28059514594661789 -0.37749688251145941 0 0.276430809046046 -0.38800123371271289 0 0.27063627606564722 -0.38146981263072172 0 0.28877460187089993 -0.38482352348357052 0 0.276430809046046 -0.38800123371271289 0 0.278149446005374 -0.39788240814120979 0 0.27021864096413573 -0.39052612391390579 0 0.26741570795753072 -0.38643910548815003 0 0.27063627606564722 -0.38146981263072172 0 0.276430809046046 -0.38800123371271289 0 0.27021864096413573 -0.39052612391390579 0 0.27063627606564722 -0.38146981263072172 0 0.26741570795753072 -0.38643910548815003 0 0.27063627606564722 -0.38146981263072172 0 0.26290172883027341 -0.38265145819369878 0 0.27021864096413573 -0.39052612391390579 0 0.26741570795753072 -0.38643910548815003 0 0.26460793079589717 -0.39204645848148278 0 0.26290172883027341 -0.38265145819369878 0 0.24170827130145911 -0.36851600104022741 0 0.26290172883027341 -0.38265145819369878 0 0.25290265537557088 -0.40287040976406652 0 0.23670873457410921 -0.37862547682540998 0 0.26741570795753072 -0.38643910548815003 0 0.26290172883027341 -0.38265145819369878 0 0.26460793079589717 -0.39204645848148278 0 0.26290172883027341 -0.38265145819369878 0 0.25290265537557088 -0.40287040976406652 0 0.26460793079589717 -0.39204645848148278 0 0.26290172883027341 -0.38265145819369878 0 0.25290265537557088 -0.40287040976406652 0 0.25487312531027401 -0.40582052369941718 0 0.25290265537557088 -0.40287040976406652 0 0.26422859541755339 -0.40152360769324658 0 0.25290265537557088 -0.40287040976406652 0 0.25157189961603621 -0.40556130771334759 0 0.25487312531027401 -0.40582052369941718 0 0.25290265537557088 -0.40287040976406652 0 0.25487312531027401 -0.40582052369941718 0 0.25157189961603621 -0.40556130771334759 0 0.25487312531027401 -0.40582052369941718 0 0.25290265537557088 -0.40287040976406652 0 0.25157189961603621 -0.40556130771334759 0 0.25290265537557088 -0.40287040976406652 0 0.26460793079589717 -0.39204645848148278 0 0.26422859541755339 -0.40152360769324658 0 0.25487312531027401 -0.40582052369941718 0 0.26422859541755339 -0.40152360769324658 0 0.2799407683096225 -0.4077888634617477 0 0.26422859541755339 -0.40152360769324658 0 0.27049404179538011 -0.39733735467012199 0 0.2799407683096225 -0.4077888634617477 0 0.26460793079589717 -0.39204645848148278 0 0.26422859541755339 -0.40152360769324658 0 0.27049404179538011 -0.39733735467012199 0 0.27021864096413573 -0.39052612391390579 0 0.26460793079589717 -0.39204645848148278 0 0.27049404179538011 -0.39733735467012199 0 0.27021864096413573 -0.39052612391390579 0 0.27049404179538011 -0.39733735467012199 0 0.27359367896458092 -0.39371644966374431 0 0.276430809046046 -0.38800123371271289 0 0.27021864096413573 -0.39052612391390579 0 0.27359367896458092 -0.39371644966374431 0 0.276430809046046 -0.38800123371271289 0 0.27359367896458092 -0.39371644966374431 0 0.278149446005374 -0.39788240814120979 0 0.27049404179538011 -0.39733735467012199 0 0.27359367896458092 -0.39371644966374431 0 0.278149446005374 -0.39788240814120979 0 0.27049404179538011 -0.39733735467012199 0 0.278149446005374 -0.39788240814120979 0 0.2799407683096225 -0.4077888634617477 0 0.25487312531027401 -0.40582052369941718 0 0.2799407683096225 -0.4077888634617477 0 0.27236935201136631 -0.41843914721718511 0 0.25487312531027401 -0.40582052369941718 0 0.2799407683096225 -0.4077888634617477 0 0.2799407683096225 -0.4077888634617477 0 0.27236935201136631 -0.41843914721718511 0 0.28327229028388118 -0.41696091427050369 0 0.27236935201136631 -0.41843914721718511 0 0.28214617269356762 -0.42588265829911459 0 0.28327229028388118 -0.41696091427050369 0 0.27236935201136631 -0.41843914721718511 0 0.2638588996409259 -0.419273689163152 0 0.2638588996409259 -0.419273689163152 0 0.23731646036861351 -0.42187646254780581 0 0.24978898330324689 -0.40916651161004941 0 0.2638588996409259 -0.419273689163152 0 0.23731646036861351 -0.42187646254780581 0 0.25487312531027401 -0.40582052369941718 0 0.27236935201136631 -0.41843914721718511 0 0.2638588996409259 -0.419273689163152 0 0.25487312531027401 -0.40582052369941718 0 0.2638588996409259 -0.419273689163152 0 0.25487312531027401 -0.40582052369941718 0 0.2638588996409259 -0.419273689163152 0 0.24978898330324689 -0.40916651161004941 0 0.25487312531027401 -0.40582052369941718 0 0.25157189961603621 -0.40556130771334759 0 0.24978898330324689 -0.40916651161004941 0 0.25157189961603621 -0.40556130771334759 0 0.24978898330324689 -0.40916651161004941 0 0.2638588996409259 -0.419273689163152 0 0.27403659508855033 -0.43451135437239358 0 0.25818984504014392 -0.43773795357143519 0 0.2638588996409259 -0.419273689163152 0 0.25818984504014392 -0.43773795357143519 0 0.2458814731527304 -0.43245118805556382 0 0.27236935201136631 -0.41843914721718511 0 0.2638588996409259 -0.419273689163152 0 0.27403659508855033 -0.43451135437239358 0 0.27236935201136631 -0.41843914721718511 0 0.27403659508855033 -0.43451135437239358 0 0.28214617269356762 -0.42588265829911459 0 0.2638588996409259 -0.419273689163152 0 0.27403659508855033 -0.43451135437239358 0 0.27403659508855033 -0.43451135437239358 0 0.28970516354326709 -0.4362146828719129 0 0.28214617269356762 -0.42588265829911459 0 0.28970516354326709 -0.4362146828719129 0 0.29233458633086729 -0.42647872765493072 0 0.30262707173807718 -0.42791155662944719 0 0.29233458633086729 -0.42647872765493072 0 0.28989894624364509 -0.42012582270453042 0 0.29729557743577961 -0.42225891776964769 0 0.29233458633086729 -0.42647872765493072 0 0.28214617269356762 -0.42588265829911459 0 0.28989894624364509 -0.42012582270453042 0 0.28970516354326709 -0.4362146828719129 0 0.29233458633086729 -0.42647872765493072 0 0.28214617269356762 -0.42588265829911459 0 0.28327229028388118 -0.41696091427050369 0 0.29200621216120459 -0.41256807966994019 0 0.28989894624364509 -0.42012582270453042 0 0.28214617269356762 -0.42588265829911459 0 0.28327229028388118 -0.41696091427050369 0 0.28989894624364509 -0.42012582270453042 0 0.2799407683096225 -0.4077888634617477 0 0.30500841130897061 -0.4097572032240831 0 0.2799407683096225 -0.4077888634617477 0 0.29200621216120459 -0.41256807966994019 0 0.30500841130897061 -0.4097572032240831 0 0.2799407683096225 -0.4077888634617477 0 0.28327229028388118 -0.41696091427050369 0 0.29200621216120459 -0.41256807966994019 0 0.29200621216120459 -0.41256807966994019 0 0.28989894624364509 -0.42012582270453042 0 0.2967561993417599 -0.41674260586548217 0 0.28989894624364509 -0.42012582270453042 0 0.2967561993417599 -0.41674260586548217 0 0.29729557743577961 -0.42225891776964769 0 0.29200621216120459 -0.41256807966994019 0 0.2967561993417599 -0.41674260586548217 0 0.30187087132828772 -0.41302721365644263 0 0.2967561993417599 -0.41674260586548217 0 0.30258353590210618 -0.41849154021046731 0 0.29729557743577961 -0.42225891776964769 0 0.2967561993417599 -0.41674260586548217 0 0.30258353590210618 -0.41849154021046731 0 0.30187087132828772 -0.41302721365644263 0 0.30258353590210618 -0.41849154021046731 0 0.30187087132828772 -0.41302721365644263 0 0.30492657121852418 -0.41479909068748538 0 0.29200621216120459 -0.41256807966994019 0 0.30187087132828772 -0.41302721365644263 0 0.30500841130897061 -0.4097572032240831 0 0.30187087132828772 -0.41302721365644263 0 0.30500841130897061 -0.4097572032240831 0 0.30492657121852418 -0.41479909068748538 0 0.30187087132828772 -0.41302721365644263 0 0.30500841130897061 -0.4097572032240831 0 0.30500841130897061 -0.4097572032240831 0 0.30492657121852418 -0.41479909068748538 0 0.31024346633473221 -0.41792040565894878 0 0.30258353590210618 -0.41849154021046731 0 0.31024346633473221 -0.41792040565894878 0 0.30262707173807718 -0.42791155662944719 0 0.30258353590210618 -0.41849154021046731 0 0.30492657121852418 -0.41479909068748538 0 0.31024346633473221 -0.41792040565894878 0 0.31666566748996022 -0.42825861813861232 0 0.31024346633473221 -0.41792040565894878 0 0.30262707173807718 -0.42791155662944719 0 0.28970516354326709 -0.4362146828719129 0 0.30262707173807718 -0.42791155662944719 0 0.30734909946926581 -0.44418446984337462 0 0.31666566748996022 -0.42825861813861232 0 0.30262707173807718 -0.42791155662944719 0 0.30734909946926581 -0.44418446984337462 0 0.29233458633086729 -0.42647872765493072 0 0.30262707173807718 -0.42791155662944719 0 0.29729557743577961 -0.42225891776964769 0 0.30258353590210618 -0.41849154021046731 0 0.30262707173807718 -0.42791155662944719 0 0.29729557743577961 -0.42225891776964769 0 0.319753470550179 -0.45444828436522738 0 0.30734909946926581 -0.44418446984337462 0 0.30035387943449249 -0.4553510092405304 0 0.30734909946926581 -0.44418446984337462 0 0.30035387943449249 -0.4553510092405304 0 0.28421429053617459 -0.44974901958163538 0 0.319753470550179 -0.45444828436522738 0 0.30887657616420161 -0.46540030503160568 0 0.30035387943449249 -0.4553510092405304 0 0.30887657616420161 -0.46540030503160568 0 0.30035387943449249 -0.4553510092405304 0 0.2963385288202624 -0.46790097596908858 0 0.30035387943449249 -0.4553510092405304 0 0.2963385288202624 -0.46790097596908858 0 0.28421429053617459 -0.44974901958163538 0 0.2963385288202624 -0.46790097596908858 0 0.28421429053617459 -0.44974901958163538 0 0.2963385288202624 -0.46790097596908858 0 0.28421429053617459 -0.44974901958163538 0 0.2762646876022099 -0.47019445102184498 0 0.27403659508855033 -0.43451135437239358 0 0.28970516354326709 -0.4362146828719129 0 0.28421429053617459 -0.44974901958163538 0 0.28970516354326709 -0.4362146828719129 0 0.30734909946926581 -0.44418446984337462 0 0.28421429053617459 -0.44974901958163538 0 0.30734909946926581 -0.44418446984337462 0 0.28421429053617459 -0.44974901958163538 0 0.27403659508855033 -0.43451135437239358 0 0.28421429053617459 -0.44974901958163538 0 0.28421429053617459 -0.44974901958163538 0 0.26316522138220222 -0.45481189226798141 0 0.27403659508855033 -0.43451135437239358 0 0.28421429053617459 -0.44974901958163538 0 0.26316522138220222 -0.45481189226798141 0 0.25818984504014392 -0.43773795357143519 0 0.26316522138220222 -0.45481189226798141 0 0.24472284787994869 -0.44485666861058237 0 0.27403659508855033 -0.43451135437239358 0 0.25818984504014392 -0.43773795357143519 0 0.26316522138220222 -0.45481189226798141 0 0.26316522138220222 -0.45481189226798141 0 0.24211615222823071 -0.45987476495433138 0 0.24472284787994869 -0.44485666861058237 0 0.26316522138220222 -0.45481189226798141 0 0.2762646876022099 -0.47019445102184498 0 0.25704613436640061 -0.47851187754702579 0 0.26316522138220222 -0.45481189226798141 0 0.25704613436640061 -0.47851187754702579 0 0.24211615222823071 -0.45987476495433138 0 0.26316522138220222 -0.45481189226798141 0 0.24211615222823071 -0.45987476495433138 0 0.28421429053617459 -0.44974901958163538 0 0.26316522138220222 -0.45481189226798141 0 0.2762646876022099 -0.47019445102184498 0 0.2762646876022099 -0.47019445102184498 0 0.25704613436640061 -0.47851187754702579 0 0.27171905511034911 -0.48543319868678508 0 0.2762646876022099 -0.47019445102184498 0 0.27171905511034911 -0.48543319868678508 0 0.2873427218590453 -0.49302646617826978 0 0.25704613436640061 -0.47851187754702579 0 0.26622267661374083 -0.49999999999999872 0 0.24017857710909041 -0.5 0 0.25704613436640061 -0.47851187754702579 0 0.26622267661374083 -0.49999999999999872 0 0.27171905511034911 -0.48543319868678508 0 0.26622267661374083 -0.49999999999999872 0 0.2873427218590453 -0.49302646617826978 0 0.26622267661374083 -0.49999999999999872 0 0.27171905511034911 -0.48543319868678508 0 0.2873427218590453 -0.49302646617826978 0 0.26622267661374083 -0.49999999999999872 0 0.2873427218590453 -0.49302646617826978 0 0.29200055509377287 -0.5 0 0.2873427218590453 -0.49302646617826978 0 0.29200055509377287 -0.5 0 0.30846276710435028 -0.48605293235654179 0 0.2963385288202624 -0.46790097596908858 0 0.2762646876022099 -0.47019445102184498 0 0.2873427218590453 -0.49302646617826978 0 0.30887657616420161 -0.46540030503160568 0 0.2963385288202624 -0.46790097596908858 0 0.30846276710435028 -0.48605293235654179 0 0.2963385288202624 -0.46790097596908858 0 0.2873427218590453 -0.49302646617826978 0 0.30846276710435028 -0.48605293235654179 0 0.2963385288202624 -0.46790097596908858 0 0.30846276710435028 -0.48605293235654179 0 0.31708404780773519 -0.4746163573441714 0 0.30887657616420161 -0.46540030503160568 0 0.30846276710435028 -0.48605293235654179 0 0.31777843357380497 -0.49999999999999889 0 0.29200055509377287 -0.5 0 0.30846276710435028 -0.48605293235654179 0 0.2873427218590453 -0.49302646617826978 0 0.30846276710435028 -0.48605293235654179 0 0.33891225779016732 -0.28238564021998691 0 0.33149771766007402 -0.30001414710683749 0 0.32545867162029879 -0.28380017181572881 0 0.33891225779016732 -0.28238564021998691 0 0.33149771766007402 -0.30001414710683749 0 0.3487231760697509 -0.30066031440716368 0 0.33149771766007402 -0.30001414710683749 0 0.35062666321971642 -0.31740327914382699 0 0.33149771766007402 -0.30001414710683749 0 0.3487231760697509 -0.30066031440716368 0 0.35062666321971642 -0.31740327914382699 0 0.33149771766007402 -0.30001414710683749 0 0.31542750239419942 -0.29947292928289659 0 0.31495401674792167 -0.31345967574744882 0 0.33149771766007402 -0.30001414710683749 0 0.33089331707070768 -0.32280120611538748 0 0.31495401674792167 -0.31345967574744882 0 0.33149771766007402 -0.30001414710683749 0 0.31236877210043268 -0.28262501506984689 0 0.33149771766007402 -0.30001414710683749 0 0.31542750239419942 -0.29947292928289659 0 0.31236877210043268 -0.28262501506984689 0 0.33149771766007402 -0.30001414710683749 0 0.32545867162029879 -0.28380017181572881 0 0.31236877210043268 -0.28262501506984689 0 0.33891225779016732 -0.28238564021998691 0 0.31688619849725208 -0.27349040615296011 0 0.31688619849725208 -0.27349040615296011 0 0.32450724380411078 -0.25740009099478589 0 0.30413910251289888 -0.26834248563991481 0 0.31688619849725208 -0.27349040615296011 0 0.32457317556750009 -0.26748196603209529 0 0.32450724380411078 -0.25740009099478589 0 0.33891225779016732 -0.28238564021998691 0 0.31688619849725208 -0.27349040615296011 0 0.32457317556750009 -0.26748196603209529 0 0.31688619849725208 -0.27349040615296011 0 0.31236877210043268 -0.28262501506984689 0 0.32545867162029879 -0.28380017181572881 0 0.31688619849725208 -0.27349040615296011 0 0.31236877210043268 -0.28262501506984689 0 0.33891225779016732 -0.28238564021998691 0 0.32545867162029879 -0.28380017181572881 0 0.31688619849725208 -0.27349040615296011 0 0.32450724380411078 -0.25740009099478589 0 0.30413910251289888 -0.26834248563991481 0 0.31688619849725208 -0.27349040615296011 0 0.32450724380411078 -0.25740009099478589 0 0.31948858200591429 -0.24895538480140031 0 0.32450724380411078 -0.25740009099478589 0 0.30413910251289888 -0.26834248563991481 0 0.32457317556750009 -0.26748196603209529 0 0.32450724380411078 -0.25740009099478589 0 0.32849371080272338 -0.26059386243685528 0 0.32450724380411078 -0.25740009099478589 0 0.32810416354918359 -0.25546771460389628 0 0.32849371080272338 -0.26059386243685528 0 0.31948858200591429 -0.24895538480140031 0 0.32450724380411078 -0.25740009099478589 0 0.32810416354918359 -0.25546771460389628 0 0.32450724380411078 -0.25740009099478589 0 0.32810416354918359 -0.25546771460389628 0 0.35206922458546819 -0.2425929435678775 0 0.32810416354918359 -0.25546771460389628 0 0.33929421772345042 -0.25584115290640691 0 0.32810416354918359 -0.25546771460389628 0 0.33316748106084559 -0.25927948987249222 0 0.33929421772345042 -0.25584115290640691 0 0.33316748106084559 -0.25927948987249222 0 0.33194140665501881 -0.26301415099677161 0 0.33820221180489851 -0.26242962772265932 0 0.33316748106084559 -0.25927948987249222 0 0.32849371080272338 -0.26059386243685528 0 0.33194140665501881 -0.26301415099677161 0 0.32810416354918359 -0.25546771460389628 0 0.33316748106084559 -0.25927948987249222 0 0.32849371080272338 -0.26059386243685528 0 0.32457317556750009 -0.26748196603209529 0 0.32849371080272338 -0.26059386243685528 0 0.33194140665501881 -0.26301415099677161 0 0.33820221180489851 -0.26242962772265932 0 0.33838015542742422 -0.26907129793516549 0 0.34756558382942998 -0.26314319419524601 0 0.33820221180489851 -0.26242962772265932 0 0.33929421772345042 -0.25584115290640691 0 0.34756558382942998 -0.26314319419524601 0 0.33194140665501881 -0.26301415099677161 0 0.33820221180489851 -0.26242962772265932 0 0.33838015542742422 -0.26907129793516549 0 0.33316748106084559 -0.25927948987249222 0 0.33820221180489851 -0.26242962772265932 0 0.33929421772345042 -0.25584115290640691 0 0.32457317556750009 -0.26748196603209529 0 0.33194140665501881 -0.26301415099677161 0 0.33838015542742422 -0.26907129793516549 0 0.33891225779016732 -0.28238564021998691 0 0.32457317556750009 -0.26748196603209529 0 0.33838015542742422 -0.26907129793516549 0 0.33891225779016732 -0.28238564021998691 0 0.33838015542742422 -0.26907129793516549 0 0.3506376976989482 -0.27616872846289692 0 0.3506376976989482 -0.27616872846289692 0 0.36311551863328329 -0.26982830391897888 0 0.3609383170830836 -0.29128087428701072 0 0.33838015542742422 -0.26907129793516549 0 0.3506376976989482 -0.27616872846289692 0 0.34756558382942998 -0.26314319419524601 0 0.3506376976989482 -0.27616872846289692 0 0.34756558382942998 -0.26314319419524601 0 0.36311551863328329 -0.26982830391897888 0 0.33929421772345042 -0.25584115290640691 0 0.34756558382942998 -0.26314319419524601 0 0.35162734258361761 -0.25242186516885701 0 0.35206922458546819 -0.2425929435678775 0 0.33929421772345042 -0.25584115290640691 0 0.35162734258361761 -0.25242186516885701 0 0.34756558382942998 -0.26314319419524601 0 0.35852737192959488 -0.25473250193359598 0 0.36311551863328329 -0.26982830391897888 0 0.36421571969384159 -0.24460496201461249 0 0.35852737192959488 -0.25473250193359598 0 0.35162734258361761 -0.25242186516885701 0 0.34756558382942998 -0.26314319419524601 0 0.35852737192959488 -0.25473250193359598 0 0.35162734258361761 -0.25242186516885701 0 0.37178074500542491 -0.24902341934924671 0 0.35852737192959488 -0.25473250193359598 0 0.36796629619571819 -0.2591312259487778 0 0.35852737192959488 -0.25473250193359598 0 0.36796629619571819 -0.2591312259487778 0 0.36311551863328329 -0.26982830391897888 0 0.37844154921457002 -0.26294067859328962 0 0.36796629619571819 -0.2591312259487778 0 0.36311551863328329 -0.26982830391897888 0 0.37178074500542491 -0.24902341934924671 0 0.37844154921457002 -0.26294067859328962 0 0.36796629619571819 -0.2591312259487778 0 0.37662082769964689 -0.2774383894982605 0 0.36311551863328329 -0.26982830391897888 0 0.3609383170830836 -0.29128087428701072 0 0.37662082769964689 -0.2774383894982605 0 0.37844154921457002 -0.26294067859328962 0 0.36311551863328329 -0.26982830391897888 0 0.38725332723018258 -0.29083006818484031 0 0.3609383170830836 -0.29128087428701072 0 0.36907421003950408 -0.30734622852578569 0 0.38725332723018258 -0.29083006818484031 0 0.37662082769964689 -0.2774383894982605 0 0.3609383170830836 -0.29128087428701072 0 0.33891225779016732 -0.28238564021998691 0 0.3506376976989482 -0.27616872846289692 0 0.3609383170830836 -0.29128087428701072 0 0.33891225779016732 -0.28238564021998691 0 0.3609383170830836 -0.29128087428701072 0 0.3487231760697509 -0.30066031440716368 0 0.33891225779016732 -0.28238564021998691 0 0.3609383170830836 -0.29128087428701072 0 0.3487231760697509 -0.30066031440716368 0 0.36907421003950408 -0.30734622852578569 0 0.35062666321971642 -0.31740327914382699 0 0.3609383170830836 -0.29128087428701072 0 0.3487231760697509 -0.30066031440716368 0 0.36907421003950408 -0.30734622852578569 0 0.37704019807901118 -0.31821116939100041 0 0.36907421003950408 -0.30734622852578569 0 0.36420613216148001 -0.32105017041593897 0 0.36907421003950408 -0.30734622852578569 0 0.36420613216148001 -0.32105017041593897 0 0.35062666321971642 -0.31740327914382699 0 0.37704019807901118 -0.31821116939100041 0 0.36420613216148001 -0.32105017041593897 0 0.37463532271886968 -0.3304806410833328 0 0.36420613216148001 -0.32105017041593897 0 0.37463532271886968 -0.3304806410833328 0 0.35328143237080267 -0.33685700093578808 0 0.37463532271886968 -0.3304806410833328 0 0.37219439069436278 -0.33973455654827522 0 0.35328143237080267 -0.33685700093578808 0 0.37219439069436278 -0.33973455654827522 0 0.35328143237080267 -0.33685700093578808 0 0.36187220681042243 -0.34664139095833302 0 0.37463532271886968 -0.3304806410833328 0 0.35328143237080267 -0.33685700093578808 0 0.35328143237080267 -0.33685700093578808 0 0.34957973154128041 -0.34618211696341539 0 0.33192754202273572 -0.34323336078824351 0 0.35328143237080267 -0.33685700093578808 0 0.36187220681042243 -0.34664139095833302 0 0.34957973154128041 -0.34618211696341539 0 0.36420613216148001 -0.32105017041593897 0 0.35328143237080267 -0.33685700093578808 0 0.35062666321971642 -0.31740327914382699 0 0.35328143237080267 -0.33685700093578808 0 0.35062666321971642 -0.31740327914382699 0 0.34168223867099062 -0.33007371174581152 0 0.37655859199567587 -0.37356725680210112 0 0.36287328785402612 -0.36899476329825298 0 0.36948003967883492 -0.36376344626797991 0 0.37655859199567587 -0.37356725680210112 0 0.36294720531266811 -0.38018066368018399 0 0.36287328785402612 -0.36899476329825298 0 0.37653734604282962 -0.36071243495520089 0 0.36948003967883492 -0.36376344626797991 0 0.36925867876408658 -0.35496334079180009 0 0.37653734604282962 -0.36071243495520089 0 0.37655859199567587 -0.37356725680210112 0 0.36948003967883492 -0.36376344626797991 0 0.36948003967883492 -0.36376344626797991 0 0.36217229373755672 -0.36057943549254429 0 0.36925867876408658 -0.35496334079180009 0 0.36287328785402612 -0.36899476329825298 0 0.36217229373755672 -0.36057943549254429 0 0.35795013664840342 -0.36424709114289849 0 0.36287328785402612 -0.36899476329825298 0 0.36948003967883492 -0.36376344626797991 0 0.36217229373755672 -0.36057943549254429 0 0.37219439069436278 -0.33973455654827522 0 0.35539789584801468 -0.35724021821722712 0 0.37219439069436278 -0.33973455654827522 0 0.36475581476100521 -0.35312938776246161 0 0.35539789584801468 -0.35724021821722712 0 0.37219439069436278 -0.33973455654827522 0 0.36187220681042243 -0.34664139095833302 0 0.35539789584801468 -0.35724021821722712 0 0.36217229373755672 -0.36057943549254429 0 0.36475581476100521 -0.35312938776246161 0 0.35539789584801468 -0.35724021821722712 0 0.36217229373755672 -0.36057943549254429 0 0.36475581476100521 -0.35312938776246161 0 0.36925867876408658 -0.35496334079180009 0 0.37725125690826539 -0.350326147703383 0 0.37653734604282962 -0.36071243495520089 0 0.36925867876408658 -0.35496334079180009 0 0.37725125690826539 -0.350326147703383 0 0.37219439069436278 -0.33973455654827522 0 0.36925867876408658 -0.35496334079180009 0 0.37219439069436278 -0.33973455654827522 0 0.36475581476100521 -0.35312938776246161 0 0.36925867876408658 -0.35496334079180009 0 0.34957973154128041 -0.34618211696341539 0 0.35320517612990071 -0.35553714392729158 0 0.33192754202273572 -0.34323336078824351 0 0.3534984398014635 -0.35024730304545121 0 0.34957973154128041 -0.34618211696341539 0 0.35320517612990071 -0.35553714392729158 0 0.36187220681042243 -0.34664139095833302 0 0.3534984398014635 -0.35024730304545121 0 0.3558501669988845 -0.3524210775484839 0 0.36187220681042243 -0.34664139095833302 0 0.3534984398014635 -0.35024730304545121 0 0.34957973154128041 -0.34618211696341539 0 0.35320517612990071 -0.35553714392729158 0 0.35539789584801468 -0.35724021821722712 0 0.34042329576697339 -0.35823164563226978 0 0.36187220681042243 -0.34664139095833302 0 0.35539789584801468 -0.35724021821722712 0 0.3558501669988845 -0.3524210775484839 0 0.3534984398014635 -0.35024730304545121 0 0.35320517612990071 -0.35553714392729158 0 0.3558501669988845 -0.3524210775484839 0 0.35320517612990071 -0.35553714392729158 0 0.35539789584801468 -0.35724021821722712 0 0.3558501669988845 -0.3524210775484839 0 0.35539789584801468 -0.35724021821722712 0 0.33860140100166652 -0.37474587988617891 0 0.34042329576697339 -0.35823164563226978 0 0.35539789584801468 -0.35724021821722712 0 0.35135706915401588 -0.37017394756356969 0 0.33860140100166652 -0.37474587988617891 0 0.35539789584801468 -0.35724021821722712 0 0.33860140100166652 -0.37474587988617891 0 0.35539789584801468 -0.35724021821722712 0 0.35795013664840342 -0.36424709114289849 0 0.35135706915401588 -0.37017394756356969 0 0.36217229373755672 -0.36057943549254429 0 0.35539789584801468 -0.35724021821722712 0 0.35795013664840342 -0.36424709114289849 0 0.36294720531266811 -0.38018066368018399 0 0.36287328785402612 -0.36899476329825298 0 0.35135706915401588 -0.37017394756356969 0 0.36287328785402612 -0.36899476329825298 0 0.35795013664840342 -0.36424709114289849 0 0.35135706915401588 -0.37017394756356969 0 0.33860140100166652 -0.37474587988617891 0 0.34042329576697339 -0.35823164563226978 0 0.3265103903251248 -0.35945213496471662 0 0.35320517612990071 -0.35553714392729158 0 0.33192754202273572 -0.34323336078824351 0 0.35320517612990071 -0.35553714392729158 0 0.34042329576697339 -0.35823164563226978 0 0.33192754202273572 -0.34323336078824351 0 0.34042329576697339 -0.35823164563226978 0 0.3265103903251248 -0.35945213496471662 0 0.33192754202273572 -0.34323336078824351 0 0.3154146555364471 -0.34816417689355561 0 0.33192754202273572 -0.34323336078824351 0 0.3154146555364471 -0.34816417689355561 0 0.3265103903251248 -0.35945213496471662 0 0.33192754202273572 -0.34323336078824351 0 0.3154146555364471 -0.34816417689355561 0 0.31323691028295181 -0.37098663086795219 0 0.3265103903251248 -0.35945213496471662 0 0.33860140100166652 -0.37474587988617891 0 0.31323691028295181 -0.37098663086795219 0 0.3265103903251248 -0.35945213496471662 0 0.35062666321971642 -0.31740327914382699 0 0.33089331707070768 -0.32280120611538748 0 0.34168223867099062 -0.33007371174581152 0 0.33149771766007402 -0.30001414710683749 0 0.35062666321971642 -0.31740327914382699 0 0.33089331707070768 -0.32280120611538748 0 0.33089331707070768 -0.32280120611538748 0 0.33192754202273572 -0.34323336078824351 0 0.34168223867099062 -0.33007371174581152 0 0.35328143237080267 -0.33685700093578808 0 0.33192754202273572 -0.34323336078824351 0 0.35328143237080267 -0.33685700093578808 0 0.33192754202273572 -0.34323336078824351 0 0.34168223867099062 -0.33007371174581152 0 0.3154146555364471 -0.34816417689355561 0 0.33192754202273572 -0.34323336078824351 0 0.31266888802952059 -0.33209705206665119 0 0.33089331707070768 -0.32280120611538748 0 0.33192754202273572 -0.34323336078824351 0 0.31266888802952059 -0.33209705206665119 0 0.33192754202273572 -0.34323336078824351 0 0.31266888802952059 -0.33209705206665119 0 0.33089331707070768 -0.32280120611538748 0 0.31266888802952059 -0.33209705206665119 0 0.31495401674792167 -0.31345967574744882 0 0.31266888802952059 -0.33209705206665119 0 0.31495401674792167 -0.31345967574744882 0 0.29341023403630562 -0.32096074334505892 0 0.31266888802952059 -0.33209705206665119 0 0.29341023403630562 -0.32096074334505892 0 0.3154146555364471 -0.34816417689355561 0 0.31266888802952059 -0.33209705206665119 0 0.29821893739111432 -0.3376351833950002 0 0.31266888802952059 -0.33209705206665119 0 0.29821893739111432 -0.3376351833950002 0 0.29341023403630562 -0.32096074334505892 0 0.29821893739111432 -0.3376351833950002 0 0.28324073230096269 -0.34152431496127278 0 0.29341023403630562 -0.32096074334505892 0 0.28324073230096269 -0.34152431496127278 0 0.29341023403630562 -0.32096074334505892 0 0.28324073230096269 -0.34152431496127278 0 0.29341023403630562 -0.32096074334505892 0 0.27257483066671129 -0.32623096063484219 0 0.29341023403630562 -0.32096074334505892 0 0.27045895388275498 -0.30768917507057048 0 0.31323691028295181 -0.37098663086795219 0 0.29890176905015869 -0.35309499299886782 0 0.29406281218487668 -0.37110195615280478 0 0.30376608135307642 -0.38256574588337439 0 0.31323691028295181 -0.37098663086795219 0 0.29406281218487668 -0.37110195615280478 0 0.3154146555364471 -0.34816417689355561 0 0.31323691028295181 -0.37098663086795219 0 0.29890176905015869 -0.35309499299886782 0 0.3154146555364471 -0.34816417689355561 0 0.29821893739111432 -0.3376351833950002 0 0.29890176905015869 -0.35309499299886782 0 0.3154146555364471 -0.34816417689355561 0 0.29890176905015869 -0.35309499299886782 0 0.28324073230096269 -0.34152431496127278 0 0.29890176905015869 -0.35309499299886782 0 0.27307123056561983 -0.36208788657748658 0 0.29821893739111432 -0.3376351833950002 0 0.28324073230096269 -0.34152431496127278 0 0.29890176905015869 -0.35309499299886782 0 0.28059514594661789 -0.37749688251145941 0 0.29406281218487668 -0.37110195615280478 0 0.27307123056561983 -0.36208788657748658 0 0.29890176905015869 -0.35309499299886782 0 0.29406281218487668 -0.37110195615280478 0 0.27307123056561983 -0.36208788657748658 0 0.28059514594661789 -0.37749688251145941 0 0.27063627606564722 -0.38146981263072172 0 0.27307123056561983 -0.36208788657748658 0 0.26290172883027341 -0.38265145819369878 0 0.27307123056561983 -0.36208788657748658 0 0.28324073230096269 -0.34152431496127278 0 0.27307123056561983 -0.36208788657748658 0 0.28324073230096269 -0.34152431496127278 0 0.27307123056561983 -0.36208788657748658 0 0.25902008546228139 -0.33944764004923739 0 0.27307123056561983 -0.36208788657748658 0 0.25016122440348099 -0.35456012118761387 0 0.25902008546228139 -0.33944764004923739 0 0.26290172883027341 -0.38265145819369878 0 0.27307123056561983 -0.36208788657748658 0 0.25780649861617821 -0.36733526799276739 0 0.26290172883027341 -0.38265145819369878 0 0.25780649861617821 -0.36733526799276739 0 0.24170827130145911 -0.36851600104022741 0 0.27307123056561983 -0.36208788657748658 0 0.25016122440348099 -0.35456012118761387 0 0.25780649861617821 -0.36733526799276739 0 0.27257483066671129 -0.32623096063484219 0 0.25674414765125192 -0.32153292974807168 0 0.27045895388275498 -0.30768917507057048 0 0.29341023403630562 -0.32096074334505892 0 0.27257483066671129 -0.32623096063484219 0 0.27045895388275498 -0.30768917507057048 0 0.28324073230096269 -0.34152431496127278 0 0.27257483066671129 -0.32623096063484219 0 0.25902008546228139 -0.33944764004923739 0 0.27257483066671129 -0.32623096063484219 0 0.25902008546228139 -0.33944764004923739 0 0.25674414765125192 -0.32153292974807168 0 0.25902008546228139 -0.33944764004923739 0 0.25674414765125192 -0.32153292974807168 0 0.23663746231218019 -0.32558129144487769 0 0.25674414765125192 -0.32153292974807168 0 0.27045895388275498 -0.30768917507057048 0 0.24451567491351181 -0.30988941304627587 0 0.27045895388275498 -0.30768917507057048 0 0.24750767372920429 -0.29441760679608231 0 0.24451567491351181 -0.30988941304627587 0 0.27045895388275498 -0.30768917507057048 0 0.24750767372920429 -0.29441760679608231 0 0.26933829144208221 -0.28372997478518469 0 0.24865637472303559 -0.27728039917688507 0 0.24750767372920429 -0.29441760679608231 0 0.26933829144208221 -0.28372997478518469 0 0.27045895388275498 -0.30768917507057048 0 0.24750767372920429 -0.29441760679608231 0 0.26933829144208221 -0.28372997478518469 0 0.27045895388275498 -0.30768917507057048 0 0.28396972673167459 -0.29080273138076301 0 0.26933829144208221 -0.28372997478518469 0 0.28396972673167459 -0.29080273138076301 0 0.28180038579786648 -0.27949520726006949 0 0.27045895388275498 -0.30768917507057048 0 0.28857793451958469 -0.30405092516071902 0 0.28396972673167459 -0.29080273138076301 0 0.29341023403630562 -0.32096074334505892 0 0.27045895388275498 -0.30768917507057048 0 0.28857793451958469 -0.30405092516071902 0 0.29341023403630562 -0.32096074334505892 0 0.28857793451958469 -0.30405092516071902 0 0.30288950306836931 -0.30179287920745301 0 0.28857793451958469 -0.30405092516071902 0 0.29735664071998719 -0.28913593265213972 0 0.30288950306836931 -0.30179287920745301 0 0.28396972673167459 -0.29080273138076301 0 0.28953870887964972 -0.28279325983877462 0 0.28180038579786648 -0.27949520726006949 0 0.28396972673167459 -0.29080273138076301 0 0.28953870887964972 -0.28279325983877462 0 0.29735664071998719 -0.28913593265213972 0 0.28953870887964972 -0.28279325983877462 0 0.29735664071998719 -0.28913593265213972 0 0.29489219767257202 -0.27992957760209408 0 0.28857793451958469 -0.30405092516071902 0 0.28396972673167459 -0.29080273138076301 0 0.29735664071998719 -0.28913593265213972 0 0.31542750239419942 -0.29947292928289659 0 0.31236877210043268 -0.28262501506984689 0 0.30288950306836931 -0.30179287920745301 0 0.31236877210043268 -0.28262501506984689 0 0.30288950306836931 -0.30179287920745301 0 0.29735664071998719 -0.28913593265213972 0 0.31236877210043268 -0.28262501506984689 0 0.30288950306836931 -0.30179287920745301 0 0.29735664071998719 -0.28913593265213972 0 0.31236877210043268 -0.28262501506984689 0 0.30104320449713451 -0.27997981374830122 0 0.29735664071998719 -0.28913593265213972 0 0.30104320449713451 -0.27997981374830122 0 0.29489219767257202 -0.27992957760209408 0 0.29341023403630562 -0.32096074334505892 0 0.30288950306836931 -0.30179287920745301 0 0.31495401674792167 -0.31345967574744882 0 0.29341023403630562 -0.32096074334505892 0 0.30288950306836931 -0.30179287920745301 0 0.31542750239419942 -0.29947292928289659 0 0.31495401674792167 -0.31345967574744882 0 0.30288950306836931 -0.30179287920745301 0 0.31948858200591429 -0.24895538480140031 0 0.29455279329022288 -0.25936526309892599 0 0.31948858200591429 -0.24895538480140031 0 0.30270319855564731 -0.25083068480389359 0 0.29455279329022288 -0.25936526309892599 0 0.31948858200591429 -0.24895538480140031 0 0.30413910251289888 -0.26834248563991481 0 0.29455279329022288 -0.25936526309892599 0 0.30413910251289888 -0.26834248563991481 0 0.29067632508807889 -0.26290553685150669 0 0.29342444761073561 -0.2490154373494701 0 0.30270319855564731 -0.25083068480389359 0 0.29455279329022288 -0.25936526309892599 0 0.31688619849725208 -0.27349040615296011 0 0.30413910251289888 -0.26834248563991481 0 0.31688619849725208 -0.27349040615296011 0 0.31236877210043268 -0.28262501506984689 0 0.30413910251289888 -0.26834248563991481 0 0.31236877210043268 -0.28262501506984689 0 0.30413910251289888 -0.26834248563991481 0 0.29943643885206489 -0.27086890181723722 0 0.31236877210043268 -0.28262501506984689 0 0.29943643885206489 -0.27086890181723722 0 0.31236877210043268 -0.28262501506984689 0 0.30104320449713451 -0.27997981374830122 0 0.29943643885206489 -0.27086890181723722 0 0.30104320449713451 -0.27997981374830122 0 0.29943643885206489 -0.27086890181723722 0 0.29526627671383621 -0.27310924172839129 0 0.30104320449713451 -0.27997981374830122 0 0.29526627671383621 -0.27310924172839129 0 0.29489219767257202 -0.27992957760209408 0 0.30413910251289888 -0.26834248563991481 0 0.29943643885206489 -0.27086890181723722 0 0.29067632508807889 -0.26290553685150669 0 0.30413910251289888 -0.26834248563991481 0 0.29943643885206489 -0.27086890181723722 0 0.29943643885206489 -0.27086890181723722 0 0.29526627671383621 -0.27310924172839129 0 0.29943643885206489 -0.27086890181723722 0 0.29070985511479219 -0.26996860976649489 0 0.29067632508807889 -0.26290553685150669 0 0.29943643885206489 -0.27086890181723722 0 0.29067632508807889 -0.26290553685150669 0 0.29943643885206489 -0.27086890181723722 0 0.29526627671383621 -0.27310924172839129 0 0.29070985511479219 -0.26996860976649489 0 0.29526627671383621 -0.27310924172839129 0 0.29070985511479219 -0.26996860976649489 0 0.28953189466040019 -0.27553176578282901 0 0.29526627671383621 -0.27310924172839129 0 0.29489219767257202 -0.27992957760209408 0 0.28953189466040019 -0.27553176578282901 0 0.28953870887964972 -0.28279325983877462 0 0.29489219767257202 -0.27992957760209408 0 0.28953189466040019 -0.27553176578282901 0 0.28953189466040019 -0.27553176578282901 0 0.28180038579786648 -0.27949520726006949 0 0.28355603387518719 -0.27155009664995139 0 0.28953870887964972 -0.28279325983877462 0 0.28953189466040019 -0.27553176578282901 0 0.28180038579786648 -0.27949520726006949 0 0.29070985511479219 -0.26996860976649489 0 0.28538392147282099 -0.26645021187832468 0 0.28355603387518719 -0.27155009664995139 0 0.29070985511479219 -0.26996860976649489 0 0.28538392147282099 -0.26645021187832468 0 0.29067632508807889 -0.26290553685150669 0 0.29070985511479219 -0.26996860976649489 0 0.28953189466040019 -0.27553176578282901 0 0.28355603387518719 -0.27155009664995139 0 0.28538392147282099 -0.26645021187832468 0 0.28355603387518719 -0.27155009664995139 0 0.27993127607616303 -0.26568643484764221 0 0.28538392147282099 -0.26645021187832468 0 0.28587422930842099 -0.26096620828599898 0 0.27993127607616303 -0.26568643484764221 0 0.28587422930842099 -0.26096620828599898 0 0.29067632508807889 -0.26290553685150669 0 0.27900645603208429 -0.25229706430207338 0 0.28538392147282099 -0.26645021187832468 0 0.28587422930842099 -0.26096620828599898 0 0.29067632508807889 -0.26290553685150669 0 0.28587422930842099 -0.26096620828599898 0 0.29067632508807889 -0.26290553685150669 0 0.30413910251289888 -0.26834248563991481 0 0.29455279329022288 -0.25936526309892599 0 0.29067632508807889 -0.26290553685150669 0 0.29455279329022288 -0.25936526309892599 0 0.29067632508807889 -0.26290553685150669 0 0.28855536188488351 -0.25406702018922561 0 0.29342444761073561 -0.2490154373494701 0 0.29455279329022288 -0.25936526309892599 0 0.28855536188488351 -0.25406702018922561 0 0.28475750139054989 -0.24680621714445891 0 0.28855536188488351 -0.25406702018922561 0 0.27900645603208429 -0.25229706430207338 0 0.29067632508807889 -0.26290553685150669 0 0.28855536188488351 -0.25406702018922561 0 0.27900645603208429 -0.25229706430207338 0 0.29067632508807889 -0.26290553685150669 0 0.27900645603208429 -0.25229706430207338 0 0.28587422930842099 -0.26096620828599898 0 0.27900645603208429 -0.25229706430207338 0 0.2777471093450074 -0.25993694902172559 0 0.27900645603208429 -0.25229706430207338 0 0.2777471093450074 -0.25993694902172559 0 0.27149854063402512 -0.25616919287358703 0 0.2777471093450074 -0.25993694902172559 0 0.27242504467434348 -0.26456584479932671 0 0.27149854063402512 -0.25616919287358703 0 0.28587422930842099 -0.26096620828599898 0 0.2777471093450074 -0.25993694902172559 0 0.27993127607616303 -0.26568643484764221 0 0.2777471093450074 -0.25993694902172559 0 0.27242504467434348 -0.26456584479932671 0 0.27993127607616303 -0.26568643484764221 0 0.27242504467434348 -0.26456584479932671 0 0.26307847596695039 -0.27052873695471552 0 0.26146442537082609 -0.25583685081005042 0 0.27242504467434348 -0.26456584479932671 0 0.27149854063402512 -0.25616919287358703 0 0.26146442537082609 -0.25583685081005042 0 0.26733658697608947 -0.2416885917526401 0 0.27149854063402512 -0.25616919287358703 0 0.26146442537082609 -0.25583685081005042 0 0.26733658697608947 -0.2416885917526401 0 0.27900645603208429 -0.25229706430207338 0 0.27149854063402512 -0.25616919287358703 0 0.26933829144208221 -0.28372997478518469 0 0.28180038579786648 -0.27949520726006949 0 0.27486765919820538 -0.27256341512291421 0 0.28180038579786648 -0.27949520726006949 0 0.28355603387518719 -0.27155009664995139 0 0.27486765919820538 -0.27256341512291421 0 0.27242504467434348 -0.26456584479932671 0 0.27486765919820538 -0.27256341512291421 0 0.27993127607616303 -0.26568643484764221 0 0.28355603387518719 -0.27155009664995139 0 0.27486765919820538 -0.27256341512291421 0 0.27993127607616303 -0.26568643484764221 0 0.27242504467434348 -0.26456584479932671 0 0.27486765919820538 -0.27256341512291421 0 0.26307847596695039 -0.27052873695471552 0 0.26933829144208221 -0.28372997478518469 0 0.27486765919820538 -0.27256341512291421 0 0.26307847596695039 -0.27052873695471552 0 0.26933829144208221 -0.28372997478518469 0 0.26307847596695039 -0.27052873695471552 0 0.24865637472303559 -0.27728039917688507 0 0.26307847596695039 -0.27052873695471552 0 0.25101111975996859 -0.26563328692327859 0 0.24865637472303559 -0.27728039917688507 0 0.25101111975996859 -0.26563328692327859 0 0.26146442537082609 -0.25583685081005042 0 0.2448903888819314 -0.25274008289494182 0 0.2538276387990735 -0.243986156319283 0 0.26146442537082609 -0.25583685081005042 0 0.2448903888819314 -0.25274008289494182 0 0.26307847596695039 -0.27052873695471552 0 0.25101111975996859 -0.26563328692327859 0 0.26146442537082609 -0.25583685081005042 0 0.25101111975996859 -0.26563328692327859 0 0.2448903888819314 -0.25274008289494182 0 0.2364462938643549 -0.26822675108045579 0 0.2448903888819314 -0.25274008289494182 0 0.2364462938643549 -0.26822675108045579 0 0.23102541472123911 -0.25599355796250051 0 0.2448903888819314 -0.25274008289494182 0 0.23102541472123911 -0.25599355796250051 0 0.2355561727938057 -0.24422168856868201 0 0.24865637472303559 -0.27728039917688507 0 0.2364462938643549 -0.26822675108045579 0 0.2245563935756536 -0.28114603852159398 0 0.25101111975996859 -0.26563328692327859 0 0.24865637472303559 -0.27728039917688507 0 0.2364462938643549 -0.26822675108045579 0 0.2364462938643549 -0.26822675108045579 0 0.2245563935756536 -0.28114603852159398 0 0.22044795806211831 -0.26218928624163029 0 0.22044795806211831 -0.26218928624163029 0 0.23102541472123911 -0.25599355796250051 0 0.22036553595057129 -0.24563164019566869 0 0.2364462938643549 -0.26822675108045579 0 0.22044795806211831 -0.26218928624163029 0 0.23102541472123911 -0.25599355796250051 0 0.22044795806211831 -0.26218928624163029 0 0.20456781783476069 -0.25396670583710529 0 0.22036553595057129 -0.24563164019566869 0 0.22044795806211831 -0.26218928624163029 0 0.20456781783476069 -0.25396670583710529 0 0.20160511342210291 -0.2678744702471057 0 0.2245563935756536 -0.28114603852159398 0 0.20160511342210291 -0.2678744702471057 0 0.2019198381618168 -0.28326470310752488 0 0.2245563935756536 -0.28114603852159398 0 0.20160511342210291 -0.2678744702471057 0 0.2245563935756536 -0.28114603852159398 0 0.22044795806211831 -0.26218928624163029 0 0.20160511342210291 -0.2678744702471057 0 0.20160511342210291 -0.2678744702471057 0 0.1786538332685523 -0.25460290197261742 0 0.18617355488529971 -0.27574024348564791 0 0.20160511342210291 -0.2678744702471057 0 0.2019198381618168 -0.28326470310752488 0 0.18617355488529971 -0.27574024348564791 0 0.20456781783476069 -0.25396670583710529 0 0.20160511342210291 -0.2678744702471057 0 0.1786538332685523 -0.25460290197261742 0 0.20160511342210291 -0.2678744702471057 0 0.1786538332685523 -0.25460290197261742 0 0.1979107111278321 -0.29322402346471382 0 0.21346470950660959 -0.29300202656947189 0 0.1872036309678928 -0.30450828607407959 0 0.2076527524326254 -0.30853802527989549 0 0.20396838391790831 -0.31541686340156178 0 0.1872036309678928 -0.30450828607407959 0 0.21346470950660959 -0.29300202656947189 0 0.2076527524326254 -0.30853802527989549 0 0.1872036309678928 -0.30450828607407959 0 0.21346470950660959 -0.29300202656947189 0 0.1872036309678928 -0.30450828607407959 0 0.18907724088750361 -0.29628162746642173 0 0.1979107111278321 -0.29322402346471382 0 0.1872036309678928 -0.30450828607407959 0 0.18907724088750361 -0.29628162746642173 0 0.1878085464534032 -0.28860141635661651 0 0.1979107111278321 -0.29322402346471382 0 0.1878085464534032 -0.28860141635661651 0 0.2019198381618168 -0.28326470310752488 0 0.18617355488529971 -0.27574024348564791 0 0.1878085464534032 -0.28860141635661651 0 0.2019198381618168 -0.28326470310752488 0 0.1979107111278321 -0.29322402346471382 0 0.2019198381618168 -0.28326470310752488 0 0.1979107111278321 -0.29322402346471382 0 0.21346470950660959 -0.29300202656947189 0 0.2245563935756536 -0.28114603852159398 0 0.2019198381618168 -0.28326470310752488 0 0.21346470950660959 -0.29300202656947189 0 0.21346470950660959 -0.29300202656947189 0 0.2076527524326254 -0.30853802527989549 0 0.2188042407491522 -0.3061664508678551 0 0.2076527524326254 -0.30853802527989549 0 0.2188042407491522 -0.3061664508678551 0 0.21715792990084659 -0.31917672727185448 0 0.2188042407491522 -0.3061664508678551 0 0.2283103357443797 -0.29898326899784378 0 0.22743547616129961 -0.31113220622020971 0 0.2188042407491522 -0.3061664508678551 0 0.22743547616129961 -0.31113220622020971 0 0.21715792990084659 -0.31917672727185448 0 0.2283103357443797 -0.29898326899784378 0 0.22743547616129961 -0.31113220622020971 0 0.24451567491351181 -0.30988941304627587 0 0.21346470950660959 -0.29300202656947189 0 0.2188042407491522 -0.3061664508678551 0 0.2283103357443797 -0.29898326899784378 0 0.2245563935756536 -0.28114603852159398 0 0.2283103357443797 -0.29898326899784378 0 0.24750767372920429 -0.29441760679608231 0 0.2245563935756536 -0.28114603852159398 0 0.21346470950660959 -0.29300202656947189 0 0.2283103357443797 -0.29898326899784378 0 0.24865637472303559 -0.27728039917688507 0 0.2245563935756536 -0.28114603852159398 0 0.24750767372920429 -0.29441760679608231 0 0.2245563935756536 -0.28114603852159398 0 0.24750767372920429 -0.29441760679608231 0 0.2283103357443797 -0.29898326899784378 0 0.24750767372920429 -0.29441760679608231 0 0.24451567491351181 -0.30988941304627587 0 0.25674414765125192 -0.32153292974807168 0 0.24451567491351181 -0.30988941304627587 0 0.23663746231218019 -0.32558129144487769 0 0.22743547616129961 -0.31113220622020971 0 0.24451567491351181 -0.30988941304627587 0 0.23663746231218019 -0.32558129144487769 0 0.25902008546228139 -0.33944764004923739 0 0.23663746231218019 -0.32558129144487769 0 0.23812677282779671 -0.34579504452205923 0 0.23663746231218019 -0.32558129144487769 0 0.22305327423549071 -0.33520998890311388 0 0.23812677282779671 -0.34579504452205923 0 0.23663746231218019 -0.32558129144487769 0 0.22305327423549071 -0.33520998890311388 0 0.21715792990084659 -0.31917672727185448 0 0.22743547616129961 -0.31113220622020971 0 0.23663746231218019 -0.32558129144487769 0 0.21715792990084659 -0.31917672727185448 0 0.25016122440348099 -0.35456012118761387 0 0.25780649861617821 -0.36733526799276739 0 0.24170827130145911 -0.36851600104022741 0 0.25016122440348099 -0.35456012118761387 0 0.24170827130145911 -0.36851600104022741 0 0.23812677282779671 -0.34579504452205923 0 0.25016122440348099 -0.35456012118761387 0 0.25902008546228139 -0.33944764004923739 0 0.23812677282779671 -0.34579504452205923 0 0.22305327423549071 -0.33520998890311388 0 0.23812677282779671 -0.34579504452205923 0 0.22051481377264559 -0.354380543886755 0 0.24170827130145911 -0.36851600104022741 0 0.23812677282779671 -0.34579504452205923 0 0.22051481377264559 -0.354380543886755 0 0.24170827130145911 -0.36851600104022741 0 0.22051481377264559 -0.354380543886755 0 0.23670873457410921 -0.37862547682540998 0 0.22051481377264559 -0.354380543886755 0 0.21671442970331559 -0.36952189520083739 0 0.23670873457410921 -0.37862547682540998 0 0.24170827130145911 -0.36851600104022741 0 0.22051481377264559 -0.354380543886755 0 0.22051481377264559 -0.354380543886755 0 0.23670873457410921 -0.37862547682540998 0 0.2145442295313045 -0.35406247509838012 0 0.19610549299704269 -0.35761320467495011 0 0.20223677674008531 -0.37536150164024062 0 0.2145442295313045 -0.35406247509838012 0 0.20223677674008531 -0.37536150164024062 0 0.21671442970331559 -0.36952189520083739 0 0.2145442295313045 -0.35406247509838012 0 0.20223677674008531 -0.37536150164024062 0 0.22051481377264559 -0.354380543886755 0 0.19726166297455741 -0.33887132759476052 0 0.22051481377264559 -0.354380543886755 0 0.2145442295313045 -0.35406247509838012 0 0.19726166297455741 -0.33887132759476052 0 0.22051481377264559 -0.354380543886755 0 0.21671442970331559 -0.36952189520083739 0 0.2145442295313045 -0.35406247509838012 0 0.2145442295313045 -0.35406247509838012 0 0.19610549299704269 -0.35761320467495011 0 0.19726166297455741 -0.33887132759476052 0 0.18800049553334899 -0.35067348666979081 0 0.19610549299704269 -0.35761320467495011 0 0.19726166297455741 -0.33887132759476052 0 0.18800049553334899 -0.35067348666979081 0 0.19610549299704269 -0.35761320467495011 0 0.18169290130044011 -0.36055065201636799 0 0.19610549299704269 -0.35761320467495011 0 0.18850222486442261 -0.37083334481065872 0 0.20223677674008531 -0.37536150164024062 0 0.19610549299704269 -0.35761320467495011 0 0.18850222486442261 -0.37083334481065872 0 0.18169290130044011 -0.36055065201636799 0 0.22305327423549071 -0.33520998890311388 0 0.21715792990084659 -0.31917672727185448 0 0.2038592223702686 -0.32944441498041771 0 0.20396838391790831 -0.31541686340156178 0 0.21715792990084659 -0.31917672727185448 0 0.2038592223702686 -0.32944441498041771 0 0.2076527524326254 -0.30853802527989549 0 0.20396838391790831 -0.31541686340156178 0 0.21715792990084659 -0.31917672727185448 0 0.22305327423549071 -0.33520998890311388 0 0.22051481377264559 -0.354380543886755 0 0.2038592223702686 -0.32944441498041771 0 0.22051481377264559 -0.354380543886755 0 0.2038592223702686 -0.32944441498041771 0 0.22051481377264559 -0.354380543886755 0 0.2038592223702686 -0.32944441498041771 0 0.19726166297455741 -0.33887132759476052 0 0.2038592223702686 -0.32944441498041771 0 0.19726166297455741 -0.33887132759476052 0 0.18946458957283371 -0.32686389011310341 0 0.2038592223702686 -0.32944441498041771 0 0.18946458957283371 -0.32686389011310341 0 0.19011791489938501 -0.32059219805621608 0 0.20396838391790831 -0.31541686340156178 0 0.2038592223702686 -0.32944441498041771 0 0.1872036309678928 -0.30450828607407959 0 0.2038592223702686 -0.32944441498041771 0 0.19011791489938501 -0.32059219805621608 0 0.1872036309678928 -0.30450828607407959 0 0.2038592223702686 -0.32944441498041771 0 0.1872036309678928 -0.30450828607407959 0 0.18946458957283371 -0.32686389011310341 0 0.19011791489938501 -0.32059219805621608 0 0.18343459098095011 -0.32171141587599461 0 0.19011791489938501 -0.32059219805621608 0 0.1801473472751117 -0.31602746403189369 0 0.18343459098095011 -0.32171141587599461 0 0.19011791489938501 -0.32059219805621608 0 0.1801473472751117 -0.31602746403189369 0 0.1872036309678928 -0.30450828607407959 0 0.1801473472751117 -0.31602746403189369 0 0.1740085121764697 -0.32336211130276538 0 0.16624449121000939 -0.313691507573988 0 0.1801473472751117 -0.31602746403189369 0 0.1740085121764697 -0.32336211130276538 0 0.18343459098095011 -0.32171141587599461 0 0.18946458957283371 -0.32686389011310341 0 0.1740085121764697 -0.32336211130276538 0 0.18343459098095011 -0.32171141587599461 0 0.19726166297455741 -0.33887132759476052 0 0.1740085121764697 -0.32336211130276538 0 0.19726166297455741 -0.33887132759476052 0 0.18946458957283371 -0.32686389011310341 0 0.1740085121764697 -0.32336211130276538 0 0.19726166297455741 -0.33887132759476052 0 0.1740085121764697 -0.32336211130276538 0 0.17084668282717949 -0.33444376436359807 0 0.19726166297455741 -0.33887132759476052 0 0.17084668282717949 -0.33444376436359807 0 0.1769419248613559 -0.34565876239308452 0 0.17084668282717949 -0.33444376436359807 0 0.1579746676120877 -0.33844373838875669 0 0.1769419248613559 -0.34565876239308452 0 0.17084668282717949 -0.33444376436359807 0 0.1579746676120877 -0.33844373838875669 0 0.16287194105557451 -0.32656317014060099 0 0.16287194105557451 -0.32656317014060099 0 0.16624449121000939 -0.313691507573988 0 0.14528535145212601 -0.3228747290738968 0 0.1740085121764697 -0.32336211130276538 0 0.16287194105557451 -0.32656317014060099 0 0.16624449121000939 -0.313691507573988 0 0.1740085121764697 -0.32336211130276538 0 0.17084668282717949 -0.33444376436359807 0 0.16287194105557451 -0.32656317014060099 0 0.18850222486442261 -0.37083334481065872 0 0.18169290130044011 -0.36055065201636799 0 0.17566325228533769 -0.37771211281408068 0 0.18169290130044011 -0.36055065201636799 0 0.16476591200055099 -0.36143087792073608 0 0.17566325228533769 -0.37771211281408068 0 0.18169290130044011 -0.36055065201636799 0 0.1769419248613559 -0.34565876239308452 0 0.16476591200055099 -0.36143087792073608 0 0.18800049553334899 -0.35067348666979081 0 0.19726166297455741 -0.33887132759476052 0 0.1769419248613559 -0.34565876239308452 0 0.18800049553334899 -0.35067348666979081 0 0.18169290130044011 -0.36055065201636799 0 0.1769419248613559 -0.34565876239308452 0 0.1579746676120877 -0.33844373838875669 0 0.1769419248613559 -0.34565876239308452 0 0.16476591200055099 -0.36143087792073608 0 0.16476591200055099 -0.36143087792073608 0 0.17566325228533769 -0.37771211281408068 0 0.16064821501244969 -0.38160022960319528 0 0.16476591200055099 -0.36143087792073608 0 0.14708381304481141 -0.36811750004093857 0 0.16064821501244969 -0.38160022960319528 0 0.14708381304481141 -0.36811750004093857 0 0.14310340874650751 -0.35116913907698971 0 0.1340546722423305 -0.36362250164351873 0 0.16476591200055099 -0.36143087792073608 0 0.14708381304481141 -0.36811750004093857 0 0.14310340874650751 -0.35116913907698971 0 0.1579746676120877 -0.33844373838875669 0 0.16476591200055099 -0.36143087792073608 0 0.14310340874650751 -0.35116913907698971 0 0.14310340874650751 -0.35116913907698971 0 0.13814505060406329 -0.3371351449365903 0 0.11787172207594671 -0.35404558409213099 0 0.14310340874650751 -0.35116913907698971 0 0.1340546722423305 -0.36362250164351873 0 0.11787172207594671 -0.35404558409213099 0 0.1340546722423305 -0.36362250164351873 0 0.1281597451020563 -0.38115778336401568 0 0.11787172207594671 -0.35404558409213099 0 0.14708381304481141 -0.36811750004093857 0 0.1340546722423305 -0.36362250164351873 0 0.1281597451020563 -0.38115778336401568 0 0.16624449121000939 -0.313691507573988 0 0.14528535145212601 -0.3228747290738968 0 0.15600928873626829 -0.30488595851687977 0 0.16624449121000939 -0.313691507573988 0 0.14528535145212601 -0.3228747290738968 0 0.1579746676120877 -0.33844373838875669 0 0.14310340874650751 -0.35116913907698971 0 0.13814505060406329 -0.3371351449365903 0 0.1579746676120877 -0.33844373838875669 0 0.16287194105557451 -0.32656317014060099 0 0.14528535145212601 -0.3228747290738968 0 0.1579746676120877 -0.33844373838875669 0 0.14528535145212601 -0.3228747290738968 0 0.13814505060406329 -0.3371351449365903 0 0.14528535145212601 -0.3228747290738968 0 0.13814505060406329 -0.3371351449365903 0 0.1243262116942427 -0.33205795057380549 0 0.13814505060406329 -0.3371351449365903 0 0.1243262116942427 -0.33205795057380549 0 0.11787172207594671 -0.35404558409213099 0 0.14528535145212601 -0.3228747290738968 0 0.1243262116942427 -0.33205795057380549 0 0.14528535145212601 -0.3228747290738968 0 0.12642119591326259 -0.30901513411978632 0 0.1243262116942427 -0.33205795057380549 0 0.14528535145212601 -0.3228747290738968 0 0.12642119591326259 -0.30901513411978632 0 0.1417328999497251 -0.30462507190237331 0 0.12642119591326259 -0.30901513411978632 0 0.1417328999497251 -0.30462507190237331 0 0.13508701183200689 -0.29197957117870571 0 0.14528535145212601 -0.3228747290738968 0 0.1417328999497251 -0.30462507190237331 0 0.15600928873626829 -0.30488595851687977 0 0.1417328999497251 -0.30462507190237331 0 0.14984738564292591 -0.29498976961013329 0 0.13508701183200689 -0.29197957117870571 0 0.1417328999497251 -0.30462507190237331 0 0.15600928873626829 -0.30488595851687977 0 0.14984738564292591 -0.29498976961013329 0 0.14984738564292591 -0.29498976961013329 0 0.13508701183200689 -0.29197957117870571 0 0.15185155798713029 -0.2798214517088996 0 0.14984738564292591 -0.29498976961013329 0 0.15185155798713029 -0.2798214517088996 0 0.16455616970949899 -0.29363679474380799 0 0.13508701183200689 -0.29197957117870571 0 0.12936800559182801 -0.27235718855874019 0 0.15185155798713029 -0.2798214517088996 0 0.12936800559182801 -0.27235718855874019 0 0.15357400750707581 -0.26113889521412309 0 0.13475341233392191 -0.24985250807845871 0 0.12936800559182801 -0.27235718855874019 0 0.1162321014502215 -0.25452752110021859 0 0.13475341233392191 -0.24985250807845871 0 0.15357400750707581 -0.26113889521412309 0 0.1557025531150017 -0.2413313336981292 0 0.13475341233392191 -0.24985250807845871 0 0.12936800559182801 -0.27235718855874019 0 0.15357400750707581 -0.26113889521412309 0 0.15185155798713029 -0.2798214517088996 0 0.15357400750707581 -0.26113889521412309 0 0.15185155798713029 -0.2798214517088996 0 0.1685908476252411 -0.27549950142870988 0 0.15357400750707581 -0.26113889521412309 0 0.1786538332685523 -0.25460290197261742 0 0.1557025531150017 -0.2413313336981292 0 0.15357400750707581 -0.26113889521412309 0 0.1685908476252411 -0.27549950142870988 0 0.1786538332685523 -0.25460290197261742 0 0.1685908476252411 -0.27549950142870988 0 0.18617355488529971 -0.27574024348564791 0 0.1767359623938897 -0.28805672144716421 0 0.1685908476252411 -0.27549950142870988 0 0.1786538332685523 -0.25460290197261742 0 0.18617355488529971 -0.27574024348564791 0 0.1878085464534032 -0.28860141635661651 0 0.18617355488529971 -0.27574024348564791 0 0.1767359623938897 -0.28805672144716421 0 0.1767359623938897 -0.28805672144716421 0 0.17503849261423551 -0.29613207522837531 0 0.16455616970949899 -0.29363679474380799 0 0.1767359623938897 -0.28805672144716421 0 0.17503849261423551 -0.29613207522837531 0 0.18338607500088641 -0.29879278397027731 0 0.18907724088750361 -0.29628162746642173 0 0.1878085464534032 -0.28860141635661651 0 0.18338607500088641 -0.29879278397027731 0 0.1878085464534032 -0.28860141635661651 0 0.1767359623938897 -0.28805672144716421 0 0.18338607500088641 -0.29879278397027731 0 0.18907724088750361 -0.29628162746642173 0 0.1872036309678928 -0.30450828607407959 0 0.18338607500088641 -0.29879278397027731 0 0.16624449121000939 -0.313691507573988 0 0.1872036309678928 -0.30450828607407959 0 0.1872036309678928 -0.30450828607407959 0 0.18338607500088641 -0.29879278397027731 0 0.17237924947348041 -0.3034393906012558 0 0.1801473472751117 -0.31602746403189369 0 0.16624449121000939 -0.313691507573988 0 0.1872036309678928 -0.30450828607407959 0 0.16624449121000939 -0.313691507573988 0 0.1872036309678928 -0.30450828607407959 0 0.17237924947348041 -0.3034393906012558 0 0.1872036309678928 -0.30450828607407959 0 0.18338607500088641 -0.29879278397027731 0 0.17503849261423551 -0.29613207522837531 0 0.18338607500088641 -0.29879278397027731 0 0.17237924947348041 -0.3034393906012558 0 0.16624449121000939 -0.313691507573988 0 0.15600928873626829 -0.30488595851687977 0 0.17237924947348041 -0.3034393906012558 0 0.15600928873626829 -0.30488595851687977 0 0.17237924947348041 -0.3034393906012558 0 0.16455616970949899 -0.29363679474380799 0 0.17503849261423551 -0.29613207522837531 0 0.17237924947348041 -0.3034393906012558 0 0.16455616970949899 -0.29363679474380799 0 0.15600928873626829 -0.30488595851687977 0 0.14984738564292591 -0.29498976961013329 0 0.16455616970949899 -0.29363679474380799 0 0.1685908476252411 -0.27549950142870988 0 0.1767359623938897 -0.28805672144716421 0 0.16455616970949899 -0.29363679474380799 0 0.15185155798713029 -0.2798214517088996 0 0.1685908476252411 -0.27549950142870988 0 0.16455616970949899 -0.29363679474380799 0 0.18809037809979001 -0.5 0 0.20038039862023599 -0.48291914820849002 0 0.18222678381117521 -0.48279505628326641 0 0.18809037809979001 -0.5 0 0.20038039862023599 -0.48291914820849002 0 0.21413447760444029 -0.5 0 0.20038039862023599 -0.48291914820849002 0 0.1868186143285987 -0.46613018820261132 0 0.18222678381117521 -0.48279505628326641 0 0.20038039862023599 -0.48291914820849002 0 0.20570137835005209 -0.46076033295649232 0 0.1868186143285987 -0.46613018820261132 0 0.20038039862023599 -0.48291914820849002 0 0.21935477369884451 -0.4738211708127838 0 0.20570137835005209 -0.46076033295649232 0 0.20038039862023599 -0.48291914820849002 0 0.21413447760444029 -0.5 0 0.21935477369884451 -0.4738211708127838 0 0.21413447760444029 -0.5 0 0.24017857710909041 -0.5 0 0.23456602300140131 -0.48244156266282823 0 0.21413447760444029 -0.5 0 0.23456602300140131 -0.48244156266282823 0 0.21935477369884451 -0.4738211708127838 0 0.25704613436640061 -0.47851187754702579 0 0.24017857710909041 -0.5 0 0.23456602300140131 -0.48244156266282823 0 0.25704613436640061 -0.47851187754702579 0 0.23456602300140131 -0.48244156266282823 0 0.24211615222823071 -0.45987476495433138 0 0.23456602300140131 -0.48244156266282823 0 0.21935477369884451 -0.4738211708127838 0 0.24211615222823071 -0.45987476495433138 0 0.21935477369884451 -0.4738211708127838 0 0.24211615222823071 -0.45987476495433138 0 0.22014413388641679 -0.45183767530244179 0 0.24211615222823071 -0.45987476495433138 0 0.24472284787994869 -0.44485666861058237 0 0.23251075997647891 -0.44099317432663571 0 0.25818984504014392 -0.43773795357143519 0 0.24472284787994869 -0.44485666861058237 0 0.2458814731527304 -0.43245118805556382 0 0.24472284787994869 -0.44485666861058237 0 0.23251075997647891 -0.44099317432663571 0 0.2458814731527304 -0.43245118805556382 0 0.24211615222823071 -0.45987476495433138 0 0.23251075997647891 -0.44099317432663571 0 0.22014413388641679 -0.45183767530244179 0 0.23251075997647891 -0.44099317432663571 0 0.22014413388641679 -0.45183767530244179 0 0.2215018063572394 -0.43756147612299612 0 0.22014413388641679 -0.45183767530244179 0 0.20539009081672979 -0.44052811493967381 0 0.20570137835005209 -0.46076033295649232 0 0.22014413388641679 -0.45183767530244179 0 0.2215018063572394 -0.43756147612299612 0 0.20539009081672979 -0.44052811493967381 0 0.21935477369884451 -0.4738211708127838 0 0.22014413388641679 -0.45183767530244179 0 0.20570137835005209 -0.46076033295649232 0 0.20570137835005209 -0.46076033295649232 0 0.18455113115686969 -0.44571606751776133 0 0.1868186143285987 -0.46613018820261132 0 0.20539009081672979 -0.44052811493967381 0 0.20570137835005209 -0.46076033295649232 0 0.18455113115686969 -0.44571606751776133 0 0.20539009081672979 -0.44052811493967381 0 0.1912054511972808 -0.42639814596127051 0 0.18455113115686969 -0.44571606751776133 0 0.1912054511972808 -0.42639814596127051 0 0.2107740210963007 -0.42447923593245579 0 0.1912054511972808 -0.42639814596127051 0 0.19419794612697311 -0.42121939532820762 0 0.2107740210963007 -0.42447923593245579 0 0.20539009081672979 -0.44052811493967381 0 0.1912054511972808 -0.42639814596127051 0 0.2107740210963007 -0.42447923593245579 0 0.19419794612697311 -0.42121939532820762 0 0.2107740210963007 -0.42447923593245579 0 0.19419794612697311 -0.42121939532820762 0 0.2037759855817606 -0.41195349406997528 0 0.2107740210963007 -0.42447923593245579 0 0.1912054511972808 -0.42639814596127051 0 0.19419794612697311 -0.42121939532820762 0 0.1776218711576453 -0.41795955472396051 0 0.1905128901329691 -0.40931664649905869 0 0.19620190653906111 -0.40965489231799501 0 0.19461340289229981 -0.40108886194303012 0 0.19419794612697311 -0.42121939532820762 0 0.1905128901329691 -0.40931664649905869 0 0.19620190653906111 -0.40965489231799501 0 0.19620190653906111 -0.40965489231799501 0 0.2037759855817606 -0.41195349406997528 0 0.19461340289229981 -0.40108886194303012 0 0.19419794612697311 -0.42121939532820762 0 0.19620190653906111 -0.40965489231799501 0 0.2037759855817606 -0.41195349406997528 0 0.2037759855817606 -0.41195349406997528 0 0.2107740210963007 -0.42447923593245579 0 0.22309265125416811 -0.40332508482818807 0 0.2215018063572394 -0.43756147612299612 0 0.20539009081672979 -0.44052811493967381 0 0.2107740210963007 -0.42447923593245579 0 0.2107740210963007 -0.42447923593245579 0 0.2386900260102707 -0.429969180113773 0 0.23731646036861351 -0.42187646254780581 0 0.2107740210963007 -0.42447923593245579 0 0.23731646036861351 -0.42187646254780581 0 0.2215018063572394 -0.43756147612299612 0 0.2107740210963007 -0.42447923593245579 0 0.2386900260102707 -0.429969180113773 0 0.2107740210963007 -0.42447923593245579 0 0.2386900260102707 -0.429969180113773 0 0.23251075997647891 -0.44099317432663571 0 0.2215018063572394 -0.43756147612299612 0 0.2386900260102707 -0.429969180113773 0 0.23251075997647891 -0.44099317432663571 0 0.2386900260102707 -0.429969180113773 0 0.2458814731527304 -0.43245118805556382 0 0.2638588996409259 -0.419273689163152 0 0.23731646036861351 -0.42187646254780581 0 0.2458814731527304 -0.43245118805556382 0 0.2386900260102707 -0.429969180113773 0 0.23731646036861351 -0.42187646254780581 0 0.2458814731527304 -0.43245118805556382 0 0.23731646036861351 -0.42187646254780581 0 0.24978898330324689 -0.40916651161004941 0 0.22309265125416811 -0.40332508482818807 0 0.2107740210963007 -0.42447923593245579 0 0.23731646036861351 -0.42187646254780581 0 0.22309265125416811 -0.40332508482818807 0 0.22309265125416811 -0.40332508482818807 0 0.23670873457410921 -0.37862547682540998 0 0.20968882108116921 -0.39156278165976471 0 0.22309265125416811 -0.40332508482818807 0 0.241068985204971 -0.39759556978275301 0 0.23670873457410921 -0.37862547682540998 0 0.25157189961603621 -0.40556130771334759 0 0.22309265125416811 -0.40332508482818807 0 0.25157189961603621 -0.40556130771334759 0 0.24978898330324689 -0.40916651161004941 0 0.22309265125416811 -0.40332508482818807 0 0.25157189961603621 -0.40556130771334759 0 0.22309265125416811 -0.40332508482818807 0 0.241068985204971 -0.39759556978275301 0 0.25290265537557088 -0.40287040976406652 0 0.241068985204971 -0.39759556978275301 0 0.23670873457410921 -0.37862547682540998 0 0.25290265537557088 -0.40287040976406652 0 0.23670873457410921 -0.37862547682540998 0 0.25290265537557088 -0.40287040976406652 0 0.25157189961603621 -0.40556130771334759 0 0.241068985204971 -0.39759556978275301 0 0.26290172883027341 -0.38265145819369878 0 0.24170827130145911 -0.36851600104022741 0 0.23670873457410921 -0.37862547682540998 0 0.21671442970331559 -0.36952189520083739 0 0.23670873457410921 -0.37862547682540998 0 0.20968882108116921 -0.39156278165976471 0 0.21671442970331559 -0.36952189520083739 0 0.20968882108116921 -0.39156278165976471 0 0.20223677674008531 -0.37536150164024062 0 0.2037759855817606 -0.41195349406997528 0 0.22309265125416811 -0.40332508482818807 0 0.19461340289229981 -0.40108886194303012 0 0.22309265125416811 -0.40332508482818807 0 0.20968882108116921 -0.39156278165976471 0 0.19461340289229981 -0.40108886194303012 0 0.22309265125416811 -0.40332508482818807 0 0.19461340289229981 -0.40108886194303012 0 0.20968882108116921 -0.39156278165976471 0 0.19461340289229981 -0.40108886194303012 0 0.18992932394886619 -0.39666052818210112 0 0.1905128901329691 -0.40931664649905869 0 0.19461340289229981 -0.40108886194303012 0 0.18992932394886619 -0.39666052818210112 0 0.20968882108116921 -0.39156278165976471 0 0.18992932394886619 -0.39666052818210112 0 0.20223677674008531 -0.37536150164024062 0 0.18992932394886619 -0.39666052818210112 0 0.20223677674008531 -0.37536150164024062 0 0.18992932394886619 -0.39666052818210112 0 0.20223677674008531 -0.37536150164024062 0 0.18681270099920699 -0.38292925290765389 0 0.18850222486442261 -0.37083334481065872 0 0.20223677674008531 -0.37536150164024062 0 0.18681270099920699 -0.38292925290765389 0 0.17566325228533769 -0.37771211281408068 0 0.1782493912946515 -0.3917726910587877 0 0.17012614292664549 -0.38687820672220707 0 0.18850222486442261 -0.37083334481065872 0 0.17566325228533769 -0.37771211281408068 0 0.18681270099920699 -0.38292925290765389 0 0.18992932394886619 -0.39666052818210112 0 0.18681270099920699 -0.38292925290765389 0 0.1782493912946515 -0.3917726910587877 0 0.17566325228533769 -0.37771211281408068 0 0.18681270099920699 -0.38292925290765389 0 0.1782493912946515 -0.3917726910587877 0 0.18992932394886619 -0.39666052818210112 0 0.17585869821371461 -0.40262021010515608 0 0.1782493912946515 -0.3917726910587877 0 0.18992932394886619 -0.39666052818210112 0 0.17585869821371461 -0.40262021010515608 0 0.1776218711576453 -0.41795955472396051 0 0.17585869821371461 -0.40262021010515608 0 0.1782493912946515 -0.3917726910587877 0 0.16594371311414291 -0.39642779341276491 0 0.16594371311414291 -0.39642779341276491 0 0.16064821501244969 -0.38160022960319528 0 0.14963988802522121 -0.39513145996045912 0 0.1782493912946515 -0.3917726910587877 0 0.16594371311414291 -0.39642779341276491 0 0.17012614292664549 -0.38687820672220707 0 0.16594371311414291 -0.39642779341276491 0 0.15776078216829489 -0.40293835279402729 0 0.14963988802522121 -0.39513145996045912 0 0.17585869821371461 -0.40262021010515608 0 0.16594371311414291 -0.39642779341276491 0 0.1659592332838444 -0.40776497492079672 0 0.16594371311414291 -0.39642779341276491 0 0.15776078216829489 -0.40293835279402729 0 0.1659592332838444 -0.40776497492079672 0 0.16594371311414291 -0.39642779341276491 0 0.17012614292664549 -0.38687820672220707 0 0.16064821501244969 -0.38160022960319528 0 0.17566325228533769 -0.37771211281408068 0 0.17012614292664549 -0.38687820672220707 0 0.16064821501244969 -0.38160022960319528 0 0.14708381304481141 -0.36811750004093857 0 0.16064821501244969 -0.38160022960319528 0 0.1463829152961347 -0.38150174324215208 0 0.1463829152961347 -0.38150174324215208 0 0.1281597451020563 -0.38115778336401568 0 0.14963988802522121 -0.39513145996045912 0 0.16064821501244969 -0.38160022960319528 0 0.1463829152961347 -0.38150174324215208 0 0.14963988802522121 -0.39513145996045912 0 0.14708381304481141 -0.36811750004093857 0 0.1463829152961347 -0.38150174324215208 0 0.1281597451020563 -0.38115778336401568 0 0.1281597451020563 -0.38115778336401568 0 0.13844776812816589 -0.4082699826359002 0 0.1213787173422964 -0.40689881104021719 0 0.1281597451020563 -0.38115778336401568 0 0.14963988802522121 -0.39513145996045912 0 0.13844776812816589 -0.4082699826359002 0 0.1281597451020563 -0.38115778336401568 0 0.13844776812816589 -0.4082699826359002 0 0.14963988802522121 -0.39513145996045912 0 0.14950029424997099 -0.41242918288208852 0 0.13844776812816589 -0.4082699826359002 0 0.15776078216829489 -0.40293835279402729 0 0.14963988802522121 -0.39513145996045912 0 0.14950029424997099 -0.41242918288208852 0 0.14950029424997099 -0.41242918288208852 0 0.15120007909530961 -0.42300577268584588 0 0.15718442722000359 -0.42800128466806059 0 0.14950029424997099 -0.41242918288208852 0 0.14145616510733119 -0.421806866014108 0 0.15120007909530961 -0.42300577268584588 0 0.14950029424997099 -0.41242918288208852 0 0.13844776812816589 -0.4082699826359002 0 0.1213787173422964 -0.40689881104021719 0 0.14950029424997099 -0.41242918288208852 0 0.1307011521678621 -0.41761428033347592 0 0.1213787173422964 -0.40689881104021719 0 0.14950029424997099 -0.41242918288208852 0 0.1213787173422964 -0.40689881104021719 0 0.14950029424997099 -0.41242918288208852 0 0.14145616510733119 -0.421806866014108 0 0.1307011521678621 -0.41761428033347592 0 0.14145616510733119 -0.421806866014108 0 0.1307011521678621 -0.41761428033347592 0 0.12240586545517421 -0.42840982192807592 0 0.14145616510733119 -0.421806866014108 0 0.13000749780347531 -0.43239926751058583 0 0.12240586545517421 -0.42840982192807592 0 0.14145616510733119 -0.421806866014108 0 0.12240586545517421 -0.42840982192807592 0 0.13000749780347531 -0.43239926751058583 0 0.15665942980393291 -0.42978575717912659 0 0.13000749780347531 -0.43239926751058583 0 0.15665942980393291 -0.42978575717912659 0 0.14212561689627659 -0.44048565231620218 0 0.14145616510733119 -0.421806866014108 0 0.13000749780347531 -0.43239926751058583 0 0.15665942980393291 -0.42978575717912659 0 0.14145616510733119 -0.421806866014108 0 0.15120007909530961 -0.42300577268584588 0 0.15665942980393291 -0.42978575717912659 0 0.15120007909530961 -0.42300577268584588 0 0.15665942980393291 -0.42978575717912659 0 0.15718442722000359 -0.42800128466806059 0 0.17163688129826099 -0.42831705599008579 0 0.15718442722000359 -0.42800128466806059 0 0.1776218711576453 -0.41795955472396051 0 0.15665942980393291 -0.42978575717912659 0 0.17163688129826099 -0.42831705599008579 0 0.16336205815939719 -0.44263729598236251 0 0.17163688129826099 -0.42831705599008579 0 0.16336205815939719 -0.44263729598236251 0 0.15665942980393291 -0.42978575717912659 0 0.17163688129826099 -0.42831705599008579 0 0.15665942980393291 -0.42978575717912659 0 0.17163688129826099 -0.42831705599008579 0 0.15718442722000359 -0.42800128466806059 0 0.15665942980393291 -0.42978575717912659 0 0.15718442722000359 -0.42800128466806059 0 0.14950029424997099 -0.41242918288208852 0 0.15718442722000359 -0.42800128466806059 0 0.1776218711576453 -0.41795955472396051 0 0.14950029424997099 -0.41242918288208852 0 0.1776218711576453 -0.41795955472396051 0 0.14950029424997099 -0.41242918288208852 0 0.1659592332838444 -0.40776497492079672 0 0.1776218711576453 -0.41795955472396051 0 0.15776078216829489 -0.40293835279402729 0 0.14950029424997099 -0.41242918288208852 0 0.1659592332838444 -0.40776497492079672 0 0.19419794612697311 -0.42121939532820762 0 0.1776218711576453 -0.41795955472396051 0 0.1905128901329691 -0.40931664649905869 0 0.18992932394886619 -0.39666052818210112 0 0.1776218711576453 -0.41795955472396051 0 0.18992932394886619 -0.39666052818210112 0 0.1776218711576453 -0.41795955472396051 0 0.19419794612697311 -0.42121939532820762 0 0.1905128901329691 -0.40931664649905869 0 0.1776218711576453 -0.41795955472396051 0 0.17585869821371461 -0.40262021010515608 0 0.1659592332838444 -0.40776497492079672 0 0.1776218711576453 -0.41795955472396051 0 0.1912054511972808 -0.42639814596127051 0 0.17163688129826099 -0.42831705599008579 0 0.1776218711576453 -0.41795955472396051 0 0.1912054511972808 -0.42639814596127051 0 0.17163688129826099 -0.42831705599008579 0 0.18455113115686969 -0.44571606751776133 0 0.1912054511972808 -0.42639814596127051 0 0.17163688129826099 -0.42831705599008579 0 0.17163688129826099 -0.42831705599008579 0 0.1776218711576453 -0.41795955472396051 0 0.17163688129826099 -0.42831705599008579 0 0.17206908862532791 -0.44728440026772959 0 0.18455113115686969 -0.44571606751776133 0 0.17206908862532791 -0.44728440026772959 0 0.18455113115686969 -0.44571606751776133 0 0.1741918851623763 -0.45758911975649758 0 0.18455113115686969 -0.44571606751776133 0 0.1868186143285987 -0.46613018820261132 0 0.1741918851623763 -0.45758911975649758 0 0.1868186143285987 -0.46613018820261132 0 0.1741918851623763 -0.45758911975649758 0 0.17447668822239371 -0.4696823882969422 0 0.1741918851623763 -0.45758911975649758 0 0.16562634220448089 -0.45401871040729341 0 0.1634214440547701 -0.46562520005523828 0 0.1741918851623763 -0.45758911975649758 0 0.1634214440547701 -0.46562520005523828 0 0.17447668822239371 -0.4696823882969422 0 0.16562634220448089 -0.45401871040729341 0 0.1634214440547701 -0.46562520005523828 0 0.15508723502053301 -0.45695753597463901 0 0.17163688129826099 -0.42831705599008579 0 0.17206908862532791 -0.44728440026772959 0 0.16336205815939719 -0.44263729598236251 0 0.16562634220448089 -0.45401871040729341 0 0.16336205815939719 -0.44263729598236251 0 0.15508723502053301 -0.45695753597463901 0 0.16336205815939719 -0.44263729598236251 0 0.15508723502053301 -0.45695753597463901 0 0.15665942980393291 -0.42978575717912659 0 0.16336205815939719 -0.44263729598236251 0 0.14977367956611831 -0.45319050478608452 0 0.17206908862532791 -0.44728440026772959 0 0.16562634220448089 -0.45401871040729341 0 0.16336205815939719 -0.44263729598236251 0 0.17206908862532791 -0.44728440026772959 0 0.1741918851623763 -0.45758911975649758 0 0.16562634220448089 -0.45401871040729341 0 0.14212561689627659 -0.44048565231620218 0 0.13206186041158 -0.44656707978901222 0 0.14977367956611831 -0.45319050478608452 0 0.15665942980393291 -0.42978575717912659 0 0.14212561689627659 -0.44048565231620218 0 0.14977367956611831 -0.45319050478608452 0 0.15665942980393291 -0.42978575717912659 0 0.14977367956611831 -0.45319050478608452 0 0.16336205815939719 -0.44263729598236251 0 0.14977367956611831 -0.45319050478608452 0 0.15508723502053301 -0.45695753597463901 0 0.13000749780347531 -0.43239926751058583 0 0.14212561689627659 -0.44048565231620218 0 0.13206186041158 -0.44656707978901222 0 0.13000749780347531 -0.43239926751058583 0 0.13206186041158 -0.44656707978901222 0 0.1207788002162412 -0.44175673465770321 0 0.13493618354559911 -0.46013899705815031 0 0.1231504629112728 -0.46814422870400291 0 0.1176902768468923 -0.45304781348917073 0 0.13493618354559911 -0.46013899705815031 0 0.14288792932830391 -0.47659525239304218 0 0.1231504629112728 -0.46814422870400291 0 0.13206186041158 -0.44656707978901222 0 0.13493618354559911 -0.46013899705815031 0 0.14977367956611831 -0.45319050478608452 0 0.13206186041158 -0.44656707978901222 0 0.13493618354559911 -0.46013899705815031 0 0.1176902768468923 -0.45304781348917073 0 0.1634214440547701 -0.46562520005523828 0 0.15508723502053301 -0.45695753597463901 0 0.14288792932830391 -0.47659525239304218 0 0.13493618354559911 -0.46013899705815031 0 0.14977367956611831 -0.45319050478608452 0 0.14288792932830391 -0.47659525239304218 0 0.14977367956611831 -0.45319050478608452 0 0.15508723502053301 -0.45695753597463901 0 0.14288792932830391 -0.47659525239304218 0 0.14977367956611831 -0.45319050478608452 0 0.14288792932830391 -0.47659525239304218 0 0.14288792932830391 -0.47659525239304218 0 0.1184084192877506 -0.48240790924173738 0 0.1231504629112728 -0.46814422870400291 0 0.14288792932830391 -0.47659525239304218 0 0.13600217909048939 -0.50000000000000011 0 0.14288792932830391 -0.47659525239304218 0 0.13600217909048939 -0.50000000000000011 0 0.1184084192877506 -0.48240790924173738 0 0.14288792932830391 -0.47659525239304218 0 0.13600217909048939 -0.50000000000000011 0 0.16204627859513959 -0.5 0 0.14288792932830391 -0.47659525239304218 0 0.16204627859513959 -0.5 0 0.16524791953451781 -0.47870298167254499 0 0.16204627859513959 -0.5 0 0.16524791953451781 -0.47870298167254499 0 0.18222678381117521 -0.48279505628326641 0 0.1634214440547701 -0.46562520005523828 0 0.14288792932830391 -0.47659525239304218 0 0.16524791953451781 -0.47870298167254499 0 0.1634214440547701 -0.46562520005523828 0 0.16524791953451781 -0.47870298167254499 0 0.17447668822239371 -0.4696823882969422 0 0.16524791953451781 -0.47870298167254499 0 0.18222678381117521 -0.48279505628326641 0 0.17447668822239371 -0.4696823882969422 0 0.1868186143285987 -0.46613018820261132 0 0.18222678381117521 -0.48279505628326641 0 0.17447668822239371 -0.4696823882969422 0 0.18809037809979001 -0.5 0 0.16204627859513959 -0.5 0 0.18222678381117521 -0.48279505628326641 0 0.067898745638923785 -0.48049136652368418 0 0.08290382813878705 -0.5 0 0.056354652662935822 -0.5 0 0.067898745638923785 -0.48049136652368418 0 0.094050710837207563 -0.4823657949190901 0 0.085710077100291812 -0.46342059452150491 0 0.067898745638923785 -0.48049136652368418 0 0.08290382813878705 -0.5 0 0.094050710837207563 -0.4823657949190901 0 0.08290382813878705 -0.5 0 0.10945300361463819 -0.5 0 0.094050710837207563 -0.4823657949190901 0 0.10945300361463819 -0.5 0 0.1184084192877506 -0.48240790924173738 0 0.094050710837207563 -0.4823657949190901 0 0.13600217909048939 -0.50000000000000011 0 0.10945300361463819 -0.5 0 0.1184084192877506 -0.48240790924173738 0 0.1184084192877506 -0.48240790924173738 0 0.10490622994459201 -0.46734217943428957 0 0.1231504629112728 -0.46814422870400291 0 0.094050710837207563 -0.4823657949190901 0 0.10490622994459201 -0.46734217943428957 0 0.085710077100291812 -0.46342059452150491 0 0.1184084192877506 -0.48240790924173738 0 0.094050710837207563 -0.4823657949190901 0 0.10490622994459201 -0.46734217943428957 0 0.10490622994459201 -0.46734217943428957 0 0.1176902768468923 -0.45304781348917073 0 0.099309908031927741 -0.45155660189971752 0 0.10490622994459201 -0.46734217943428957 0 0.099309908031927741 -0.45155660189971752 0 0.085710077100291812 -0.46342059452150491 0 0.10490622994459201 -0.46734217943428957 0 0.1231504629112728 -0.46814422870400291 0 0.1176902768468923 -0.45304781348917073 0 0.1207788002162412 -0.44175673465770321 0 0.1176902768468923 -0.45304781348917073 0 0.1033555658030174 -0.43501277784204412 0 0.13206186041158 -0.44656707978901222 0 0.1207788002162412 -0.44175673465770321 0 0.1176902768468923 -0.45304781348917073 0 0.1176902768468923 -0.45304781348917073 0 0.099309908031927741 -0.45155660189971752 0 0.1033555658030174 -0.43501277784204412 0 0.085893662653112685 -0.44106518535153649 0 0.1033555658030174 -0.43501277784204412 0 0.099309908031927741 -0.45155660189971752 0 0.085893662653112685 -0.44106518535153649 0 0.1033555658030174 -0.43501277784204412 0 0.085893662653112685 -0.44106518535153649 0 0.079625305612804148 -0.43733978663728879 0 0.1033555658030174 -0.43501277784204412 0 0.085893662653112685 -0.44106518535153649 0 0.079605480680394747 -0.45282874724441469 0 0.088167163498292012 -0.45165950940630523 0 0.099309908031927741 -0.45155660189971752 0 0.085893662653112685 -0.44106518535153649 0 0.088167163498292012 -0.45165950940630523 0 0.099309908031927741 -0.45155660189971752 0 0.088167163498292012 -0.45165950940630523 0 0.085710077100291812 -0.46342059452150491 0 0.079605480680394747 -0.45282874724441469 0 0.088167163498292012 -0.45165950940630523 0 0.085710077100291812 -0.46342059452150491 0 0.079605480680394747 -0.45282874724441469 0 0.068481287192418555 -0.46227653620166798 0 0.068431759503208012 -0.44711759286102898 0 0.067898745638923785 -0.48049136652368418 0 0.085710077100291812 -0.46342059452150491 0 0.068481287192418555 -0.46227653620166798 0 0.079605480680394747 -0.45282874724441469 0 0.085710077100291812 -0.46342059452150491 0 0.068481287192418555 -0.46227653620166798 0 0.068481287192418555 -0.46227653620166798 0 0.068431759503208012 -0.44711759286102898 0 0.056977746870917001 -0.45290899183861438 0 0.085893662653112685 -0.44106518535153649 0 0.068431759503208012 -0.44711759286102898 0 0.079625305612804148 -0.43733978663728879 0 0.085893662653112685 -0.44106518535153649 0 0.068431759503208012 -0.44711759286102898 0 0.085893662653112685 -0.44106518535153649 0 0.079605480680394747 -0.45282874724441469 0 0.068431759503208012 -0.44711759286102898 0 0.079625305612804148 -0.43733978663728879 0 0.055895045422590918 -0.43966679543253329 0 0.068431759503208012 -0.44711759286102898 0 0.079625305612804148 -0.43733978663728879 0 0.055895045422590918 -0.43966679543253329 0 0.069634147641787103 -0.43137516427331463 0 0.064608537141081168 -0.4236178432623664 0 0.055895045422590918 -0.43966679543253329 0 0.069634147641787103 -0.43137516427331463 0 0.079625305612804148 -0.43733978663728879 0 0.055895045422590918 -0.43966679543253329 0 0.069634147641787103 -0.43137516427331463 0 0.064608537141081168 -0.4236178432623664 0 0.078407702390672199 -0.4248762317610697 0 0.069634147641787103 -0.43137516427331463 0 0.078407702390672199 -0.4248762317610697 0 0.079625305612804148 -0.43733978663728879 0 0.064608537141081168 -0.4236178432623664 0 0.075464859328515155 -0.4059559435455854 0 0.056369794641065729 -0.41269887955685292 0 0.064608537141081168 -0.4236178432623664 0 0.078407702390672199 -0.4248762317610697 0 0.075464859328515155 -0.4059559435455854 0 0.091848927109479866 -0.4200936481411216 0 0.097839349364797101 -0.40591346807229622 0 0.075464859328515155 -0.4059559435455854 0 0.091848927109479866 -0.4200936481411216 0 0.078407702390672199 -0.4248762317610697 0 0.075464859328515155 -0.4059559435455854 0 0.091848927109479866 -0.4200936481411216 0 0.088309375228993403 -0.42933061109538112 0 0.078407702390672199 -0.4248762317610697 0 0.088309375228993403 -0.42933061109538112 0 0.079625305612804148 -0.43733978663728879 0 0.1033555658030174 -0.43501277784204412 0 0.079625305612804148 -0.43733978663728879 0 0.1033555658030174 -0.43501277784204412 0 0.088309375228993403 -0.42933061109538112 0 0.078407702390672199 -0.4248762317610697 0 0.079625305612804148 -0.43733978663728879 0 0.091848927109479866 -0.4200936481411216 0 0.1033555658030174 -0.43501277784204412 0 0.1086102483546028 -0.41861116289019829 0 0.091848927109479866 -0.4200936481411216 0 0.088309375228993403 -0.42933061109538112 0 0.1033555658030174 -0.43501277784204412 0 0.1033555658030174 -0.43501277784204412 0 0.12240586545517421 -0.42840982192807592 0 0.13000749780347531 -0.43239926751058583 0 0.1207788002162412 -0.44175673465770321 0 0.1033555658030174 -0.43501277784204412 0 0.13000749780347531 -0.43239926751058583 0 0.1033555658030174 -0.43501277784204412 0 0.12240586545517421 -0.42840982192807592 0 0.1033555658030174 -0.43501277784204412 0 0.12240586545517421 -0.42840982192807592 0 0.1086102483546028 -0.41861116289019829 0 0.13000749780347531 -0.43239926751058583 0 0.1033555658030174 -0.43501277784204412 0 0.1307011521678621 -0.41761428033347592 0 0.12240586545517421 -0.42840982192807592 0 0.1207739958299839 -0.41788351904799181 0 0.12240586545517421 -0.42840982192807592 0 0.1207739958299839 -0.41788351904799181 0 0.1086102483546028 -0.41861116289019829 0 0.1307011521678621 -0.41761428033347592 0 0.1213787173422964 -0.40689881104021719 0 0.1207739958299839 -0.41788351904799181 0 0.1213787173422964 -0.40689881104021719 0 0.1207739958299839 -0.41788351904799181 0 0.1086102483546028 -0.41861116289019829 0 0.1213787173422964 -0.40689881104021719 0 0.1086102483546028 -0.41861116289019829 0 0.097839349364797101 -0.40591346807229622 0 0.091848927109479866 -0.4200936481411216 0 0.1086102483546028 -0.41861116289019829 0 0.097839349364797101 -0.40591346807229622 0 0.097839349364797101 -0.40591346807229622 0 0.098763971378861379 -0.38976443816158501 0 0.085862436294045039 -0.39389399616190279 0 0.097839349364797101 -0.40591346807229622 0 0.1133574384188218 -0.39129471479617839 0 0.098763971378861379 -0.38976443816158501 0 0.1213787173422964 -0.40689881104021719 0 0.097839349364797101 -0.40591346807229622 0 0.1133574384188218 -0.39129471479617839 0 0.1281597451020563 -0.38115778336401568 0 0.1213787173422964 -0.40689881104021719 0 0.1133574384188218 -0.39129471479617839 0 0.1281597451020563 -0.38115778336401568 0 0.1133574384188218 -0.39129471479617839 0 0.10427460614818621 -0.37080403533498091 0 0.1133574384188218 -0.39129471479617839 0 0.098763971378861379 -0.38976443816158501 0 0.10427460614818621 -0.37080403533498091 0 0.098763971378861379 -0.38976443816158501 0 0.086807940835058189 -0.37966635199909982 0 0.10427460614818621 -0.37080403533498091 0 0.086807940835058189 -0.37966635199909982 0 0.085862436294045039 -0.39389399616190279 0 0.070436060562993341 -0.38816977903094779 0 0.098763971378861379 -0.38976443816158501 0 0.086807940835058189 -0.37966635199909982 0 0.085862436294045039 -0.39389399616190279 0 0.097839349364797101 -0.40591346807229622 0 0.085862436294045039 -0.39389399616190279 0 0.075464859328515155 -0.4059559435455854 0 0.075464859328515155 -0.4059559435455854 0 0.070436060562993341 -0.38816977903094779 0 0.057356190462530952 -0.39688665176014348 0 0.075464859328515155 -0.4059559435455854 0 0.057356190462530952 -0.39688665176014348 0 0.056369794641065729 -0.41269887955685292 0 0.075464859328515155 -0.4059559435455854 0 0.057356190462530952 -0.39688665176014348 0 0.085862436294045039 -0.39389399616190279 0 0.075464859328515155 -0.4059559435455854 0 0.070436060562993341 -0.38816977903094779 0 0.070436060562993341 -0.38816977903094779 0 0.057356190462530952 -0.39688665176014348 0 0.070436060562993341 -0.38816977903094779 0 0.062764569392891378 -0.37124251162150212 0 0.074591093027164365 -0.37200829716783818 0 0.086807940835058189 -0.37966635199909982 0 0.070436060562993341 -0.38816977903094779 0 0.074591093027164365 -0.37200829716783818 0 0.070436060562993341 -0.38816977903094779 0 0.053538507748874947 -0.3799221680167808 0 0.062764569392891378 -0.37124251162150212 0 0.070436060562993341 -0.38816977903094779 0 0.053538507748874947 -0.3799221680167808 0 0.057356190462530952 -0.39688665176014348 0 0.053538507748874947 -0.3799221680167808 0 0.057356190462530952 -0.39688665176014348 0 0.036165882507228388 -0.38627399506559362 0 0.057356190462530952 -0.39688665176014348 0 0.037191662475882743 -0.41032498277977952 0 0.036165882507228388 -0.38627399506559362 0 0.022746965291575501 -0.39889368359455307 0 0.037191662475882743 -0.41032498277977952 0 0.057356190462530952 -0.39688665176014348 0 0.036165882507228388 -0.38627399506559362 0 0.057356190462530952 -0.39688665176014348 0 0.036165882507228388 -0.38627399506559362 0 0.037191662475882743 -0.41032498277977952 0 0.036165882507228388 -0.38627399506559362 0 0.04195676848564947 -0.3727024963903206 0 0.02873354650264837 -0.36629896187161981 0 0.053538507748874947 -0.3799221680167808 0 0.036165882507228388 -0.38627399506559362 0 0.04195676848564947 -0.3727024963903206 0 0.036165882507228388 -0.38627399506559362 0 0.014975574551926231 -0.37566133837104287 0 0.036165882507228388 -0.38627399506559362 0 0.014975574551926231 -0.37566133837104287 0 0.02873354650264837 -0.36629896187161981 0 0.036165882507228388 -0.38627399506559362 0 0.014975574551926231 -0.37566133837104287 0 0.022746965291575501 -0.39889368359455307 0 -0.003054764863230162 -0.38327110372534579 0 0.014975574551926231 -0.37566133837104287 0 0.0043376777961855089 -0.39967183539507678 0 0.014975574551926231 -0.37566133837104287 0 0.0043376777961855089 -0.39967183539507678 0 0.022746965291575501 -0.39889368359455307 0 0.01702713448923545 -0.42376331379941679 0 0.038421678477129809 -0.43017289736809988 0 0.037191662475882743 -0.41032498277977952 0 0.022746965291575501 -0.39889368359455307 0 0.01702713448923545 -0.42376331379941679 0 0.037191662475882743 -0.41032498277977952 0 0.01702713448923545 -0.42376331379941679 0 0.037191662475882743 -0.41032498277977952 0 -0.0072811505478054747 -0.41683981000625953 0 0.0043376777961855089 -0.39967183539507678 0 0.01702713448923545 -0.42376331379941679 0 0.0043376777961855089 -0.39967183539507678 0 0.022746965291575501 -0.39889368359455307 0 0.01702713448923545 -0.42376331379941679 0 -0.0031373934974118531 -0.4372016448190541 0 0.01702713448923545 -0.42376331379941679 0 -0.0072811505478054747 -0.41683981000625953 0 -0.0031373934974118531 -0.4372016448190541 0 0.01702713448923545 -0.42376331379941679 0 0.01702713448923545 -0.42376331379941679 0 0.038421678477129809 -0.43017289736809988 0 0.027972303983064509 -0.44394256472583898 0 0.038421678477129809 -0.43017289736809988 0 0.037191662475882743 -0.41032498277977952 0 0.05309584143651222 -0.42640322475700532 0 0.057356190462530952 -0.39688665176014348 0 0.037191662475882743 -0.41032498277977952 0 0.056369794641065729 -0.41269887955685292 0 0.037191662475882743 -0.41032498277977952 0 0.056369794641065729 -0.41269887955685292 0 0.05309584143651222 -0.42640322475700532 0 0.064608537141081168 -0.4236178432623664 0 0.056369794641065729 -0.41269887955685292 0 0.05309584143651222 -0.42640322475700532 0 0.038421678477129809 -0.43017289736809988 0 0.05309584143651222 -0.42640322475700532 0 0.055895045422590918 -0.43966679543253329 0 0.064608537141081168 -0.4236178432623664 0 0.05309584143651222 -0.42640322475700532 0 0.055895045422590918 -0.43966679543253329 0 0.055895045422590918 -0.43966679543253329 0 0.056977746870917001 -0.45290899183861438 0 0.043124599130093803 -0.44990600242985612 0 0.068431759503208012 -0.44711759286102898 0 0.055895045422590918 -0.43966679543253329 0 0.056977746870917001 -0.45290899183861438 0 0.056977746870917001 -0.45290899183861438 0 0.048255812076070867 -0.46852389594969868 0 0.043124599130093803 -0.44990600242985612 0 0.068481287192418555 -0.46227653620166798 0 0.056977746870917001 -0.45290899183861438 0 0.048255812076070867 -0.46852389594969868 0 0.048255812076070867 -0.46852389594969868 0 0.043124599130093803 -0.44990600242985612 0 0.031225007950789679 -0.46422086926435152 0 0.038421678477129809 -0.43017289736809988 0 0.043124599130093803 -0.44990600242985612 0 0.027972303983064509 -0.44394256472583898 0 0.043124599130093803 -0.44990600242985612 0 0.027972303983064509 -0.44394256472583898 0 0.031225007950789679 -0.46422086926435152 0 0.038421678477129809 -0.43017289736809988 0 0.055895045422590918 -0.43966679543253329 0 0.043124599130093803 -0.44990600242985612 0 0.01702713448923545 -0.42376331379941679 0 0.027972303983064509 -0.44394256472583898 0 0.0093628688378709132 -0.45459560444918412 0 -0.0031373934974118531 -0.4372016448190541 0 0.01702713448923545 -0.42376331379941679 0 0.0093628688378709132 -0.45459560444918412 0 0.027972303983064509 -0.44394256472583898 0 0.0093628688378709132 -0.45459560444918412 0 0.031225007950789679 -0.46422086926435152 0 0.0093628688378709132 -0.45459560444918412 0 0.031225007950789679 -0.46422086926435152 0 0.01778448512092913 -0.48030573077325989 0 0.031225007950789679 -0.46422086926435152 0 0.01778448512092913 -0.48030573077325989 0 0.042769594942306498 -0.48628160014081218 0 -0.010022809886413971 -0.47531998791934532 0 0.0093628688378709132 -0.45459560444918412 0 0.01778448512092913 -0.48030573077325989 0 -0.010022809886413971 -0.47531998791934532 0 0.01778448512092913 -0.48030573077325989 0 0.003256301711233377 -0.50000000000000111 0 0.01778448512092913 -0.48030573077325989 0 0.029805477187084591 -0.5 0 0.042769594942306498 -0.48628160014081218 0 0.01778448512092913 -0.48030573077325989 0 0.003256301711233377 -0.50000000000000111 0 0.029805477187084591 -0.5 0 0.029805477187084591 -0.5 0 0.042769594942306498 -0.48628160014081218 0 0.056354652662935822 -0.5 0 0.048255812076070867 -0.46852389594969868 0 0.031225007950789679 -0.46422086926435152 0 0.042769594942306498 -0.48628160014081218 0 0.067898745638923785 -0.48049136652368418 0 0.068481287192418555 -0.46227653620166798 0 0.048255812076070867 -0.46852389594969868 0 0.067898745638923785 -0.48049136652368418 0 0.048255812076070867 -0.46852389594969868 0 0.042769594942306498 -0.48628160014081218 0 0.067898745638923785 -0.48049136652368418 0 0.042769594942306498 -0.48628160014081218 0 0.056354652662935822 -0.5 0 0.088065462753907753 -0.29385926794461431 0 0.071177670665117584 -0.28429695378540287 0 0.090889953518468569 -0.27927851446470292 0 0.088065462753907753 -0.29385926794461431 0 0.075146119388156948 -0.29975625129230038 0 0.071177670665117584 -0.28429695378540287 0 0.088065462753907753 -0.29385926794461431 0 0.075146119388156948 -0.29975625129230038 0 0.094249151965831446 -0.30659117736973918 0 0.075146119388156948 -0.29975625129230038 0 0.094249151965831446 -0.30659117736973918 0 0.076158151505467273 -0.31528500416429062 0 0.075146119388156948 -0.29975625129230038 0 0.076158151505467273 -0.31528500416429062 0 0.057316096250853203 -0.30364945300113771 0 0.075146119388156948 -0.29975625129230038 0 0.071177670665117584 -0.28429695378540287 0 0.057316096250853203 -0.30364945300113771 0 0.071177670665117584 -0.28429695378540287 0 0.083579964997909553 -0.25777621200198281 0 0.057949317946716872 -0.26907751766107751 0 0.083579964997909553 -0.25777621200198281 0 0.055945778335013123 -0.25070505853966041 0 0.057949317946716872 -0.26907751766107751 0 0.071177670665117584 -0.28429695378540287 0 0.083579964997909553 -0.25777621200198281 0 0.090889953518468569 -0.27927851446470292 0 0.083579964997909553 -0.25777621200198281 0 0.090889953518468569 -0.27927851446470292 0 0.10460508263913321 -0.26933270524925979 0 0.090889953518468569 -0.27927851446470292 0 0.10460508263913321 -0.26933270524925979 0 0.1085057463161767 -0.29262847490679239 0 0.10460508263913321 -0.26933270524925979 0 0.1162321014502215 -0.25452752110021859 0 0.097500371512230927 -0.24251523744947309 0 0.083579964997909553 -0.25777621200198281 0 0.10460508263913321 -0.26933270524925979 0 0.097500371512230927 -0.24251523744947309 0 0.12936800559182801 -0.27235718855874019 0 0.10460508263913321 -0.26933270524925979 0 0.1162321014502215 -0.25452752110021859 0 0.12936800559182801 -0.27235718855874019 0 0.10460508263913321 -0.26933270524925979 0 0.1085057463161767 -0.29262847490679239 0 0.13508701183200689 -0.29197957117870571 0 0.12936800559182801 -0.27235718855874019 0 0.1085057463161767 -0.29262847490679239 0 0.088065462753907753 -0.29385926794461431 0 0.090889953518468569 -0.27927851446470292 0 0.1085057463161767 -0.29262847490679239 0 0.1085057463161767 -0.29262847490679239 0 0.094249151965831446 -0.30659117736973918 0 0.10893169572998811 -0.31290821652593759 0 0.088065462753907753 -0.29385926794461431 0 0.1085057463161767 -0.29262847490679239 0 0.094249151965831446 -0.30659117736973918 0 0.12642119591326259 -0.30901513411978632 0 0.13508701183200689 -0.29197957117870571 0 0.1085057463161767 -0.29262847490679239 0 0.12642119591326259 -0.30901513411978632 0 0.1085057463161767 -0.29262847490679239 0 0.10893169572998811 -0.31290821652593759 0 0.1243262116942427 -0.33205795057380549 0 0.10893169572998811 -0.31290821652593759 0 0.10758369904983719 -0.3269333848202467 0 0.12642119591326259 -0.30901513411978632 0 0.1243262116942427 -0.33205795057380549 0 0.10893169572998811 -0.31290821652593759 0 0.1243262116942427 -0.33205795057380549 0 0.10758369904983719 -0.3269333848202467 0 0.11787172207594671 -0.35404558409213099 0 0.10758369904983719 -0.3269333848202467 0 0.11787172207594671 -0.35404558409213099 0 0.094158147899250005 -0.33083246569532898 0 0.10758369904983719 -0.3269333848202467 0 0.098131911527981952 -0.34423610169420787 0 0.10758369904983719 -0.3269333848202467 0 0.11787172207594671 -0.35404558409213099 0 0.098131911527981952 -0.34423610169420787 0 0.094158147899250005 -0.33083246569532898 0 0.093783316894622964 -0.31969120462027029 0 0.10758369904983719 -0.3269333848202467 0 0.094249151965831446 -0.30659117736973918 0 0.093783316894622964 -0.31969120462027029 0 0.10893169572998811 -0.31290821652593759 0 0.093783316894622964 -0.31969120462027029 0 0.10893169572998811 -0.31290821652593759 0 0.10758369904983719 -0.3269333848202467 0 0.1281597451020563 -0.38115778336401568 0 0.11787172207594671 -0.35404558409213099 0 0.1281597451020563 -0.38115778336401568 0 0.11787172207594671 -0.35404558409213099 0 0.10427460614818621 -0.37080403533498091 0 0.11787172207594671 -0.35404558409213099 0 0.098131911527981952 -0.34423610169420787 0 0.1016694048852716 -0.35738256217564929 0 0.098131911527981952 -0.34423610169420787 0 0.1016694048852716 -0.35738256217564929 0 0.08639937978897165 -0.36044452758127737 0 0.11787172207594671 -0.35404558409213099 0 0.1016694048852716 -0.35738256217564929 0 0.10427460614818621 -0.37080403533498091 0 0.1016694048852716 -0.35738256217564929 0 0.10427460614818621 -0.37080403533498091 0 0.08639937978897165 -0.36044452758127737 0 0.086807940835058189 -0.37966635199909982 0 0.10427460614818621 -0.37080403533498091 0 0.08639937978897165 -0.36044452758127737 0 0.086807940835058189 -0.37966635199909982 0 0.08639937978897165 -0.36044452758127737 0 0.074591093027164365 -0.37200829716783818 0 0.098131911527981952 -0.34423610169420787 0 0.08639937978897165 -0.36044452758127737 0 0.078454337424435874 -0.34300590822234373 0 0.08639937978897165 -0.36044452758127737 0 0.068874190034892993 -0.35790796680157277 0 0.078454337424435874 -0.34300590822234373 0 0.067635086456119514 -0.34430005953131088 0 0.068874190034892993 -0.35790796680157277 0 0.078454337424435874 -0.34300590822234373 0 0.067635086456119514 -0.34430005953131088 0 0.068874190034892993 -0.35790796680157277 0 0.059002875194557547 -0.34943156079448268 0 0.067635086456119514 -0.34430005953131088 0 0.061495040822218197 -0.33910827047675662 0 0.059002875194557547 -0.34943156079448268 0 0.08639937978897165 -0.36044452758127737 0 0.068874190034892993 -0.35790796680157277 0 0.074591093027164365 -0.37200829716783818 0 0.068874190034892993 -0.35790796680157277 0 0.062764569392891378 -0.37124251162150212 0 0.074591093027164365 -0.37200829716783818 0 0.094249151965831446 -0.30659117736973918 0 0.093783316894622964 -0.31969120462027029 0 0.076158151505467273 -0.31528500416429062 0 0.093783316894622964 -0.31969120462027029 0 0.081619055217363748 -0.32559697914607882 0 0.076158151505467273 -0.31528500416429062 0 0.094158147899250005 -0.33083246569532898 0 0.093783316894622964 -0.31969120462027029 0 0.081619055217363748 -0.32559697914607882 0 0.094158147899250005 -0.33083246569532898 0 0.081619055217363748 -0.32559697914607882 0 0.078454337424435874 -0.34300590822234373 0 0.094158147899250005 -0.33083246569532898 0 0.098131911527981952 -0.34423610169420787 0 0.078454337424435874 -0.34300590822234373 0 0.081619055217363748 -0.32559697914607882 0 0.078454337424435874 -0.34300590822234373 0 0.070348988804492946 -0.33204659136139891 0 0.067635086456119514 -0.34430005953131088 0 0.078454337424435874 -0.34300590822234373 0 0.070348988804492946 -0.33204659136139891 0 0.067635086456119514 -0.34430005953131088 0 0.070348988804492946 -0.33204659136139891 0 0.061495040822218197 -0.33910827047675662 0 0.070348988804492946 -0.33204659136139891 0 0.056881458686524257 -0.3300970897642122 0 0.061495040822218197 -0.33910827047675662 0 0.070348988804492946 -0.33204659136139891 0 0.076158151505467273 -0.31528500416429062 0 0.062318235292702903 -0.32055459237570538 0 0.070348988804492946 -0.33204659136139891 0 0.062318235292702903 -0.32055459237570538 0 0.056881458686524257 -0.3300970897642122 0 0.081619055217363748 -0.32559697914607882 0 0.070348988804492946 -0.33204659136139891 0 0.076158151505467273 -0.31528500416429062 0 0.076158151505467273 -0.31528500416429062 0 0.062318235292702903 -0.32055459237570538 0 0.057316096250853203 -0.30364945300113771 0 0.050528198753783289 -0.3204495476484267 0 0.062318235292702903 -0.32055459237570538 0 0.057316096250853203 -0.30364945300113771 0 0.050528198753783289 -0.3204495476484267 0 0.056881458686524257 -0.3300970897642122 0 0.045710030770160143 -0.33187145076006158 0 0.050528198753783289 -0.3204495476484267 0 0.062318235292702903 -0.32055459237570538 0 0.056881458686524257 -0.3300970897642122 0 0.056881458686524257 -0.3300970897642122 0 0.061495040822218197 -0.33910827047675662 0 0.052625506341312731 -0.34011927873766268 0 0.061495040822218197 -0.33910827047675662 0 0.052625506341312731 -0.34011927873766268 0 0.059002875194557547 -0.34943156079448268 0 0.052625506341312731 -0.34011927873766268 0 0.044347453619621523 -0.34072709291825221 0 0.048316178954794738 -0.34948020771221111 0 0.052625506341312731 -0.34011927873766268 0 0.045710030770160143 -0.33187145076006158 0 0.044347453619621523 -0.34072709291825221 0 0.056881458686524257 -0.3300970897642122 0 0.052625506341312731 -0.34011927873766268 0 0.045710030770160143 -0.33187145076006158 0 0.045710030770160143 -0.33187145076006158 0 0.033218744297860467 -0.33523840555825712 0 0.038918259234970831 -0.32410079876065789 0 0.045710030770160143 -0.33187145076006158 0 0.044347453619621523 -0.34072709291825221 0 0.033218744297860467 -0.33523840555825712 0 0.044347453619621523 -0.34072709291825221 0 0.033218744297860467 -0.33523840555825712 0 0.035858166470003797 -0.34475241645472149 0 0.033218744297860467 -0.33523840555825712 0 0.035858166470003797 -0.34475241645472149 0 0.025616822757234141 -0.33939088772608672 0 0.033218744297860467 -0.33523840555825712 0 0.038918259234970831 -0.32410079876065789 0 0.028572907014037339 -0.32654769115698101 0 0.038918259234970831 -0.32410079876065789 0 0.031828078674337477 -0.31773895852871209 0 0.028572907014037339 -0.32654769115698101 0 0.038918259234970831 -0.32410079876065789 0 0.031828078674337477 -0.31773895852871209 0 0.042025112287488418 -0.31242390122878588 0 0.050528198753783289 -0.3204495476484267 0 0.038918259234970831 -0.32410079876065789 0 0.042025112287488418 -0.31242390122878588 0 0.050528198753783289 -0.3204495476484267 0 0.045710030770160143 -0.33187145076006158 0 0.038918259234970831 -0.32410079876065789 0 0.053538507748874947 -0.3799221680167808 0 0.062764569392891378 -0.37124251162150212 0 0.05313519017349002 -0.36328602633510221 0 0.053538507748874947 -0.3799221680167808 0 0.05313519017349002 -0.36328602633510221 0 0.04195676848564947 -0.3727024963903206 0 0.068874190034892993 -0.35790796680157277 0 0.062764569392891378 -0.37124251162150212 0 0.05313519017349002 -0.36328602633510221 0 0.068874190034892993 -0.35790796680157277 0 0.05313519017349002 -0.36328602633510221 0 0.059002875194557547 -0.34943156079448268 0 0.05313519017349002 -0.36328602633510221 0 0.059002875194557547 -0.34943156079448268 0 0.048316178954794738 -0.34948020771221111 0 0.052625506341312731 -0.34011927873766268 0 0.059002875194557547 -0.34943156079448268 0 0.048316178954794738 -0.34948020771221111 0 0.039155755707113361 -0.35614060958967969 0 0.02873354650264837 -0.36629896187161981 0 0.02611833628908198 -0.34839143607377382 0 0.048316178954794738 -0.34948020771221111 0 0.035858166470003797 -0.34475241645472149 0 0.039155755707113361 -0.35614060958967969 0 0.044347453619621523 -0.34072709291825221 0 0.048316178954794738 -0.34948020771221111 0 0.035858166470003797 -0.34475241645472149 0 0.035858166470003797 -0.34475241645472149 0 0.039155755707113361 -0.35614060958967969 0 0.02611833628908198 -0.34839143607377382 0 0.05313519017349002 -0.36328602633510221 0 0.048316178954794738 -0.34948020771221111 0 0.039155755707113361 -0.35614060958967969 0 0.039155755707113361 -0.35614060958967969 0 0.04195676848564947 -0.3727024963903206 0 0.02873354650264837 -0.36629896187161981 0 0.05313519017349002 -0.36328602633510221 0 0.039155755707113361 -0.35614060958967969 0 0.04195676848564947 -0.3727024963903206 0 0.014975574551926231 -0.37566133837104287 0 0.02873354650264837 -0.36629896187161981 0 0.0138937202026995 -0.35894591570928952 0 0.02873354650264837 -0.36629896187161981 0 0.02611833628908198 -0.34839143607377382 0 0.0138937202026995 -0.35894591570928952 0 0.035858166470003797 -0.34475241645472149 0 0.02611833628908198 -0.34839143607377382 0 0.025616822757234141 -0.33939088772608672 0 0.02611833628908198 -0.34839143607377382 0 0.017302076260758401 -0.34693526920627737 0 0.0138937202026995 -0.35894591570928952 0 0.02611833628908198 -0.34839143607377382 0 0.017302076260758401 -0.34693526920627737 0 0.020098463854754479 -0.34119008784940807 0 0.0138937202026995 -0.35894591570928952 0 0.01137152806108825 -0.33574311560460102 0 0.0041026344107457603 -0.34763671413703978 0 0.0138937202026995 -0.35894591570928952 0 0.01137152806108825 -0.33574311560460102 0 -0.0062147334033759091 -0.36504868167649229 0 0.0041026344107457603 -0.34763671413703978 0 0.0138937202026995 -0.35894591570928952 0 0.017302076260758401 -0.34693526920627737 0 0.0138937202026995 -0.35894591570928952 0 0.01137152806108825 -0.33574311560460102 0 -0.0062147334033759091 -0.36504868167649229 0 -0.003054764863230162 -0.38327110372534579 0 0.014975574551926231 -0.37566133837104287 0 -0.0062147334033759091 -0.36504868167649229 0 0.014975574551926231 -0.37566133837104287 0 -0.0062147334033759091 -0.36504868167649229 0 0.014975574551926231 -0.37566133837104287 0 0.0138937202026995 -0.35894591570928952 0 0.023310218079132351 -0.31845954877869359 0 0.0088493359194770065 -0.31254031549991262 0 0.026313896756058469 -0.30716285271844229 0 0.01894890584257708 -0.32792591579476832 0 0.023310218079132351 -0.31845954877869359 0 0.0088493359194770065 -0.31254031549991262 0 0.031828078674337477 -0.31773895852871209 0 0.023310218079132351 -0.31845954877869359 0 0.026313896756058469 -0.30716285271844229 0 0.031828078674337477 -0.31773895852871209 0 0.023310218079132351 -0.31845954877869359 0 0.028572907014037339 -0.32654769115698101 0 0.01894890584257708 -0.32792591579476832 0 0.023310218079132351 -0.31845954877869359 0 0.028572907014037339 -0.32654769115698101 0 0.033218744297860467 -0.33523840555825712 0 0.025316890498279419 -0.33272261625520122 0 0.025616822757234141 -0.33939088772608672 0 0.01894890584257708 -0.32792591579476832 0 0.028572907014037339 -0.32654769115698101 0 0.025316890498279419 -0.33272261625520122 0 0.033218744297860467 -0.33523840555825712 0 0.028572907014037339 -0.32654769115698101 0 0.025316890498279419 -0.33272261625520122 0 0.025316890498279419 -0.33272261625520122 0 0.025616822757234141 -0.33939088772608672 0 0.020083555905609611 -0.33548973063630161 0 0.02611833628908198 -0.34839143607377382 0 0.025616822757234141 -0.33939088772608672 0 0.020098463854754479 -0.34119008784940807 0 0.020098463854754479 -0.34119008784940807 0 0.020083555905609611 -0.33548973063630161 0 0.01137152806108825 -0.33574311560460102 0 0.017302076260758401 -0.34693526920627737 0 0.020098463854754479 -0.34119008784940807 0 0.01137152806108825 -0.33574311560460102 0 0.025616822757234141 -0.33939088772608672 0 0.020098463854754479 -0.34119008784940807 0 0.020083555905609611 -0.33548973063630161 0 0.01894890584257708 -0.32792591579476832 0 0.020083555905609611 -0.33548973063630161 0 0.01137152806108825 -0.33574311560460102 0 0.01894890584257708 -0.32792591579476832 0 0.025316890498279419 -0.33272261625520122 0 0.020083555905609611 -0.33548973063630161 0 -0.0086474613884536759 -0.3442939608922525 0 0.0041026344107457603 -0.34763671413703978 0 0.010110118581770629 -0.33415189680256352 0 -0.0086474613884536759 -0.3442939608922525 0 0.010110118581770629 -0.33415189680256352 0 0.0041026344107457603 -0.34763671413703978 0 0.01137152806108825 -0.33574311560460102 0 0.010110118581770629 -0.33415189680256352 0 0.01894890584257708 -0.32792591579476832 0 0.01137152806108825 -0.33574311560460102 0 0.0088493359194770065 -0.31254031549991262 0 0.01137152806108825 -0.33574311560460102 0 0.010110118581770629 -0.33415189680256352 0 0.0088493359194770065 -0.31254031549991262 0 0.01137152806108825 -0.33574311560460102 0 0.0088493359194770065 -0.31254031549991262 0 -0.007323121960877416 -0.32432635561407591 0 0.010110118581770629 -0.33415189680256352 0 0.0088493359194770065 -0.31254031549991262 0 0.0088493359194770065 -0.31254031549991262 0 0.00632714377786576 -0.28933751539522412 0 -0.010380234539267411 -0.30297895412728532 0 0.0088493359194770065 -0.31254031549991262 0 0.00632714377786576 -0.28933751539522412 0 0.0088493359194770065 -0.31254031549991262 0 0.00632714377786576 -0.28933751539522412 0 0.026313896756058469 -0.30716285271844229 0 0.00632714377786576 -0.28933751539522412 0 0.030405888420319709 -0.29117863606028571 0 0.026313896756058469 -0.30716285271844229 0 0.00632714377786576 -0.28933751539522412 0 0.030405888420319709 -0.29117863606028571 0 0.031260066928466633 -0.26716864051914369 0 0.026313896756058469 -0.30716285271844229 0 0.042025112287488418 -0.31242390122878588 0 0.041801264131990562 -0.29964251683070048 0 0.031828078674337477 -0.31773895852871209 0 0.026313896756058469 -0.30716285271844229 0 0.042025112287488418 -0.31242390122878588 0 0.030405888420319709 -0.29117863606028571 0 0.026313896756058469 -0.30716285271844229 0 0.041801264131990562 -0.29964251683070048 0 0.030405888420319709 -0.29117863606028571 0 0.047783108807077472 -0.28544072345919808 0 0.031260066928466633 -0.26716864051914369 0 0.030405888420319709 -0.29117863606028571 0 0.041801264131990562 -0.29964251683070048 0 0.047783108807077472 -0.28544072345919808 0 0.071177670665117584 -0.28429695378540287 0 0.047783108807077472 -0.28544072345919808 0 0.057316096250853203 -0.30364945300113771 0 0.041801264131990562 -0.29964251683070048 0 0.047783108807077472 -0.28544072345919808 0 0.057316096250853203 -0.30364945300113771 0 0.050528198753783289 -0.3204495476484267 0 0.042025112287488418 -0.31242390122878588 0 0.057316096250853203 -0.30364945300113771 0 0.042025112287488418 -0.31242390122878588 0 0.041801264131990562 -0.29964251683070048 0 0.057316096250853203 -0.30364945300113771 0 0.055945778335013123 -0.25070505853966041 0 0.057949317946716872 -0.26907751766107751 0 0.031260066928466633 -0.26716864051914369 0 0.071177670665117584 -0.28429695378540287 0 0.047783108807077472 -0.28544072345919808 0 0.057949317946716872 -0.26907751766107751 0 0.047783108807077472 -0.28544072345919808 0 0.057949317946716872 -0.26907751766107751 0 0.031260066928466633 -0.26716864051914369 0 0.055945778335013123 -0.25070505853966041 0 0.031260066928466633 -0.26716864051914369 0 0.055945778335013123 -0.25070505853966041 0 0.031260066928466633 -0.26716864051914369 0 0.031646987544794752 -0.2367285054650588 0 0.031260066928466633 -0.26716864051914369 0 0.015072930435663731 -0.25018781192836409 0 0.031646987544794752 -0.2367285054650588 0 0.031260066928466633 -0.26716864051914369 0 0.0038049516362545122 -0.26613471529053567 0 0.015072930435663731 -0.25018781192836409 0 0.00632714377786576 -0.28933751539522412 0 0.031260066928466633 -0.26716864051914369 0 0.0038049516362545122 -0.26613471529053567 0 0.00632714377786576 -0.28933751539522412 0 0.0038049516362545122 -0.26613471529053567 0 -0.00049652130699871766 -0.2473016026161601 0 0.0038049516362545122 -0.26613471529053567 0 0.015072930435663731 -0.25018781192836409 0 -0.00049652130699871766 -0.2473016026161601 0 0.015072930435663731 -0.25018781192836409 0 0.0091491673758014591 -0.2336055957509223 0 -0.0092359492843370593 -0.21119307813957131 0 0.0091491673758014591 -0.2336055957509223 0 0.01381951473359929 -0.2124175085057759 0 0.0091491673758014591 -0.2336055957509223 0 0.01381951473359929 -0.2124175085057759 0 0.031646987544794752 -0.2367285054650588 0 0.01381951473359929 -0.2124175085057759 0 0.036371631613381958 -0.21036779493664581 0 0.031646987544794752 -0.2367285054650588 0 0.015072930435663731 -0.25018781192836409 0 0.0091491673758014591 -0.2336055957509223 0 0.031646987544794752 -0.2367285054650588 0 -0.00135817117020914 -0.18493631818518841 0 -0.0092359492843370593 -0.21119307813957131 0 0.01381951473359929 -0.2124175085057759 0 -0.00135817117020914 -0.18493631818518841 0 0.01381951473359929 -0.2124175085057759 0 0.02252960124566766 -0.18914355546625619 0 0.01381951473359929 -0.2124175085057759 0 0.02252960124566766 -0.18914355546625619 0 0.036371631613381958 -0.21036779493664581 0 0.02252960124566766 -0.18914355546625619 0 0.04112560050362303 -0.19321540750894911 0 0.036371631613381958 -0.21036779493664581 0 0.04112560050362303 -0.19321540750894911 0 0.036371631613381958 -0.21036779493664581 0 0.057070339662875183 -0.2047492068265932 0 0.036371631613381958 -0.21036779493664581 0 0.057070339662875183 -0.2047492068265932 0 0.058056199852320557 -0.22713062111878141 0 0.04112560050362303 -0.19321540750894911 0 0.057070339662875183 -0.2047492068265932 0 0.055683872965910028 -0.1871965925253978 0 0.036371631613381958 -0.21036779493664581 0 0.031646987544794752 -0.2367285054650588 0 0.058056199852320557 -0.22713062111878141 0 0.055945778335013123 -0.25070505853966041 0 0.031646987544794752 -0.2367285054650588 0 0.058056199852320557 -0.22713062111878141 0 0.055945778335013123 -0.25070505853966041 0 0.058056199852320557 -0.22713062111878141 0 0.080631489741560008 -0.23424147656017791 0 0.083579964997909553 -0.25777621200198281 0 0.055945778335013123 -0.25070505853966041 0 0.080631489741560008 -0.23424147656017791 0 0.055945778335013123 -0.25070505853966041 0 0.080631489741560008 -0.23424147656017791 0 0.083579964997909553 -0.25777621200198281 0 0.080631489741560008 -0.23424147656017791 0 0.097500371512230927 -0.24251523744947309 0 0.083579964997909553 -0.25777621200198281 0 0.080631489741560008 -0.23424147656017791 0 0.080631489741560008 -0.23424147656017791 0 0.078179588527308941 -0.21467039612374211 0 0.095215741274730245 -0.2245148368546635 0 0.080631489741560008 -0.23424147656017791 0 0.097500371512230927 -0.24251523744947309 0 0.095215741274730245 -0.2245148368546635 0 0.080631489741560008 -0.23424147656017791 0 0.078179588527308941 -0.21467039612374211 0 0.080631489741560008 -0.23424147656017791 0 0.095215741274730245 -0.2245148368546635 0 0.058056199852320557 -0.22713062111878141 0 0.080631489741560008 -0.23424147656017791 0 0.078179588527308941 -0.21467039612374211 0 0.075746755580258451 -0.1950969267794658 0 0.078179588527308941 -0.21467039612374211 0 0.057070339662875183 -0.2047492068265932 0 0.075746755580258451 -0.1950969267794658 0 0.078179588527308941 -0.21467039612374211 0 0.057070339662875183 -0.2047492068265932 0 0.058056199852320557 -0.22713062111878141 0 0.078179588527308941 -0.21467039612374211 0 0.057070339662875183 -0.2047492068265932 0 0.075746755580258451 -0.1950969267794658 0 0.055683872965910028 -0.1871965925253978 0 0.075746755580258451 -0.1950969267794658 0 0.092773374194079494 -0.20494256196430929 0 0.08799775421150359 -0.18633891464643829 0 0.075746755580258451 -0.1950969267794658 0 0.092773374194079494 -0.20494256196430929 0 0.078179588527308941 -0.21467039612374211 0 0.092773374194079494 -0.20494256196430929 0 0.095215741274730245 -0.2245148368546635 0 0.075746755580258451 -0.1950969267794658 0 0.078179588527308941 -0.21467039612374211 0 0.092773374194079494 -0.20494256196430929 0 0.092773374194079494 -0.20494256196430929 0 0.1075006573928676 -0.20264948808968331 0 0.10979999280790161 -0.21478819714915079 0 0.092773374194079494 -0.20494256196430929 0 0.10979999280790161 -0.21478819714915079 0 0.092773374194079494 -0.20494256196430929 0 0.10979999280790161 -0.21478819714915079 0 0.095215741274730245 -0.2245148368546635 0 0.092773374194079494 -0.20494256196430929 0 0.1025444234661291 -0.189676276730778 0 0.08799775421150359 -0.18633891464643829 0 0.092773374194079494 -0.20494256196430929 0 0.1075006573928676 -0.20264948808968331 0 0.1025444234661291 -0.189676276730778 0 0.1075006573928676 -0.20264948808968331 0 0.1025444234661291 -0.189676276730778 0 0.11785070636119339 -0.19590325304082329 0 0.1025444234661291 -0.189676276730778 0 0.11785070636119339 -0.19590325304082329 0 0.1153313103540235 -0.18260294008382619 0 0.1075006573928676 -0.20264948808968331 0 0.11785070636119339 -0.19590325304082329 0 0.12020800943974461 -0.20784680371550801 0 0.11785070636119339 -0.19590325304082329 0 0.1153313103540235 -0.18260294008382619 0 0.12988750288688269 -0.18741504762509861 0 0.10979999280790161 -0.21478819714915079 0 0.12020800943974461 -0.20784680371550801 0 0.13275127296145109 -0.22805976542364101 0 0.10979999280790161 -0.21478819714915079 0 0.12020800943974461 -0.20784680371550801 0 0.1075006573928676 -0.20264948808968331 0 0.10979999280790161 -0.21478819714915079 0 0.12020800943974461 -0.20784680371550801 0 0.10979999280790161 -0.21478819714915079 0 0.1154050387073919 -0.2358942627654679 0 0.13275127296145109 -0.22805976542364101 0 0.10979999280790161 -0.21478819714915079 0 0.1154050387073919 -0.2358942627654679 0 0.10448028607556351 -0.22942813355468861 0 0.10979999280790161 -0.21478819714915079 0 0.13275127296145109 -0.22805976542364101 0 0.1162321014502215 -0.25452752110021859 0 0.1154050387073919 -0.2358942627654679 0 0.097500371512230927 -0.24251523744947309 0 0.1162321014502215 -0.25452752110021859 0 0.1154050387073919 -0.2358942627654679 0 0.13475341233392191 -0.24985250807845871 0 0.1154050387073919 -0.2358942627654679 0 0.097500371512230927 -0.24251523744947309 0 0.10448028607556351 -0.22942813355468861 0 0.097500371512230927 -0.24251523744947309 0 0.095215741274730245 -0.2245148368546635 0 0.10448028607556351 -0.22942813355468861 0 0.10979999280790161 -0.21478819714915079 0 0.095215741274730245 -0.2245148368546635 0 0.10448028607556351 -0.22942813355468861 0 0.10979999280790161 -0.21478819714915079 0 0.095215741274730245 -0.2245148368546635 0 0.1069484000070987 -0.14093525902907719 0 0.10955233121650081 -0.1512098661039209 0 0.093713799804063719 -0.1458447579242371 0 0.1013970669273392 -0.1620485836768959 0 0.093713799804063719 -0.1458447579242371 0 0.089587183877266982 -0.1553767925683249 0 0.10955233121650081 -0.1512098661039209 0 0.1013970669273392 -0.1620485836768959 0 0.093713799804063719 -0.1458447579242371 0 0.10955233121650081 -0.1512098661039209 0 0.093713799804063719 -0.1458447579242371 0 0.1010445581553322 -0.1289115022466312 0 0.093713799804063719 -0.1458447579242371 0 0.1069484000070987 -0.14093525902907719 0 0.1010445581553322 -0.1289115022466312 0 0.093713799804063719 -0.1458447579242371 0 0.123482910852498 -0.13777490984151949 0 0.1166627140844461 -0.12317840718842921 0 0.133017444566952 -0.1192180105834534 0 0.1069484000070987 -0.14093525902907719 0 0.1010445581553322 -0.1289115022466312 0 0.123482910852498 -0.13777490984151949 0 0.1010445581553322 -0.1289115022466312 0 0.123482910852498 -0.13777490984151949 0 0.1010445581553322 -0.1289115022466312 0 0.123482910852498 -0.13777490984151949 0 0.1166627140844461 -0.12317840718842921 0 0.10955233121650081 -0.1512098661039209 0 0.125390862628938 -0.15657497428360451 0 0.1069484000070987 -0.14093525902907719 0 0.123482910852498 -0.13777490984151949 0 0.10955233121650081 -0.1512098661039209 0 0.123482910852498 -0.13777490984151949 0 0.10955233121650081 -0.1512098661039209 0 0.125390862628938 -0.15657497428360451 0 0.10955233121650081 -0.1512098661039209 0 0.1140997441942838 -0.16675773657833109 0 0.125390862628938 -0.15657497428360451 0 0.1140997441942838 -0.16675773657833109 0 0.126570689701412 -0.17556766332277421 0 0.125390862628938 -0.15657497428360451 0 0.1140997441942838 -0.16675773657833109 0 0.1153313103540235 -0.18260294008382619 0 0.1030873631314652 -0.1748291280649448 0 0.1140997441942838 -0.16675773657833109 0 0.1153313103540235 -0.18260294008382619 0 0.126570689701412 -0.17556766332277421 0 0.1153313103540235 -0.18260294008382619 0 0.12988750288688269 -0.18741504762509861 0 0.126570689701412 -0.17556766332277421 0 0.1025444234661291 -0.189676276730778 0 0.1153313103540235 -0.18260294008382619 0 0.1030873631314652 -0.1748291280649448 0 0.1030873631314652 -0.1748291280649448 0 0.095394886017323516 -0.18032674352134631 0 0.088710485994322269 -0.17230366351728929 0 0.1025444234661291 -0.189676276730778 0 0.095394886017323516 -0.18032674352134631 0 0.08799775421150359 -0.18633891464643829 0 0.1025444234661291 -0.189676276730778 0 0.1030873631314652 -0.1748291280649448 0 0.095394886017323516 -0.18032674352134631 0 0.10955233121650081 -0.1512098661039209 0 0.1140997441942838 -0.16675773657833109 0 0.1013970669273392 -0.1620485836768959 0 0.1140997441942838 -0.16675773657833109 0 0.1030873631314652 -0.1748291280649448 0 0.1013970669273392 -0.1620485836768959 0 0.1030873631314652 -0.1748291280649448 0 0.092816145306354444 -0.1641777209134731 0 0.088710485994322269 -0.17230366351728929 0 0.1030873631314652 -0.1748291280649448 0 0.1013970669273392 -0.1620485836768959 0 0.092816145306354444 -0.1641777209134731 0 0.1013970669273392 -0.1620485836768959 0 0.092816145306354444 -0.1641777209134731 0 0.089587183877266982 -0.1553767925683249 0 0.092816145306354444 -0.1641777209134731 0 0.082539812120706685 -0.164479965637954 0 0.089587183877266982 -0.1553767925683249 0 0.082539812120706685 -0.164479965637954 0 0.071056684857166194 -0.15781536466526469 0 0.089587183877266982 -0.1553767925683249 0 0.092816145306354444 -0.1641777209134731 0 0.082539812120706685 -0.164479965637954 0 0.088710485994322269 -0.17230366351728929 0 0.082539812120706685 -0.164479965637954 0 0.088710485994322269 -0.17230366351728929 0 0.073392186085111832 -0.17645734017628559 0 0.075746755580258451 -0.1950969267794658 0 0.08799775421150359 -0.18633891464643829 0 0.073392186085111832 -0.17645734017628559 0 0.095394886017323516 -0.18032674352134631 0 0.08799775421150359 -0.18633891464643829 0 0.088710485994322269 -0.17230366351728929 0 0.08799775421150359 -0.18633891464643829 0 0.088710485994322269 -0.17230366351728929 0 0.073392186085111832 -0.17645734017628559 0 0.075746755580258451 -0.1950969267794658 0 0.073392186085111832 -0.17645734017628559 0 0.055683872965910028 -0.1871965925253978 0 0.075746755580258451 -0.1950969267794658 0 0.073392186085111832 -0.17645734017628559 0 0.073392186085111832 -0.17645734017628559 0 0.071056684857166194 -0.15781536466526469 0 0.082539812120706685 -0.164479965637954 0 0.073392186085111832 -0.17645734017628559 0 0.071056684857166194 -0.15781536466526469 0 0.073392186085111832 -0.17645734017628559 0 0.071056684857166194 -0.15781536466526469 0 0.057420332173000632 -0.1703757852835481 0 0.071056684857166194 -0.15781536466526469 0 0.093713799804063719 -0.1458447579242371 0 0.06539429975814362 -0.1362518747594757 0 0.071056684857166194 -0.15781536466526469 0 0.06539429975814362 -0.1362518747594757 0 0.051146932799786417 -0.15466172161657141 0 0.071056684857166194 -0.15781536466526469 0 0.093713799804063719 -0.1458447579242371 0 0.089587183877266982 -0.1553767925683249 0 0.093713799804063719 -0.1458447579242371 0 0.06539429975814362 -0.1362518747594757 0 0.093713799804063719 -0.1458447579242371 0 0.089587183877266982 -0.1553767925683249 0 0.1010445581553322 -0.1289115022466312 0 0.093713799804063719 -0.1458447579242371 0 0.084819913414731163 -0.13194096297007879 0 0.093713799804063719 -0.1458447579242371 0 0.084819913414731163 -0.13194096297007879 0 0.06539429975814362 -0.1362518747594757 0 0.1010445581553322 -0.1289115022466312 0 0.084819913414731163 -0.13194096297007879 0 0.075045371854549542 -0.11864152439087899 0 0.084819913414731163 -0.13194096297007879 0 0.06539429975814362 -0.1362518747594757 0 0.075045371854549542 -0.11864152439087899 0 0.06539429975814362 -0.1362518747594757 0 0.046092813141916232 -0.14171524886792081 0 0.037074799712223577 -0.12665899159471419 0 0.06539429975814362 -0.1362518747594757 0 0.037074799712223577 -0.12665899159471419 0 0.06539429975814362 -0.1362518747594757 0 0.051146932799786417 -0.15466172161657141 0 0.046092813141916232 -0.14171524886792081 0 0.051146932799786417 -0.15466172161657141 0 0.046092813141916232 -0.14171524886792081 0 0.030755220297511331 -0.14928840750092179 0 0.046092813141916232 -0.14171524886792081 0 0.037074799712223577 -0.12665899159471419 0 0.030755220297511331 -0.14928840750092179 0 0.055683872965910028 -0.1871965925253978 0 0.057420332173000632 -0.1703757852835481 0 0.039417642626982073 -0.17298966167237881 0 0.073392186085111832 -0.17645734017628559 0 0.055683872965910028 -0.1871965925253978 0 0.057420332173000632 -0.1703757852835481 0 0.071056684857166194 -0.15781536466526469 0 0.051146932799786417 -0.15466172161657141 0 0.057420332173000632 -0.1703757852835481 0 0.051146932799786417 -0.15466172161657141 0 0.057420332173000632 -0.1703757852835481 0 0.039417642626982073 -0.17298966167237881 0 0.051146932799786417 -0.15466172161657141 0 0.039417642626982073 -0.17298966167237881 0 0.030755220297511331 -0.14928840750092179 0 0.04112560050362303 -0.19321540750894911 0 0.055683872965910028 -0.1871965925253978 0 0.039417642626982073 -0.17298966167237881 0 0.02252960124566766 -0.18914355546625619 0 0.04112560050362303 -0.19321540750894911 0 0.039417642626982073 -0.17298966167237881 0 0.02252960124566766 -0.18914355546625619 0 0.039417642626982073 -0.17298966167237881 0 0.019572779988774141 -0.17100750021111019 0 0.019572779988774141 -0.17100750021111019 0 0.0065196069439187616 -0.1586795582308056 0 0.030755220297511331 -0.14928840750092179 0 0.039417642626982073 -0.17298966167237881 0 0.019572779988774141 -0.17100750021111019 0 0.030755220297511331 -0.14928840750092179 0 -0.00135817117020914 -0.18493631818518841 0 0.0065196069439187616 -0.1586795582308056 0 -0.00135817117020914 -0.18493631818518841 0 0.019572779988774141 -0.17100750021111019 0 0.0065196069439187616 -0.1586795582308056 0 -0.00135817117020914 -0.18493631818518841 0 0.02252960124566766 -0.18914355546625619 0 0.019572779988774141 -0.17100750021111019 0 0.037074799712223577 -0.12665899159471419 0 0.030755220297511331 -0.14928840750092179 0 0.01439738505804666 -0.13242279827642281 0 0.037074799712223577 -0.12665899159471419 0 0.01439738505804666 -0.13242279827642281 0 0.008755299666303458 -0.11706610842995251 0 0.0065196069439187616 -0.1586795582308056 0 0.030755220297511331 -0.14928840750092179 0 0.01439738505804666 -0.13242279827642281 0 0.0065196069439187616 -0.1586795582308056 0 0.01439738505804666 -0.13242279827642281 0 -0.0061755514744574747 -0.13939955945566099 0 0.0065196069439187616 -0.1586795582308056 0 0.01439738505804666 -0.13242279827642281 0 -0.0061755514744574747 -0.13939955945566099 0 0.01439738505804666 -0.13242279827642281 0 0.0016256503768235129 -0.1281843828229571 0 0.01439738505804666 -0.13242279827642281 0 0.0016256503768235129 -0.1281843828229571 0 0.008755299666303458 -0.11706610842995251 0 -0.0055829579384821266 -0.089872009817903206 0 0.008755299666303458 -0.11706610842995251 0 0.016212496612642398 -0.084060759113546185 0 0.008755299666303458 -0.11706610842995251 0 0.02836019599530519 -0.1070919994238364 0 0.016212496612642398 -0.084060759113546185 0 0.037074799712223577 -0.12665899159471419 0 0.008755299666303458 -0.11706610842995251 0 0.037074799712223577 -0.12665899159471419 0 0.008755299666303458 -0.11706610842995251 0 0.02836019599530519 -0.1070919994238364 0 0.02836019599530519 -0.1070919994238364 0 0.016212496612642398 -0.084060759113546185 0 0.038899403745220808 -0.092096605735679252 0 0.016212496612642398 -0.084060759113546185 0 0.043650520356827871 -0.071783524763296302 0 0.023836074087011438 -0.051820298518144438 0 -0.0058232936852503636 -0.056471612802719749 0 -0.0055829579384821266 -0.089872009817903206 0 0.016212496612642398 -0.084060759113546185 0 -0.0058232936852503636 -0.056471612802719749 0 0.016212496612642398 -0.084060759113546185 0 0.023836074087011438 -0.051820298518144438 0 0.038899403745220808 -0.092096605735679252 0 0.043650520356827871 -0.071783524763296302 0 0.057227620207562793 -0.089175198842587372 0 0.016212496612642398 -0.084060759113546185 0 0.038899403745220808 -0.092096605735679252 0 0.043650520356827871 -0.071783524763296302 0 0.043650520356827871 -0.071783524763296302 0 0.053495441859273407 -0.047168984233569092 0 0.06801370483239344 -0.068964613370199296 0 0.043650520356827871 -0.071783524763296302 0 0.057227620207562793 -0.089175198842587372 0 0.06801370483239344 -0.068964613370199296 0 0.038899403745220808 -0.092096605735679252 0 0.057227620207562793 -0.089175198842587372 0 0.049046185553765803 -0.10837154653513 0 0.057227620207562793 -0.089175198842587372 0 0.049046185553765803 -0.10837154653513 0 0.067864589001429942 -0.1022978030337927 0 0.049046185553765803 -0.10837154653513 0 0.075045371854549542 -0.11864152439087899 0 0.06539429975814362 -0.1362518747594757 0 0.037074799712223577 -0.12665899159471419 0 0.049046185553765803 -0.10837154653513 0 0.037074799712223577 -0.12665899159471419 0 0.02836019599530519 -0.1070919994238364 0 0.049046185553765803 -0.10837154653513 0 0.02836019599530519 -0.1070919994238364 0 0.038899403745220808 -0.092096605735679252 0 0.049046185553765803 -0.10837154653513 0 0.021366706330957049 0.005356196585448475 0 0.01242755905656337 -0.015740938746889348 0 0.03083982702243088 -0.027363622828163962 0 0.021366706330957049 0.005356196585448475 0 9.2994626588645875e-05 -0.0066853786883017728 0 0.01242755905656337 -0.015740938746889348 0 -0.000196678936145564 -0.020618198175398689 0 9.2994626588645875e-05 -0.0066853786883017728 0 0.01242755905656337 -0.015740938746889348 0 -0.000196678936145564 -0.020618198175398689 0 0.01242755905656337 -0.015740938746889348 0 0.01461041445206694 -0.032040568890790148 0 -0.000196678936145564 -0.020618198175398689 0 -0.0029404273112356889 -0.033348019466363163 0 0.01461041445206694 -0.032040568890790148 0 0.01242755905656337 -0.015740938746889348 0 0.03083982702243088 -0.027363622828163962 0 0.01461041445206694 -0.032040568890790148 0 0.03083982702243088 -0.027363622828163962 0 0.01461041445206694 -0.032040568890790148 0 0.023836074087011438 -0.051820298518144438 0 -0.0058232936852503636 -0.056471612802719749 0 0.01461041445206694 -0.032040568890790148 0 0.023836074087011438 -0.051820298518144438 0 -0.0029404273112356889 -0.033348019466363163 0 -0.0058232936852503636 -0.056471612802719749 0 0.01461041445206694 -0.032040568890790148 0 -0.0058232936852503636 -0.056471612802719749 0 0.023836074087011438 -0.051820298518144438 0 0.023836074087011438 -0.051820298518144438 0 0.053495441859273407 -0.047168984233569092 0 0.043650520356827871 -0.071783524763296302 0 0.023836074087011438 -0.051820298518144438 0 0.053495441859273407 -0.047168984233569092 0 0.03083982702243088 -0.027363622828163962 0 0.023836074087011438 -0.051820298518144438 0 0.053495441859273407 -0.047168984233569092 0 0.03083982702243088 -0.027363622828163962 0 0.053495441859273407 -0.047168984233569092 0 0.049491405824600751 -0.014400546848704451 0 0.053495441859273407 -0.047168984233569092 0 0.049491405824600751 -0.014400546848704451 0 0.07057872529544322 -0.02462674390758245 0 0.021366706330957049 0.005356196585448475 0 0.03083982702243088 -0.027363622828163962 0 0.049491405824600751 -0.014400546848704451 0 0.048574898960063582 0.01105422245065607 0 0.049491405824600751 -0.014400546848704451 0 0.067215553891882635 -0.0011799380945436829 0 0.049491405824600751 -0.014400546848704451 0 0.067215553891882635 -0.0011799380945436829 0 0.07057872529544322 -0.02462674390758245 0 0.085378979920521222 -0.0085271912777543524 0 0.067215553891882635 -0.0011799380945436829 0 0.07057872529544322 -0.02462674390758245 0 0.07057872529544322 -0.02462674390758245 0 0.083154809631535181 -0.04251766994899378 0 0.094787071098584585 -0.0247478980194679 0 0.085378979920521222 -0.0085271912777543524 0 0.07057872529544322 -0.02462674390758245 0 0.094787071098584585 -0.0247478980194679 0 0.053495441859273407 -0.047168984233569092 0 0.083154809631535181 -0.04251766994899378 0 0.053495441859273407 -0.047168984233569092 0 0.07057872529544322 -0.02462674390758245 0 0.083154809631535181 -0.04251766994899378 0 0.053495441859273407 -0.047168984233569092 0 0.083154809631535181 -0.04251766994899378 0 0.06801370483239344 -0.068964613370199296 0 0.083154809631535181 -0.04251766994899378 0 0.06801370483239344 -0.068964613370199296 0 0.092601273338419235 -0.073020043929193243 0 0.083154809631535181 -0.04251766994899378 0 0.1091210111153499 -0.058687350791905853 0 0.092601273338419235 -0.073020043929193243 0 0.1091210111153499 -0.058687350791905853 0 0.11281417740379721 -0.037866355664418441 0 0.13172589994884221 -0.058040934670003222 0 0.083154809631535181 -0.04251766994899378 0 0.11281417740379721 -0.037866355664418441 0 0.083154809631535181 -0.04251766994899378 0 0.11281417740379721 -0.037866355664418441 0 0.094787071098584585 -0.0247478980194679 0 0.083154809631535181 -0.04251766994899378 0 0.1091210111153499 -0.058687350791905853 0 0.11281417740379721 -0.037866355664418441 0 0.11281417740379721 -0.037866355664418441 0 0.094787071098584585 -0.0247478980194679 0 0.10827385914977759 -0.011147169607668071 0 0.11281417740379721 -0.037866355664418441 0 0.10827385914977759 -0.011147169607668071 0 0.1253515901131961 -0.01406323671609276 0 0.1165810207984305 0.0016467845144158069 0 0.10827385914977759 -0.011147169607668071 0 0.1253515901131961 -0.01406323671609276 0 0.099114727496955629 0.0053277131660113639 0 0.085378979920521222 -0.0085271912777543524 0 0.10827385914977759 -0.011147169607668071 0 0.085378979920521222 -0.0085271912777543524 0 0.094787071098584585 -0.0247478980194679 0 0.10827385914977759 -0.011147169607668071 0 0.1165810207984305 0.0016467845144158069 0 0.099114727496955629 0.0053277131660113639 0 0.10827385914977759 -0.011147169607668071 0 0.08052673921532183 -0.1046332541507224 0 0.093009708408021224 -0.098982610040675739 0 0.075788807321622992 -0.090272498831020731 0 0.093009708408021224 -0.098982610040675739 0 0.075788807321622992 -0.090272498831020731 0 0.08052673921532183 -0.1046332541507224 0 0.093009708408021224 -0.098982610040675739 0 0.091876290340570169 -0.11188136896506599 0 0.1010445581553322 -0.1289115022466312 0 0.075045371854549542 -0.11864152439087899 0 0.08052673921532183 -0.1046332541507224 0 0.091876290340570169 -0.11188136896506599 0 0.075045371854549542 -0.11864152439087899 0 0.1010445581553322 -0.1289115022466312 0 0.091876290340570169 -0.11188136896506599 0 0.075045371854549542 -0.11864152439087899 0 0.06539429975814362 -0.1362518747594757 0 0.049046185553765803 -0.10837154653513 0 0.075045371854549542 -0.11864152439087899 0 0.049046185553765803 -0.10837154653513 0 0.075045371854549542 -0.11864152439087899 0 0.067864589001429942 -0.1022978030337927 0 0.08052673921532183 -0.1046332541507224 0 0.075045371854549542 -0.11864152439087899 0 0.067864589001429942 -0.1022978030337927 0 0.057227620207562793 -0.089175198842587372 0 0.067864589001429942 -0.1022978030337927 0 0.075788807321622992 -0.090272498831020731 0 0.08052673921532183 -0.1046332541507224 0 0.067864589001429942 -0.1022978030337927 0 0.075788807321622992 -0.090272498831020731 0 0.057227620207562793 -0.089175198842587372 0 0.075788807321622992 -0.090272498831020731 0 0.06801370483239344 -0.068964613370199296 0 0.075788807321622992 -0.090272498831020731 0 0.06801370483239344 -0.068964613370199296 0 0.092601273338419235 -0.073020043929193243 0 0.093009708408021224 -0.098982610040675739 0 0.075788807321622992 -0.090272498831020731 0 0.092601273338419235 -0.073020043929193243 0 0.093009708408021224 -0.098982610040675739 0 0.092601273338419235 -0.073020043929193243 0 0.12097825472163019 -0.082866827960167977 0 0.1091210111153499 -0.058687350791905853 0 0.092601273338419235 -0.073020043929193243 0 0.12097825472163019 -0.082866827960167977 0 0.1091210111153499 -0.058687350791905853 0 0.12097825472163019 -0.082866827960167977 0 0.13172589994884221 -0.058040934670003222 0 0.12097825472163019 -0.082866827960167977 0 0.1102306094944184 -0.1076927212503327 0 0.12097825472163019 -0.082866827960167977 0 0.1102306094944184 -0.1076927212503327 0 0.1271178087547086 -0.1045219999468068 0 0.093009708408021224 -0.098982610040675739 0 0.091876290340570169 -0.11188136896506599 0 0.1102306094944184 -0.1076927212503327 0 0.093009708408021224 -0.098982610040675739 0 0.12097825472163019 -0.082866827960167977 0 0.1102306094944184 -0.1076927212503327 0 0.093009708408021224 -0.098982610040675739 0 0.1102306094944184 -0.1076927212503327 0 0.1010445581553322 -0.1289115022466312 0 0.1102306094944184 -0.1076927212503327 0 0.1166627140844461 -0.12317840718842921 0 0.1010445581553322 -0.1289115022466312 0 0.1102306094944184 -0.1076927212503327 0 0.1010445581553322 -0.1289115022466312 0 0.091876290340570169 -0.11188136896506599 0 0.1102306094944184 -0.1076927212503327 0 0.1102306094944184 -0.1076927212503327 0 0.133017444566952 -0.1192180105834534 0 0.1271178087547086 -0.1045219999468068 0 0.1102306094944184 -0.1076927212503327 0 0.1166627140844461 -0.12317840718842921 0 0.133017444566952 -0.1192180105834534 0 0.1102306094944184 -0.1076927212503327 0 0.133017444566952 -0.1192180105834534 0 0.133017444566952 -0.1192180105834534 0 0.14623067558927011 -0.111872282789342 0 0.1271178087547086 -0.1045219999468068 0 0.133017444566952 -0.1192180105834534 0 0.15580427963948459 -0.13074329991657599 0 0.133017444566952 -0.1192180105834534 0 0.14623067558927011 -0.111872282789342 0 0.15580427963948459 -0.13074329991657599 0 0.14623067558927011 -0.111872282789342 0 0.16083371385183221 -0.1079607019865878 0 0.15580427963948459 -0.13074329991657599 0 0.14623067558927011 -0.111872282789342 0 0.14055928772980181 -0.097858555568441724 0 0.16083371385183221 -0.1079607019865878 0 0.14055928772980181 -0.097858555568441724 0 0.15312601329342729 -0.089083029737095004 0 0.16083371385183221 -0.1079607019865878 0 0.14623067558927011 -0.111872282789342 0 0.1271178087547086 -0.1045219999468068 0 0.14055928772980181 -0.097858555568441724 0 0.12097825472163019 -0.082866827960167977 0 0.1271178087547086 -0.1045219999468068 0 0.14055928772980181 -0.097858555568441724 0 0.12097825472163019 -0.082866827960167977 0 0.14055928772980181 -0.097858555568441724 0 0.1427415809892903 -0.080563895116889217 0 0.12097825472163019 -0.082866827960167977 0 0.13983341075789141 -0.068785326075662498 0 0.1427415809892903 -0.080563895116889217 0 0.12097825472163019 -0.082866827960167977 0 0.13983341075789141 -0.068785326075662498 0 0.13172589994884221 -0.058040934670003222 0 0.12097825472163019 -0.082866827960167977 0 0.13172589994884221 -0.058040934670003222 0 0.13983341075789141 -0.068785326075662498 0 0.1427415809892903 -0.080563895116889217 0 0.1580912292930067 -0.069220958501148788 0 0.13983341075789141 -0.068785326075662498 0 0.1580912292930067 -0.069220958501148788 0 0.14563008883668771 -0.053234014130103272 0 0.14055928772980181 -0.097858555568441724 0 0.15312601329342729 -0.089083029737095004 0 0.1427415809892903 -0.080563895116889217 0 0.15312601329342729 -0.089083029737095004 0 0.1427415809892903 -0.080563895116889217 0 0.1580912292930067 -0.069220958501148788 0 0.15312601329342729 -0.089083029737095004 0 0.16611768317809661 -0.085235789553424701 0 0.1580912292930067 -0.069220958501148788 0 0.15312601329342729 -0.089083029737095004 0 0.16611768317809661 -0.085235789553424701 0 0.1692871414173982 -0.097197478018371586 0 0.16611768317809661 -0.085235789553424701 0 0.17801554475282419 -0.088913047863099615 0 0.1692871414173982 -0.097197478018371586 0 0.1580912292930067 -0.069220958501148788 0 0.17429076779252869 -0.075574739804748187 0 0.1716897414112411 -0.061723287548456109 0 0.16611768317809661 -0.085235789553424701 0 0.1580912292930067 -0.069220958501148788 0 0.17429076779252869 -0.075574739804748187 0 0.17429076779252869 -0.075574739804748187 0 0.18481170982967171 -0.067676730807396973 0 0.1716897414112411 -0.061723287548456109 0 0.17429076779252869 -0.075574739804748187 0 0.18481170982967171 -0.067676730807396973 0 0.1870186982903321 -0.080678624554962997 0 0.16611768317809661 -0.085235789553424701 0 0.17429076779252869 -0.075574739804748187 0 0.17801554475282419 -0.088913047863099615 0 0.17429076779252869 -0.075574739804748187 0 0.17801554475282419 -0.088913047863099615 0 0.1870186982903321 -0.080678624554962997 0 0.17801554475282419 -0.088913047863099615 0 0.18708874051528279 -0.091313536493609834 0 0.1823941263112423 -0.099771960353851274 0 0.17801554475282419 -0.088913047863099615 0 0.1870186982903321 -0.080678624554962997 0 0.18708874051528279 -0.091313536493609834 0 0.18708874051528279 -0.091313536493609834 0 0.1823941263112423 -0.099771960353851274 0 0.19288381683700581 -0.099013186369109427 0 0.17801554475282419 -0.088913047863099615 0 0.1823941263112423 -0.099771960353851274 0 0.1692871414173982 -0.097197478018371586 0 0.1823941263112423 -0.099771960353851274 0 0.1763428052116352 -0.112427921217657 0 0.1692871414173982 -0.097197478018371586 0 0.1823941263112423 -0.099771960353851274 0 0.1763428052116352 -0.112427921217657 0 0.18826566950959309 -0.1072515470169968 0 0.1763428052116352 -0.112427921217657 0 0.19219412566717939 -0.1176653685476937 0 0.18826566950959309 -0.1072515470169968 0 0.1763428052116352 -0.112427921217657 0 0.19219412566717939 -0.1176653685476937 0 0.182022956505311 -0.1273449289036277 0 0.1763428052116352 -0.112427921217657 0 0.15580427963948459 -0.13074329991657599 0 0.182022956505311 -0.1273449289036277 0 0.1763428052116352 -0.112427921217657 0 0.16083371385183221 -0.1079607019865878 0 0.15580427963948459 -0.13074329991657599 0 0.15312601329342729 -0.089083029737095004 0 0.16083371385183221 -0.1079607019865878 0 0.1692871414173982 -0.097197478018371586 0 0.1763428052116352 -0.112427921217657 0 0.16083371385183221 -0.1079607019865878 0 0.1692871414173982 -0.097197478018371586 0 0.1579507192313461 0.0025355498805747921 0 0.1482479430989522 -0.019876809272412071 0 0.1579507192313461 0.0025355498805747921 0 0.1454750608441174 -0.0051677832411170417 0 0.1482479430989522 -0.019876809272412071 0 0.1454750608441174 -0.0051677832411170417 0 0.1378535172181547 -0.012522851114620179 0 0.1482479430989522 -0.019876809272412071 0 0.1487119162446438 0.0039635729940632582 0 0.135234418882348 0.001091121526172267 0 0.1454750608441174 -0.0051677832411170417 0 0.135234418882348 0.001091121526172267 0 0.1454750608441174 -0.0051677832411170417 0 0.1378535172181547 -0.012522851114620179 0 0.1165810207984305 0.0016467845144158069 0 0.135234418882348 0.001091121526172267 0 0.1253515901131961 -0.01406323671609276 0 0.135234418882348 0.001091121526172267 0 0.1253515901131961 -0.01406323671609276 0 0.1378535172181547 -0.012522851114620179 0 0.1253515901131961 -0.01406323671609276 0 0.1378535172181547 -0.012522851114620179 0 0.13839874016969389 -0.024205398177381911 0 0.11281417740379721 -0.037866355664418441 0 0.1253515901131961 -0.01406323671609276 0 0.13839874016969389 -0.024205398177381911 0 0.1482479430989522 -0.019876809272412071 0 0.14247354517605859 -0.033215041379840479 0 0.1482479430989522 -0.019876809272412071 0 0.14247354517605859 -0.033215041379840479 0 0.1673217154536728 -0.029318240536167849 0 0.13839874016969389 -0.024205398177381911 0 0.1482479430989522 -0.019876809272412071 0 0.14247354517605859 -0.033215041379840479 0 0.13839874016969389 -0.024205398177381911 0 0.1482479430989522 -0.019876809272412071 0 0.1378535172181547 -0.012522851114620179 0 0.13839874016969389 -0.024205398177381911 0 0.1482479430989522 -0.019876809272412071 0 0.1561550467802324 -0.039423528755743231 0 0.14247354517605859 -0.033215041379840479 0 0.1673217154536728 -0.029318240536167849 0 0.14247354517605859 -0.033215041379840479 0 0.1673217154536728 -0.029318240536167849 0 0.1561550467802324 -0.039423528755743231 0 0.14247354517605859 -0.033215041379840479 0 0.14563008883668771 -0.053234014130103272 0 0.11281417740379721 -0.037866355664418441 0 0.14247354517605859 -0.033215041379840479 0 0.11281417740379721 -0.037866355664418441 0 0.14247354517605859 -0.033215041379840479 0 0.13172589994884221 -0.058040934670003222 0 0.11281417740379721 -0.037866355664418441 0 0.13839874016969389 -0.024205398177381911 0 0.14247354517605859 -0.033215041379840479 0 0.14247354517605859 -0.033215041379840479 0 0.13172589994884221 -0.058040934670003222 0 0.14247354517605859 -0.033215041379840479 0 0.13172589994884221 -0.058040934670003222 0 0.14563008883668771 -0.053234014130103272 0 0.13983341075789141 -0.068785326075662498 0 0.13172589994884221 -0.058040934670003222 0 0.14563008883668771 -0.053234014130103272 0 0.1580912292930067 -0.069220958501148788 0 0.14563008883668771 -0.053234014130103272 0 0.1623774474297156 -0.05515902740787778 0 0.14563008883668771 -0.053234014130103272 0 0.16919483765451021 -0.04192681897685871 0 0.14563008883668771 -0.053234014130103272 0 0.1623774474297156 -0.05515902740787778 0 0.16919483765451021 -0.04192681897685871 0 0.1580912292930067 -0.069220958501148788 0 0.1623774474297156 -0.05515902740787778 0 0.1716897414112411 -0.061723287548456109 0 0.1623774474297156 -0.05515902740787778 0 0.17110390253770871 -0.052609278838107697 0 0.16919483765451021 -0.04192681897685871 0 0.1623774474297156 -0.05515902740787778 0 0.17110390253770871 -0.052609278838107697 0 0.1716897414112411 -0.061723287548456109 0 0.17110390253770871 -0.052609278838107697 0 0.1716897414112411 -0.061723287548456109 0 0.18115358365536791 -0.051627981419238252 0 0.18481170982967171 -0.067676730807396973 0 0.1716897414112411 -0.061723287548456109 0 0.18115358365536791 -0.051627981419238252 0 0.18481170982967171 -0.067676730807396973 0 0.18115358365536791 -0.051627981419238252 0 0.19634308251299201 -0.062207971871565688 0 0.17110390253770871 -0.052609278838107697 0 0.18115358365536791 -0.051627981419238252 0 0.16919483765451021 -0.04192681897685871 0 0.18115358365536791 -0.051627981419238252 0 0.16919483765451021 -0.04192681897685871 0 0.19275958647233299 -0.03061962382361447 0 0.16919483765451021 -0.04192681897685871 0 0.1673217154536728 -0.029318240536167849 0 0.19275958647233299 -0.03061962382361447 0 0.16919483765451021 -0.04192681897685871 0 0.19275958647233299 -0.03061962382361447 0 0.1561550467802324 -0.039423528755743231 0 0.16919483765451021 -0.04192681897685871 0 0.1673217154536728 -0.029318240536167849 0 0.1561550467802324 -0.039423528755743231 0 0.14563008883668771 -0.053234014130103272 0 0.16919483765451021 -0.04192681897685871 0 0.1482479430989522 -0.019876809272412071 0 0.1673217154536728 -0.029318240536167849 0 0.168866438714389 -0.01081526469878645 0 0.1673217154536728 -0.029318240536167849 0 0.168866438714389 -0.01081526469878645 0 0.19216988573128629 -0.025421439692492449 0 0.1673217154536728 -0.029318240536167849 0 0.19216988573128629 -0.025421439692492449 0 0.19275958647233299 -0.03061962382361447 0 0.1673217154536728 -0.029318240536167849 0 0.19216988573128629 -0.025421439692492449 0 0.168866438714389 -0.01081526469878645 0 0.1894849343298263 -0.0017537201251617909 0 0.19216988573128629 -0.025421439692492449 0 0.168866438714389 -0.01081526469878645 0 0.1894849343298263 -0.0017537201251617909 0 0.17427265032816189 0.0062943587249405077 0 0.168866438714389 -0.01081526469878645 0 0.1894849343298263 -0.0017537201251617909 0 0.1482479430989522 -0.019876809272412071 0 0.168866438714389 -0.01081526469878645 0 0.17427265032816189 0.0062943587249405077 0 0.1579507192313461 0.0025355498805747921 0 0.168866438714389 -0.01081526469878645 0 0.1579507192313461 0.0025355498805747921 0 0.1482479430989522 -0.019876809272412071 0 0.168866438714389 -0.01081526469878645 0 0.21638436253333779 0.010068207731140181 0 0.2083029964389638 -0.0070788741920749356 0 0.2272738753587025 -0.0034298001956333431 0 0.2083029964389638 -0.0070788741920749356 0 0.21838690647803219 -0.018322734482704651 0 0.2272738753587025 -0.0034298001956333431 0 0.2083029964389638 -0.0070788741920749356 0 0.19977415589163469 -0.014253582951450071 0 0.20913880706646509 -0.02276029779608138 0 0.1894849343298263 -0.0017537201251617909 0 0.19977415589163469 -0.014253582951450071 0 0.19216988573128629 -0.025421439692492449 0 0.2083029964389638 -0.0070788741920749356 0 0.1894849343298263 -0.0017537201251617909 0 0.19977415589163469 -0.014253582951450071 0 0.1894849343298263 -0.0017537201251617909 0 0.19216988573128629 -0.025421439692492449 0 0.19216988573128629 -0.025421439692492449 0 0.20913880706646509 -0.02276029779608138 0 0.19275958647233299 -0.03061962382361447 0 0.20913880706646509 -0.02276029779608138 0 0.20595459348747791 -0.03712145286389805 0 0.19216988573128629 -0.025421439692492449 0 0.19275958647233299 -0.03061962382361447 0 0.20913880706646509 -0.02276029779608138 0 0.19977415589163469 -0.014253582951450071 0 0.19216988573128629 -0.025421439692492449 0 0.20913880706646509 -0.02276029779608138 0 0.19275958647233299 -0.03061962382361447 0 0.20913880706646509 -0.02276029779608138 0 0.19216988573128629 -0.025421439692492449 0 0.19275958647233299 -0.03061962382361447 0 0.2083029964389638 -0.0070788741920749356 0 0.20913880706646509 -0.02276029779608138 0 0.21838690647803219 -0.018322734482704651 0 0.20913880706646509 -0.02276029779608138 0 0.21838690647803219 -0.018322734482704651 0 0.20913880706646509 -0.02276029779608138 0 0.20595459348747791 -0.03712145286389805 0 0.2218984106255398 -0.03674520791791587 0 0.20595459348747791 -0.03712145286389805 0 0.2092026749394417 -0.052750415175054119 0 0.2218984106255398 -0.03674520791791587 0 0.20595459348747791 -0.03712145286389805 0 0.1945513344926631 -0.046413797847590012 0 0.2092026749394417 -0.052750415175054119 0 0.19275958647233299 -0.03061962382361447 0 0.20595459348747791 -0.03712145286389805 0 0.1945513344926631 -0.046413797847590012 0 0.18115358365536791 -0.051627981419238252 0 0.19275958647233299 -0.03061962382361447 0 0.1945513344926631 -0.046413797847590012 0 0.19275958647233299 -0.03061962382361447 0 0.1945513344926631 -0.046413797847590012 0 0.18115358365536791 -0.051627981419238252 0 0.1945513344926631 -0.046413797847590012 0 0.19634308251299201 -0.062207971871565688 0 0.1945513344926631 -0.046413797847590012 0 0.19634308251299201 -0.062207971871565688 0 0.2092026749394417 -0.052750415175054119 0 0.1945513344926631 -0.046413797847590012 0 0.19634308251299201 -0.062207971871565688 0 0.2092026749394417 -0.052750415175054119 0 0.2281935913887615 -0.051438326942707967 0 0.21552096976519991 -0.069375333037005743 0 0.19634308251299201 -0.062207971871565688 0 0.2092026749394417 -0.052750415175054119 0 0.21552096976519991 -0.069375333037005743 0 0.2092026749394417 -0.052750415175054119 0 0.2281935913887615 -0.051438326942707967 0 0.2218984106255398 -0.03674520791791587 0 0.25614171351425058 -0.057605891013993667 0 0.2281935913887615 -0.051438326942707967 0 0.24403893135934571 -0.037256147821468667 0 0.25614171351425058 -0.057605891013993667 0 0.2281935913887615 -0.051438326942707967 0 0.23627725293254651 -0.070464987920239364 0 0.2281935913887615 -0.051438326942707967 0 0.24403893135934571 -0.037256147821468667 0 0.2218984106255398 -0.03674520791791587 0 0.20913880706646509 -0.02276029779608138 0 0.23568338412272111 -0.018597458878268708 0 0.24403893135934571 -0.037256147821468667 0 0.2218984106255398 -0.03674520791791587 0 0.23568338412272111 -0.018597458878268708 0 0.20913880706646509 -0.02276029779608138 0 0.21838690647803219 -0.018322734482704651 0 0.23568338412272111 -0.018597458878268708 0 0.20913880706646509 -0.02276029779608138 0 0.2218984106255398 -0.03674520791791587 0 0.23568338412272111 -0.018597458878268708 0 0.26222796117897867 -0.01443461996046645 0 0.23568338412272111 -0.018597458878268708 0 0.26222796117897867 -0.01443461996046645 0 0.24403893135934571 -0.037256147821468667 0 0.23568338412272111 -0.018597458878268708 0 0.24502883806765671 0.008523642691556723 0 0.26222796117897867 -0.01443461996046645 0 0.23568338412272111 -0.018597458878268708 0 0.24502883806765671 0.008523642691556723 0 0.23568338412272111 -0.018597458878268708 0 0.2272738753587025 -0.0034298001956333431 0 0.21838690647803219 -0.018322734482704651 0 0.23568338412272111 -0.018597458878268708 0 0.2272738753587025 -0.0034298001956333431 0 0.20540889828322151 -0.10142466887451269 0 0.20347837142517819 -0.09216645516700113 0 0.22897962942591391 -0.091776685827334115 0 0.20540889828322151 -0.10142466887451269 0 0.22897962942591391 -0.091776685827334115 0 0.20540889828322151 -0.10142466887451269 0 0.20242655532676829 -0.09879575750060697 0 0.20347837142517819 -0.09216645516700113 0 0.20540889828322151 -0.10142466887451269 0 0.20347837142517819 -0.09216645516700113 0 0.20540889828322151 -0.10142466887451269 0 0.20960941033162209 -0.1215690341616736 0 0.19751347352090301 -0.1073792985966727 0 0.20540889828322151 -0.10142466887451269 0 0.20960941033162209 -0.1215690341616736 0 0.20540889828322151 -0.10142466887451269 0 0.20960941033162209 -0.1215690341616736 0 0.2245211551662093 -0.111110891200297 0 0.20960941033162209 -0.1215690341616736 0 0.19219412566717939 -0.1176653685476937 0 0.19663385095045691 -0.1340444436335366 0 0.20960941033162209 -0.1215690341616736 0 0.19219412566717939 -0.1176653685476937 0 0.19751347352090301 -0.1073792985966727 0 0.19219412566717939 -0.1176653685476937 0 0.18826566950959309 -0.1072515470169968 0 0.19751347352090301 -0.1073792985966727 0 0.18826566950959309 -0.1072515470169968 0 0.19751347352090301 -0.1073792985966727 0 0.19288381683700581 -0.099013186369109427 0 0.1823941263112423 -0.099771960353851274 0 0.18826566950959309 -0.1072515470169968 0 0.19288381683700581 -0.099013186369109427 0 0.19751347352090301 -0.1073792985966727 0 0.19954311593638749 -0.1020108342101758 0 0.19288381683700581 -0.099013186369109427 0 0.20540889828322151 -0.10142466887451269 0 0.19751347352090301 -0.1073792985966727 0 0.19954311593638749 -0.1020108342101758 0 0.19890727225034921 -0.096700927837444647 0 0.19288381683700581 -0.099013186369109427 0 0.1951315163850097 -0.088190863327025804 0 0.20242655532676829 -0.09879575750060697 0 0.19890727225034921 -0.096700927837444647 0 0.20347837142517819 -0.09216645516700113 0 0.19954311593638749 -0.1020108342101758 0 0.20242655532676829 -0.09879575750060697 0 0.19890727225034921 -0.096700927837444647 0 0.20540889828322151 -0.10142466887451269 0 0.19954311593638749 -0.1020108342101758 0 0.20242655532676829 -0.09879575750060697 0 0.19954311593638749 -0.1020108342101758 0 0.19890727225034921 -0.096700927837444647 0 0.19288381683700581 -0.099013186369109427 0 0.1870186982903321 -0.080678624554962997 0 0.18708874051528279 -0.091313536493609834 0 0.1951315163850097 -0.088190863327025804 0 0.18708874051528279 -0.091313536493609834 0 0.19288381683700581 -0.099013186369109427 0 0.1951315163850097 -0.088190863327025804 0 0.1870186982903321 -0.080678624554962997 0 0.1951315163850097 -0.088190863327025804 0 0.20038214361396001 -0.07556911874832746 0 0.1951315163850097 -0.088190863327025804 0 0.20038214361396001 -0.07556911874832746 0 0.2092981835950469 -0.082493302700044152 0 0.19890727225034921 -0.096700927837444647 0 0.1951315163850097 -0.088190863327025804 0 0.20347837142517819 -0.09216645516700113 0 0.1951315163850097 -0.088190863327025804 0 0.20347837142517819 -0.09216645516700113 0 0.2092981835950469 -0.082493302700044152 0 0.18481170982967171 -0.067676730807396973 0 0.19634308251299201 -0.062207971871565688 0 0.20038214361396001 -0.07556911874832746 0 0.18481170982967171 -0.067676730807396973 0 0.1870186982903321 -0.080678624554962997 0 0.20038214361396001 -0.07556911874832746 0 0.19634308251299201 -0.062207971871565688 0 0.20038214361396001 -0.07556911874832746 0 0.21552096976519991 -0.069375333037005743 0 0.20038214361396001 -0.07556911874832746 0 0.21552096976519991 -0.069375333037005743 0 0.2092981835950469 -0.082493302700044152 0 0.20347837142517819 -0.09216645516700113 0 0.2092981835950469 -0.082493302700044152 0 0.22897962942591391 -0.091776685827334115 0 0.21552096976519991 -0.069375333037005743 0 0.2092981835950469 -0.082493302700044152 0 0.22897962942591391 -0.091776685827334115 0 0.2281935913887615 -0.051438326942707967 0 0.21552096976519991 -0.069375333037005743 0 0.23627725293254651 -0.070464987920239364 0 0.21552096976519991 -0.069375333037005743 0 0.22897962942591391 -0.091776685827334115 0 0.23627725293254651 -0.070464987920239364 0 0.25255036056860641 -0.082128702780155355 0 0.25614171351425058 -0.057605891013993667 0 0.23627725293254651 -0.070464987920239364 0 0.25255036056860641 -0.082128702780155355 0 0.22897962942591391 -0.091776685827334115 0 0.23627725293254651 -0.070464987920239364 0 0.25255036056860641 -0.082128702780155355 0 0.22897962942591391 -0.091776685827334115 0 0.25255036056860641 -0.082128702780155355 0 0.22897962942591391 -0.091776685827334115 0 0.24916261720829391 -0.1128410760226309 0 0.22897962942591391 -0.091776685827334115 0 0.2245211551662093 -0.111110891200297 0 0.24916261720829391 -0.1128410760226309 0 0.20540889828322151 -0.10142466887451269 0 0.22897962942591391 -0.091776685827334115 0 0.2245211551662093 -0.111110891200297 0 0.20960941033162209 -0.1215690341616736 0 0.2245211551662093 -0.111110891200297 0 0.2294452205819951 -0.12794299111533369 0 0.2245211551662093 -0.111110891200297 0 0.24916261720829391 -0.1128410760226309 0 0.2294452205819951 -0.12794299111533369 0 0.24916261720829391 -0.1128410760226309 0 0.24384523969761221 -0.14863354701755199 0 0.2294452205819951 -0.12794299111533369 0 0.24384523969761221 -0.14863354701755199 0 0.21380992238002369 -0.1417133994488344 0 0.2180104344284243 -0.16185776473599539 0 0.24384523969761221 -0.14863354701755199 0 0.2180104344284243 -0.16185776473599539 0 0.24384523969761221 -0.14863354701755199 0 0.2294452205819951 -0.12794299111533369 0 0.21380992238002369 -0.1417133994488344 0 0.20960941033162209 -0.1215690341616736 0 0.21380992238002369 -0.1417133994488344 0 0.19663385095045691 -0.1340444436335366 0 0.20960941033162209 -0.1215690341616736 0 0.2294452205819951 -0.12794299111533369 0 0.21380992238002369 -0.1417133994488344 0 0.20960941033162209 -0.1215690341616736 0 0.21380992238002369 -0.1417133994488344 0 0.21380992238002369 -0.1417133994488344 0 0.2013779497845499 -0.15379387858282129 0 0.2180104344284243 -0.16185776473599539 0 0.21380992238002369 -0.1417133994488344 0 0.2180104344284243 -0.16185776473599539 0 0.21380992238002369 -0.1417133994488344 0 0.2013779497845499 -0.15379387858282129 0 0.19663385095045691 -0.1340444436335366 0 0.2013779497845499 -0.15379387858282129 0 0.19663385095045691 -0.1340444436335366 0 0.17859111471201719 -0.14226858924969871 0 0.2013779497845499 -0.15379387858282129 0 0.17859111471201719 -0.14226858924969871 0 0.19219412566717939 -0.1176653685476937 0 0.19663385095045691 -0.1340444436335366 0 0.182022956505311 -0.1273449289036277 0 0.19958609295615001 -0.1712887436193041 0 0.2006224909986751 -0.18986371226117729 0 0.17918744399911579 -0.18386343756749071 0 0.2013779497845499 -0.15379387858282129 0 0.19958609295615001 -0.1712887436193041 0 0.18048734692316329 -0.16221665802066121 0 0.19958609295615001 -0.1712887436193041 0 0.2180104344284243 -0.16185776473599539 0 0.2013779497845499 -0.15379387858282129 0 0.19958609295615001 -0.1712887436193041 0 0.2180104344284243 -0.16185776473599539 0 0.19958609295615001 -0.1712887436193041 0 0.2180104344284243 -0.16185776473599539 0 0.22281003446497841 -0.18487517196028511 0 0.19958609295615001 -0.1712887436193041 0 0.22281003446497841 -0.18487517196028511 0 0.2006224909986751 -0.18986371226117729 0 0.22281003446497841 -0.18487517196028511 0 0.23570096642844829 -0.1722258792539898 0 0.24002367982415451 -0.19374267904470141 0 0.2180104344284243 -0.16185776473599539 0 0.22281003446497841 -0.18487517196028511 0 0.2180104344284243 -0.16185776473599539 0 0.22281003446497841 -0.18487517196028511 0 0.23570096642844829 -0.1722258792539898 0 0.24384523969761221 -0.14863354701755199 0 0.2180104344284243 -0.16185776473599539 0 0.23570096642844829 -0.1722258792539898 0 0.25706624972303532 -0.17543805633142839 0 0.24384523969761221 -0.14863354701755199 0 0.23570096642844829 -0.1722258792539898 0 0.25706624972303532 -0.17543805633142839 0 0.23570096642844829 -0.1722258792539898 0 0.24002367982415451 -0.19374267904470141 0 0.25071911215742437 -0.20927805116274709 0 0.25474998502698032 -0.19691874005317461 0 0.24002367982415451 -0.19374267904470141 0 0.24002367982415451 -0.19374267904470141 0 0.23964594955867069 -0.21305705247066661 0 0.22760963450153149 -0.20789257918457499 0 0.25071911215742437 -0.20927805116274709 0 0.24002367982415451 -0.19374267904470141 0 0.23964594955867069 -0.21305705247066661 0 0.25071911215742437 -0.20927805116274709 0 0.23964594955867069 -0.21305705247066661 0 0.2474680867721589 -0.22346196655244499 0 0.22760963450153149 -0.20789257918457499 0 0.2324092345380846 -0.2309099864088649 0 0.2172926040389781 -0.21383878327938241 0 0.23964594955867069 -0.21305705247066661 0 0.22760963450153149 -0.20789257918457499 0 0.2324092345380846 -0.2309099864088649 0 0.22760963450153149 -0.20789257918457499 0 0.2152960022182086 -0.19845111230496201 0 0.2172926040389781 -0.21383878327938241 0 0.22281003446497841 -0.18487517196028511 0 0.22760963450153149 -0.20789257918457499 0 0.2152960022182086 -0.19845111230496201 0 0.22281003446497841 -0.18487517196028511 0 0.24002367982415451 -0.19374267904470141 0 0.22760963450153149 -0.20789257918457499 0 0.22281003446497841 -0.18487517196028511 0 0.22760963450153149 -0.20789257918457499 0 0.2538276387990735 -0.243986156319283 0 0.2448903888819314 -0.25274008289494182 0 0.24490165686425211 -0.23528228860034259 0 0.2448903888819314 -0.25274008289494182 0 0.2355561727938057 -0.24422168856868201 0 0.24490165686425211 -0.23528228860034259 0 0.2355561727938057 -0.24422168856868201 0 0.24490165686425211 -0.23528228860034259 0 0.2324092345380846 -0.2309099864088649 0 0.23964594955867069 -0.21305705247066661 0 0.2474680867721589 -0.22346196655244499 0 0.2324092345380846 -0.2309099864088649 0 0.24490165686425211 -0.23528228860034259 0 0.2474680867721589 -0.22346196655244499 0 0.2324092345380846 -0.2309099864088649 0 0.25700636866691529 -0.23229792619875059 0 0.24490165686425211 -0.23528228860034259 0 0.2474680867721589 -0.22346196655244499 0 0.22760963450153149 -0.20789257918457499 0 0.2324092345380846 -0.2309099864088649 0 0.2324092345380846 -0.2309099864088649 0 0.21494616059445251 -0.23041102710637271 0 0.2172926040389781 -0.21383878327938241 0 0.2324092345380846 -0.2309099864088649 0 0.22036553595057129 -0.24563164019566869 0 0.21494616059445251 -0.23041102710637271 0 0.2355561727938057 -0.24422168856868201 0 0.2324092345380846 -0.2309099864088649 0 0.22036553595057129 -0.24563164019566869 0 0.23102541472123911 -0.25599355796250051 0 0.2355561727938057 -0.24422168856868201 0 0.22036553595057129 -0.24563164019566869 0 0.22036553595057129 -0.24563164019566869 0 0.21494616059445251 -0.23041102710637271 0 0.20176664847045861 -0.23953523052850459 0 0.20456781783476069 -0.25396670583710529 0 0.22036553595057129 -0.24563164019566869 0 0.20176664847045861 -0.23953523052850459 0 0.21494616059445251 -0.23041102710637271 0 0.2028374203940165 -0.22282397125293019 0 0.20176664847045861 -0.23953523052850459 0 0.21494616059445251 -0.23041102710637271 0 0.2028374203940165 -0.22282397125293019 0 0.2172926040389781 -0.21383878327938241 0 0.2028374203940165 -0.22282397125293019 0 0.20176664847045861 -0.23953523052850459 0 0.180860691138753 -0.229284827934296 0 0.2028374203940165 -0.22282397125293019 0 0.19243212961953191 -0.20935490071974269 0 0.180860691138753 -0.229284827934296 0 0.20456781783476069 -0.25396670583710529 0 0.1786538332685523 -0.25460290197261742 0 0.20176664847045861 -0.23953523052850459 0 0.22281003446497841 -0.18487517196028511 0 0.2152960022182086 -0.19845111230496201 0 0.2006224909986751 -0.18986371226117729 0 0.2172926040389781 -0.21383878327938241 0 0.19243212961953191 -0.20935490071974269 0 0.2152960022182086 -0.19845111230496201 0 0.2172926040389781 -0.21383878327938241 0 0.19243212961953191 -0.20935490071974269 0 0.2028374203940165 -0.22282397125293019 0 0.2172926040389781 -0.21383878327938241 0 0.19243212961953191 -0.20935490071974269 0 0.19243212961953191 -0.20935490071974269 0 0.2006224909986751 -0.18986371226117729 0 0.17918744399911579 -0.18386343756749071 0 0.2152960022182086 -0.19845111230496201 0 0.19243212961953191 -0.20935490071974269 0 0.2006224909986751 -0.18986371226117729 0 0.19243212961953191 -0.20935490071974269 0 0.1675716552000856 -0.20487101816010289 0 0.17918744399911579 -0.18386343756749071 0 0.19243212961953191 -0.20935490071974269 0 0.1675716552000856 -0.20487101816010289 0 0.180860691138753 -0.229284827934296 0 0.19243212961953191 -0.20935490071974269 0 0.1675716552000856 -0.20487101816010289 0 0.1675716552000856 -0.20487101816010289 0 0.180860691138753 -0.229284827934296 0 0.15233523535079951 -0.21949393654088839 0 0.1675716552000856 -0.20487101816010289 0 0.15865281233934739 -0.1879987783120862 0 0.14271118078063949 -0.20038713560046309 0 0.1675716552000856 -0.20487101816010289 0 0.15865281233934739 -0.1879987783120862 0 0.17918744399911579 -0.18386343756749071 0 0.1786538332685523 -0.25460290197261742 0 0.20176664847045861 -0.23953523052850459 0 0.180860691138753 -0.229284827934296 0 0.180860691138753 -0.229284827934296 0 0.1557025531150017 -0.2413313336981292 0 0.15233523535079951 -0.21949393654088839 0 0.1786538332685523 -0.25460290197261742 0 0.180860691138753 -0.229284827934296 0 0.1557025531150017 -0.2413313336981292 0 0.1786538332685523 -0.25460290197261742 0 0.1557025531150017 -0.2413313336981292 0 0.1557025531150017 -0.2413313336981292 0 0.13275127296145109 -0.22805976542364101 0 0.13475341233392191 -0.24985250807845871 0 0.1557025531150017 -0.2413313336981292 0 0.13275127296145109 -0.22805976542364101 0 0.1557025531150017 -0.2413313336981292 0 0.15233523535079951 -0.21949393654088839 0 0.13275127296145109 -0.22805976542364101 0 0.15233523535079951 -0.21949393654088839 0 0.13275127296145109 -0.22805976542364101 0 0.1370014246331587 -0.21394691032012511 0 0.1154050387073919 -0.2358942627654679 0 0.13275127296145109 -0.22805976542364101 0 0.13475341233392191 -0.24985250807845871 0 0.1675716552000856 -0.20487101816010289 0 0.14271118078063949 -0.20038713560046309 0 0.15865281233934739 -0.1879987783120862 0 0.14271118078063949 -0.20038713560046309 0 0.1436852153571099 -0.18149983091375249 0 0.1675716552000856 -0.20487101816010289 0 0.15233523535079951 -0.21949393654088839 0 0.14271118078063949 -0.20038713560046309 0 0.15233523535079951 -0.21949393654088839 0 0.14271118078063949 -0.20038713560046309 0 0.1370014246331587 -0.21394691032012511 0 0.12020800943974461 -0.20784680371550801 0 0.14271118078063949 -0.20038713560046309 0 0.1370014246331587 -0.21394691032012511 0 0.12020800943974461 -0.20784680371550801 0 0.13275127296145109 -0.22805976542364101 0 0.1370014246331587 -0.21394691032012511 0 0.11785070636119339 -0.19590325304082329 0 0.12020800943974461 -0.20784680371550801 0 0.14271118078063949 -0.20038713560046309 0 0.11785070636119339 -0.19590325304082329 0 0.14271118078063949 -0.20038713560046309 0 0.11785070636119339 -0.19590325304082329 0 0.14271118078063949 -0.20038713560046309 0 0.12988750288688269 -0.18741504762509861 0 0.14271118078063949 -0.20038713560046309 0 0.12988750288688269 -0.18741504762509861 0 0.1436852153571099 -0.18149983091375249 0 0.12988750288688269 -0.18741504762509861 0 0.126570689701412 -0.17556766332277421 0 0.1436852153571099 -0.18149983091375249 0 0.126570689701412 -0.17556766332277421 0 0.1436852153571099 -0.18149983091375249 0 0.14041619973235189 -0.16727514079493491 0 0.1436852153571099 -0.18149983091375249 0 0.14041619973235189 -0.16727514079493491 0 0.16010856635978629 -0.16937246931862179 0 0.15865281233934739 -0.1879987783120862 0 0.1436852153571099 -0.18149983091375249 0 0.16010856635978629 -0.16937246931862179 0 0.14041619973235189 -0.16727514079493491 0 0.1471208766721411 -0.15145285098596889 0 0.16010856635978629 -0.16937246931862179 0 0.126570689701412 -0.17556766332277421 0 0.125390862628938 -0.15657497428360451 0 0.14041619973235189 -0.16727514079493491 0 0.125390862628938 -0.15657497428360451 0 0.14041619973235189 -0.16727514079493491 0 0.1471208766721411 -0.15145285098596889 0 0.123482910852498 -0.13777490984151949 0 0.125390862628938 -0.15657497428360451 0 0.13773546937481559 -0.13778397400650461 0 0.125390862628938 -0.15657497428360451 0 0.13773546937481559 -0.13778397400650461 0 0.1471208766721411 -0.15145285098596889 0 0.123482910852498 -0.13777490984151949 0 0.133017444566952 -0.1192180105834534 0 0.13773546937481559 -0.13778397400650461 0 0.133017444566952 -0.1192180105834534 0 0.13773546937481559 -0.13778397400650461 0 0.15580427963948459 -0.13074329991657599 0 0.13773546937481559 -0.13778397400650461 0 0.15580427963948459 -0.13074329991657599 0 0.1471208766721411 -0.15145285098596889 0 0.15580427963948459 -0.13074329991657599 0 0.1471208766721411 -0.15145285098596889 0 0.16407291372736091 -0.1527128297860304 0 0.15580427963948459 -0.13074329991657599 0 0.16407291372736091 -0.1527128297860304 0 0.17859111471201719 -0.14226858924969871 0 0.15580427963948459 -0.13074329991657599 0 0.17859111471201719 -0.14226858924969871 0 0.15580427963948459 -0.13074329991657599 0 0.182022956505311 -0.1273449289036277 0 0.17859111471201719 -0.14226858924969871 0 0.19663385095045691 -0.1340444436335366 0 0.182022956505311 -0.1273449289036277 0 0.17859111471201719 -0.14226858924969871 0 0.2013779497845499 -0.15379387858282129 0 0.17859111471201719 -0.14226858924969871 0 0.18048734692316329 -0.16221665802066121 0 0.16407291372736091 -0.1527128297860304 0 0.17859111471201719 -0.14226858924969871 0 0.18048734692316329 -0.16221665802066121 0 0.18048734692316329 -0.16221665802066121 0 0.17918744399911579 -0.18386343756749071 0 0.16010856635978629 -0.16937246931862179 0 0.19958609295615001 -0.1712887436193041 0 0.18048734692316329 -0.16221665802066121 0 0.17918744399911579 -0.18386343756749071 0 0.15865281233934739 -0.1879987783120862 0 0.17918744399911579 -0.18386343756749071 0 0.16010856635978629 -0.16937246931862179 0 0.1471208766721411 -0.15145285098596889 0 0.16407291372736091 -0.1527128297860304 0 0.16010856635978629 -0.16937246931862179 0 0.16407291372736091 -0.1527128297860304 0 0.18048734692316329 -0.16221665802066121 0 0.16010856635978629 -0.16937246931862179 0 
</DataArray>
</Points>
<Cells>
<DataArray type="UInt32" Name="connectivity" format="ascii">
0 1 2 3 4 5 6 7 8 9 10 11 12 13 14 15 16 17 18 19 20 21 22 23 24 25 26 27 28 29 30 31 32 33 34 35 36 37 38 39 40 41 42 43 44 45 46 47 48 49 50 51 52 53 54 55 56 57 58 59 60 61 62 63 64 65 66 67 68 69 70 71 72 73 74 75 76 77 78 79 80 81 82 83 84 85 86 87 88 89 90 91 92 93 94 95 96 97 98 99 100 101 102 103 104 105 106 107 108 109 110 111 112 113 114 115 116 117 118 119 120 121 122 123 124 125 126 127 128 129 130 131 132 133 134 135 136 137 138 139 140 141 142 143 144 145 146 147 148 149 150 151 152 153 154 155 156 157 158 159 160 161 162 163 164 165 166 167 168 169 170 171 172 173 174 175 176 177 178 179 180 181 182 183 184 185 186 187 188 189 190 191 192 193 194 195 196 197 198 199 200 201 202 203 204 205 206 207 208 209 210 211 212 213 214 215 216 217 218 219 220 221 222 223 224 225 226 227 228 229 230 231 232 233 234 235 236 237 238 239 240 241 242 243 244 245 246 247 248 249 250 251 252 253 254 255 256 257 258 259 260 261 262 263 264 265 266 267 268 269 270 271 272 273 274 275 276 277 278 279 280 281 282 283 284 285 286 287 288 289 290 291 292 293 294 295 296 297 298 299 300 301 302 303 304 305 306 307 308 309 310 311 312 313 314 315 316 317 318 319 320 321 322 323 324 325 326 327 328 329 330 331 332 333 334 335 336 337 338 339 340 341 342 343 344 345 346 347 348 349 350 351 352 353 354 355 356 357 358 359 360 361 362 363 364 365 366 367 368 369 370 371 372 373 374 375 376 377 378 379 380 381 382 383 384 385 386 387 388 389 390 391 392 393 394 395 396 397 398 399 400 401 402 403 404 405 406 407 408 409 410 411 412 413 414 415 416 417 418 419 420 421 422 423 424 425 426 427 428 429 430 431 432 433 434 435 436 437 438 439 440 441 442 443 444 445 446 447 448 449 450 451 452 453 454 455 456 457 458 459 460 461 462 463 464 465 466 467 468 469 470 471 472 473 474 475 476 477 478 479 480 481 482 483 484 485 486 487 488 489 490 491 492 493 494 495 496 497 498 499 500 501 502 503 504 505 506 507 508 509 510 511 512 513 514 515 516 517 518 519 520 521 522 523 524 525 526 527 528 529 530 531 532 533 534 535 536 537 538 539 540 541 542 543 544 545 546 547 548 549 550 551 552 553 554 555 556 557 558 559 560 561 562 563 564 565 566 567 568 569 570 571 572 573 574 575 576 577 578 579 580 581 582 583 584 585 586 587 588 589 590 591 592 593 594 595 596 597 598 599 600 601 602 603 604 605 606 607 608 609 610 611 612 613 614 615 616 617 618 619 620 621 622 623 624 625 626 627 628 629 630 631 632 633 634 635 636 637 638 639 640 641 642 643 644 645 646 647 648 649 650 651 652 653 654 655 656 657 658 659 660 661 662 663 664 665 666 667 668 669 670 671 672 673 674 675 676 677 678 679 680 681 682 683 684 685 686 687 688 689 690 691 692 693 694 695 696 697 698 699 700 701 702 703 704 705 706 707 708 709 710 711 712 713 714 715 716 717 718 719 720 721 722 723 724 725 726 727 728 729 730 731 732 733 734 735 736 737 738 739 740 741 742 743 744 745 746 747 748 749 750 751 752 753 754 755 756 757 758 759 760 761 762 763 764 765 766 767 768 769 770 771 772 773 774 775 776 777 778 779 780 781 782 783 784 785 786 787 788 789 790 791 792 793 794 795 796 797 798 799 800 801 802 803 804 805 806 807 808 809 810 811 812 813 814 815 816 817 818 819 820 821 822 823 824 825 826 827 828 829 830 831 832 833 834 835 836 837 838 839 840 841 842 843 844 845 846 847 848 849 850 851 852 853 854 855 856 857 858 859 860 861 862 863 864 865 866 867 868 869 870 871 872 873 874 875 876 877 878 879 880 881 882 883 884 885 886 887 888 889 890 891 892 893 894 895 896 897 898 899 900 901 902 903 904 905 906 907 908 909 910 911 912 913 914 915 916 917 918 919 920 921 922 923 924 925 926 927 928 929 930 931 932 933 934 935 936 937 938 939 940 941 942 943 944 945 946 947 948 949 950 951 952 953 954 955 956 957 958 959 960 961 962 963 964 965 966 967 968 969 970 971 972 973 974 975 976 977 978 979 980 981 982 983 984 985 986 987 988 989 990 991 992 993 994 995 996 997 998 999 1000 1001 1002 1003 1004 1005 1006 1007 1008 1009 1010 1011 1012 1013 1014 1015 1016 1017 1018 1019 1020 1021 1022 1023 1024 1025 1026 1027 1028 1029 1030 1031 1032 1033 1034 1035 1036 1037 1038 1039 1040 1041 1042 1043 1044 1045 1046 1047 1048 1049 1050 1051 1052 1053 1054 1055 1056 1057 1058 1059 1060 1061 1062 1063 1064 1065 1066 1067 1068 1069 1070 1071 1072 1073 1074 1075 1076 1077 1078 1079 1080 1081 1082 1083 1084 1085 1086 1087 1088 1089 1090 1091 1092 1093 1094 1095 1096 1097 1098 1099 1100 1101 1102 1103 1104 1105 1106 1107 1108 1109 1110 1111 1112 1113 1114 1115 1116 1117 1118 1119 1120 1121 1122 1123 1124 1125 1126 1127 1128 1129 1130 1131 1132 1133 1134 1135 1136 1137 1138 1139 1140 1141 1142 1143 1144 1145 1146 1147 1148 1149 1150 1151 1152 1153 1154 1155 1156 1157 1158 1159 1160 1161 1162 1163 1164 1165 1166 1167 1168 1169 1170 1171 1172 1173 1174 1175 1176 1177 1178 1179 1180 1181 1182 1183 1184 1185 1186 1187 1188 1189 1190 1191 1192 1193 1194 1195 1196 1197 1198 1199 1200 1201 1202 1203 1204 1205 1206 1207 1208 1209 1210 1211 1212 1213 1214 1215 1216 1217 1218 1219 1220 1221 1222 1223 1224 1225 1226 1227 1228 1229 1230 1231 1232 1233 1234 1235 1236 1237 1238 1239 1240 1241 1242 1243 1244 1245 1246 1247 1248 1249 1250 1251 1252 1253 1254 1255 1256 1257 1258 1259 1260 1261 1262 1263 1264 1265 1266 1267 1268 1269 1270 1271 1272 1273 1274 1275 1276 1277 1278 1279 1280 1281 1282 1283 1284 1285 1286 1287 1288 1289 1290 1291 1292 1293 1294 1295 1296 1297 1298 1299 1300 1301 1302 1303 1304 1305 1306 1307 1308 1309 1310 1311 1312 1313 1314 1315 1316 1317 1318 1319 1320 1321 1322 1323 1324 1325 1326 1327 1328 1329 1330 1331 1332 1333 1334 1335 1336 1337 1338 1339 1340 1341 1342 1343 1344 1345 1346 1347 1348 1349 1350 1351 1352 1353 1354 1355 1356 1357 1358 1359 1360 1361 1362 1363 1364 1365 1366 1367 1368 1369 1370 1371 1372 1373 1374 1375 1376 1377 1378 1379 1380 1381 1382 1383 1384 1385 1386 1387 1388 1389 1390 1391 1392 1393 1394 1395 1396 1397 1398 1399 1400 1401 1402 1403 1404 1405 1406 1407 1408 1409 1410 1411 1412 1413 1414 1415 1416 1417 1418 1419 1420 1421 1422 1423 1424 1425 1426 1427 1428 1429 1430 1431 1432 1433 1434 1435 1436 1437 1438 1439 1440 1441 1442 1443 1444 1445 1446 1447 1448 1449 1450 1451 1452 1453 1454 1455 1456 1457 1458 1459 1460 1461 1462 1463 1464 1465 1466 1467 1468 1469 1470 1471 1472 1473 1474 1475 1476 1477 1478 1479 1480 1481 1482 1483 1484 1485 1486 1487 1488 1489 1490 1491 1492 1493 1494 1495 1496 1497 1498 1499 1500 1501 1502 1503 1504 1505 1506 1507 1508 1509 1510 1511 1512 1513 1514 1515 1516 1517 1518 1519 1520 1521 1522 1523 1524 1525 1526 1527 1528 1529 1530 1531 1532 1533 1534 1535 1536 1537 1538 1539 1540 1541 1542 1543 1544 1545 1546 1547 1548 1549 1550 1551 1552 1553 1554 1555 1556 1557 1558 1559 1560 1561 1562 1563 1564 1565 1566 1567 1568 1569 1570 1571 1572 1573 1574 1575 1576 1577 1578 1579 1580 1581 1582 1583 1584 1585 1586 1587 1588 1589 1590 1591 1592 1593 1594 1595 1596 1597 1598 1599 1600 1601 1602 1603 1604 1605 1606 1607 1608 1609 1610 1611 1612 1613 1614 1615 1616 1617 1618 1619 1620 1621 1622 1623 1624 1625 1626 1627 1628 1629 1630 1631 1632 1633 1634 1635 1636 1637 1638 1639 1640 1641 1642 1643 1644 1645 1646 1647 1648 1649 1650 1651 1652 1653 1654 1655 1656 1657 1658 1659 1660 1661 1662 1663 1664 1665 1666 1667 1668 1669 1670 1671 1672 1673 1674 1675 1676 1677 1678 1679 1680 1681 1682 1683 1684 1685 1686 1687 1688 1689 1690 1691 1692 1693 1694 1695 1696 1697 1698 1699 1700 1701 1702 1703 1704 1705 1706 1707 1708 1709 1710 1711 1712 1713 1714 1715 1716 1717 1718 1719 1720 1721 1722 1723 1724 1725 1726 1727 1728 1729 1730 1731 1732 1733 1734 1735 1736 1737 1738 1739 1740 1741 1742 1743 1744 1745 1746 1747 1748 1749 1750 1751 1752 1753 1754 1755 1756 1757 1758 1759 1760 1761 1762 1763 1764 1765 1766 1767 1768 1769 1770 1771 1772 1773 1774 1775 1776 1777 1778 1779 1780 1781 1782 1783 1784 1785 1786 1787 1788 1789 1790 1791 1792 1793 1794 1795 1796 1797 1798 1799 1800 1801 1802 1803 1804 1805 1806 1807 1808 1809 1810 1811 1812 1813 1814 1815 1816 1817 1818 1819 1820 1821 1822 1823 1824 1825 1826 1827 1828 1829 1830 1831 1832 1833 1834 1835 1836 1837 1838 1839 1840 1841 1842 1843 1844 1845 1846 1847 1848 1849 1850 1851 1852 1853 1854 1855 1856 1857 1858 1859 1860 1861 1862 1863 1864 1865 1866 1867 1868 1869 1870 1871 1872 1873 1874 1875 1876 1877 1878 1879 1880 1881 1882 1883 1884 1885 1886 1887 1888 1889 1890 1891 1892 1893 1894 1895 1896 1897 1898 1899 1900 1901 1902 1903 1904 1905 1906 1907 1908 1909 1910 1911 1912 1913 1914 1915 1916 1917 1918 1919 1920 1921 1922 1923 1924 1925 1926 1927 1928 1929 1930 1931 1932 1933 1934 1935 1936 1937 1938 1939 1940 1941 1942 1943 1944 1945 1946 1947 1948 1949 1950 1951 1952 1953 1954 1955 1956 1957 1958 1959 1960 1961 1962 1963 1964 1965 1966 1967 1968 1969 1970 1971 1972 1973 1974 1975 1976 1977 1978 1979 1980 1981 1982 1983 1984 1985 1986 1987 1988 1989 1990 1991 1992 1993 1994 1995 1996 1997 1998 1999 2000 2001 2002 2003 2004 2005 2006 2007 2008 2009 2010 2011 2012 2013 2014 2015 2016 2017 2018 2019 2020 2021 2022 2023 2024 2025 2026 2027 2028 2029 2030 2031 2032 2033 2034 2035 2036 2037 2038 2039 2040 2041 2042 2043 2044 2045 2046 2047 2048 2049 2050 2051 2052 2053 2054 2055 2056 2057 2058 2059 2060 2061 2062 2063 2064 2065 2066 2067 2068 2069 2070 2071 2072 2073 2074 2075 2076 2077 2078 2079 2080 2081 2082 2083 2084 2085 2086 2087 2088 2089 2090 2091 2092 2093 2094 2095 2096 2097 2098 2099 2100 2101 2102 2103 2104 2105 2106 2107 2108 2109 2110 2111 2112 2113 2114 2115 2116 2117 2118 2119 2120 2121 2122 2123 2124 2125 2126 2127 2128 2129 2130 2131 2132 2133 2134 2135 2136 2137 2138 2139 2140 2141 2142 2143 2144 2145 2146 2147 2148 2149 2150 2151 2152 2153 2154 2155 2156 2157 2158 2159 2160 2161 2162 2163 2164 2165 2166 2167 2168 2169 2170 2171 2172 2173 2174 2175 2176 2177 2178 2179 2180 2181 2182 2183 2184 2185 2186 2187 2188 2189 2190 2191 2192 2193 2194 2195 2196 2197 2198 2199 2200 2201 2202 2203 2204 2205 2206 2207 2208 2209 2210 2211 2212 2213 2214 2215 2216 2217 2218 2219 2220 2221 2222 2223 2224 2225 2226 2227 2228 2229 2230 2231 2232 2233 2234 2235 2236 2237 2238 2239 2240 2241 2242 2243 2244 2245 2246 2247 2248 2249 2250 2251 2252 2253 2254 2255 2256 2257 2258 2259 2260 2261 2262 2263 2264 2265 2266 2267 2268 2269 2270 2271 2272 2273 2274 2275 2276 2277 2278 2279 2280 2281 2282 2283 2284 2285 2286 2287 2288 2289 2290 2291 2292 2293 2294 2295 2296 2297 2298 2299 2300 2301 2302 2303 2304 2305 2306 2307 2308 2309 2310 2311 2312 2313 2314 2315 2316 2317 2318 2319 2320 2321 2322 2323 2324 2325 2326 2327 2328 2329 2330 2331 2332 2333 2334 2335 2336 2337 2338 2339 2340 2341 2342 2343 2344 2345 2346 2347 2348 2349 2350 2351 2352 2353 2354 2355 2356 2357 2358 2359 2360 2361 2362 2363 2364 2365 2366 2367 2368 2369 2370 2371 2372 2373 2374 2375 2376 2377 2378 2379 2380 2381 2382 2383 2384 2385 2386 2387 2388 2389 2390 2391 2392 2393 2394 2395 2396 2397 2398 2399 2400 2401 2402 2403 2404 2405 2406 2407 2408 2409 2410 2411 2412 2413 2414 2415 2416 2417 2418 2419 2420 2421 2422 2423 2424 2425 2426 2427 2428 2429 2430 2431 2432 2433 2434 2435 2436 2437 2438 2439 2440 2441 2442 2443 2444 2445 2446 2447 2448 2449 2450 2451 2452 2453 2454 2455 2456 2457 2458 2459 2460 2461 2462 2463 2464 2465 2466 2467 2468 2469 2470 2471 2472 2473 2474 2475 2476 2477 2478 2479 2480 2481 2482 2483 2484 2485 2486 2487 2488 2489 2490 2491 2492 2493 2494 2495 2496 2497 2498 2499 2500 2501 2502 2503 2504 2505 2506 2507 2508 2509 2510 2511 2512 2513 2514 2515 2516 2517 2518 2519 2520 2521 2522 2523 2524 2525 2526 2527 2528 2529 2530 2531 2532 2533 2534 2535 2536 2537 2538 2539 2540 2541 2542 2543 2544 2545 2546 2547 2548 2549 2550 2551 2552 2553 2554 2555 2556 2557 2558 2559 2560 2561 2562 2563 2564 2565 2566 2567 2568 2569 2570 2571 2572 2573 2574 2575 2576 2577 2578 2579 2580 2581 2582 2583 2584 2585 2586 2587 2588 2589 2590 2591 2592 2593 2594 2595 2596 2597 2598 2599 2600 2601 2602 2603 2604 2605 2606 2607 2608 2609 2610 2611 2612 2613 2614 2615 2616 2617 2618 2619 2620 2621 2622 2623 2624 2625 2626 2627 2628 2629 2630 2631 2632 2633 2634 2635 2636 2637 2638 2639 2640 2641 2642 2643 2644 2645 2646 2647 2648 2649 2650 2651 2652 2653 2654 2655 2656 2657 2658 2659 2660 2661 2662 2663 2664 2665 2666 2667 2668 2669 2670 2671 2672 2673 2674 2675 2676 2677 2678 2679 2680 2681 2682 2683 2684 2685 2686 2687 2688 2689 2690 2691 2692 2693 2694 2695 2696 2697 2698 2699 2700 2701 2702 2703 2704 2705 2706 2707 2708 2709 2710 2711 2712 2713 2714 2715 2716 2717 2718 2719 2720 2721 2722 2723 2724 2725 2726 2727 2728 2729 2730 2731 2732 2733 2734 2735 2736 2737 2738 2739 2740 2741 2742 2743 2744 2745 2746 2747 2748 2749 2750 2751 2752 2753 2754 2755 2756 2757 2758 2759 2760 2761 2762 2763 2764 2765 2766 2767 2768 2769 2770 2771 2772 2773 2774 2775 2776 2777 2778 2779 2780 2781 2782 2783 2784 2785 2786 2787 2788 2789 2790 2791 2792 2793 2794 2795 2796 2797 2798 2799 2800 2801 2802 2803 2804 2805 2806 2807 2808 2809 2810 2811 2812 2813 2814 2815 2816 2817 2818 2819 2820 2821 2822 2823 2824 2825 2826 2827 2828 2829 2830 2831 2832 2833 2834 2835 2836 2837 2838 2839 2840 2841 2842 2843 2844 2845 2846 2847 2848 2849 2850 2851 2852 2853 2854 2855 2856 2857 2858 2859 2860 2861 2862 2863 2864 2865 2866 2867 2868 2869 2870 2871 2872 2873 2874 2875 2876 2877 2878 2879 2880 2881 2882 2883 2884 2885 2886 2887 2888 2889 2890 2891 2892 2893 2894 2895 2896 2897 2898 2899 2900 2901 2902 2903 2904 2905 2906 2907 2908 2909 2910 2911 2912 2913 2914 2915 2916 2917 2918 2919 2920 2921 2922 2923 2924 2925 2926 2927 2928 2929 2930 2931 2932 2933 2934 2935 2936 2937 2938 2939 2940 2941 2942 2943 2944 2945 2946 2947 2948 2949 2950 2951 2952 2953 2954 2955 2956 2957 2958 2959 2960 2961 2962 2963 2964 2965 2966 2967 2968 2969 2970 2971 2972 2973 2974 2975 2976 2977 2978 2979 2980 2981 2982 2983 2984 2985 2986 2987 2988 2989 2990 2991 2992 2993 2994 2995 2996 2997 2998 2999 3000 3001 3002 3003 3004 3005 3006 3007 3008 3009 3010 3011 3012 3013 3014 3015 3016 3017 3018 3019 3020 3021 3022 3023 3024 3025 3026 3027 3028 3029 3030 3031 3032 3033 3034 3035 3036 3037 3038 3039 3040 3041 3042 3043 3044 3045 3046 3047 3048 3049 3050 3051 3052 3053 3054 3055 3056 3057 3058 3059 3060 3061 3062 3063 3064 3065 3066 3067 3068 3069 3070 3071 3072 3073 3074 3075 3076 3077 3078 3079 3080 3081 3082 3083 3084 3085 3086 3087 3088 3089 3090 3091 3092 3093 3094 3095 3096 3097 3098 3099 3100 3101 3102 3103 3104 3105 3106 3107 3108 3109 3110 3111 3112 3113 3114 3115 3116 3117 3118 3119 3120 3121 3122 3123 3124 3125 3126 3127 3128 3129 3130 3131 3132 3133 3134 3135 3136 3137 3138 3139 3140 3141 3142 3143 3144 3145 3146 3147 3148 3149 3150 3151 3152 3153 3154 3155 3156 3157 3158 3159 3160 3161 3162 3163 3164 3165 3166 3167 3168 3169 3170 3171 3172 3173 3174 3175 3176 3177 3178 3179 3180 3181 3182 3183 3184 3185 3186 3187 3188 3189 3190 3191 3192 3193 3194 3195 3196 3197 3198 3199 3200 3201 3202 3203 3204 3205 3206 3207 3208 3209 3210 3211 3212 3213 3214 3215 3216 3217 3218 3219 3220 3221 3222 3223 3224 3225 3226 3227 3228 3229 3230 3231 3232 3233 3234 3235 3236 3237 3238 3239 3240 3241 3242 3243 3244 3245 3246 3247 3248 3249 3250 3251 3252 3253 3254 3255 3256 3257 3258 3259 3260 3261 3262 3263 3264 3265 3266 3267 3268 3269 3270 3271 3272 3273 3274 3275 3276 3277 3278 3279 3280 3281 3282 3283 3284 3285 3286 3287 3288 3289 3290 3291 3292 3293 3294 3295 3296 3297 3298 3299 3300 3301 3302 3303 3304 3305 3306 3307 3308 3309 3310 3311 3312 3313 3314 3315 3316 3317 3318 3319 3320 3321 3322 3323 3324 3325 3326 3327 3328 3329 3330 3331 3332 3333 3334 3335 3336 3337 3338 3339 3340 3341 3342 3343 3344 3345 3346 3347 3348 3349 3350 3351 3352 3353 3354 3355 3356 3357 3358 3359 3360 3361 3362 3363 3364 3365 3366 3367 3368 3369 3370 3371 3372 3373 3374 3375 3376 3377 3378 3379 3380 3381 3382 3383 3384 3385 3386 3387 3388 3389 3390 3391 3392 3393 3394 3395 3396 3397 3398 3399 3400 3401 3402 3403 3404 3405 3406 3407 3408 3409 3410 3411 3412 3413 3414 3415 3416 3417 3418 3419 3420 3421 3422 3423 3424 3425 3426 3427 3428 3429 3430 3431 3432 3433 3434 3435 3436 3437 3438 3439 3440 3441 3442 3443 3444 3445 3446 3447 3448 3449 3450 3451 3452 3453 3454 3455 3456 3457 3458 3459 3460 3461 3462 3463 3464 3465 3466 3467 3468 3469 3470 3471 3472 3473 3474 3475 3476 3477 3478 3479 3480 3481 3482 3483 3484 3485 3486 3487 3488 3489 3490 3491 3492 3493 3494 3495 3496 3497 3498 3499 3500 3501 3502 3503 3504 3505 3506 3507 3508 3509 3510 3511 3512 3513 3514 3515 3516 3517 3518 3519 3520 3521 3522 3523 3524 3525 3526 3527 3528 3529 3530 3531 3532 3533 3534 3535 3536 3537 3538 3539 3540 3541 3542 3543 3544 3545 3546 3547 3548 3549 3550 3551 3552 3553 3554 3555 3556 3557 3558 3559 3560 3561 3562 3563 3564 3565 3566 3567 3568 3569 3570 3571 3572 3573 3574 3575 3576 3577 3578 3579 3580 3581 3582 3583 3584 3585 3586 3587 3588 3589 3590 3591 3592 3593 3594 3595 3596 3597 3598 3599 3600 3601 3602 3603 3604 3605 3606 3607 3608 3609 3610 3611 3612 3613 3614 3615 3616 3617 3618 3619 3620 3621 3622 3623 3624 3625 3626 3627 3628 3629 3630 3631 3632 3633 3634 3635 3636 3637 3638 3639 3640 3641 3642 3643 3644 3645 3646 3647 3648 3649 3650 3651 3652 3653 3654 3655 3656 3657 3658 3659 3660 3661 3662 3663 3664 3665 3666 3667 3668 3669 3670 3671 3672 3673 3674 3675 3676 3677 3678 3679 3680 3681 3682 3683 3684 3685 3686 3687 3688 3689 3690 3691 3692 3693 3694 3695 3696 3697 3698 3699 3700 3701 3702 3703 3704 3705 3706 3707 3708 3709 3710 3711 3712 3713 3714 3715 3716 3717 3718 3719 3720 3721 3722 3723 3724 3725 3726 3727 3728 3729 3730 3731 3732 3733 3734 3735 3736 3737 3738 3739 3740 3741 3742 3743 3744 3745 3746 3747 3748 3749 3750 3751 3752 3753 3754 3755 3756 3757 3758 3759 3760 3761 3762 3763 3764 3765 3766 3767 3768 3769 3770 3771 3772 3773 3774 3775 3776 3777 3778 3779 3780 3781 3782 3783 3784 3785 3786 3787 3788 3789 3790 3791 3792 3793 3794 3795 3796 3797 3798 3799 3800 3801 3802 3803 3804 3805 3806 3807 3808 3809 3810 3811 3812 3813 3814 3815 3816 3817 3818 3819 3820 3821 3822 3823 3824 3825 3826 3827 3828 3829 3830 3831 3832 3833 3834 3835 3836 3837 3838 3839 3840 3841 3842 3843 3844 3845 3846 3847 3848 3849 3850 3851 3852 3853 3854 3855 3856 3857 3858 3859 3860 3861 3862 3863 3864 3865 3866 3867 3868 3869 3870 3871 3872 3873 3874 3875 3876 3877 3878 3879 3880 3881 3882 3883 3884 3885 3886 3887 3888 3889 3890 3891 3892 3893 3894 3895 3896 3897 3898 3899 3900 3901 3902 3903 3904 3905 3906 3907 3908 3909 3910 3911 3912 3913 3914 3915 3916 3917 3918 3919 3920 3921 3922 3923 3924 3925 3926 3927 3928 3929 3930 3931 3932 3933 3934 3935 3936 3937 3938 3939 3940 3941 3942 3943 3944 3945 3946 3947 3948 3949 3950 3951 3952 3953 3954 3955 3956 3957 3958 3959 3960 3961 3962 3963 3964 3965 3966 3967 3968 3969 3970 3971 3972 3973 3974 3975 3976 3977 3978 3979 3980 3981 3982 3983 3984 3985 3986 3987 3988 3989 3990 3991 3992 3993 3994 3995 3996 3997 3998 3999 4000 4001 4002 4003 4004 4005 4006 4007 4008 4009 4010 4011 4012 4013 4014 4015 4016 4017 4018 4019 4020 4021 4022 4023 4024 4025 4026 4027 4028 4029 4030 4031 4032 4033 4034 4035 4036 4037 4038 4039 4040 4041 4042 4043 4044 4045 4046 4047 4048 4049 4050 4051 4052 4053 4054 4055 4056 4057 4058 4059 4060 4061 4062 4063 4064 4065 4066 4067 4068 4069 4070 4071 4072 4073 4074 4075 4076 4077 4078 4079 4080 4081 4082 4083 4084 4085 4086 4087 4088 4089 4090 4091 4092 4093 4094 4095 4096 4097 4098 4099 4100 4101 4102 4103 4104 4105 4106 4107 4108 4109 4110 4111 4112 4113 4114 4115 4116 4117 4118 4119 4120 4121 4122 4123 4124 4125 4126 4127 4128 4129 4130 4131 4132 4133 4134 4135 4136 4137 4138 4139 4140 4141 4142 4143 4144 4145 4146 4147 4148 4149 4150 4151 4152 4153 4154 4155 4156 4157 4158 4159 4160 4161 4162 4163 4164 4165 4166 4167 4168 4169 4170 4171 4172 4173 4174 4175 4176 4177 4178 4179 4180 4181 4182 4183 4184 4185 4186 4187 4188 4189 4190 4191 4192 4193 4194 4195 4196 4197 4198 4199 4200 4201 4202 4203 4204 4205 4206 4207 4208 4209 4210 4211 4212 4213 4214 4215 4216 4217 4218 4219 4220 4221 4222 4223 4224 4225 4226 4227 4228 4229 4230 4231 4232 4233 4234 4235 4236 4237 4238 4239 4240 4241 4242 4243 4244 4245 4246 4247 4248 4249 4250 4251 4252 4253 4254 4255 4256 4257 4258 4259 4260 4261 4262 4263 4264 4265 4266 4267 4268 4269 4270 4271 4272 4273 4274 4275 4276 4277 4278 4279 4280 4281 4282 4283 4284 4285 4286 4287 4288 4289 4290 4291 4292 4293 4294 4295 4296 4297 4298 4299 4300 4301 4302 4303 4304 4305 4306 4307 4308 4309 4310 4311 4312 4313 4314 4315 4316 4317 4318 4319 4320 4321 4322 4323 4324 4325 4326 4327 4328 4329 4330 4331 4332 4333 4334 4335 4336 4337 4338 4339 4340 4341 4342 4343 4344 4345 4346 4347 4348 4349 4350 4351 4352 4353 4354 4355 4356 4357 4358 4359 4360 4361 4362 4363 4364 4365 4366 4367 4368 4369 4370 4371 4372 4373 4374 4375 4376 4377 4378 4379 4380 4381 4382 4383 4384 4385 4386 4387 4388 4389 4390 4391 4392 4393 4394 4395 4396 4397 4398 4399 4400 4401 4402 4403 4404 4405 4406 4407 4408 4409 4410 4411 4412 4413 4414 4415 4416 4417 4418 4419 4420 4421 4422 4423 4424 4425 4426 4427 4428 4429 4430 4431 4432 4433 4434 4435 4436 4437 4438 4439 4440 4441 4442 4443 4444 4445 4446 4447 4448 4449 4450 4451 4452 4453 4454 4455 4456 4457 4458 4459 4460 4461 4462 4463 4464 4465 4466 4467 4468 4469 4470 4471 4472 4473 4474 4475 4476 4477 4478 4479 4480 4481 4482 4483 4484 4485 4486 4487 4488 4489 4490 4491 4492 4493 4494 4495 4496 4497 4498 4499 4500 4501 4502 4503 4504 4505 4506 4507 4508 4509 4510 4511 4512 4513 4514 4515 4516 4517 4518 4519 4520 4521 4522 4523 4524 4525 4526 4527 4528 4529 4530 4531 4532 4533 4534 4535 4536 4537 4538 4539 4540 4541 4542 4543 4544 4545 4546 4547 4548 4549 4550 4551 4552 4553 4554 4555 4556 4557 4558 4559 4560 4561 4562 4563 4564 4565 4566 4567 4568 4569 4570 4571 4572 4573 4574 4575 4576 4577 4578 4579 4580 4581 4582 4583 4584 4585 4586 4587 4588 4589 4590 4591 4592 4593 4594 4595 4596 4597 4598 4599 4600 4601 4602 4603 4604 4605 4606 4607 4608 4609 4610 4611 4612 4613 4614 4615 4616 4617 4618 4619 4620 4621 4622 4623 4624 4625 4626 4627 4628 4629 4630 4631 4632 4633 4634 4635 4636 4637 4638 4639 4640 4641 4642 4643 4644 4645 4646 4647 4648 4649 4650 4651 4652 4653 4654 4655 4656 4657 4658 4659 4660 4661 4662 4663 4664 4665 4666 4667 4668 4669 4670 4671 4672 4673 4674 4675 4676 4677 4678 4679 4680 4681 4682 4683 4684 4685 4686 4687 4688 4689 4690 4691 4692 4693 4694 4695 4696 4697 4698 4699 4700 4701 4702 4703 4704 4705 4706 4707 4708 4709 4710 4711 4712 4713 4714 4715 4716 4717 4718 4719 4720 4721 4722 4723 4724 4725 4726 4727 4728 4729 4730 4731 4732 4733 4734 4735 4736 4737 4738 4739 4740 4741 4742 4743 4744 4745 4746 4747 4748 4749 4750 4751 4752 4753 4754 4755 4756 4757 4758 4759 4760 4761 4762 4763 4764 4765 4766 4767 4768 4769 4770 4771 4772 4773 4774 4775 4776 4777 4778 4779 4780 4781 4782 4783 4784 4785 4786 4787 4788 4789 4790 4791 4792 4793 4794 4795 4796 4797 4798 4799 4800 4801 4802 4803 4804 4805 4806 4807 4808 4809 4810 4811 4812 4813 4814 4815 4816 4817 4818 4819 4820 4821 4822 4823 4824 4825 4826 4827 4828 4829 4830 4831 4832 4833 4834 4835 4836 4837 4838 4839 4840 4841 4842 4843 4844 4845 4846 4847 4848 4849 4850 4851 4852 4853 4854 4855 4856 4857 4858 4859 4860 4861 4862 4863 4864 4865 4866 4867 4868 4869 4870 4871 4872 4873 4874 4875 4876 4877 4878 4879 4880 4881 4882 4883 4884 4885 4886 4887 4888 4889 4890 4891 4892 4893 4894 4895 4896 4897 4898 4899 4900 4901 4902 4903 4904 4905 4906 4907 4908 4909 4910 4911 4912 4913 4914 4915 4916 4917 4918 4919 4920 4921 4922 4923 4924 4925 4926 4927 4928 4929 4930 4931 4932 4933 4934 4935 4936 4937 4938 4939 4940 4941 4942 4943 4944 4945 4946 4947 4948 4949 4950 4951 4952 4953 4954 4955 4956 4957 4958 4959 4960 4961 4962 4963 4964 4965 4966 4967 4968 4969 4970 4971 4972 4973 4974 4975 4976 4977 4978 4979 4980 4981 4982 4983 4984 4985 4986 4987 4988 4989 4990 4991 4992 4993 4994 4995 4996 4997 4998 4999 5000 5001 5002 5003 5004 5005 5006 5007 5008 5009 5010 5011 5012 5013 5014 5015 5016 5017 5018 5019 5020 5021 5022 5023 5024 5025 5026 5027 5028 5029 5030 5031 5032 5033 5034 5035 5036 5037 5038 5039 5040 5041 5042 5043 5044 5045 5046 5047 5048 5049 5050 5051 5052 5053 5054 5055 5056 5057 5058 5059 5060 5061 5062 5063 5064 5065 5066 5067 5068 5069 5070 5071 5072 5073 5074 5075 5076 5077 5078 5079 5080 5081 5082 5083 5084 5085 5086 5087 5088 5089 5090 5091 5092 5093 5094 5095 5096 5097 5098 5099 5100 5101 5102 5103 5104 5105 5106 5107 5108 5109 5110 5111 5112 5113 5114 5115 5116 5117 5118 5119 5120 5121 5122 5123 5124 5125 5126 5127 5128 5129 5130 5131 5132 5133 5134 5135 5136 5137 5138 5139 5140 5141 5142 5143 5144 5145 5146 5147 5148 5149 5150 5151 5152 5153 5154 5155 5156 5157 5158 5159 5160 5161 5162 5163 5164 5165 5166 5167 5168 5169 5170 5171 5172 5173 5174 5175 5176 5177 5178 5179 5180 5181 5182 5183 5184 5185 5186 5187 5188 5189 5190 5191 5192 5193 5194 5195 5196 5197 5198 5199 5200 5201 5202 5203 5204 5205 5206 5207 5208 5209 5210 5211 5212 5213 5214 5215 5216 5217 5218 5219 5220 5221 5222 5223 5224 5225 5226 5227 5228 5229 5230 5231 5232 5233 5234 5235 5236 5237 5238 5239 5240 5241 5242 5243 5244 5245 5246 5247 5248 5249 5250 5251 5252 5253 5254 5255 5256 5257 5258 5259 5260 5261 5262 5263 5264 5265 5266 5267 5268 5269 5270 5271 5272 5273 5274 5275 5276 5277 5278 5279 5280 5281 5282 5283 5284 5285 5286 5287 5288 5289 5290 5291 5292 5293 5294 5295 5296 5297 5298 5299 5300 5301 5302 5303 5304 5305 5306 5307 5308 5309 5310 5311 5312 5313 5314 5315 5316 5317 5318 5319 5320 5321 5322 5323 5324 5325 5326 5327 5328 5329 5330 5331 5332 5333 5334 5335 5336 5337 5338 5339 5340 5341 5342 5343 5344 5345 5346 5347 5348 5349 5350 5351 5352 5353 5354 5355 5356 5357 5358 5359 5360 5361 5362 5363 5364 5365 5366 5367 5368 5369 5370 5371 5372 5373 5374 5375 5376 5377 5378 5379 5380 5381 5382 5383 5384 5385 5386 5387 5388 5389 5390 5391 5392 5393 5394 5395 5396 5397 5398 5399 5400 5401 5402 5403 5404 5405 5406 5407 5408 5409 5410 5411 5412 5413 5414 5415 5416 5417 5418 5419 5420 5421 5422 5423 5424 5425 5426 5427 5428 5429 5430 5431 5432 5433 5434 5435 5436 5437 5438 5439 5440 5441 5442 5443 5444 5445 5446 5447 5448 5449 5450 5451 5452 5453 5454 5455 5456 5457 5458 5459 5460 5461 5462 5463 5464 5465 5466 5467 5468 5469 5470 5471 5472 5473 5474 5475 5476 5477 5478 5479 5480 5481 5482 5483 5484 5485 5486 5487 5488 5489 5490 5491 5492 5493 5494 5495 5496 5497 5498 5499 5500 5501 5502 5503 5504 5505 5506 5507 5508 5509 5510 5511 5512 5513 5514 5515 5516 5517 5518 5519 5520 5521 5522 5523 5524 5525 5526 5527 5528 5529 5530 5531 5532 5533 5534 5535 5536 5537 5538 5539 5540 5541 5542 5543 5544 5545 5546 5547 5548 5549 5550 5551 5552 5553 5554 5555 5556 5557 5558 5559 5560 5561 5562 5563 5564 5565 5566 5567 5568 5569 5570 5571 5572 5573 5574 5575 5576 5577 5578 5579 5580 5581 5582 5583 5584 5585 5586 5587 5588 5589 5590 5591 5592 5593 5594 5595 5596 5597 5598 5599 5600 5601 5602 5603 5604 5605 5606 5607 5608 5609 5610 5611 5612 5613 5614 5615 5616 5617 5618 5619 5620 5621 5622 5623 5624 5625 5626 5627 5628 5629 5630 5631 5632 5633 5634 5635 5636 5637 5638 5639 5640 5641 5642 5643 5644 5645 5646 5647 5648 5649 5650 5651 5652 5653 5654 5655 5656 5657 5658 5659 5660 5661 5662 5663 5664 5665 5666 5667 5668 5669 5670 5671 5672 5673 5674 5675 5676 5677 5678 5679 5680 5681 5682 5683 5684 5685 5686 5687 5688 5689 5690 5691 5692 5693 5694 5695 5696 5697 5698 5699 5700 5701 5702 5703 5704 5705 5706 5707 5708 5709 5710 5711 5712 5713 5714 5715 5716 5717 5718 5719 5720 5721 5722 5723 5724 5725 5726 5727 5728 5729 5730 5731 5732 5733 5734 5735 5736 5737 5738 5739 5740 5741 5742 5743 5744 5745 5746 5747 5748 5749 5750 5751 5752 5753 5754 5755 5756 5757 5758 5759 5760 5761 5762 5763 5764 5765 5766 5767 5768 5769 5770 5771 5772 5773 5774 5775 5776 5777 5778 5779 5780 5781 5782 5783 5784 5785 5786 5787 5788 5789 5790 5791 5792 5793 5794 5795 5796 5797 5798 5799 5800 5801 5802 5803 5804 5805 5806 5807 5808 5809 5810 5811 5812 5813 5814 5815 5816 5817 5818 5819 5820 5821 5822 5823 5824 5825 5826 5827 5828 5829 5830 5831 5832 5833 5834 5835 5836 5837 5838 5839 5840 5841 5842 5843 5844 5845 5846 5847 5848 5849 5850 5851 5852 5853 5854 5855 5856 5857 5858 5859 5860 5861 5862 5863 5864 5865 5866 5867 5868 5869 5870 5871 5872 5873 5874 5875 5876 5877 5878 5879 5880 5881 5882 5883 5884 5885 5886 5887 5888 5889 5890 5891 5892 5893 5894 5895 5896 5897 5898 5899 5900 5901 5902 5903 5904 5905 5906 5907 5908 5909 5910 5911 5912 5913 5914 5915 5916 5917 5918 5919 5920 5921 5922 5923 5924 5925 5926 5927 5928 5929 5930 5931 5932 5933 5934 5935 5936 5937 5938 5939 5940 5941 5942 5943 5944 5945 5946 5947 5948 5949 5950 5951 5952 5953 5954 5955 5956 5957 5958 5959 5960 5961 5962 5963 5964 5965 5966 5967 5968 5969 5970 5971 5972 5973 5974 5975 5976 5977 5978 5979 5980 5981 5982 5983 5984 5985 5986 5987 5988 5989 5990 5991 5992 5993 5994 5995 5996 5997 5998 5999 6000 6001 6002 6003 6004 6005 6006 6007 6008 6009 6010 6011 6012 6013 6014 6015 6016 6017 6018 6019 6020 6021 6022 6023 6024 6025 6026 6027 6028 6029 6030 6031 6032 6033 6034 6035 6036 6037 6038 6039 6040 6041 6042 6043 6044 6045 6046 6047 6048 6049 6050 6051 6052 6053 6054 6055 6056 6057 6058 6059 6060 6061 6062 6063 6064 6065 6066 6067 6068 6069 6070 6071 6072 6073 6074 6075 6076 6077 6078 6079 6080 6081 6082 6083 6084 6085 6086 6087 6088 6089 6090 6091 6092 6093 6094 6095 6096 6097 6098 6099 6100 6101 6102 6103 6104 6105 6106 6107 6108 6109 6110 6111 6112 6113 6114 6115 6116 6117 6118 6119 6120 6121 6122 6123 6124 6125 6126 6127 6128 6129 6130 6131 6132 6133 6134 6135 6136 6137 6138 6139 6140 6141 6142 6143 6144 6145 6146 6147 6148 6149 6150 6151 6152 6153 6154 6155 6156 6157 6158 6159 6160 6161 6162 6163 6164 6165 6166 6167 6168 6169 6170 6171 6172 6173 6174 6175 6176 6177 6178 6179 6180 6181 6182 6183 6184 6185 6186 6187 6188 6189 6190 6191 6192 6193 6194 6195 6196 6197 6198 6199 6200 6201 6202 6203 6204 6205 6206 6207 6208 6209 6210 6211 6212 6213 6214 6215 6216 6217 6218 6219 6220 6221 6222 6223 6224 6225 6226 6227 6228 6229 6230 6231 6232 6233 6234 6235 6236 6237 6238 6239 6240 6241 6242 6243 6244 6245 6246 6247 6248 6249 6250 6251 6252 6253 6254 6255 6256 6257 6258 6259 6260 6261 6262 6263 6264 6265 6266 6267 6268 6269 6270 6271 6272 6273 6274 6275 6276 6277 6278 6279 6280 6281 6282 6283 6284 6285 6286 6287 6288 6289 6290 6291 6292 6293 6294 6295 6296 6297 6298 6299 6300 6301 6302 6303 6304 6305 6306 6307 6308 6309 6310 6311 6312 6313 6314 6315 6316 6317 6318 6319 6320 6321 6322 6323 6324 6325 6326 6327 6328 6329 6330 6331 6332 6333 6334 6335 6336 6337 6338 6339 6340 6341 6342 6343 6344 6345 6346 6347 6348 6349 6350 6351 6352 6353 6354 6355 6356 6357 6358 6359 6360 6361 6362 6363 6364 6365 6366 6367 6368 6369 6370 6371 6372 6373 6374 6375 6376 6377 6378 6379 6380 6381 6382 6383 6384 6385 6386 6387 6388 6389 6390 6391 6392 6393 6394 6395 6396 6397 6398 6399 6400 6401 6402 6403 6404 6405 6406 6407 6408 6409 6410 6411 6412 6413 6414 6415 6416 6417 6418 6419 6420 6421 6422 6423 6424 6425 6426 6427 6428 6429 6430 6431 6432 6433 6434 6435 6436 6437 6438 6439 6440 6441 6442 6443 6444 6445 6446 6447 6448 6449 6450 6451 6452 6453 6454 6455 6456 6457 6458 6459 6460 6461 6462 6463 6464 6465 6466 6467 6468 6469 6470 6471 6472 6473 6474 6475 6476 6477 6478 6479 6480 6481 6482 6483 6484 6485 6486 6487 6488 6489 6490 6491 6492 6493 6494 6495 6496 6497 6498 6499 6500 6501 6502 6503 6504 6505 6506 6507 6508 6509 6510 6511 6512 6513 6514 6515 6516 6517 6518 6519 6520 6521 6522 6523 6524 6525 6526 6527 6528 6529 6530 6531 6532 6533 6534 6535 6536 6537 6538 6539 6540 6541 6542 6543 6544 6545 6546 6547 6548 6549 6550 6551 6552 6553 6554 6555 6556 6557 6558 6559 6560 6561 6562 6563 6564 6565 6566 6567 6568 6569 6570 6571 6572 6573 6574 6575 6576 6577 6578 6579 6580 6581 6582 6583 6584 6585 6586 6587 6588 6589 6590 6591 6592 6593 6594 6595 6596 6597 6598 6599 6600 6601 6602 6603 6604 6605 6606 6607 6608 6609 6610 6611 6612 6613 6614 6615 6616 6617 6618 6619 6620 6621 6622 6623 6624 6625 6626 6627 6628 6629 6630 6631 6632 6633 6634 6635 6636 6637 6638 6639 6640 6641 6642 6643 6644 6645 6646 6647 6648 6649 6650 6651 6652 6653 6654 6655 6656 6657 6658 6659 6660 6661 6662 6663 6664 6665 6666 6667 6668 6669 6670 6671 6672 6673 6674 6675 6676 6677 6678 6679 6680 6681 6682 6683 6684 6685 6686 6687 6688 6689 6690 6691 6692 6693 6694 6695 6696 6697 6698 6699 6700 6701 6702 6703 6704 6705 6706 6707 6708 6709 6710 6711 6712 6713 6714 6715 6716 6717 6718 6719 6720 6721 6722 6723 6724 6725 6726 6727 6728 6729 6730 6731 6732 6733 6734 6735 6736 6737 6738 6739 6740 6741 6742 6743 6744 6745 6746 6747 6748 6749 6750 6751 6752 6753 6754 6755 6756 6757 6758 6759 6760 6761 6762 6763 6764 6765 6766 6767 6768 6769 6770 6771 6772 6773 6774 6775 6776 6777 6778 6779 6780 6781 6782 6783 6784 6785 6786 6787 6788 6789 6790 6791 6792 6793 6794 6795 6796 6797 6798 6799 6800 6801 6802 6803 6804 6805 6806 6807 6808 6809 6810 6811 6812 6813 6814 6815 6816 6817 6818 6819 6820 6821 6822 6823 6824 6825 6826 6827 6828 6829 6830 6831 6832 6833 6834 6835 6836 6837 6838 6839 6840 6841 6842 6843 6844 6845 6846 6847 6848 6849 6850 6851 6852 6853 6854 6855 6856 6857 6858 6859 6860 6861 6862 6863 6864 6865 6866 6867 6868 6869 6870 6871 6872 6873 6874 6875 6876 6877 6878 6879 6880 6881 6882 6883 6884 6885 6886 6887 6888 6889 6890 6891 6892 6893 6894 6895 6896 6897 6898 6899 6900 6901 6902 6903 6904 6905 6906 6907 6908 6909 6910 6911 6912 6913 6914 6915 6916 6917 6918 6919 6920 6921 6922 6923 6924 6925 6926 6927 6928 6929 6930 6931 6932 6933 6934 6935 6936 6937 6938 6939 6940 6941 6942 6943 6944 6945 6946 6947 6948 6949 6950 6951 6952 6953 6954 6955 6956 6957 6958 6959 6960 6961 6962 6963 6964 6965 6966 6967 6968 6969 6970 6971 6972 6973 6974 6975 6976 6977 6978 6979 6980 6981 6982 6983 6984 6985 6986 6987 6988 6989 6990 6991 6992 6993 6994 6995 6996 6997 6998 6999 7000 7001 7002 7003 7004 7005 7006 7007 7008 7009 7010 7011 7012 7013 7014 7015 7016 7017 7018 7019 7020 7021 7022 7023 7024 7025 7026 7027 7028 7029 7030 7031 7032 7033 7034 7035 7036 7037 7038 7039 7040 7041 7042 7043 7044 7045 7046 7047 7048 7049 7050 7051 7052 7053 7054 7055 7056 7057 7058 7059 7060 7061 7062 7063 7064 7065 7066 7067 7068 7069 7070 7071 7072 7073 7074 7075 7076 7077 7078 7079 7080 7081 7082 7083 7084 7085 7086 7087 7088 7089 7090 7091 7092 7093 7094 7095 7096 7097 7098 7099 7100 7101 7102 7103 7104 7105 7106 7107 7108 7109 7110 7111 7112 7113 7114 7115 7116 7117 7118 7119 7120 7121 7122 7123 7124 7125 7126 7127 7128 7129 7130 7131 7132 7133 7134 7135 7136 7137 7138 7139 7140 7141 7142 7143 7144 7145 7146 7147 7148 7149 7150 7151 7152 7153 7154 7155 7156 7157 7158 7159 7160 7161 7162 7163 7164 7165 7166 7167 7168 7169 7170 7171 7172 7173 7174 7175 7176 7177 7178 7179 7180 7181 7182 7183 7184 7185 7186 7187 7188 7189 7190 7191 7192 7193 7194 7195 7196 7197 7198 7199 7200 7201 7202 7203 7204 7205 7206 7207 7208 7209 7210 7211 7212 7213 7214 7215 7216 7217 7218 7219 7220 7221 7222 7223 7224 7225 7226 7227 7228 7229 7230 7231 7232 7233 7234 7235 7236 7237 7238 7239 7240 7241 7242 7243 7244 7245 7246 7247 7248 7249 7250 7251 7252 7253 7254 7255 7256 7257 7258 7259 7260 7261 7262 7263 7264 7265 7266 7267 7268 7269 7270 7271 7272 7273 7274 7275 7276 7277 7278 7279 7280 7281 7282 7283 7284 7285 7286 7287 7288 7289 7290 7291 7292 7293 7294 7295 7296 7297 7298 7299 7300 7301 7302 7303 7304 7305 7306 7307 7308 7309 7310 7311 7312 7313 7314 7315 7316 7317 7318 7319 7320 7321 7322 7323 7324 7325 7326 7327 7328 7329 7330 7331 7332 7333 7334 7335 7336 7337 7338 7339 7340 7341 7342 7343 7344 7345 7346 7347 7348 7349 7350 7351 7352 7353 7354 7355 7356 7357 7358 7359 7360 7361 7362 7363 7364 7365 7366 7367 7368 7369 7370 7371 7372 7373 7374 7375 7376 7377 7378 7379 7380 7381 7382 7383 7384 7385 7386 7387 7388 7389 7390 7391 7392 7393 7394 7395 7396 7397 7398 7399 7400 7401 7402 7403 7404 7405 7406 7407 7408 7409 7410 7411 7412 7413 7414 7415 7416 7417 7418 7419 7420 7421 7422 7423 7424 7425 7426 7427 7428 7429 7430 7431 7432 7433 7434 7435 7436 7437 7438 7439 7440 7441 7442 7443 7444 7445 7446 7447 7448 7449 7450 7451 7452 7453 7454 7455 7456 7457 7458 7459 7460 7461 7462 7463 7464 7465 7466 7467 7468 7469 7470 7471 7472 7473 7474 7475 7476 7477 7478 7479 7480 7481 7482 7483 7484 7485 7486 7487 7488 7489 7490 7491 7492 7493 7494 7495 7496 7497 7498 7499 7500 7501 7502 7503 7504 7505 7506 7507 7508 7509 7510 7511 7512 7513 7514 7515 7516 7517 7518 7519 7520 7521 7522 7523 7524 7525 7526 7527 7528 7529 7530 7531 7532 7533 7534 7535 7536 7537 7538 7539 7540 7541 7542 7543 7544 7545 7546 7547 7548 7549 7550 7551 7552 7553 7554 7555 7556 7557 7558 7559 7560 7561 7562 7563 7564 7565 7566 7567 7568 7569 7570 7571 7572 7573 7574 7575 7576 7577 7578 7579 7580 7581 7582 7583 7584 7585 7586 7587 7588 7589 7590 7591 7592 7593 7594 7595 7596 7597 7598 7599 7600 7601 7602 7603 7604 7605 7606 7607 7608 7609 7610 7611 7612 7613 7614 7615 7616 7617 7618 7619 7620 7621 7622 7623 7624 7625 7626 7627 7628 7629 7630 7631 7632 7633 7634 7635 7636 7637 7638 7639 7640 7641 7642 7643 7644 7645 7646 7647 7648 7649 7650 7651 7652 7653 7654 7655 7656 7657 7658 7659 7660 7661 7662 7663 7664 7665 7666 7667 7668 7669 7670 7671 7672 7673 7674 7675 7676 7677 7678 7679 7680 7681 7682 7683 7684 7685 7686 7687 7688 7689 7690 7691 7692 7693 7694 7695 7696 7697 7698 7699 7700 7701 7702 7703 7704 7705 7706 7707 7708 7709 7710 7711 7712 7713 7714 7715 7716 7717 7718 7719 7720 7721 7722 7723 7724 7725 7726 7727 7728 7729 7730 7731 7732 7733 7734 7735 7736 7737 7738 7739 7740 7741 7742 7743 7744 7745 7746 7747 7748 7749 7750 7751 7752 7753 7754 7755 7756 7757 7758 7759 7760 7761 7762 7763 7764 7765 7766 7767 7768 7769 7770 7771 7772 7773 7774 7775 7776 7777 7778 7779 7780 7781 7782 7783 7784 7785 7786 7787 7788 7789 7790 7791 7792 7793 7794 7795 7796 7797 7798 7799 7800 7801 7802 7803 7804 7805 7806 7807 7808 7809 7810 7811 7812 7813 7814 7815 7816 7817 7818 7819 7820 7821 7822 7823 7824 7825 7826 7827 7828 7829 7830 7831 7832 7833 7834 7835 7836 7837 7838 7839 7840 7841 7842 7843 7844 7845 7846 7847 7848 7849 7850 7851 7852 7853 7854 7855 7856 7857 7858 7859 7860 7861 7862 7863 7864 7865 7866 7867 7868 7869 7870 7871 7872 7873 7874 7875 7876 7877 7878 7879 7880 7881 7882 7883 7884 7885 7886 7887 7888 7889 7890 7891 7892 7893 7894 7895 7896 7897 7898 7899 7900 7901 7902 7903 7904 7905 7906 7907 7908 7909 7910 7911 7912 7913 7914 7915 7916 7917 7918 7919 7920 7921 7922 7923 7924 7925 7926 7927 7928 7929 7930 7931 7932 7933 7934 7935 7936 7937 7938 7939 7940 7941 7942 7943 7944 7945 7946 7947 7948 7949 7950 7951 7952 7953 7954 7955 7956 7957 7958 7959 7960 7961 7962 7963 7964 7965 7966 7967 7968 7969 7970 7971 7972 7973 7974 7975 7976 7977 7978 7979 7980 7981 7982 7983 7984 7985 7986 7987 7988 7989 7990 7991 7992 7993 7994 7995 7996 7997 7998 7999 8000 8001 8002 8003 8004 8005 8006 8007 8008 8009 8010 8011 8012 8013 8014 8015 8016 8017 8018 8019 8020 8021 8022 8023 8024 8025 8026 8027 8028 8029 8030 8031 8032 8033 8034 8035 8036 8037 8038 8039 8040 8041 8042 8043 8044 8045 8046 8047 8048 8049 8050 8051 8052 8053 8054 8055 8056 8057 8058 8059 8060 8061 8062 8063 8064 8065 8066 8067 8068 8069 8070 8071 8072 8073 8074 8075 8076 8077 8078 8079 8080 8081 8082 8083 8084 8085 8086 8087 8088 8089 8090 8091 8092 8093 8094 8095 8096 8097 8098 8099 8100 8101 8102 8103 8104 8105 8106 8107 8108 8109 8110 8111 8112 8113 8114 8115 8116 8117 8118 8119 8120 8121 8122 8123 8124 8125 8126 8127 8128 8129 8130 8131 8132 8133 8134 8135 8136 8137 8138 8139 8140 8141 8142 8143 8144 8145 8146 8147 8148 8149 8150 8151 8152 8153 8154 8155 8156 8157 8158 8159 8160 8161 8162 8163 8164 8165 8166 8167 8168 8169 8170 8171 8172 8173 8174 8175 8176 8177 8178 8179 8180 8181 8182 8183 8184 8185 8186 8187 8188 8189 8190 8191 8192 8193 8194 8195 8196 8197 8198 8199 8200 8201 8202 8203 8204 8205 8206 8207 8208 8209 8210 8211 8212 8213 8214 8215 8216 8217 8218 8219 8220 8221 8222 8223 8224 8225 8226 8227 8228 8229 8230 8231 8232 8233 8234 8235 8236 8237 8238 8239 8240 8241 8242 8243 8244 8245 8246 8247 8248 8249 8250 8251 8252 8253 8254 8255 8256 8257 8258 8259 8260 8261 8262 8263 8264 8265 8266 8267 8268 8269 8270 8271 8272 8273 8274 8275 8276 8277 8278 8279 8280 8281 8282 8283 8284 8285 8286 8287 8288 8289 8290 8291 8292 8293 8294 8295 8296 8297 8298 8299 8300 8301 8302 8303 8304 8305 8306 8307 8308 8309 8310 8311 8312 8313 8314 8315 8316 8317 8318 8319 8320 8321 8322 8323 8324 8325 8326 8327 8328 8329 8330 8331 8332 8333 8334 8335 8336 8337 8338 8339 8340 8341 8342 8343 8344 8345 8346 8347 8348 8349 8350 8351 8352 8353 8354 8355 8356 8357 8358 8359 8360 8361 8362 8363 8364 8365 8366 8367 8368 8369 8370 8371 8372 8373 8374 8375 8376 8377 8378 8379 8380 8381 8382 8383 8384 8385 8386 8387 8388 8389 8390 8391 8392 8393 8394 8395 8396 8397 8398 8399 8400 8401 8402 8403 8404 8405 8406 8407 8408 8409 8410 8411 8412 8413 8414 8415 8416 8417 8418 8419 8420 8421 8422 8423 8424 8425 8426 8427 8428 8429 8430 8431 8432 8433 8434 8435 8436 8437 8438 8439 8440 8441 8442 8443 8444 8445 8446 8447 8448 8449 8450 8451 8452 8453 8454 8455 8456 8457 8458 8459 8460 8461 8462 8463 8464 8465 8466 8467 8468 8469 8470 8471 8472 8473 8474 8475 8476 8477 8478 8479 8480 8481 8482 8483 8484 8485 8486 8487 8488 8489 8490 8491 8492 8493 8494 8495 8496 8497 8498 8499 8500 8501 8502 8503 8504 8505 8506 8507 8508 8509 8510 8511 8512 8513 8514 8515 8516 8517 8518 8519 8520 8521 8522 8523 8524 8525 8526 8527 8528 8529 8530 8531 8532 8533 8534 8535 8536 8537 8538 8539 8540 8541 8542 8543 8544 8545 8546 8547 8548 8549 8550 8551 8552 8553 8554 8555 8556 8557 8558 8559 8560 8561 8562 8563 8564 8565 8566 8567 8568 8569 8570 8571 8572 8573 8574 8575 8576 8577 8578 8579 8580 8581 8582 8583 8584 8585 8586 8587 8588 8589 8590 8591 8592 8593 8594 8595 8596 8597 8598 8599 8600 8601 8602 8603 8604 8605 8606 8607 8608 8609 8610 8611 8612 8613 8614 8615 8616 8617 8618 8619 8620 8621 8622 8623 8624 8625 8626 8627 8628 8629 8630 8631 8632 8633 8634 8635 8636 8637 8638 8639 8640 8641 8642 8643 8644 8645 8646 8647 8648 8649 8650 8651 8652 8653 8654 8655 8656 8657 8658 8659 8660 8661 8662 8663 8664 8665 8666 8667 8668 8669 8670 8671 8672 8673 8674 8675 8676 8677 8678 8679 8680 8681 8682 8683 8684 8685 8686 8687 8688 8689 8690 8691 8692 8693 8694 8695 8696 8697 8698 8699 8700 8701 8702 8703 8704 8705 8706 8707 8708 8709 8710 8711 8712 8713 8714 8715 8716 8717 8718 8719 8720 8721 8722 8723 8724 8725 8726 8727 8728 8729 8730 8731 8732 8733 8734 8735 8736 8737 8738 8739 8740 8741 8742 8743 8744 8745 8746 8747 8748 8749 8750 8751 8752 8753 8754 8755 8756 8757 8758 8759 8760 8761 8762 8763 8764 8765 8766 8767 8768 8769 8770 8771 8772 8773 8774 8775 8776 8777 8778 8779 8780 8781 8782 8783 8784 8785 8786 8787 8788 8789 8790 8791 8792 8793 8794 8795 8796 8797 8798 8799 8800 8801 8802 8803 8804 8805 8806 8807 8808 8809 8810 8811 8812 8813 8814 8815 8816 8817 8818 8819 8820 8821 8822 8823 8824 8825 8826 8827 8828 8829 8830 8831 8832 8833 8834 8835 8836 8837 8838 8839 8840 8841 8842 8843 8844 8845 8846 8847 8848 8849 8850 8851 8852 8853 8854 8855 8856 8857 8858 8859 8860 8861 8862 8863 8864 8865 8866 8867 8868 8869 8870 8871 8872 8873 8874 8875 8876 8877 8878 8879 8880 8881 8882 8883 8884 8885 8886 8887 8888 8889 8890 8891 8892 8893 8894 8895 8896 8897 8898 8899 8900 8901 8902 8903 8904 8905 8906 8907 8908 8909 8910 8911 8912 8913 8914 8915 8916 8917 8918 8919 8920 8921 8922 8923 8924 8925 8926 8927 8928 8929 8930 8931 8932 8933 8934 8935 8936 8937 8938 8939 8940 8941 8942 8943 8944 8945 8946 8947 8948 8949 8950 8951 8952 8953 8954 8955 8956 8957 8958 8959 8960 8961 8962 8963 8964 8965 8966 8967 8968 8969 8970 8971 8972 8973 8974 8975 8976 8977 8978 8979 8980 8981 8982 8983 8984 8985 8986 8987 8988 8989 8990 8991 8992 8993 8994 8995 8996 8997 8998 8999 9000 9001 9002 9003 9004 9005 9006 9007 9008 9009 9010 9011 9012 9013 9014 9015 9016 9017 9018 9019 9020 9021 9022 9023 9024 9025 9026 9027 9028 9029 9030 9031 9032 9033 9034 9035 9036 9037 9038 9039 9040 9041 9042 9043 9044 9045 9046 9047 9048 9049 9050 9051 9052 9053 9054 9055 9056 9057 9058 9059 9060 9061 9062 9063 9064 9065 9066 9067 9068 9069 9070 9071 9072 9073 9074 9075 9076 9077 9078 9079 9080 9081 9082 9083 9084 9085 9086 9087 9088 9089 9090 9091 9092 9093 9094 9095 9096 9097 9098 9099 9100 9101 9102 9103 9104 9105 9106 9107 9108 9109 9110 9111 9112 9113 9114 9115 9116 9117 9118 9119 9120 9121 9122 9123 9124 9125 9126 9127 9128 9129 9130 9131 9132 9133 9134 9135 9136 9137 9138 9139 9140 9141 9142 9143 9144 9145 9146 9147 9148 9149 9150 9151 9152 9153 9154 9155 9156 9157 9158 9159 9160 9161 9162 9163 9164 9165 9166 9167 9168 9169 9170 9171 9172 9173 9174 9175 9176 9177 9178 9179 9180 9181 9182 9183 9184 9185 9186 9187 9188 9189 9190 9191 9192 9193 9194 9195 9196 9197 9198 9199 9200 9201 9202 9203 9204 9205 9206 9207 9208 9209 9210 9211 9212 9213 9214 9215 9216 9217 9218 9219 9220 9221 9222 9223 9224 9225 9226 9227 9228 9229 9230 9231 9232 9233 9234 9235 9236 9237 9238 9239 9240 9241 9242 9243 9244 9245 9246 9247 9248 9249 9250 9251 9252 9253 9254 9255 9256 9257 9258 9259 9260 9261 9262 9263 9264 9265 9266 9267 9268 9269 9270 9271 9272 9273 9274 9275 9276 9277 9278 9279 9280 9281 9282 9283 9284 9285 9286 9287 9288 9289 9290 9291 9292 9293 9294 9295 9296 9297 9298 9299 9300 9301 9302 9303 9304 9305 9306 9307 9308 9309 9310 9311 9312 9313 9314 9315 9316 9317 9318 9319 9320 9321 9322 9323 9324 9325 9326 9327 9328 9329 9330 9331 9332 9333 9334 9335 9336 9337 9338 9339 9340 9341 9342 9343 9344 9345 9346 9347 9348 9349 9350 9351 9352 9353 9354 9355 9356 9357 9358 9359 9360 9361 9362 9363 9364 9365 9366 9367 9368 9369 9370 9371 9372 9373 9374 9375 9376 9377 9378 9379 9380 9381 9382 9383 9384 9385 9386 9387 9388 9389 9390 9391 9392 9393 9394 9395 9396 9397 9398 9399 9400 9401 9402 9403 9404 9405 9406 9407 9408 9409 9410 9411 9412 9413 9414 9415 9416 9417 9418 9419 9420 9421 9422 9423 9424 9425 9426 9427 9428 9429 9430 9431 9432 9433 9434 9435 9436 9437 9438 9439 9440 9441 9442 9443 9444 9445 9446 9447 9448 9449 9450 9451 9452 9453 9454 9455 9456 9457 9458 9459 9460 9461 9462 9463 9464 9465 9466 9467 9468 9469 9470 9471 9472 9473 9474 9475 9476 9477 9478 9479 9480 9481 9482 9483 9484 9485 9486 9487 9488 9489 9490 9491 9492 9493 9494 9495 9496 9497 9498 9499 9500 9501 9502 9503 9504 9505 9506 9507 9508 9509 9510 9511 9512 9513 9514 9515 9516 9517 9518 9519 9520 9521 9522 9523 9524 9525 9526 9527 9528 9529 9530 9531 9532 9533 9534 9535 9536 9537 9538 9539 9540 9541 9542 9543 9544 9545 9546 9547 9548 9549 9550 9551 9552 9553 9554 9555 9556 9557 9558 9559 9560 9561 9562 9563 9564 9565 9566 9567 9568 9569 9570 9571 9572 9573 9574 9575 9576 9577 9578 9579 9580 9581 9582 9583 9584 9585 9586 9587 9588 9589 9590 9591 9592 9593 9594 9595 9596 9597 9598 9599 9600 9601 9602 9603 9604 9605 9606 9607 9608 9609 9610 9611 9612 9613 9614 9615 9616 9617 9618 9619 9620 9621 9622 9623 9624 9625 9626 9627 9628 9629 9630 9631 9632 9633 9634 9635 9636 9637 9638 9639 9640 9641 9642 9643 9644 9645 9646 9647 9648 9649 9650 9651 9652 9653 9654 9655 9656 9657 9658 9659 9660 9661 9662 9663 9664 9665 9666 9667 9668 9669 9670 9671 9672 9673 9674 9675 9676 9677 9678 9679 9680 9681 9682 9683 9684 9685 9686 9687 9688 9689 9690 9691 9692 9693 9694 9695 9696 9697 9698 9699 9700 9701 9702 9703 9704 9705 9706 9707 9708 9709 9710 9711 9712 9713 9714 9715 9716 9717 9718 9719 9720 9721 9722 9723 9724 9725 9726 9727 9728 9729 9730 9731 9732 9733 9734 9735 9736 9737 9738 9739 9740 9741 9742 9743 9744 9745 9746 9747 9748 9749 9750 9751 9752 9753 9754 9755 9756 9757 9758 9759 9760 9761 9762 9763 9764 9765 9766 9767 9768 9769 9770 9771 9772 9773 9774 9775 9776 9777 9778 9779 9780 9781 9782 9783 9784 9785 9786 9787 9788 9789 9790 9791 9792 9793 9794 9795 9796 9797 9798 9799 9800 9801 9802 9803 9804 9805 9806 9807 9808 9809 9810 9811 9812 9813 9814 9815 9816 9817 9818 9819 9820 9821 9822 9823 9824 9825 9826 9827 9828 9829 9830 9831 9832 9833 9834 9835 9836 9837 9838 9839 9840 9841 9842 9843 9844 9845 9846 9847 9848 9849 9850 9851 9852 9853 9854 9855 9856 9857 9858 9859 9860 9861 9862 9863 9864 9865 9866 9867 9868 9869 9870 9871 9872 9873 9874 9875 9876 9877 9878 9879 9880 9881 9882 9883 9884 9885 9886 9887 9888 9889 9890 9891 9892 9893 9894 9895 9896 9897 9898 9899 9900 9901 9902 9903 9904 9905 9906 9907 9908 9909 9910 9911 9912 9913 9914 9915 9916 9917 9918 9919 9920 9921 9922 9923 9924 9925 9926 9927 9928 9929 9930 9931 9932 9933 9934 9935 9936 9937 9938 9939 9940 9941 9942 9943 9944 9945 9946 9947 9948 9949 9950 9951 9952 9953 9954 9955 9956 9957 9958 9959 9960 9961 9962 9963 9964 9965 9966 9967 9968 9969 9970 9971 9972 9973 9974 9975 9976 9977 9978 9979 9980 9981 9982 9983 9984 9985 9986 9987 9988 9989 9990 9991 9992 9993 9994 9995 9996 9997 9998 9999 10000 10001 10002 10003 10004 10005 10006 10007 10008 10009 10010 10011 10012 10013 10014 10015 10016 10017 10018 10019 10020 10021 10022 10023 10024 10025 10026 10027 10028 10029 10030 10031 10032 10033 10034 10035 10036 10037 10038 10039 10040 10041 10042 10043 10044 10045 10046 10047 10048 10049 10050 10051 10052 10053 10054 10055 10056 10057 10058 10059 10060 10061 10062 10063 10064 10065 10066 10067 10068 10069 10070 10071 10072 10073 10074 10075 10076 10077 10078 10079 10080 10081 10082 10083 10084 10085 10086 10087 10088 10089 10090 10091 10092 10093 10094 10095 10096 10097 10098 10099 10100 10101 10102 10103 10104 10105 10106 10107 10108 10109 10110 10111 10112 10113 10114 10115 10116 10117 10118 10119 10120 10121 10122 10123 10124 10125 10126 10127 10128 10129 10130 10131 10132 10133 10134 10135 10136 10137 10138 10139 10140 10141 10142 10143 10144 10145 10146 10147 10148 10149 10150 10151 10152 10153 10154 10155 10156 10157 10158 10159 10160 10161 10162 10163 10164 10165 10166 10167 10168 10169 10170 10171 10172 10173 10174 10175 10176 10177 10178 10179 10180 10181 10182 10183 10184 10185 10186 10187 10188 10189 10190 10191 10192 10193 10194 10195 10196 10197 10198 10199 10200 10201 10202 10203 10204 10205 10206 10207 10208 10209 10210 10211 10212 10213 10214 10215 10216 10217 10218 10219 10220 10221 10222 10223 10224 10225 10226 10227 10228 10229 10230 10231 10232 10233 10234 10235 10236 10237 10238 10239 10240 10241 10242 10243 10244 10245 10246 10247 10248 10249 10250 10251 10252 10253 10254 10255 10256 10257 10258 10259 10260 10261 10262 10263 10264 10265 10266 10267 10268 10269 10270 10271 10272 10273 10274 10275 10276 10277 10278 10279 10280 10281 10282 10283 10284 10285 10286 10287 10288 10289 10290 10291 10292 10293 10294 10295 10296 10297 10298 10299 10300 10301 10302 10303 10304 10305 10306 10307 10308 10309 10310 10311 10312 10313 10314 10315 10316 10317 10318 10319 10320 10321 10322 10323 10324 10325 10326 10327 10328 10329 10330 10331 10332 10333 10334 10335 10336 10337 10338 10339 10340 10341 10342 10343 10344 10345 10346 10347 10348 10349 10350 10351 10352 10353 10354 10355 10356 10357 10358 10359 10360 10361 10362 10363 10364 10365 10366 10367 10368 10369 10370 10371 10372 10373 10374 10375 10376 10377 10378 10379 10380 10381 10382 10383 10384 10385 10386 10387 10388 10389 10390 10391 10392 10393 10394 10395 10396 10397 10398 10399 10400 10401 10402 10403 10404 10405 10406 10407 10408 10409 10410 10411 10412 10413 10414 10415 10416 10417 10418 10419 10420 10421 10422 10423 10424 10425 10426 10427 10428 10429 10430 10431 10432 10433 10434 10435 10436 10437 10438 10439 10440 10441 10442 10443 10444 10445 10446 10447 10448 10449 10450 10451 10452 10453 10454 10455 10456 10457 10458 10459 10460 10461 10462 10463 10464 10465 10466 10467 10468 10469 10470 10471 10472 10473 10474 10475 10476 10477 10478 10479 10480 10481 10482 10483 10484 10485 10486 10487 10488 10489 10490 10491 10492 10493 10494 10495 10496 10497 10498 10499 10500 10501 10502 10503 10504 10505 10506 10507 10508 10509 10510 10511 10512 10513 10514 10515 10516 10517 10518 10519 10520 10521 10522 10523 10524 10525 10526 10527 10528 10529 10530 10531 10532 10533 10534 10535 10536 10537 10538 10539 10540 10541 10542 10543 10544 10545 10546 10547 10548 10549 10550 10551 10552 10553 10554 10555 10556 10557 10558 10559 10560 10561 10562 10563 10564 10565 10566 10567 10568 10569 10570 10571 10572 10573 10574 10575 10576 10577 10578 10579 10580 10581 10582 10583 10584 10585 10586 10587 10588 10589 10590 10591 10592 10593 10594 10595 10596 10597 10598 10599 10600 10601 10602 10603 10604 10605 10606 10607 10608 10609 10610 10611 10612 10613 10614 10615 10616 10617 10618 10619 10620 10621 10622 10623 10624 10625 10626 10627 10628 10629 10630 10631 10632 10633 10634 10635 10636 10637 10638 10639 10640 10641 10642 10643 10644 10645 10646 10647 10648 10649 10650 10651 10652 10653 10654 10655 10656 10657 10658 10659 10660 10661 10662 10663 10664 10665 10666 10667 10668 10669 10670 10671 10672 10673 10674 10675 10676 10677 10678 10679 10680 10681 10682 10683 10684 10685 10686 10687 10688 10689 10690 10691 10692 10693 10694 10695 10696 10697 10698 10699 10700 10701 10702 10703 10704 10705 10706 10707 10708 10709 10710 10711 10712 10713 10714 10715 10716 10717 10718 10719 10720 10721 10722 10723 10724 10725 10726 10727 10728 10729 10730 10731 10732 10733 10734 10735 10736 10737 10738 10739 10740 10741 10742 10743 10744 10745 10746 10747 10748 10749 10750 10751 10752 10753 10754 10755 10756 10757 10758 10759 10760 10761 10762 10763 10764 10765 10766 10767 10768 10769 10770 10771 10772 10773 10774 10775 10776 10777 10778 10779 10780 10781 10782 10783 10784 10785 10786 10787 10788 10789 10790 10791 10792 10793 10794 10795 10796 10797 10798 10799 10800 10801 10802 10803 10804 10805 10806 10807 10808 10809 10810 10811 10812 10813 10814 10815 10816 10817 10818 10819 10820 10821 10822 10823 10824 10825 10826 10827 10828 10829 10830 10831 10832 10833 10834 10835 10836 10837 10838 10839 10840 10841 10842 10843 10844 10845 10846 10847 10848 10849 10850 10851 10852 10853 10854 10855 10856 10857 10858 10859 10860 10861 10862 10863 10864 10865 10866 10867 10868 10869 10870 10871 10872 10873 10874 10875 10876 10877 10878 10879 10880 10881 10882 10883 10884 10885 10886 10887 10888 10889 10890 10891 10892 10893 10894 10895 10896 10897 10898 10899 10900 10901 10902 10903 10904 10905 10906 10907 10908 10909 10910 10911 10912 10913 10914 10915 10916 10917 10918 10919 10920 10921 10922 10923 10924 10925 10926 10927 10928 10929 10930 10931 10932 10933 10934 10935 10936 10937 10938 10939 10940 10941 10942 10943 10944 10945 10946 10947 10948 10949 10950 10951 10952 10953 10954 10955 10956 10957 10958 10959 10960 10961 10962 10963 10964 10965 10966 10967 10968 10969 10970 10971 10972 10973 10974 10975 10976 10977 10978 10979 10980 10981 10982 10983 10984 10985 10986 10987 10988 10989 10990 10991 10992 10993 10994 10995 10996 10997 10998 10999 11000 11001 11002 11003 11004 11005 11006 11007 11008 11009 11010 11011 11012 11013 11014 11015 11016 11017 11018 11019 11020 11021 11022 11023 11024 11025 11026 11027 11028 11029 11030 11031 11032 11033 11034 11035 11036 11037 11038 11039 11040 11041 11042 11043 11044 11045 11046 11047 11048 11049 11050 11051 11052 11053 11054 11055 11056 11057 11058 11059 11060 11061 11062 11063 11064 11065 11066 11067 11068 11069 11070 11071 11072 11073 11074 11075 11076 11077 11078 11079 11080 11081 11082 11083 11084 11085 11086 11087 11088 11089 11090 11091 11092 11093 11094 11095 11096 11097 11098 11099 11100 11101 11102 11103 11104 11105 11106 11107 11108 11109 11110 11111 11112 11113 11114 11115 11116 11117 11118 11119 11120 11121 11122 11123 11124 11125 11126 11127 11128 11129 11130 11131 11132 11133 11134 11135 11136 11137 11138 11139 11140 11141 11142 11143 11144 11145 11146 11147 11148 11149 11150 11151 11152 11153 11154 11155 11156 11157 11158 11159 11160 11161 11162 11163 11164 11165 11166 11167 11168 11169 11170 11171 11172 11173 11174 11175 11176 11177 11178 11179 11180 11181 11182 11183 11184 11185 11186 11187 11188 11189 11190 11191 11192 11193 11194 11195 11196 11197 11198 11199 11200 11201 11202 11203 11204 11205 11206 11207 11208 11209 11210 11211 11212 11213 11214 11215 11216 11217 11218 11219 11220 11221 11222 11223 11224 11225 11226 11227 11228 11229 11230 11231 11232 11233 11234 11235 11236 11237 11238 11239 11240 11241 11242 11243 11244 11245 11246 11247 11248 11249 11250 11251 11252 11253 11254 11255 11256 11257 11258 11259 11260 11261 11262 11263 11264 11265 11266 11267 11268 11269 11270 11271 11272 11273 11274 11275 11276 11277 11278 11279 11280 11281 11282 11283 11284 11285 11286 11287 11288 11289 11290 11291 11292 11293 11294 11295 11296 11297 11298 11299 11300 11301 11302 11303 11304 11305 11306 11307 11308 11309 11310 11311 11312 11313 11314 11315 11316 11317 11318 11319 11320 11321 11322 11323 11324 11325 11326 11327 11328 11329 11330 11331 11332 11333 11334 11335 11336 11337 11338 11339 11340 11341 11342 11343 11344 11345 11346 11347 11348 11349 11350 11351 11352 11353 11354 11355 11356 11357 11358 11359 11360 11361 11362 11363 11364 11365 11366 11367 11368 11369 11370 11371 11372 11373 11374 11375 11376 11377 11378 11379 11380 11381 11382 11383 11384 11385 11386 11387 11388 11389 11390 11391 11392 11393 11394 11395 11396 11397 11398 11399 11400 11401 11402 11403 11404 11405 11406 11407 11408 11409 11410 11411 11412 11413 11414 11415 11416 11417 11418 11419 11420 11421 11422 11423 11424 11425 11426 11427 11428 11429 11430 11431 11432 11433 11434 11435 11436 11437 11438 11439 11440 11441 11442 11443 11444 11445 11446 11447 11448 11449 11450 11451 11452 11453 11454 11455 11456 11457 11458 11459 11460 11461 11462 11463 11464 11465 11466 11467 11468 11469 11470 11471 11472 11473 11474 11475 11476 11477 11478 11479 11480 11481 11482 11483 11484 11485 11486 11487 11488 11489 11490 11491 11492 11493 11494 11495 11496 11497 11498 11499 11500 11501 11502 11503 11504 11505 11506 11507 11508 11509 11510 11511 11512 11513 11514 11515 11516 11517 11518 11519 11520 11521 11522 11523 11524 11525 11526 11527 11528 11529 11530 11531 11532 11533 11534 11535 11536 11537 11538 11539 11540 11541 11542 11543 11544 11545 11546 11547 11548 11549 11550 11551 11552 11553 11554 11555 11556 11557 11558 11559 11560 11561 11562 11563 11564 11565 11566 11567 11568 11569 11570 11571 11572 11573 11574 11575 11576 11577 11578 11579 11580 11581 11582 11583 11584 11585 11586 11587 11588 11589 11590 11591 11592 11593 11594 11595 11596 11597 11598 11599 11600 11601 11602 11603 11604 11605 11606 11607 11608 11609 11610 11611 11612 11613 11614 11615 11616 11617 11618 11619 11620 11621 11622 11623 11624 11625 11626 11627 11628 11629 11630 11631 11632 11633 11634 11635 11636 11637 11638 11639 11640 11641 11642 11643 11644 11645 11646 11647 11648 11649 11650 11651 11652 11653 11654 11655 11656 11657 11658 11659 11660 11661 11662 11663 11664 11665 11666 11667 11668 11669 11670 11671 11672 11673 11674 11675 11676 11677 11678 11679 11680 11681 11682 11683 11684 11685 11686 11687 11688 11689 11690 11691 11692 11693 11694 11695 11696 11697 11698 11699 11700 11701 11702 11703 11704 11705 11706 11707 11708 11709 11710 11711 11712 11713 11714 11715 11716 11717 11718 11719 11720 11721 11722 11723 11724 11725 11726 11727 11728 11729 11730 11731 11732 11733 11734 11735 11736 11737 11738 11739 11740 11741 11742 11743 11744 11745 11746 11747 11748 11749 11750 11751 11752 11753 11754 11755 11756 11757 11758 11759 11760 11761 11762 11763 11764 11765 11766 11767 11768 11769 11770 11771 11772 11773 11774 11775 11776 11777 11778 11779 11780 11781 11782 11783 11784 11785 11786 11787 11788 11789 11790 11791 11792 11793 11794 11795 11796 11797 11798 11799 11800 11801 11802 11803 11804 11805 11806 11807 11808 11809 11810 11811 11812 11813 11814 11815 11816 11817 11818 11819 11820 11821 11822 11823 11824 11825 11826 11827 11828 11829 11830 11831 11832 11833 11834 11835 11836 11837 11838 11839 11840 11841 11842 11843 11844 11845 11846 11847 11848 11849 11850 11851 11852 11853 11854 11855 11856 11857 11858 11859 11860 11861 11862 11863 11864 11865 11866 11867 11868 11869 11870 11871 11872 11873 11874 11875 11876 11877 11878 11879 11880 11881 11882 11883 11884 11885 11886 11887 11888 11889 11890 11891 11892 11893 11894 11895 11896 11897 11898 11899 11900 11901 11902 11903 11904 11905 11906 11907 11908 11909 11910 11911 11912 11913 11914 11915 11916 11917 11918 11919 11920 11921 11922 11923 11924 11925 11926 11927 11928 11929 11930 11931 11932 11933 11934 11935 11936 11937 11938 11939 11940 11941 11942 11943 11944 11945 11946 11947 11948 11949 11950 11951 11952 11953 11954 11955 11956 11957 11958 11959 11960 11961 11962 11963 11964 11965 11966 11967 11968 11969 11970 11971 11972 11973 11974 11975 11976 11977 11978 11979 11980 11981 11982 11983 11984 11985 11986 11987 11988 11989 11990 11991 11992 11993 11994 11995 11996 11997 11998 11999 12000 12001 12002 12003 12004 12005 12006 12007 12008 12009 12010 12011 12012 12013 12014 12015 12016 12017 12018 12019 12020 12021 12022 12023 12024 12025 12026 12027 12028 12029 12030 12031 12032 12033 12034 12035 12036 12037 12038 12039 12040 12041 12042 12043 12044 12045 12046 12047 12048 12049 12050 12051 12052 12053 12054 12055 12056 12057 12058 12059 12060 12061 12062 12063 12064 12065 12066 12067 12068 12069 12070 12071 12072 12073 12074 12075 12076 12077 12078 12079 12080 12081 12082 12083 12084 12085 12086 12087 12088 12089 12090 12091 12092 12093 12094 12095 12096 12097 12098 12099 12100 12101 12102 12103 12104 12105 12106 12107 12108 12109 12110 12111 12112 12113 12114 12115 12116 12117 12118 12119 12120 12121 12122 12123 12124 12125 12126 12127 12128 12129 12130 12131 12132 12133 12134 12135 12136 12137 12138 12139 12140 12141 12142 12143 12144 12145 12146 12147 12148 12149 12150 12151 12152 12153 12154 12155 12156 12157 12158 12159 12160 12161 12162 12163 12164 12165 12166 12167 12168 12169 12170 12171 12172 12173 12174 12175 12176 12177 12178 12179 12180 12181 12182 12183 12184 12185 12186 12187 12188 12189 12190 12191 12192 12193 12194 12195 12196 12197 12198 12199 12200 12201 12202 12203 12204 12205 12206 12207 12208 12209 12210 12211 12212 12213 12214 12215 12216 12217 12218 12219 12220 12221 12222 12223 12224 12225 12226 12227 12228 12229 12230 12231 12232 12233 12234 12235 12236 12237 12238 12239 12240 12241 12242 12243 12244 12245 12246 12247 12248 12249 12250 12251 12252 12253 12254 12255 12256 12257 12258 12259 12260 12261 12262 12263 12264 12265 12266 12267 12268 12269 12270 12271 12272 12273 12274 12275 12276 12277 12278 12279 12280 12281 12282 12283 12284 12285 12286 12287 12288 12289 12290 12291 12292 12293 12294 12295 12296 12297 12298 12299 12300 12301 12302 12303 12304 12305 12306 12307 12308 12309 12310 12311 12312 12313 12314 12315 12316 12317 12318 12319 12320 12321 12322 12323 12324 12325 12326 12327 12328 12329 12330 12331 12332 12333 12334 12335 12336 12337 12338 12339 12340 12341 12342 12343 12344 12345 12346 12347 12348 12349 12350 12351 12352 12353 12354 12355 12356 12357 12358 12359 12360 12361 12362 12363 12364 12365 12366 12367 12368 12369 12370 12371 12372 12373 12374 12375 12376 12377 12378 12379 12380 12381 12382 12383 12384 12385 12386 12387 12388 12389 12390 12391 12392 12393 12394 12395 12396 12397 12398 12399 12400 12401 12402 12403 12404 12405 12406 12407 12408 12409 12410 12411 12412 12413 12414 12415 12416 12417 12418 12419 12420 12421 12422 12423 12424 12425 12426 12427 12428 12429 12430 12431 12432 12433 12434 12435 12436 12437 12438 12439 12440 12441 12442 12443 12444 12445 12446 12447 12448 12449 12450 12451 12452 12453 12454 12455 12456 12457 12458 12459 12460 12461 12462 12463 12464 12465 12466 12467 12468 12469 12470 12471 12472 12473 12474 12475 12476 12477 12478 12479 12480 12481 12482 12483 12484 12485 12486 12487 12488 12489 12490 12491 12492 12493 12494 12495 12496 12497 12498 12499 12500 12501 12502 12503 12504 12505 12506 12507 12508 12509 12510 12511 12512 12513 12514 12515 12516 12517 12518 12519 12520 12521 12522 12523 12524 12525 12526 12527 12528 12529 12530 12531 12532 12533 12534 12535 12536 12537 12538 12539 12540 12541 12542 12543 12544 12545 12546 12547 12548 12549 12550 12551 12552 12553 12554 12555 12556 12557 12558 12559 12560 12561 12562 12563 12564 12565 12566 12567 12568 12569 12570 12571 12572 12573 12574 12575 12576 12577 12578 12579 12580 12581 12582 12583 12584 12585 12586 12587 12588 12589 12590 12591 12592 12593 12594 12595 12596 12597 12598 12599 12600 12601 12602 12603 12604 12605 12606 12607 12608 12609 12610 12611 12612 12613 12614 12615 12616 12617 12618 12619 12620 12621 12622 12623 12624 12625 12626 12627 12628 12629 12630 12631 12632 12633 12634 12635 12636 12637 12638 12639 12640 12641 12642 12643 12644 12645 12646 12647 12648 12649 12650 12651 12652 12653 12654 12655 12656 12657 12658 12659 12660 12661 12662 12663 12664 12665 12666 12667 12668 12669 12670 12671 12672 12673 12674 12675 12676 12677 12678 12679 12680 12681 12682 12683 12684 12685 12686 12687 12688 12689 12690 12691 12692 12693 12694 12695 12696 12697 12698 12699 12700 12701 12702 12703 12704 12705 12706 12707 12708 12709 12710 12711 12712 12713 12714 12715 12716 12717 12718 12719 12720 12721 12722 12723 12724 12725 12726 12727 12728 12729 12730 12731 12732 12733 12734 12735 12736 12737 12738 12739 12740 12741 12742 12743 12744 12745 12746 12747 12748 12749 12750 12751 12752 12753 12754 12755 12756 12757 12758 12759 12760 12761 12762 12763 12764 12765 12766 12767 12768 12769 12770 12771 12772 12773 12774 12775 12776 12777 12778 12779 12780 12781 12782 12783 12784 12785 12786 12787 12788 12789 12790 12791 12792 12793 12794 12795 12796 12797 12798 12799 12800 12801 12802 12803 12804 12805 12806 12807 12808 12809 12810 12811 12812 12813 12814 12815 12816 12817 12818 12819 12820 12821 12822 12823 12824 12825 12826 12827 12828 12829 12830 12831 12832 12833 12834 12835 12836 12837 12838 12839 12840 12841 12842 12843 12844 12845 12846 12847 12848 12849 12850 12851 12852 12853 12854 12855 12856 12857 12858 12859 12860 12861 12862 12863 12864 12865 12866 12867 12868 12869 12870 12871 12872 12873 12874 12875 12876 12877 12878 12879 12880 12881 12882 12883 12884 12885 12886 12887 12888 12889 12890 12891 12892 12893 12894 12895 12896 12897 12898 12899 12900 12901 12902 12903 12904 12905 12906 12907 12908 12909 12910 12911 12912 12913 12914 12915 12916 12917 12918 12919 12920 12921 12922 12923 12924 12925 12926 12927 12928 12929 12930 12931 12932 12933 12934 12935 12936 12937 12938 12939 12940 12941 12942 12943 12944 12945 12946 12947 12948 12949 12950 12951 12952 12953 12954 12955 12956 12957 12958 12959 12960 12961 12962 12963 12964 12965 12966 12967 12968 12969 12970 12971 12972 12973 12974 12975 12976 12977 12978 12979 12980 12981 12982 12983 12984 12985 12986 12987 12988 12989 12990 12991 12992 12993 12994 12995 12996 12997 12998 12999 13000 13001 13002 13003 13004 13005 13006 13007 13008 13009 13010 13011 13012 13013 13014 13015 13016 13017 13018 13019 13020 13021 13022 13023 13024 13025 13026 13027 13028 13029 13030 13031 13032 13033 13034 13035 13036 13037 13038 13039 13040 13041 13042 13043 13044 13045 13046 13047 13048 13049 13050 13051 13052 13053 13054 13055 13056 13057 13058 13059 13060 13061 13062 13063 13064 13065 13066 13067 13068 13069 13070 13071 13072 13073 13074 13075 13076 13077 13078 13079 13080 13081 13082 13083 13084 13085 13086 13087 13088 13089 13090 13091 13092 13093 13094 13095 13096 13097 13098 13099 13100 13101 13102 13103 13104 13105 13106 13107 13108 13109 13110 13111 13112 13113 13114 13115 13116 13117 13118 13119 13120 13121 13122 13123 13124 13125 13126 13127 13128 13129 13130 13131 13132 13133 13134 13135 13136 13137 13138 13139 13140 13141 13142 13143 13144 13145 13146 13147 13148 13149 13150 13151 13152 13153 13154 13155 13156 13157 13158 13159 13160 13161 13162 13163 13164 13165 13166 13167 13168 13169 13170 13171 13172 13173 13174 13175 13176 13177 13178 13179 13180 13181 13182 13183 13184 13185 13186 13187 13188 13189 13190 13191 13192 13193 13194 13195 13196 13197 13198 13199 13200 13201 13202 13203 13204 13205 13206 13207 13208 13209 13210 13211 13212 13213 13214 13215 13216 13217 13218 13219 13220 13221 13222 13223 13224 13225 13226 13227 13228 13229 13230 13231 13232 13233 13234 13235 13236 13237 13238 13239 13240 13241 13242 13243 13244 13245 13246 13247 13248 13249 13250 13251 13252 13253 13254 13255 13256 13257 13258 13259 13260 13261 13262 13263 13264 13265 13266 13267 13268 13269 13270 13271 13272 13273 13274 13275 13276 13277 13278 13279 13280 13281 13282 13283 13284 13285 13286 13287 13288 13289 13290 13291 13292 13293 13294 13295 13296 13297 13298 13299 13300 13301 13302 13303 13304 13305 13306 13307 13308 13309 13310 13311 13312 13313 13314 13315 13316 13317 13318 13319 13320 13321 13322 13323 13324 13325 13326 13327 13328 13329 13330 13331 13332 13333 13334 13335 13336 13337 13338 13339 13340 13341 13342 13343 13344 13345 13346 13347 13348 13349 13350 13351 13352 13353 13354 13355 13356 13357 13358 13359 13360 13361 13362 13363 13364 13365 13366 13367 13368 13369 13370 13371 13372 13373 13374 13375 13376 13377 13378 13379 13380 13381 13382 13383 13384 13385 13386 13387 13388 13389 13390 13391 13392 13393 13394 13395 13396 13397 13398 13399 13400 13401 13402 13403 13404 13405 13406 13407 13408 13409 13410 13411 13412 13413 13414 13415 13416 13417 13418 13419 13420 13421 13422 13423 13424 13425 13426 13427 13428 13429 13430 13431 13432 13433 13434 13435 13436 13437 13438 13439 13440 13441 13442 13443 13444 13445 13446 13447 13448 13449 13450 13451 13452 13453 13454 13455 13456 13457 13458 13459 13460 13461 13462 13463 13464 13465 13466 13467 13468 13469 13470 13471 13472 13473 13474 13475 13476 13477 13478 13479 13480 13481 13482 13483 13484 13485 13486 13487 13488 13489 13490 13491 13492 13493 13494 13495 13496 13497 13498 13499 13500 13501 13502 13503 13504 13505 13506 13507 13508 13509 13510 13511 13512 13513 13514 13515 13516 13517 13518 13519 13520 13521 13522 13523 13524 13525 13526 13527 13528 13529 13530 13531 13532 13533 13534 13535 13536 13537 13538 13539 13540 13541 13542 13543 13544 13545 13546 13547 13548 13549 13550 13551 13552 13553 13554 13555 13556 13557 13558 13559 13560 13561 13562 13563 13564 13565 13566 13567 13568 13569 13570 13571 13572 13573 13574 13575 13576 13577 13578 13579 13580 13581 13582 13583 13584 13585 13586 13587 13588 13589 13590 13591 13592 13593 13594 13595 13596 13597 13598 13599 13600 13601 13602 13603 13604 13605 13606 13607 13608 13609 13610 13611 13612 13613 13614 13615 13616 13617 13618 13619 13620 13621 13622 13623 13624 13625 13626 13627 13628 13629 13630 13631 13632 13633 13634 13635 13636 13637 13638 13639 13640 13641 13642 13643 13644 13645 13646 13647 13648 13649 13650 13651 13652 13653 13654 13655 13656 13657 13658 13659 13660 13661 13662 13663 13664 13665 13666 13667 13668 13669 13670 13671 13672 13673 13674 13675 13676 13677 13678 13679 13680 13681 13682 13683 13684 13685 13686 13687 13688 13689 13690 13691 13692 13693 13694 13695 13696 13697 13698 13699 13700 13701 13702 13703 13704 13705 13706 13707 13708 13709 13710 13711 13712 13713 13714 13715 13716 13717 13718 13719 13720 13721 13722 13723 13724 13725 13726 13727 13728 13729 13730 13731 13732 13733 13734 13735 13736 13737 13738 13739 13740 13741 13742 13743 13744 13745 13746 13747 13748 13749 13750 13751 13752 13753 13754 13755 13756 13757 13758 13759 13760 13761 13762 13763 13764 13765 13766 13767 13768 13769 13770 13771 13772 13773 13774 13775 13776 13777 13778 13779 13780 13781 13782 13783 13784 13785 13786 13787 13788 13789 13790 13791 13792 13793 13794 13795 13796 13797 13798 13799 13800 13801 13802 13803 13804 13805 13806 13807 13808 13809 13810 13811 13812 13813 13814 13815 13816 13817 13818 13819 13820 13821 13822 13823 13824 13825 13826 13827 13828 13829 13830 13831 13832 13833 13834 13835 13836 13837 13838 13839 13840 13841 13842 13843 13844 13845 13846 13847 13848 13849 13850 13851 13852 13853 13854 13855 13856 13857 13858 13859 13860 13861 13862 13863 13864 13865 13866 13867 13868 13869 13870 13871 13872 13873 13874 13875 13876 13877 13878 13879 13880 13881 13882 13883 13884 13885 13886 13887 13888 13889 13890 13891 13892 13893 13894 13895 13896 13897 13898 13899 13900 13901 13902 13903 13904 13905 13906 13907 13908 13909 13910 13911 13912 13913 13914 13915 13916 13917 13918 13919 13920 13921 13922 13923 13924 13925 13926 13927 13928 13929 13930 13931 13932 13933 13934 13935 13936 13937 13938 13939 13940 13941 13942 13943 13944 13945 13946 13947 13948 13949 13950 13951 13952 13953 13954 13955 13956 13957 13958 13959 13960 13961 13962 13963 13964 13965 13966 13967 13968 13969 13970 13971 13972 13973 13974 13975 13976 13977 13978 13979 13980 13981 13982 13983 13984 13985 13986 13987 13988 13989 13990 13991 13992 13993 13994 13995 13996 13997 13998 13999 14000 14001 14002 14003 14004 14005 14006 14007 14008 14009 14010 14011 14012 14013 14014 14015 14016 14017 14018 14019 14020 14021 14022 14023 14024 14025 14026 14027 14028 14029 14030 14031 14032 14033 14034 14035 14036 14037 14038 14039 14040 14041 14042 14043 14044 14045 14046 14047 14048 14049 14050 14051 14052 14053 14054 14055 14056 14057 14058 14059 14060 14061 14062 14063 14064 14065 14066 14067 14068 14069 14070 14071 14072 14073 14074 14075 14076 14077 14078 14079 14080 14081 14082 14083 14084 14085 14086 14087 14088 14089 14090 14091 14092 14093 14094 14095 14096 14097 14098 14099 14100 14101 14102 14103 14104 14105 14106 14107 14108 14109 14110 14111 14112 14113 14114 14115 14116 14117 14118 14119 14120 14121 14122 14123 14124 14125 14126 14127 14128 14129 14130 14131 14132 14133 14134 14135 14136 14137 14138 14139 14140 14141 14142 14143 14144 14145 14146 14147 14148 14149 14150 14151 14152 14153 14154 14155 14156 14157 14158 14159 14160 14161 14162 14163 14164 14165 14166 14167 14168 14169 14170 14171 14172 14173 14174 14175 14176 14177 14178 14179 14180 14181 14182 14183 14184 14185 14186 14187 14188 14189 14190 14191 14192 14193 14194 14195 14196 14197 14198 14199 14200 14201 14202 14203 14204 14205 14206 14207 14208 14209 14210 14211 14212 14213 14214 14215 14216 14217 14218 14219 14220 14221 14222 14223 14224 14225 14226 14227 14228 14229 14230 14231 14232 14233 14234 14235 14236 14237 14238 14239 14240 14241 14242 14243 14244 14245 14246 14247 14248 14249 14250 14251 14252 14253 14254 14255 14256 14257 14258 14259 14260 14261 14262 14263 14264 14265 14266 14267 14268 14269 14270 14271 14272 14273 14274 14275 14276 14277 14278 14279 14280 14281 14282 14283 14284 14285 14286 14287 14288 14289 14290 14291 14292 14293 14294 14295 14296 14297 14298 14299 14300 14301 14302 14303 14304 14305 14306 14307 14308 14309 14310 14311 14312 14313 14314 14315 14316 14317 14318 14319 14320 14321 14322 14323 14324 14325 14326 14327 14328 14329 14330 14331 14332 14333 14334 14335 14336 14337 14338 14339 14340 14341 14342 14343 14344 14345 14346 14347 14348 14349 14350 14351 14352 14353 14354 14355 14356 14357 14358 14359 14360 14361 14362 14363 14364 14365 14366 14367 14368 14369 14370 14371 14372 14373 14374 14375 14376 14377 14378 14379 14380 14381 14382 14383 14384 14385 14386 14387 14388 14389 14390 14391 14392 14393 14394 14395 14396 14397 14398 14399 14400 14401 14402 14403 14404 14405 14406 14407 14408 14409 14410 14411 14412 14413 14414 14415 14416 14417 14418 14419 14420 14421 14422 14423 14424 14425 14426 14427 14428 14429 14430 14431 14432 14433 14434 14435 14436 14437 14438 14439 14440 14441 14442 14443 14444 14445 14446 14447 14448 14449 14450 14451 14452 14453 14454 14455 14456 14457 14458 14459 14460 14461 14462 14463 14464 14465 14466 14467 14468 14469 14470 14471 14472 14473 14474 14475 14476 14477 14478 14479 14480 14481 14482 14483 14484 14485 14486 14487 14488 14489 14490 14491 14492 14493 14494 14495 14496 14497 14498 14499 14500 14501 14502 14503 14504 14505 14506 14507 14508 14509 14510 14511 14512 14513 14514 14515 14516 14517 14518 14519 14520 14521 14522 14523 14524 14525 14526 14527 14528 14529 14530 14531 14532 14533 14534 14535 14536 14537 14538 14539 14540 14541 14542 14543 14544 14545 14546 14547 14548 14549 14550 14551 14552 14553 14554 14555 14556 14557 14558 14559 14560 14561 14562 14563 14564 14565 14566 14567 14568 14569 14570 14571 14572 14573 14574 14575 14576 14577 14578 14579 14580 14581 14582 14583 14584 14585 14586 14587 14588 14589 14590 14591 14592 14593 14594 14595 14596 14597 14598 14599 14600 14601 14602 14603 14604 14605 14606 14607 14608 14609 14610 14611 14612 14613 14614 14615 14616 14617 14618 14619 14620 14621 14622 14623 14624 14625 14626 14627 14628 14629 14630 14631 14632 14633 14634 14635 14636 14637 14638 14639 14640 14641 14642 14643 14644 14645 14646 14647 14648 14649 14650 14651 14652 14653 14654 14655 14656 14657 14658 14659 14660 14661 14662 14663 14664 14665 14666 14667 14668 14669 14670 14671 14672 14673 14674 14675 14676 14677 14678 14679 14680 14681 14682 14683 14684 14685 14686 14687 14688 14689 14690 14691 14692 14693 14694 14695 14696 14697 14698 14699 14700 14701 14702 14703 14704 14705 14706 14707 14708 14709 14710 14711 14712 14713 14714 14715 14716 14717 14718 14719 14720 14721 14722 14723 14724 14725 14726 14727 14728 14729 14730 14731 14732 14733 14734 14735 14736 14737 14738 14739 14740 14741 14742 14743 14744 14745 14746 14747 14748 14749 14750 14751 14752 14753 14754 14755 14756 14757 14758 14759 14760 14761 14762 14763 14764 14765 14766 14767 14768 14769 14770 14771 14772 14773 14774 14775 14776 14777 14778 14779 14780 14781 14782 14783 14784 14785 14786 14787 14788 14789 14790 14791 14792 14793 14794 14795 14796 14797 14798 14799 14800 14801 14802 14803 14804 14805 14806 14807 14808 14809 14810 14811 14812 14813 14814 14815 14816 14817 14818 14819 14820 14821 14822 14823 14824 14825 14826 14827 14828 14829 14830 14831 14832 14833 14834 14835 14836 14837 14838 14839 14840 14841 14842 14843 14844 14845 14846 14847 14848 14849 14850 14851 14852 14853 14854 14855 14856 14857 14858 14859 14860 14861 14862 14863 14864 14865 14866 14867 14868 14869 14870 14871 14872 14873 14874 14875 14876 14877 14878 14879 14880 14881 14882 14883 14884 14885 14886 14887 14888 14889 14890 14891 14892 14893 14894 14895 14896 14897 14898 14899 14900 14901 14902 14903 14904 14905 14906 14907 14908 14909 14910 14911 14912 14913 14914 14915 14916 14917 14918 14919 14920 14921 14922 14923 14924 14925 14926 14927 14928 14929 14930 14931 14932 14933 14934 14935 14936 14937 14938 14939 14940 14941 14942 14943 14944 14945 14946 14947 14948 14949 14950 14951 14952 14953 14954 14955 14956 14957 14958 14959 14960 14961 14962 14963 14964 14965 14966 14967 14968 14969 14970 14971 14972 14973 14974 14975 14976 14977 14978 14979 14980 14981 14982 14983 14984 14985 14986 14987 14988 14989 14990 14991 14992 14993 14994 14995 14996 14997 14998 14999 15000 15001 15002 15003 15004 15005 15006 15007 15008 15009 15010 15011 15012 15013 15014 15015 15016 15017 15018 15019 15020 15021 15022 15023 15024 15025 15026 15027 15028 15029 15030 15031 15032 15033 15034 15035 15036 15037 15038 15039 15040 15041 15042 15043 15044 15045 15046 15047 15048 15049 15050 15051 15052 15053 15054 15055 15056 15057 15058 15059 15060 15061 15062 15063 15064 15065 15066 15067 15068 15069 15070 15071 15072 15073 15074 15075 15076 15077 15078 15079 15080 15081 15082 15083 15084 15085 15086 15087 15088 15089 15090 15091 15092 15093 15094 15095 15096 15097 15098 15099 15100 15101 15102 15103 15104 15105 15106 15107 15108 15109 15110 15111 15112 15113 15114 15115 15116 15117 15118 15119 15120 15121 15122 15123 15124 15125 15126 15127 15128 15129 15130 15131 15132 15133 15134 15135 15136 15137 15138 15139 15140 15141 15142 15143 15144 15145 15146 15147 15148 15149 15150 15151 15152 15153 15154 15155 15156 15157 15158 15159 15160 15161 15162 15163 15164 15165 15166 15167 15168 15169 15170 15171 15172 15173 15174 15175 15176 15177 15178 15179 15180 15181 15182 15183 15184 15185 15186 15187 15188 15189 15190 15191 15192 15193 15194 15195 15196 15197 15198 15199 15200 15201 15202 15203 15204 15205 15206 15207 15208 15209 15210 15211 15212 15213 15214 15215 15216 15217 15218 15219 15220 15221 15222 15223 15224 15225 15226 15227 15228 15229 15230 15231 15232 15233 15234 15235 15236 15237 15238 15239 15240 15241 15242 15243 15244 15245 15246 15247 15248 15249 15250 15251 15252 15253 15254 15255 15256 15257 15258 15259 15260 15261 15262 15263 15264 15265 15266 15267 15268 15269 15270 15271 15272 15273 15274 15275 15276 15277 15278 15279 15280 15281 15282 15283 15284 15285 15286 15287 15288 15289 15290 15291 15292 15293 15294 15295 15296 15297 15298 15299 15300 15301 15302 15303 15304 15305 15306 15307 15308 15309 15310 15311 15312 15313 15314 15315 15316 15317 15318 15319 15320 15321 15322 15323 15324 15325 15326 15327 15328 15329 15330 15331 15332 15333 15334 15335 15336 15337 15338 15339 15340 15341 15342 15343 15344 15345 15346 15347 15348 15349 15350 15351 15352 15353 15354 15355 15356 15357 15358 15359 15360 15361 15362 15363 15364 15365 15366 15367 15368 15369 15370 15371 15372 15373 15374 15375 15376 15377 15378 15379 15380 15381 15382 15383 15384 15385 15386 15387 15388 15389 15390 15391 15392 15393 15394 15395 15396 15397 15398 15399 15400 15401 15402 15403 15404 15405 15406 15407 15408 15409 15410 15411 15412 15413 15414 15415 15416 15417 15418 15419 15420 15421 15422 15423 15424 15425 15426 15427 15428 15429 15430 15431 15432 15433 15434 15435 15436 15437 15438 15439 15440 15441 15442 15443 15444 15445 15446 15447 15448 15449 15450 15451 15452 15453 15454 15455 15456 15457 15458 15459 15460 15461 15462 15463 15464 15465 15466 15467 15468 15469 15470 15471 15472 15473 15474 15475 15476 15477 15478 15479 15480 15481 15482 15483 15484 15485 15486 15487 15488 15489 15490 15491 15492 15493 15494 15495 15496 15497 15498 15499 15500 15501 15502 15503 15504 15505 15506 15507 15508 15509 15510 15511 15512 15513 15514 15515 15516 15517 15518 15519 15520 15521 15522 15523 15524 15525 15526 15527 15528 15529 15530 15531 15532 15533 15534 15535 15536 15537 15538 15539 15540 15541 15542 15543 15544 15545 15546 15547 15548 15549 15550 15551 15552 15553 15554 15555 15556 15557 15558 15559 15560 15561 15562 15563 15564 15565 15566 15567 15568 15569 15570 15571 15572 15573 15574 15575 15576 15577 15578 15579 15580 15581 15582 15583 15584 15585 15586 15587 15588 15589 15590 15591 15592 15593 15594 15595 15596 15597 15598 15599 15600 15601 15602 15603 15604 15605 15606 15607 15608 15609 15610 15611 15612 15613 15614 15615 15616 15617 15618 15619 15620 15621 15622 15623 15624 15625 15626 15627 15628 15629 15630 15631 15632 15633 15634 15635 15636 15637 15638 15639 15640 15641 15642 15643 15644 15645 15646 15647 15648 15649 15650 15651 15652 15653 15654 15655 15656 15657 15658 15659 15660 15661 15662 15663 15664 15665 15666 15667 15668 15669 15670 15671 15672 15673 15674 15675 15676 15677 15678 15679 15680 15681 15682 15683 15684 15685 15686 15687 15688 15689 15690 15691 15692 15693 15694 15695 15696 15697 15698 15699 15700 15701 15702 15703 15704 15705 15706 15707 15708 15709 15710 15711 15712 15713 15714 15715 15716 15717 15718 15719 15720 15721 15722 15723 15724 15725 15726 15727 15728 15729 15730 15731 15732 15733 15734 15735 15736 15737 15738 15739 15740 15741 15742 15743 15744 15745 15746 15747 15748 15749 15750 15751 15752 15753 15754 15755 15756 15757 15758 15759 15760 15761 15762 15763 15764 15765 15766 15767 15768 15769 15770 15771 15772 15773 15774 15775 15776 15777 15778 15779 15780 15781 15782 15783 15784 15785 15786 15787 15788 15789 15790 15791 15792 15793 15794 15795 15796 15797 15798 15799 15800 15801 15802 15803 15804 15805 15806 15807 15808 15809 15810 15811 15812 15813 15814 15815 15816 15817 15818 15819 15820 15821 15822 15823 15824 15825 15826 15827 15828 15829 15830 15831 15832 15833 15834 15835 15836 15837 15838 15839 15840 15841 15842 15843 15844 15845 15846 15847 15848 15849 15850 15851 15852 15853 15854 15855 15856 15857 15858 15859 15860 15861 15862 15863 15864 15865 15866 15867 15868 15869 15870 15871 15872 15873 15874 15875 15876 15877 15878 15879 15880 15881 15882 15883 15884 15885 15886 15887 15888 15889 15890 15891 15892 15893 15894 15895 15896 15897 15898 15899 15900 15901 15902 15903 15904 15905 15906 15907 15908 15909 15910 15911 15912 15913 15914 15915 15916 15917 15918 15919 15920 15921 15922 15923 15924 15925 15926 15927 15928 15929 15930 15931 15932 15933 15934 15935 15936 15937 15938 15939 15940 15941 15942 15943 15944 15945 15946 15947 15948 15949 15950 15951 15952 15953 15954 15955 15956 15957 15958 15959 15960 15961 15962 15963 15964 15965 15966 15967 15968 15969 15970 15971 15972 15973 15974 15975 15976 15977 15978 15979 15980 15981 15982 15983 15984 15985 15986 15987 15988 15989 15990 15991 15992 15993 15994 15995 15996 15997 15998 15999 16000 16001 16002 16003 16004 16005 16006 16007 16008 16009 16010 16011 16012 16013 16014 16015 16016 16017 16018 16019 16020 16021 16022 16023 16024 16025 16026 16027 16028 16029 16030 16031 16032 16033 16034 16035 16036 16037 16038 16039 16040 16041 16042 16043 16044 16045 16046 16047 16048 16049 16050 16051 16052 16053 16054 16055 16056 16057 16058 16059 16060 16061 16062 16063 16064 16065 16066 16067 16068 16069 16070 16071 16072 16073 16074 16075 16076 16077 16078 16079 16080 16081 16082 16083 16084 16085 16086 16087 16088 16089 16090 16091 16092 16093 16094 16095 16096 16097 16098 16099 16100 16101 16102 16103 16104 16105 16106 16107 16108 16109 16110 16111 16112 16113 16114 16115 16116 16117 16118 16119 16120 16121 16122 16123 16124 16125 16126 16127 16128 16129 16130 16131 16132 16133 16134 16135 16136 16137 16138 16139 16140 16141 16142 16143 16144 16145 16146 16147 16148 16149 16150 16151 16152 16153 16154 16155 16156 16157 16158 16159 16160 16161 16162 16163 16164 16165 16166 16167 16168 16169 16170 16171 16172 16173 16174 16175 16176 16177 16178 16179 16180 16181 16182 16183 16184 16185 16186 16187 16188 16189 16190 16191 16192 16193 16194 16195 16196 16197 16198 16199 16200 16201 16202 16203 16204 16205 16206 16207 16208 16209 16210 16211 16212 16213 16214 16215 16216 16217 16218 16219 16220 16221 16222 16223 16224 16225 16226 16227 16228 16229 16230 16231 16232 16233 16234 16235 16236 16237 16238 16239 16240 16241 16242 16243 16244 16245 16246 16247 16248 16249 16250 16251 16252 16253 16254 16255 16256 16257 16258 16259 16260 16261 16262 16263 16264 16265 16266 16267 16268 16269 16270 16271 16272 16273 16274 16275 16276 16277 16278 16279 16280 16281 16282 16283 16284 16285 16286 16287 16288 16289 16290 16291 16292 16293 16294 16295 16296 16297 16298 16299 16300 16301 16302 16303 16304 16305 16306 16307 16308 16309 16310 16311 16312 16313 16314 16315 16316 16317 16318 16319 16320 16321 16322 16323 16324 16325 16326 16327 16328 16329 16330 16331 16332 16333 16334 16335 16336 16337 16338 16339 16340 16341 16342 16343 16344 16345 16346 16347 16348 16349 16350 16351 16352 16353 16354 16355 16356 16357 16358 16359 16360 16361 16362 16363 16364 16365 16366 16367 16368 16369 16370 16371 16372 16373 16374 16375 16376 16377 16378 16379 16380 16381 16382 16383 16384 16385 16386 16387 16388 16389 16390 16391 16392 16393 16394 16395 16396 16397 16398 16399 16400 16401 16402 16403 16404 16405 16406 16407 16408 16409 16410 16411 16412 16413 16414 16415 16416 16417 16418 16419 16420 16421 16422 16423 16424 16425 16426 16427 16428 16429 16430 16431 16432 16433 16434 16435 16436 16437 16438 16439 16440 16441 16442 16443 16444 16445 16446 16447 16448 16449 16450 16451 16452 16453 16454 16455 16456 16457 16458 16459 16460 16461 16462 16463 16464 16465 16466 16467 16468 16469 16470 16471 16472 16473 16474 16475 16476 16477 16478 16479 16480 16481 16482 16483 16484 16485 16486 16487 16488 16489 16490 16491 16492 16493 16494 16495 16496 16497 16498 16499 16500 16501 16502 16503 16504 16505 16506 16507 16508 16509 16510 16511 16512 16513 16514 16515 16516 16517 16518 16519 16520 16521 16522 16523 16524 16525 16526 16527 16528 16529 16530 16531 16532 16533 16534 16535 16536 16537 16538 16539 16540 16541 16542 16543 16544 16545 16546 16547 16548 16549 16550 16551 16552 16553 16554 16555 16556 16557 16558 16559 16560 16561 16562 16563 16564 16565 16566 16567 16568 16569 16570 16571 16572 16573 16574 16575 16576 16577 16578 16579 16580 16581 16582 16583 16584 16585 16586 16587 16588 16589 16590 16591 16592 16593 16594 16595 16596 16597 16598 16599 16600 16601 16602 16603 16604 16605 16606 16607 16608 16609 16610 16611 16612 16613 16614 16615 16616 16617 16618 16619 16620 16621 16622 16623 16624 16625 16626 16627 16628 16629 16630 16631 16632 16633 16634 16635 16636 16637 16638 16639 16640 16641 16642 16643 16644 16645 16646 16647 16648 16649 16650 16651 16652 16653 16654 16655 16656 16657 16658 16659 16660 16661 16662 16663 16664 16665 16666 16667 16668 16669 16670 16671 16672 16673 16674 16675 16676 16677 16678 16679 16680 16681 16682 16683 16684 16685 16686 16687 16688 16689 16690 16691 16692 16693 16694 16695 16696 16697 16698 16699 16700 16701 16702 16703 16704 16705 16706 16707 16708 16709 16710 16711 16712 16713 16714 16715 16716 16717 16718 16719 16720 16721 16722 16723 16724 16725 16726 16727 16728 16729 16730 16731 16732 16733 16734 16735 16736 16737 16738 16739 16740 16741 16742 16743 16744 16745 16746 16747 16748 16749 16750 16751 16752 16753 16754 16755 16756 16757 16758 16759 16760 16761 16762 16763 16764 16765 16766 16767 16768 16769 16770 16771 16772 16773 16774 16775 16776 16777 16778 16779 16780 16781 16782 16783 16784 16785 16786 16787 16788 16789 16790 16791 16792 16793 16794 16795 16796 16797 16798 16799 16800 16801 16802 16803 16804 16805 16806 16807 16808 16809 16810 16811 16812 16813 16814 16815 16816 16817 16818 16819 16820 16821 16822 16823 16824 16825 16826 16827 16828 16829 16830 16831 16832 16833 16834 16835 16836 16837 16838 16839 16840 16841 16842 16843 16844 16845 16846 16847 16848 16849 16850 16851 16852 16853 16854 16855 16856 16857 16858 16859 16860 16861 16862 16863 16864 16865 16866 16867 16868 16869 16870 16871 16872 16873 16874 16875 16876 16877 16878 16879 16880 16881 16882 16883 16884 16885 16886 16887 16888 16889 16890 16891 16892 16893 16894 16895 16896 16897 16898 16899 16900 16901 16902 16903 16904 16905 16906 16907 16908 16909 16910 16911 16912 16913 16914 16915 16916 16917 16918 16919 16920 16921 16922 16923 16924 16925 16926 16927 16928 16929 16930 16931 16932 16933 16934 16935 16936 16937 16938 16939 16940 16941 16942 16943 16944 16945 16946 16947 16948 16949 16950 16951 16952 16953 16954 16955 16956 16957 16958 16959 16960 16961 16962 16963 16964 16965 16966 16967 16968 16969 16970 16971 16972 16973 16974 16975 16976 16977 16978 16979 16980 16981 16982 16983 16984 16985 16986 16987 16988 16989 16990 16991 16992 16993 16994 16995 16996 16997 16998 16999 17000 17001 17002 17003 17004 17005 17006 17007 17008 17009 17010 17011 17012 17013 17014 17015 17016 17017 17018 17019 17020 17021 17022 17023 17024 17025 17026 17027 17028 17029 17030 17031 17032 17033 17034 17035 17036 17037 17038 17039 17040 17041 17042 17043 17044 17045 17046 17047 17048 17049 17050 17051 17052 17053 17054 17055 17056 17057 17058 17059 17060 17061 17062 17063 17064 17065 17066 17067 17068 17069 17070 17071 17072 17073 17074 17075 17076 17077 17078 17079 17080 17081 17082 17083 17084 17085 17086 17087 17088 17089 17090 17091 17092 17093 17094 17095 17096 17097 17098 17099 17100 17101 17102 17103 17104 17105 17106 17107 17108 17109 17110 17111 17112 17113 17114 17115 17116 17117 17118 17119 17120 17121 17122 17123 17124 17125 17126 17127 17128 17129 17130 17131 17132 17133 17134 17135 17136 17137 17138 17139 17140 17141 17142 17143 17144 17145 17146 17147 17148 17149 17150 17151 17152 17153 17154 17155 17156 17157 17158 17159 17160 17161 17162 17163 17164 17165 17166 17167 17168 17169 17170 17171 17172 17173 17174 17175 17176 17177 17178 17179 17180 17181 17182 17183 17184 17185 17186 17187 17188 17189 17190 17191 17192 17193 17194 17195 17196 17197 17198 17199 17200 17201 17202 17203 17204 17205 17206 17207 17208 17209 17210 17211 17212 17213 17214 17215 17216 17217 17218 17219 17220 17221 17222 17223 17224 17225 17226 17227 17228 17229 17230 17231 17232 17233 17234 17235 17236 17237 17238 17239 17240 17241 17242 17243 17244 17245 17246 17247 17248 17249 17250 17251 17252 17253 17254 17255 17256 17257 17258 17259 17260 17261 17262 17263 17264 17265 17266 17267 17268 17269 17270 17271 17272 17273 17274 17275 17276 17277 17278 17279 17280 17281 17282 17283 17284 17285 17286 17287 17288 17289 17290 17291 17292 17293 17294 17295 17296 17297 17298 17299 17300 17301 17302 17303 17304 17305 17306 17307 17308 17309 17310 17311 17312 17313 17314 17315 17316 17317 17318 17319 17320 17321 17322 17323 17324 17325 17326 17327 17328 17329 17330 17331 17332 17333 17334 17335 17336 17337 17338 17339 17340 17341 17342 17343 17344 17345 17346 17347 17348 17349 17350 17351 17352 17353 17354 17355 17356 17357 17358 17359 17360 17361 17362 17363 17364 17365 17366 17367 17368 17369 17370 17371 17372 17373 17374 17375 17376 17377 17378 17379 17380 17381 17382 17383 17384 17385 17386 17387 17388 17389 17390 17391 17392 17393 17394 17395 17396 17397 17398 17399 17400 17401 17402 17403 17404 17405 17406 17407 17408 17409 17410 17411 17412 17413 17414 17415 17416 17417 17418 17419 17420 17421 17422 17423 17424 17425 17426 17427 17428 17429 17430 17431 17432 17433 17434 17435 17436 17437 17438 17439 17440 17441 17442 17443 17444 17445 17446 17447 17448 17449 17450 17451 17452 17453 17454 17455 17456 17457 17458 17459 17460 17461 17462 17463 17464 17465 17466 17467 17468 17469 17470 17471 17472 17473 17474 17475 17476 17477 17478 17479 17480 17481 17482 17483 17484 17485 17486 17487 17488 17489 17490 17491 17492 17493 17494 17495 17496 17497 17498 17499 17500 17501 17502 17503 17504 17505 17506 17507 17508 17509 17510 17511 17512 17513 17514 17515 17516 17517 17518 17519 17520 17521 17522 17523 17524 17525 17526 17527 17528 17529 17530 17531 17532 17533 17534 17535 17536 17537 17538 17539 17540 17541 17542 17543 17544 17545 17546 17547 17548 17549 17550 17551 17552 17553 17554 17555 17556 17557 17558 17559 17560 17561 17562 17563 17564 17565 17566 17567 17568 17569 17570 17571 17572 17573 17574 17575 17576 17577 17578 17579 17580 17581 17582 17583 17584 17585 17586 17587 17588 17589 17590 17591 17592 17593 17594 17595 17596 17597 17598 17599 17600 17601 17602 17603 17604 17605 17606 17607 17608 17609 17610 17611 17612 17613 17614 17615 17616 17617 17618 17619 17620 17621 17622 17623 17624 17625 17626 17627 17628 17629 17630 17631 17632 17633 17634 17635 17636 17637 17638 17639 17640 17641 17642 17643 17644 17645 17646 17647 17648 17649 17650 17651 17652 17653 17654 17655 17656 17657 17658 17659 17660 17661 17662 17663 17664 17665 17666 17667 17668 17669 17670 17671 17672 17673 17674 17675 17676 17677 17678 17679 17680 17681 17682 17683 17684 17685 17686 17687 17688 17689 17690 17691 17692 17693 17694 17695 17696 17697 17698 17699 17700 17701 17702 17703 17704 17705 17706 17707 17708 17709 17710 17711 17712 17713 17714 17715 17716 17717 17718 17719 17720 17721 17722 17723 17724 17725 17726 17727 17728 17729 17730 17731 17732 17733 17734 17735 17736 17737 17738 17739 17740 17741 17742 17743 17744 17745 17746 17747 17748 17749 17750 17751 17752 17753 17754 17755 17756 17757 17758 17759 17760 17761 17762 17763 17764 17765 17766 17767 17768 17769 17770 17771 17772 17773 17774 17775 17776 17777 17778 17779 17780 17781 17782 17783 17784 17785 17786 17787 17788 17789 17790 17791 17792 17793 17794 17795 17796 17797 17798 17799 17800 17801 17802 17803 17804 17805 17806 17807 17808 17809 17810 17811 17812 17813 17814 17815 17816 17817 17818 17819 17820 17821 17822 17823 17824 17825 17826 17827 17828 17829 17830 17831 17832 17833 17834 17835 17836 17837 17838 17839 17840 17841 17842 17843 17844 17845 17846 17847 17848 17849 17850 17851 17852 17853 17854 17855 17856 17857 17858 17859 17860 17861 17862 17863 17864 17865 17866 17867 17868 17869 17870 17871 17872 17873 17874 17875 17876 17877 17878 17879 17880 17881 17882 17883 17884 17885 17886 17887 17888 17889 17890 17891 17892 17893 17894 17895 17896 17897 17898 17899 17900 17901 17902 17903 17904 17905 17906 17907 17908 17909 17910 17911 17912 17913 17914 17915 17916 17917 17918 17919 17920 17921 17922 17923 17924 17925 17926 17927 17928 17929 17930 17931 17932 17933 17934 17935 17936 17937 17938 17939 17940 17941 17942 17943 17944 17945 17946 17947 17948 17949 17950 17951 17952 17953 17954 17955 17956 17957 17958 17959 17960 17961 17962 17963 17964 17965 17966 17967 17968 17969 17970 17971 17972 17973 17974 17975 17976 17977 17978 17979 17980 17981 17982 17983 17984 17985 17986 17987 17988 17989 17990 17991 17992 17993 17994 17995 17996 17997 17998 17999 18000 18001 18002 18003 18004 18005 18006 18007 18008 18009 18010 18011 18012 18013 18014 18015 18016 18017 18018 18019 18020 18021 18022 18023 18024 18025 18026 18027 18028 18029 18030 18031 18032 18033 18034 18035 18036 18037 18038 18039 18040 18041 18042 18043 18044 18045 18046 18047 18048 18049 18050 18051 18052 18053 18054 18055 18056 18057 18058 18059 18060 18061 18062 18063 18064 18065 18066 18067 18068 18069 18070 18071 18072 18073 18074 18075 18076 18077 18078 18079 18080 18081 18082 18083 18084 18085 18086 18087 18088 18089 18090 18091 18092 18093 18094 18095 18096 18097 18098 18099 18100 18101 18102 18103 18104 18105 18106 18107 18108 18109 18110 18111 18112 18113 18114 18115 18116 18117 18118 18119 18120 18121 18122 18123 18124 18125 18126 18127 18128 18129 18130 18131 18132 18133 18134 18135 18136 18137 18138 18139 18140 18141 18142 18143 18144 18145 18146 18147 18148 18149 18150 18151 18152 18153 18154 18155 18156 18157 18158 18159 18160 18161 18162 18163 18164 18165 18166 18167 18168 18169 18170 18171 18172 18173 18174 18175 18176 18177 18178 18179 18180 18181 18182 18183 18184 18185 18186 18187 18188 18189 18190 18191 18192 18193 18194 18195 18196 18197 18198 18199 18200 18201 18202 18203 18204 18205 18206 18207 18208 18209 18210 18211 18212 18213 18214 18215 18216 18217 18218 18219 18220 18221 18222 18223 18224 18225 18226 18227 18228 18229 18230 18231 18232 18233 18234 18235 18236 18237 18238 18239 18240 18241 18242 18243 18244 18245 18246 18247 18248 18249 18250 18251 18252 18253 18254 18255 18256 18257 18258 18259 18260 18261 18262 18263 18264 18265 18266 18267 18268 18269 18270 18271 18272 18273 18274 18275 18276 18277 18278 18279 18280 18281 18282 18283 18284 18285 18286 18287 18288 18289 18290 18291 18292 18293 18294 18295 18296 18297 18298 18299 18300 18301 18302 18303 18304 18305 18306 18307 18308 18309 18310 18311 18312 18313 18314 18315 18316 18317 18318 18319 18320 18321 18322 18323 18324 18325 18326 18327 18328 18329 18330 18331 18332 18333 18334 18335 18336 18337 18338 18339 18340 18341 18342 18343 18344 18345 18346 18347 18348 18349 18350 18351 18352 18353 18354 18355 18356 18357 18358 18359 18360 18361 18362 18363 18364 18365 18366 18367 18368 18369 18370 18371 18372 18373 18374 18375 18376 18377 18378 18379 18380 18381 18382 18383 18384 18385 18386 18387 18388 18389 18390 18391 18392 18393 18394 18395 18396 18397 18398 18399 18400 18401 18402 18403 18404 18405 18406 18407 18408 18409 18410 18411 18412 18413 18414 18415 18416 18417 18418 18419 18420 18421 18422 18423 18424 18425 18426 18427 18428 18429 18430 18431 18432 18433 18434 18435 18436 18437 18438 18439 18440 18441 18442 18443 18444 18445 18446 18447 18448 18449 18450 18451 18452 18453 18454 18455 18456 18457 18458 18459 18460 18461 18462 18463 18464 18465 18466 18467 18468 18469 18470 18471 18472 18473 18474 18475 18476 18477 18478 18479 18480 18481 18482 18483 18484 18485 18486 18487 18488 18489 18490 18491 18492 18493 18494 18495 18496 18497 18498 18499 18500 18501 18502 18503 18504 18505 18506 18507 18508 18509 18510 18511 18512 18513 18514 18515 18516 18517 18518 18519 18520 18521 18522 18523 18524 18525 18526 18527 18528 18529 18530 18531 18532 18533 18534 18535 18536 18537 18538 18539 18540 18541 18542 18543 18544 18545 18546 18547 18548 18549 18550 18551 18552 18553 18554 18555 18556 18557 18558 18559 18560 18561 18562 18563 18564 18565 18566 18567 18568 18569 18570 18571 18572 18573 18574 18575 18576 18577 18578 18579 18580 18581 18582 18583 18584 18585 18586 18587 18588 18589 18590 18591 18592 18593 18594 18595 18596 18597 18598 18599 18600 18601 18602 18603 18604 18605 18606 18607 18608 18609 18610 18611 18612 18613 18614 18615 18616 18617 18618 18619 18620 18621 18622 18623 18624 18625 18626 18627 18628 18629 18630 18631 18632 18633 18634 18635 18636 18637 18638 18639 18640 18641 18642 18643 18644 18645 18646 18647 18648 18649 18650 18651 18652 18653 18654 18655 18656 18657 18658 18659 18660 18661 18662 18663 18664 18665 18666 18667 18668 18669 18670 18671 18672 18673 18674 18675 18676 18677 18678 18679 18680 18681 18682 18683 18684 18685 18686 18687 18688 18689 18690 18691 18692 18693 18694 18695 18696 18697 18698 18699 18700 18701 18702 18703 18704 18705 18706 18707 18708 18709 18710 18711 18712 18713 18714 18715 18716 18717 18718 18719 18720 18721 18722 18723 18724 18725 18726 18727 18728 18729 18730 18731 18732 18733 18734 18735 18736 18737 18738 18739 18740 18741 18742 18743 18744 18745 18746 18747 18748 18749 18750 18751 18752 18753 18754 18755 18756 18757 18758 18759 18760 18761 18762 18763 18764 18765 18766 18767 18768 18769 18770 18771 18772 18773 18774 18775 18776 18777 18778 18779 18780 18781 18782 18783 18784 18785 18786 18787 18788 18789 18790 18791 18792 18793 18794 18795 18796 18797 18798 18799 18800 18801 18802 18803 18804 18805 18806 18807 18808 18809 18810 18811 18812 18813 18814 18815 18816 18817 18818 18819 18820 18821 18822 18823 18824 18825 18826 18827 18828 18829 18830 18831 18832 18833 18834 18835 18836 18837 18838 18839 18840 18841 18842 18843 18844 18845 18846 18847 18848 18849 18850 18851 18852 18853 18854 18855 18856 18857 18858 18859 18860 18861 18862 18863 18864 18865 18866 18867 18868 18869 18870 18871 18872 18873 18874 18875 18876 18877 18878 18879 18880 18881 18882 18883 18884 18885 18886 18887 18888 18889 18890 18891 18892 18893 18894 18895 18896 18897 18898 18899 18900 18901 18902 18903 18904 18905 18906 18907 18908 18909 18910 18911 18912 18913 18914 18915 18916 18917 18918 18919 18920 18921 18922 18923 18924 18925 18926 18927 18928 18929 18930 18931 18932 18933 18934 18935 18936 18937 18938 18939 18940 18941 18942 18943 18944 18945 18946 18947 18948 18949 18950 18951 18952 18953 18954 18955 18956 18957 18958 18959 18960 18961 18962 18963 18964 18965 18966 18967 18968 18969 18970 18971 18972 18973 18974 18975 18976 18977 18978 18979 18980 18981 18982 18983 18984 18985 18986 18987 18988 18989 18990 18991 18992 18993 18994 18995 18996 18997 18998 18999 19000 19001 19002 19003 19004 19005 19006 19007 19008 19009 19010 19011 19012 19013 19014 19015 19016 19017 19018 19019 19020 19021 19022 19023 19024 19025 19026 19027 19028 19029 19030 19031 19032 19033 19034 19035 19036 19037 19038 19039 19040 19041 19042 19043 19044 19045 19046 19047 19048 19049 19050 19051 19052 19053 19054 19055 19056 19057 19058 19059 19060 19061 19062 19063 19064 19065 19066 19067 19068 19069 19070 19071 19072 19073 19074 19075 19076 19077 19078 19079 19080 19081 19082 19083 19084 19085 19086 19087 19088 19089 19090 19091 19092 19093 19094 19095 19096 19097 19098 19099 19100 19101 19102 19103 19104 19105 19106 19107 19108 19109 19110 19111 19112 19113 19114 19115 19116 19117 19118 19119 19120 19121 19122 19123 19124 19125 19126 19127 19128 19129 19130 19131 19132 19133 19134 19135 19136 19137 19138 19139 19140 19141 19142 19143 19144 19145 19146 19147 19148 19149 19150 19151 19152 19153 19154 19155 19156 19157 19158 19159 19160 19161 19162 19163 19164 19165 19166 19167 19168 19169 19170 19171 19172 19173 19174 19175 19176 19177 19178 19179 19180 19181 19182 19183 19184 19185 19186 19187 19188 19189 19190 19191 19192 19193 19194 19195 19196 19197 19198 19199 19200 19201 19202 19203 19204 19205 19206 19207 19208 19209 19210 19211 19212 19213 19214 19215 19216 19217 19218 19219 19220 19221 19222 19223 19224 19225 19226 19227 19228 19229 19230 19231 19232 19233 19234 19235 19236 19237 19238 19239 19240 19241 19242 19243 19244 19245 19246 19247 19248 19249 19250 19251 19252 19253 19254 19255 19256 19257 19258 19259 19260 19261 19262 19263 19264 19265 19266 19267 19268 19269 19270 19271 19272 19273 19274 19275 19276 19277 19278 19279 19280 19281 19282 19283 19284 19285 19286 19287 19288 19289 19290 19291 19292 19293 19294 19295 19296 19297 19298 19299 19300 19301 19302 19303 19304 19305 19306 19307 19308 19309 19310 19311 19312 19313 19314 19315 19316 19317 19318 19319 19320 19321 19322 19323 19324 19325 19326 19327 19328 19329 19330 19331 19332 19333 19334 19335 19336 19337 19338 19339 19340 19341 19342 19343 19344 19345 19346 19347 19348 19349 19350 19351 19352 19353 19354 19355 19356 19357 19358 19359 19360 19361 19362 19363 19364 19365 19366 19367 19368 19369 19370 19371 19372 19373 19374 19375 19376 19377 19378 19379 19380 19381 19382 19383 19384 19385 19386 19387 19388 19389 19390 19391 19392 19393 19394 19395 19396 19397 19398 19399 19400 19401 19402 19403 19404 19405 19406 19407 19408 19409 19410 19411 19412 19413 19414 19415 19416 19417 19418 19419 19420 19421 19422 19423 19424 19425 19426 19427 19428 19429 19430 19431 19432 19433 19434 19435 19436 19437 19438 19439 19440 19441 19442 19443 19444 19445 19446 19447 19448 19449 19450 19451 19452 19453 19454 19455 19456 19457 19458 19459 19460 19461 19462 19463 19464 19465 19466 19467 19468 19469 19470 19471 19472 19473 19474 19475 19476 19477 19478 19479 19480 19481 19482 19483 19484 19485 19486 19487 19488 19489 19490 19491 19492 19493 19494 19495 19496 19497 19498 19499 19500 19501 19502 19503 19504 19505 19506 19507 19508 19509 19510 19511 19512 19513 19514 19515 19516 19517 19518 19519 19520 19521 19522 19523 19524 19525 19526 19527 19528 19529 19530 19531 19532 19533 19534 19535 19536 19537 19538 19539 19540 19541 19542 19543 19544 19545 19546 19547 19548 19549 19550 19551 19552 19553 19554 19555 19556 19557 19558 19559 19560 19561 19562 19563 19564 19565 19566 19567 19568 19569 19570 19571 19572 19573 19574 19575 19576 19577 19578 19579 19580 19581 19582 19583 19584 19585 19586 19587 19588 19589 19590 19591 19592 19593 19594 19595 19596 19597 19598 19599 19600 19601 19602 19603 19604 19605 19606 19607 19608 19609 19610 19611 19612 19613 19614 19615 19616 19617 19618 19619 19620 19621 19622 19623 19624 19625 19626 19627 19628 19629 19630 19631 19632 19633 19634 19635 19636 19637 19638 19639 19640 19641 19642 19643 19644 19645 19646 19647 19648 19649 19650 19651 19652 19653 19654 19655 19656 19657 19658 19659 19660 19661 19662 19663 19664 19665 19666 19667 19668 19669 19670 19671 19672 19673 19674 19675 19676 19677 19678 19679 19680 19681 19682 19683 19684 19685 19686 19687 19688 19689 19690 19691 19692 19693 19694 19695 19696 19697 19698 19699 19700 19701 19702 19703 19704 19705 19706 19707 19708 19709 19710 19711 19712 19713 19714 19715 19716 19717 19718 19719 19720 19721 19722 19723 19724 19725 19726 19727 19728 19729 19730 19731 19732 19733 19734 19735 19736 19737 19738 19739 19740 19741 19742 19743 19744 19745 19746 19747 19748 19749 19750 19751 19752 19753 19754 19755 19756 19757 19758 19759 19760 19761 19762 19763 19764 19765 19766 19767 19768 19769 19770 19771 19772 19773 19774 19775 19776 19777 19778 19779 19780 19781 19782 19783 19784 19785 19786 19787 19788 19789 19790 19791 19792 19793 19794 19795 19796 19797 19798 19799 19800 19801 19802 19803 19804 19805 19806 19807 19808 19809 19810 19811 19812 19813 19814 19815 19816 19817 19818 19819 19820 19821 19822 19823 19824 19825 19826 19827 19828 19829 19830 19831 19832 19833 19834 19835 19836 19837 19838 19839 19840 19841 19842 19843 19844 19845 19846 19847 19848 19849 19850 19851 19852 19853 19854 19855 19856 19857 19858 19859 19860 19861 19862 19863 19864 19865 19866 19867 19868 19869 19870 19871 19872 19873 19874 19875 19876 19877 19878 19879 19880 19881 19882 19883 19884 19885 19886 19887 19888 19889 19890 19891 19892 19893 19894 19895 19896 19897 19898 19899 19900 19901 19902 19903 19904 19905 19906 19907 19908 19909 19910 19911 19912 19913 19914 19915 19916 19917 19918 19919 19920 19921 19922 19923 19924 19925 19926 19927 19928 19929 19930 19931 19932 19933 19934 19935 19936 19937 19938 19939 19940 19941 19942 19943 19944 19945 19946 19947 19948 19949 19950 19951 19952 19953 19954 19955 19956 19957 19958 19959 19960 19961 19962 19963 19964 19965 19966 19967 19968 19969 19970 19971 19972 19973 19974 19975 19976 19977 19978 19979 19980 19981 19982 19983 19984 19985 19986 19987 19988 19989 19990 19991 19992 19993 19994 19995 19996 19997 19998 19999 20000 20001 20002 20003 20004 20005 20006 20007 20008 20009 20010 20011 20012 20013 20014 20015 20016 20017 20018 20019 20020 20021 20022 20023 20024 20025 20026 20027 20028 20029 20030 20031 20032 20033 20034 20035 20036 20037 20038 20039 20040 20041 20042 20043 20044 20045 20046 20047 20048 20049 20050 20051 20052 20053 20054 20055 20056 20057 20058 20059 20060 20061 20062 20063 20064 20065 20066 20067 20068 20069 20070 20071 20072 20073 20074 20075 20076 20077 20078 20079 20080 20081 20082 20083 20084 20085 20086 20087 20088 20089 20090 20091 20092 20093 20094 20095 20096 20097 20098 20099 20100 20101 20102 20103 20104 20105 20106 20107 20108 20109 20110 20111 20112 20113 20114 20115 20116 20117 20118 20119 20120 20121 20122 20123 20124 20125 20126 20127 20128 20129 20130 20131 20132 20133 20134 20135 20136 20137 20138 20139 20140 20141 20142 20143 20144 20145 20146 20147 20148 20149 20150 20151 20152 20153 20154 20155 20156 20157 20158 20159 20160 20161 20162 20163 20164 20165 20166 20167 20168 20169 20170 20171 20172 20173 20174 20175 20176 20177 20178 20179 20180 20181 20182 20183 20184 20185 20186 20187 20188 20189 20190 20191 20192 20193 20194 20195 20196 20197 20198 20199 20200 20201 20202 20203 20204 20205 20206 20207 20208 20209 20210 20211 20212 20213 20214 20215 20216 20217 20218 20219 20220 20221 20222 20223 20224 20225 20226 20227 20228 20229 20230 20231 20232 20233 20234 20235 20236 20237 20238 20239 20240 20241 20242 20243 20244 20245 20246 20247 20248 20249 20250 20251 20252 20253 20254 20255 20256 20257 20258 20259 20260 20261 20262 20263 20264 20265 20266 20267 20268 20269 20270 20271 20272 20273 20274 20275 20276 20277 20278 20279 20280 20281 20282 20283 20284 20285 20286 20287 20288 20289 20290 20291 20292 20293 20294 20295 20296 20297 20298 20299 20300 20301 20302 20303 20304 20305 20306 20307 20308 20309 20310 20311 20312 20313 20314 20315 20316 20317 20318 20319 20320 20321 20322 20323 20324 20325 20326 20327 20328 20329 20330 20331 20332 20333 20334 20335 20336 20337 20338 20339 20340 20341 20342 20343 20344 20345 20346 20347 20348 20349 20350 20351 20352 20353 20354 20355 20356 20357 20358 20359 20360 20361 20362 20363 20364 20365 20366 20367 20368 20369 20370 20371 20372 20373 20374 20375 20376 20377 20378 20379 20380 20381 20382 20383 20384 20385 20386 20387 20388 20389 20390 20391 20392 20393 20394 20395 20396 20397 20398 20399 20400 20401 20402 20403 20404 20405 20406 20407 20408 20409 20410 20411 20412 20413 20414 20415 20416 20417 20418 20419 20420 20421 20422 20423 20424 20425 20426 20427 20428 20429 20430 20431 20432 20433 20434 20435 20436 20437 20438 20439 20440 20441 20442 20443 20444 20445 20446 20447 20448 20449 20450 20451 20452 20453 20454 20455 20456 20457 20458 20459 20460 20461 20462 20463 20464 20465 20466 20467 20468 20469 20470 20471 20472 20473 20474 20475 20476 20477 20478 20479 20480 20481 20482 20483 20484 20485 20486 20487 20488 20489 20490 20491 20492 20493 20494 20495 20496 20497 20498 20499 20500 20501 20502 20503 20504 20505 20506 20507 20508 20509 20510 20511 20512 20513 20514 20515 20516 20517 20518 20519 20520 20521 20522 20523 20524 20525 20526 20527 20528 20529 20530 20531 20532 20533 20534 20535 20536 20537 20538 20539 20540 20541 20542 20543 20544 20545 20546 20547 20548 20549 20550 20551 20552 20553 20554 20555 20556 20557 20558 20559 20560 20561 20562 20563 20564 20565 20566 20567 20568 20569 20570 20571 20572 20573 20574 20575 20576 20577 20578 20579 20580 20581 20582 20583 20584 20585 20586 20587 20588 20589 20590 20591 20592 20593 20594 20595 20596 20597 20598 20599 20600 20601 20602 20603 20604 20605 20606 20607 20608 20609 20610 20611 20612 20613 20614 20615 20616 20617 20618 20619 20620 20621 20622 20623 20624 20625 20626 20627 20628 20629 20630 20631 20632 20633 20634 20635 20636 20637 20638 20639 20640 20641 20642 20643 20644 20645 20646 20647 20648 20649 20650 20651 20652 20653 20654 20655 20656 20657 20658 20659 20660 20661 20662 20663 20664 20665 20666 20667 20668 20669 20670 20671 20672 20673 20674 20675 20676 20677 20678 20679 20680 20681 20682 20683 20684 20685 20686 20687 20688 20689 20690 20691 20692 20693 20694 20695 20696 20697 20698 20699 20700 20701 20702 20703 20704 20705 20706 20707 20708 20709 20710 20711 20712 20713 20714 20715 20716 20717 20718 20719 20720 20721 20722 20723 20724 20725 20726 20727 20728 20729 20730 20731 20732 20733 20734 20735 20736 20737 20738 20739 20740 20741 20742 20743 20744 20745 20746 20747 20748 20749 20750 20751 20752 20753 20754 20755 20756 20757 20758 20759 20760 20761 20762 20763 20764 20765 20766 20767 20768 20769 20770 20771 20772 20773 20774 20775 20776 20777 20778 20779 20780 20781 20782 20783 20784 20785 20786 20787 20788 20789 20790 20791 20792 20793 20794 20795 20796 20797 20798 20799 20800 20801 20802 20803 20804 20805 20806 20807 20808 20809 20810 20811 20812 20813 20814 20815 20816 20817 20818 20819 20820 20821 20822 20823 20824 20825 20826 20827 20828 20829 20830 20831 20832 20833 20834 20835 20836 20837 20838 20839 20840 20841 20842 20843 20844 20845 20846 20847 20848 20849 20850 20851 20852 20853 20854 20855 20856 20857 20858 20859 20860 20861 20862 20863 20864 20865 20866 20867 20868 20869 20870 20871 20872 20873 20874 20875 20876 20877 20878 20879 20880 20881 20882 20883 20884 20885 20886 20887 20888 20889 20890 20891 20892 20893 20894 20895 20896 20897 20898 20899 20900 20901 20902 20903 20904 20905 20906 20907 20908 20909 20910 20911 20912 20913 20914 20915 20916 20917 20918 20919 20920 20921 20922 20923 20924 20925 20926 20927 20928 20929 20930 20931 20932 20933 20934 20935 20936 20937 20938 20939 20940 20941 20942 20943 20944 20945 20946 20947 20948 20949 20950 20951 20952 20953 20954 20955 20956 20957 20958 20959 20960 20961 20962 20963 20964 20965 20966 20967 20968 20969 20970 20971 20972 20973 20974 20975 20976 20977 20978 20979 20980 20981 20982 20983 20984 20985 20986 20987 20988 20989 20990 20991 20992 20993 20994 20995 20996 20997 20998 20999 21000 21001 21002 21003 21004 21005 21006 21007 21008 21009 21010 21011 21012 21013 21014 21015 21016 21017 21018 21019 21020 21021 21022 21023 21024 21025 21026 21027 21028 21029 21030 21031 21032 21033 21034 21035 21036 21037 21038 21039 21040 21041 21042 21043 21044 21045 21046 21047 21048 21049 21050 21051 21052 21053 21054 21055 21056 21057 21058 21059 21060 21061 21062 21063 21064 21065 21066 21067 21068 21069 21070 21071 21072 21073 21074 21075 21076 21077 21078 21079 21080 21081 21082 21083 21084 21085 21086 21087 21088 21089 21090 21091 21092 21093 21094 21095 21096 21097 21098 21099 21100 21101 21102 21103 21104 21105 21106 21107 21108 21109 21110 21111 21112 21113 21114 21115 21116 21117 21118 21119 21120 21121 21122 21123 21124 21125 21126 21127 21128 21129 21130 21131 21132 21133 21134 21135 21136 21137 21138 21139 21140 21141 21142 21143 21144 21145 21146 21147 21148 21149 21150 21151 21152 21153 21154 21155 21156 21157 21158 21159 21160 21161 21162 21163 21164 21165 21166 21167 21168 21169 21170 21171 21172 21173 21174 21175 21176 21177 21178 21179 21180 21181 21182 21183 21184 21185 21186 21187 21188 21189 21190 21191 21192 21193 21194 21195 21196 21197 21198 21199 21200 21201 21202 21203 21204 21205 21206 21207 21208 21209 21210 21211 21212 21213 21214 21215 21216 21217 21218 21219 21220 21221 21222 21223 21224 21225 21226 21227 21228 21229 21230 21231 21232 21233 21234 21235 21236 21237 21238 21239 21240 21241 21242 21243 21244 21245 21246 21247 21248 21249 21250 21251 21252 21253 21254 21255 21256 21257 21258 21259 21260 21261 21262 21263 21264 21265 21266 21267 21268 21269 21270 21271 21272 21273 21274 21275 21276 21277 21278 21279 21280 21281 21282 21283 21284 21285 21286 21287 21288 21289 21290 21291 21292 21293 21294 21295 21296 21297 21298 21299 21300 21301 21302 21303 21304 21305 21306 21307 21308 21309 21310 21311 21312 21313 21314 21315 21316 21317 21318 21319 21320 21321 21322 21323 21324 21325 21326 21327 21328 21329 21330 21331 21332 21333 21334 21335 21336 21337 21338 21339 21340 21341 21342 21343 21344 21345 21346 21347 21348 21349 21350 21351 21352 21353 21354 21355 21356 21357 21358 21359 21360 21361 21362 21363 21364 21365 21366 21367 21368 21369 21370 21371 21372 21373 21374 21375 21376 21377 21378 21379 21380 21381 21382 21383 21384 21385 21386 21387 21388 21389 21390 21391 21392 21393 21394 21395 21396 21397 21398 21399 21400 21401 21402 21403 21404 21405 21406 21407 21408 21409 21410 21411 21412 21413 21414 21415 21416 21417 21418 21419 21420 21421 21422 21423 21424 21425 21426 21427 21428 21429 21430 21431 21432 21433 21434 21435 21436 21437 21438 21439 21440 21441 21442 21443 21444 21445 21446 21447 21448 21449 21450 21451 21452 21453 21454 21455 21456 21457 21458 21459 21460 21461 21462 21463 21464 21465 21466 21467 21468 21469 21470 21471 21472 21473 21474 21475 21476 21477 21478 21479 21480 21481 21482 21483 21484 21485 21486 21487 21488 21489 21490 21491 21492 21493 21494 21495 21496 21497 21498 21499 21500 21501 21502 21503 21504 21505 21506 21507 21508 21509 21510 21511 21512 21513 21514 21515 21516 21517 21518 21519 21520 21521 21522 21523 21524 21525 21526 21527 21528 21529 21530 21531 21532 21533 21534 21535 21536 21537 21538 21539 21540 21541 21542 21543 21544 21545 21546 21547 21548 21549 21550 21551 21552 21553 21554 21555 21556 21557 21558 21559 21560 21561 21562 21563 21564 21565 21566 21567 21568 21569 21570 21571 21572 21573 21574 21575 21576 21577 21578 21579 21580 21581 21582 21583 21584 21585 21586 21587 21588 21589 21590 21591 21592 21593 21594 21595 21596 21597 21598 21599 21600 21601 21602 21603 21604 21605 21606 21607 21608 21609 21610 21611 21612 21613 21614 21615 21616 21617 21618 21619 21620 21621 21622 21623 21624 21625 21626 21627 21628 21629 21630 21631 21632 21633 21634 21635 21636 21637 21638 21639 21640 21641 21642 21643 21644 21645 21646 21647 21648 21649 21650 21651 21652 21653 21654 21655 21656 21657 21658 21659 21660 21661 21662 21663 21664 21665 21666 21667 21668 21669 21670 21671 21672 21673 21674 21675 21676 21677 21678 21679 21680 21681 21682 21683 21684 21685 21686 21687 21688 21689 21690 21691 21692 21693 21694 21695 21696 21697 21698 21699 21700 21701 21702 21703 21704 21705 21706 21707 21708 21709 21710 21711 21712 21713 21714 21715 21716 21717 21718 21719 21720 21721 21722 21723 21724 21725 21726 21727 21728 21729 21730 21731 21732 21733 21734 21735 21736 21737 21738 21739 21740 21741 21742 21743 21744 21745 21746 21747 21748 21749 21750 21751 21752 21753 21754 21755 21756 21757 21758 21759 21760 21761 21762 21763 21764 21765 21766 21767 21768 21769 21770 21771 21772 21773 21774 21775 21776 21777 21778 21779 21780 21781 21782 21783 21784 21785 21786 21787 21788 21789 21790 21791 21792 21793 21794 21795 21796 21797 21798 21799 21800 21801 21802 21803 21804 21805 21806 21807 21808 21809 21810 21811 21812 21813 21814 21815 21816 21817 21818 21819 21820 21821 21822 21823 21824 21825 21826 21827 21828 21829 21830 21831 21832 21833 21834 21835 21836 21837 21838 21839 21840 21841 21842 21843 21844 21845 21846 21847 21848 21849 21850 21851 21852 21853 21854 21855 21856 21857 21858 21859 21860 21861 21862 21863 21864 21865 21866 21867 21868 21869 21870 21871 21872 21873 21874 21875 21876 21877 21878 21879 21880 21881 21882 21883 21884 21885 21886 21887 21888 21889 21890 21891 21892 21893 21894 21895 21896 21897 21898 21899 21900 21901 21902 21903 21904 21905 21906 21907 21908 21909 21910 21911 21912 21913 21914 21915 21916 21917 21918 21919 21920 21921 21922 21923 21924 21925 21926 21927 21928 21929 21930 21931 21932 21933 21934 21935 21936 21937 21938 21939 21940 21941 21942 21943 21944 21945 21946 21947 21948 21949 21950 21951 21952 21953 21954 21955 21956 21957 21958 21959 21960 21961 21962 21963 21964 21965 21966 21967 21968 21969 21970 21971 21972 21973 21974 21975 21976 21977 21978 21979 21980 21981 21982 21983 21984 21985 21986 21987 21988 21989 21990 21991 21992 21993 21994 21995 21996 21997 21998 21999 22000 22001 22002 22003 22004 22005 22006 22007 22008 22009 22010 22011 22012 22013 22014 22015 22016 22017 22018 22019 22020 22021 22022 22023 22024 22025 22026 22027 22028 22029 22030 22031 22032 22033 22034 22035 22036 22037 22038 22039 22040 22041 22042 22043 22044 22045 22046 22047 22048 22049 22050 22051 22052 22053 22054 22055 22056 22057 22058 22059 22060 22061 22062 22063 22064 22065 22066 22067 22068 22069 22070 22071 22072 22073 22074 22075 22076 22077 22078 22079 22080 22081 22082 22083 22084 22085 22086 22087 22088 22089 22090 22091 22092 22093 22094 22095 22096 22097 22098 22099 22100 22101 22102 22103 22104 22105 22106 22107 22108 22109 22110 22111 22112 22113 22114 22115 22116 22117 22118 22119 22120 22121 22122 22123 22124 22125 22126 22127 22128 22129 22130 22131 22132 22133 22134 22135 22136 22137 22138 22139 22140 22141 22142 22143 22144 22145 22146 22147 22148 22149 22150 22151 22152 22153 22154 22155 22156 22157 22158 22159 22160 22161 22162 22163 22164 22165 22166 22167 22168 22169 22170 22171 22172 22173 22174 22175 22176 22177 22178 22179 22180 22181 22182 22183 22184 22185 22186 22187 22188 22189 22190 22191 22192 22193 22194 22195 22196 22197 22198 22199 22200 22201 22202 22203 22204 22205 22206 22207 22208 22209 22210 22211 22212 22213 22214 22215 22216 22217 22218 22219 22220 22221 22222 22223 22224 22225 22226 22227 22228 22229 22230 22231 22232 22233 22234 22235 22236 22237 22238 22239 22240 22241 22242 22243 22244 22245 22246 22247 22248 22249 22250 22251 22252 22253 22254 22255 22256 22257 22258 22259 22260 22261 22262 22263 22264 22265 22266 22267 22268 22269 22270 22271 22272 22273 22274 22275 22276 22277 22278 22279 22280 22281 22282 22283 22284 22285 22286 22287 22288 22289 22290 22291 22292 22293 22294 22295 22296 22297 22298 22299 22300 22301 22302 22303 22304 22305 22306 22307 22308 22309 22310 22311 22312 22313 22314 22315 22316 22317 22318 22319 22320 22321 22322 22323 22324 22325 22326 22327 22328 22329 22330 22331 22332 22333 22334 22335 22336 22337 22338 22339 22340 22341 22342 22343 22344 22345 22346 22347 22348 22349 22350 22351 22352 22353 22354 22355 22356 22357 22358 22359 22360 22361 22362 22363 22364 22365 22366 22367 22368 22369 22370 22371 22372 22373 22374 22375 22376 22377 22378 22379 22380 22381 22382 22383 22384 22385 22386 22387 22388 22389 22390 22391 22392 22393 22394 22395 22396 22397 22398 22399 22400 22401 22402 22403 22404 22405 22406 22407 22408 22409 22410 22411 22412 22413 22414 22415 22416 22417 22418 22419 22420 22421 22422 22423 22424 22425 22426 22427 22428 22429 22430 22431 22432 22433 22434 22435 22436 22437 22438 22439 22440 22441 22442 22443 22444 22445 22446 22447 22448 22449 22450 22451 22452 22453 22454 22455 22456 22457 22458 22459 22460 22461 22462 22463 22464 22465 22466 22467 22468 22469 22470 22471 22472 22473 22474 22475 22476 22477 22478 22479 22480 22481 22482 22483 22484 22485 22486 22487 22488 22489 22490 22491 22492 22493 22494 22495 22496 22497 22498 22499 22500 22501 22502 22503 22504 22505 22506 22507 22508 22509 22510 22511 22512 22513 22514 22515 22516 22517 22518 22519 22520 22521 22522 22523 22524 22525 22526 22527 22528 22529 22530 22531 22532 22533 22534 22535 22536 22537 22538 22539 22540 22541 22542 22543 22544 22545 22546 22547 22548 22549 22550 22551 22552 22553 22554 22555 22556 22557 22558 22559 22560 22561 22562 22563 22564 22565 22566 22567 22568 22569 22570 22571 22572 22573 22574 22575 22576 22577 22578 22579 22580 22581 22582 22583 22584 22585 22586 22587 22588 22589 22590 22591 22592 22593 22594 22595 22596 22597 22598 22599 22600 22601 22602 22603 22604 22605 22606 22607 22608 22609 22610 22611 22612 22613 22614 22615 22616 22617 22618 22619 22620 22621 22622 22623 22624 22625 22626 22627 22628 22629 22630 22631 22632 22633 22634 22635 22636 22637 22638 22639 22640 22641 22642 22643 22644 22645 22646 22647 22648 22649 22650 22651 22652 22653 22654 22655 22656 22657 22658 22659 22660 22661 22662 22663 22664 22665 22666 22667 22668 22669 22670 22671 22672 22673 22674 22675 22676 22677 22678 22679 22680 22681 22682 22683 22684 22685 22686 22687 22688 22689 22690 22691 22692 22693 22694 22695 22696 22697 22698 22699 22700 22701 22702 22703 22704 22705 22706 22707 22708 22709 22710 22711 22712 22713 22714 22715 22716 22717 22718 22719 22720 22721 22722 22723 22724 22725 22726 22727 22728 22729 22730 22731 22732 22733 22734 22735 22736 22737 22738 22739 22740 22741 22742 22743 22744 22745 22746 22747 22748 22749 22750 22751 22752 22753 22754 22755 22756 22757 22758 22759 22760 22761 22762 22763 22764 22765 22766 22767 22768 22769 22770 22771 22772 22773 22774 22775 22776 22777 22778 22779 22780 22781 22782 22783 22784 22785 22786 22787 22788 22789 22790 22791 22792 22793 22794 22795 22796 22797 22798 22799 22800 22801 22802 22803 22804 22805 22806 22807 22808 22809 22810 22811 22812 22813 22814 22815 22816 22817 22818 22819 22820 22821 22822 22823 22824 22825 22826 22827 22828 22829 22830 22831 22832 22833 22834 22835 22836 22837 22838 22839 22840 22841 22842 22843 22844 22845 22846 22847 22848 22849 22850 22851 22852 22853 22854 22855 22856 22857 22858 22859 22860 22861 22862 22863 22864 22865 22866 22867 22868 22869 22870 22871 22872 22873 22874 22875 22876 22877 22878 22879 22880 22881 22882 22883 22884 22885 22886 22887 22888 22889 22890 22891 22892 22893 22894 22895 22896 22897 22898 22899 22900 22901 22902 22903 22904 22905 22906 22907 22908 22909 22910 22911 22912 22913 22914 22915 22916 22917 22918 22919 22920 22921 22922 22923 22924 22925 22926 22927 22928 22929 22930 22931 22932 22933 22934 22935 22936 22937 22938 22939 22940 22941 22942 22943 22944 22945 22946 22947 22948 22949 22950 22951 22952 22953 22954 22955 22956 22957 22958 22959 22960 22961 22962 22963 22964 22965 22966 22967 22968 22969 22970 22971 22972 22973 22974 22975 22976 22977 22978 22979 22980 22981 22982 22983 22984 22985 22986 22987 22988 22989 22990 22991 22992 22993 22994 22995 22996 22997 22998 22999 23000 23001 23002 23003 23004 23005 23006 23007 23008 23009 23010 23011 23012 23013 23014 23015 23016 23017 23018 23019 23020 23021 23022 23023 23024 23025 23026 23027 23028 23029 23030 23031 23032 23033 23034 23035 23036 23037 23038 23039 23040 23041 23042 23043 23044 23045 23046 23047 23048 23049 23050 23051 23052 23053 23054 23055 23056 23057 23058 23059 23060 23061 23062 23063 23064 23065 23066 23067 23068 23069 23070 23071 23072 23073 23074 23075 23076 23077 23078 23079 23080 23081 23082 23083 23084 23085 23086 23087 23088 23089 23090 23091 23092 23093 23094 23095 23096 23097 23098 23099 23100 23101 23102 23103 23104 23105 23106 23107 23108 23109 23110 23111 23112 23113 23114 23115 23116 23117 23118 23119 23120 23121 23122 23123 23124 23125 23126 23127 23128 23129 23130 23131 23132 23133 23134 23135 23136 23137 23138 23139 23140 23141 23142 23143 23144 23145 23146 23147 23148 23149 23150 23151 23152 23153 23154 23155 23156 23157 23158 23159 23160 23161 23162 23163 23164 23165 23166 23167 23168 23169 23170 23171 23172 23173 23174 23175 23176 23177 23178 23179 23180 23181 23182 23183 23184 23185 23186 23187 23188 23189 23190 23191 23192 23193 23194 23195 23196 23197 23198 23199 23200 23201 23202 23203 23204 23205 23206 23207 23208 23209 23210 23211 23212 23213 23214 23215 23216 23217 23218 23219 23220 23221 23222 23223 23224 23225 23226 23227 23228 23229 23230 23231 23232 23233 23234 23235 23236 23237 23238 23239 23240 23241 23242 23243 23244 23245 23246 23247 23248 23249 23250 23251 23252 23253 23254 23255 23256 23257 23258 23259 23260 23261 23262 23263 23264 23265 23266 23267 23268 23269 23270 23271 23272 23273 23274 23275 23276 23277 23278 23279 23280 23281 23282 23283 23284 23285 23286 23287 23288 23289 23290 23291 23292 23293 23294 23295 23296 23297 23298 23299 23300 23301 23302 23303 23304 23305 23306 23307 23308 23309 23310 23311 23312 23313 23314 23315 23316 23317 23318 23319 23320 23321 23322 23323 23324 23325 23326 23327 23328 23329 23330 23331 23332 23333 23334 23335 23336 23337 23338 23339 23340 23341 23342 23343 23344 23345 23346 23347 23348 23349 23350 23351 23352 23353 23354 23355 23356 23357 23358 23359 23360 23361 23362 23363 23364 23365 23366 23367 23368 23369 23370 23371 23372 23373 23374 23375 23376 23377 23378 23379 23380 23381 23382 23383 23384 23385 23386 23387 23388 23389 23390 23391 23392 23393 23394 23395 23396 23397 23398 23399 23400 23401 23402 23403 23404 23405 23406 23407 23408 23409 23410 23411 23412 23413 23414 23415 23416 23417 23418 23419 23420 23421 23422 23423 23424 23425 23426 23427 23428 23429 23430 23431 23432 23433 23434 23435 23436 23437 23438 23439 23440 23441 23442 23443 23444 23445 23446 23447 23448 23449 23450 23451 23452 23453 23454 23455 23456 23457 23458 23459 23460 23461 23462 23463 23464 23465 23466 23467 23468 23469 23470 23471 23472 23473 23474 23475 23476 23477 23478 23479 23480 23481 23482 23483 23484 23485 23486 23487 23488 23489 23490 23491 23492 23493 23494 23495 23496 23497 23498 23499 23500 23501 23502 23503 23504 23505 23506 23507 23508 23509 23510 23511 23512 23513 23514 23515 23516 23517 23518 23519 23520 23521 23522 23523 23524 23525 23526 23527 23528 23529 23530 23531 23532 23533 23534 23535 23536 23537 23538 23539 23540 23541 23542 23543 23544 23545 23546 23547 23548 23549 23550 23551 23552 23553 23554 23555 23556 23557 23558 23559 23560 23561 23562 23563 23564 23565 23566 23567 23568 23569 23570 23571 23572 23573 23574 23575 23576 23577 23578 23579 23580 23581 23582 23583 23584 23585 23586 23587 23588 23589 23590 23591 23592 23593 23594 23595 23596 23597 23598 23599 23600 23601 23602 23603 23604 23605 23606 23607 23608 23609 23610 23611 23612 23613 23614 23615 23616 23617 23618 23619 23620 23621 23622 23623 23624 23625 23626 23627 23628 23629 23630 23631 23632 23633 23634 23635 23636 23637 23638 23639 23640 23641 23642 23643 23644 23645 23646 23647 23648 23649 23650 23651 23652 23653 23654 23655 23656 23657 23658 23659 23660 23661 23662 23663 23664 23665 23666 23667 23668 23669 23670 23671 23672 23673 23674 23675 23676 23677 23678 23679 23680 23681 23682 23683 23684 23685 23686 23687 23688 23689 23690 23691 23692 23693 23694 23695 23696 23697 23698 23699 23700 23701 23702 23703 23704 23705 23706 23707 23708 23709 23710 23711 23712 23713 23714 23715 23716 23717 23718 23719 23720 23721 23722 23723 23724 23725 23726 23727 23728 23729 23730 23731 23732 23733 23734 23735 23736 23737 23738 23739 23740 23741 23742 23743 23744 23745 23746 23747 23748 23749 23750 23751 23752 23753 23754 23755 23756 23757 23758 23759 23760 23761 23762 23763 23764 23765 23766 23767 23768 23769 23770 23771 23772 23773 23774 23775 23776 23777 23778 23779 23780 23781 23782 23783 23784 23785 23786 23787 23788 23789 23790 23791 23792 23793 23794 23795 23796 23797 23798 23799 23800 23801 23802 23803 23804 23805 23806 23807 23808 23809 23810 23811 23812 23813 23814 23815 23816 23817 23818 23819 23820 23821 23822 23823 23824 23825 23826 23827 23828 23829 23830 23831 23832 23833 23834 23835 23836 23837 23838 23839 23840 23841 23842 23843 23844 23845 23846 23847 23848 23849 23850 23851 23852 23853 23854 23855 23856 23857 23858 23859 23860 23861 23862 23863 23864 23865 23866 23867 23868 23869 23870 23871 23872 23873 23874 23875 23876 23877 23878 23879 23880 23881 23882 23883 23884 23885 23886 23887 23888 23889 23890 23891 23892 23893 23894 23895 23896 23897 23898 23899 23900 23901 23902 23903 23904 23905 23906 23907 23908 23909 23910 23911 23912 23913 23914 23915 23916 23917 23918 23919 23920 23921 23922 23923 23924 23925 23926 23927 23928 23929 23930 23931 23932 23933 23934 23935 23936 23937 23938 23939 23940 23941 23942 23943 23944 23945 23946 23947 23948 23949 23950 23951 23952 23953 23954 23955 23956 23957 23958 23959 23960 23961 23962 23963 23964 23965 23966 23967 23968 23969 23970 23971 23972 23973 23974 23975 23976 23977 23978 23979 23980 23981 23982 23983 23984 23985 23986 23987 23988 23989 23990 23991 23992 23993 23994 23995 23996 23997 23998 23999 24000 24001 24002 24003 24004 24005 24006 24007 24008 24009 24010 24011 24012 24013 24014 24015 24016 24017 24018 24019 24020 24021 24022 24023 24024 24025 24026 24027 24028 24029 24030 24031 24032 24033 24034 24035 24036 24037 24038 24039 24040 24041 24042 24043 24044 24045 24046 24047 24048 24049 24050 24051 24052 24053 24054 24055 24056 24057 24058 24059 24060 24061 24062 24063 24064 24065 24066 24067 24068 24069 24070 24071 24072 24073 24074 24075 24076 24077 24078 24079 24080 24081 24082 24083 24084 24085 24086 24087 24088 24089 24090 24091 24092 24093 24094 24095 24096 24097 24098 24099 24100 24101 24102 24103 24104 24105 24106 24107 24108 24109 24110 24111 24112 24113 24114 24115 24116 24117 24118 24119 24120 24121 24122 24123 24124 24125 24126 24127 24128 24129 24130 24131 24132 24133 24134 24135 24136 24137 24138 24139 24140 24141 24142 24143 24144 24145 24146 24147 24148 24149 24150 24151 24152 24153 24154 24155 24156 24157 24158 24159 24160 24161 24162 24163 24164 24165 24166 24167 24168 24169 24170 24171 24172 24173 24174 24175 24176 24177 24178 24179 24180 24181 24182 24183 24184 24185 24186 24187 24188 24189 24190 24191 24192 24193 24194 24195 24196 24197 24198 24199 24200 24201 24202 24203 24204 24205 24206 24207 24208 24209 24210 24211 24212 24213 24214 24215 24216 24217 24218 24219 24220 24221 24222 24223 24224 24225 24226 24227 24228 24229 24230 24231 24232 24233 24234 24235 24236 24237 24238 24239 24240 24241 24242 24243 24244 24245 24246 24247 24248 24249 24250 24251 24252 24253 24254 24255 24256 24257 24258 24259 24260 24261 24262 24263 24264 24265 24266 24267 24268 24269 24270 24271 24272 24273 24274 24275 24276 24277 24278 24279 24280 24281 24282 24283 24284 24285 24286 24287 24288 24289 24290 24291 24292 24293 24294 24295 24296 24297 24298 24299 24300 24301 24302 24303 24304 24305 24306 24307 24308 24309 24310 24311 24312 24313 24314 24315 24316 24317 24318 24319 24320 24321 24322 24323 24324 24325 24326 24327 24328 24329 24330 24331 24332 24333 24334 24335 24336 24337 24338 24339 24340 24341 24342 24343 24344 24345 24346 24347 24348 24349 24350 24351 24352 24353 24354 24355 24356 24357 24358 24359 24360 24361 24362 24363 24364 24365 24366 24367 24368 24369 24370 24371 24372 24373 24374 24375 24376 24377 24378 24379 24380 24381 24382 24383 24384 24385 24386 24387 24388 24389 24390 24391 24392 24393 24394 24395 24396 24397 24398 24399 24400 24401 24402 24403 24404 24405 24406 24407 24408 24409 24410 24411 24412 24413 24414 24415 24416 24417 24418 24419 24420 24421 24422 24423 24424 24425 24426 24427 24428 24429 24430 24431 24432 24433 24434 24435 24436 24437 24438 24439 24440 24441 24442 24443 24444 24445 24446 24447 24448 24449 24450 24451 24452 24453 24454 24455 24456 24457 24458 24459 24460 24461 24462 24463 24464 24465 24466 24467 24468 24469 24470 24471 24472 24473 24474 24475 24476 24477 24478 24479 24480 24481 24482 24483 24484 24485 24486 24487 24488 24489 24490 24491 24492 24493 24494 24495 24496 24497 24498 24499 24500 24501 24502 24503 24504 24505 24506 24507 24508 24509 24510 24511 24512 24513 24514 24515 24516 24517 24518 24519 24520 24521 24522 24523 24524 24525 24526 24527 24528 24529 24530 24531 24532 24533 24534 24535 24536 24537 24538 24539 24540 24541 24542 24543 24544 24545 24546 24547 24548 24549 24550 24551 24552 24553 24554 24555 24556 24557 24558 24559 24560 24561 24562 24563 24564 24565 24566 24567 24568 24569 24570 24571 24572 24573 24574 24575 24576 24577 24578 24579 24580 24581 24582 24583 24584 24585 24586 24587 24588 24589 24590 24591 24592 24593 24594 24595 24596 24597 24598 24599 24600 24601 24602 24603 24604 24605 24606 24607 24608 24609 24610 24611 24612 24613 24614 24615 24616 24617 24618 24619 24620 24621 24622 24623 24624 24625 24626 24627 24628 24629 24630 24631 24632 24633 24634 24635 24636 24637 24638 24639 24640 24641 24642 24643 24644 24645 24646 24647 24648 24649 24650 24651 24652 24653 24654 24655 24656 24657 24658 24659 24660 24661 24662 24663 24664 24665 24666 24667 24668 24669 24670 24671 24672 24673 24674 24675 24676 24677 24678 24679 24680 24681 24682 24683 24684 24685 24686 24687 24688 24689 24690 24691 24692 24693 24694 24695 24696 24697 24698 24699 24700 24701 24702 24703 24704 24705 24706 24707 24708 24709 24710 24711 24712 24713 24714 24715 24716 24717 24718 24719 24720 24721 24722 24723 24724 24725 24726 24727 24728 24729 24730 24731 24732 24733 24734 24735 24736 24737 24738 24739 24740 24741 24742 24743 24744 24745 24746 24747 24748 24749 24750 24751 24752 24753 24754 24755 24756 24757 24758 24759 24760 24761 24762 24763 24764 24765 24766 24767 24768 24769 24770 24771 24772 24773 24774 24775 24776 24777 24778 24779 24780 24781 24782 24783 24784 24785 24786 24787 24788 24789 24790 24791 24792 24793 24794 24795 24796 24797 24798 24799 24800 24801 24802 24803 24804 24805 24806 24807 24808 24809 24810 24811 24812 24813 24814 24815 24816 24817 24818 24819 24820 24821 24822 24823 24824 24825 24826 24827 24828 24829 24830 24831 24832 24833 24834 24835 24836 24837 24838 24839 24840 24841 24842 24843 24844 24845 24846 24847 24848 24849 24850 24851 24852 24853 24854 24855 24856 24857 24858 24859 24860 24861 24862 24863 24864 24865 24866 24867 24868 24869 24870 24871 24872 24873 24874 24875 24876 24877 24878 24879 24880 24881 24882 24883 24884 24885 24886 24887 24888 24889 24890 24891 24892 24893 24894 24895 24896 24897 24898 24899 24900 24901 24902 24903 24904 24905 24906 24907 24908 24909 24910 24911 24912 24913 24914 24915 24916 24917 24918 24919 24920 24921 24922 24923 24924 24925 24926 24927 24928 24929 24930 24931 24932 24933 24934 24935 24936 24937 24938 24939 24940 24941 24942 24943 24944 24945 24946 24947 24948 24949 24950 24951 24952 24953 24954 24955 24956 24957 24958 24959 24960 24961 24962 24963 24964 24965 24966 24967 24968 24969 24970 24971 24972 24973 24974 24975 24976 24977 24978 24979 24980 24981 24982 24983 24984 24985 24986 24987 24988 24989 24990 24991 24992 24993 24994 24995 24996 24997 24998 24999 25000 25001 25002 25003 25004 25005 25006 25007 25008 25009 25010 25011 25012 25013 25014 25015 25016 25017 25018 25019 25020 25021 25022 25023 25024 25025 25026 25027 25028 25029 25030 25031 25032 25033 25034 25035 25036 25037 25038 25039 25040 25041 25042 25043 25044 25045 25046 25047 25048 25049 25050 25051 25052 25053 25054 25055 25056 25057 25058 25059 25060 25061 25062 25063 25064 25065 25066 25067 25068 25069 25070 25071 25072 25073 25074 25075 25076 25077 25078 25079 25080 25081 25082 25083 25084 25085 25086 25087 25088 25089 25090 25091 25092 25093 25094 25095 25096 25097 25098 25099 25100 25101 25102 25103 25104 25105 25106 25107 25108 25109 25110 25111 25112 25113 25114 25115 25116 25117 25118 25119 25120 25121 25122 25123 25124 25125 25126 25127 25128 25129 25130 25131 25132 25133 25134 25135 25136 25137 25138 25139 25140 25141 25142 25143 25144 25145 25146 25147 25148 25149 25150 25151 25152 25153 25154 25155 25156 25157 25158 25159 25160 25161 25162 25163 25164 25165 25166 25167 25168 25169 25170 25171 25172 25173 25174 25175 25176 25177 25178 25179 25180 25181 25182 25183 25184 25185 25186 25187 25188 25189 25190 25191 25192 25193 25194 25195 25196 25197 25198 25199 25200 25201 25202 25203 25204 25205 25206 25207 25208 25209 25210 25211 25212 25213 25214 25215 25216 25217 25218 25219 25220 25221 25222 25223 25224 25225 25226 25227 25228 25229 25230 25231 25232 25233 25234 25235 25236 25237 25238 25239 25240 25241 25242 25243 25244 25245 25246 25247 25248 25249 25250 25251 25252 25253 25254 25255 25256 25257 25258 25259 25260 25261 25262 25263 25264 25265 25266 25267 25268 25269 25270 25271 25272 25273 25274 25275 25276 25277 25278 25279 25280 25281 25282 25283 25284 25285 25286 25287 25288 25289 25290 25291 25292 25293 25294 25295 25296 25297 25298 25299 25300 25301 25302 25303 25304 25305 25306 25307 25308 25309 25310 25311 25312 25313 25314 25315 25316 25317 25318 25319 25320 25321 25322 25323 25324 25325 25326 25327 25328 25329 25330 25331 25332 25333 25334 25335 25336 25337 25338 25339 25340 25341 25342 25343 25344 25345 25346 25347 25348 25349 25350 25351 25352 25353 25354 25355 25356 25357 25358 25359 25360 25361 25362 25363 25364 25365 25366 25367 25368 25369 25370 25371 25372 25373 25374 25375 25376 25377 25378 25379 25380 25381 25382 25383 25384 25385 25386 25387 25388 25389 25390 25391 25392 25393 25394 25395 25396 25397 25398 25399 25400 25401 25402 25403 25404 25405 25406 25407 25408 25409 25410 25411 25412 25413 25414 25415 25416 25417 25418 25419 25420 25421 25422 25423 25424 25425 25426 25427 25428 25429 25430 25431 25432 25433 25434 25435 25436 25437 25438 25439 25440 25441 25442 25443 25444 25445 25446 25447 25448 25449 25450 25451 25452 25453 25454 25455 25456 25457 25458 25459 25460 25461 25462 25463 25464 25465 25466 25467 25468 25469 25470 25471 25472 25473 25474 25475 25476 25477 25478 25479 25480 25481 25482 25483 25484 25485 25486 25487 25488 25489 25490 25491 25492 25493 25494 25495 25496 25497 25498 25499 25500 25501 25502 25503 25504 25505 25506 25507 25508 25509 25510 25511 25512 25513 25514 25515 25516 25517 25518 25519 25520 25521 25522 25523 25524 25525 25526 25527 25528 25529 25530 25531 25532 25533 25534 25535 25536 25537 25538 25539 25540 25541 25542 25543 25544 25545 25546 25547 25548 25549 25550 25551 25552 25553 25554 25555 25556 25557 25558 25559 25560 25561 25562 25563 25564 25565 25566 25567 25568 25569 25570 25571 25572 25573 25574 25575 25576 25577 25578 25579 25580 25581 25582 25583 25584 25585 25586 25587 25588 25589 25590 25591 25592 25593 25594 25595 25596 25597 25598 25599 25600 25601 25602 25603 25604 25605 25606 25607 25608 25609 25610 25611 25612 25613 25614 25615 25616 25617 25618 25619 25620 25621 25622 25623 25624 25625 25626 25627 25628 25629 25630 25631 25632 25633 25634 25635 25636 25637 25638 25639 25640 25641 25642 25643 25644 25645 25646 25647 25648 25649 25650 25651 25652 25653 25654 25655 25656 25657 25658 25659 25660 25661 25662 25663 25664 25665 25666 25667 25668 25669 25670 25671 25672 25673 25674 25675 25676 25677 25678 25679 25680 25681 25682 25683 25684 25685 25686 25687 25688 25689 25690 25691 25692 25693 25694 25695 25696 25697 25698 25699 25700 25701 25702 25703 25704 25705 25706 25707 25708 25709 25710 25711 25712 25713 25714 25715 25716 25717 25718 25719 25720 25721 25722 25723 25724 25725 25726 25727 25728 25729 25730 25731 25732 25733 25734 25735 25736 25737 25738 25739 25740 25741 25742 25743 25744 25745 25746 25747 25748 25749 25750 25751 25752 25753 25754 25755 25756 25757 25758 25759 25760 25761 25762 25763 25764 25765 25766 25767 25768 25769 25770 25771 25772 25773 25774 25775 25776 25777 25778 25779 25780 25781 25782 25783 25784 25785 25786 25787 25788 25789 25790 25791 25792 25793 25794 25795 25796 25797 25798 25799 25800 25801 25802 25803 25804 25805 25806 25807 25808 25809 25810 25811 25812 25813 25814 25815 25816 25817 25818 25819 25820 25821 25822 25823 25824 25825 25826 25827 25828 25829 25830 25831 25832 25833 25834 25835 25836 25837 25838 25839 25840 25841 25842 25843 25844 25845 25846 25847 25848 25849 25850 25851 25852 25853 25854 25855 25856 25857 25858 25859 25860 25861 25862 25863 25864 25865 25866 25867 25868 25869 25870 25871 25872 25873 25874 25875 25876 25877 25878 25879 25880 25881 25882 25883 25884 25885 25886 25887 25888 25889 25890 25891 25892 25893 25894 25895 25896 25897 25898 25899 25900 25901 25902 25903 25904 25905 25906 25907 25908 25909 25910 25911 25912 25913 25914 25915 25916 25917 25918 25919 25920 25921 25922 25923 25924 25925 25926 25927 25928 25929 25930 25931 25932 25933 25934 25935 25936 25937 25938 25939 25940 25941 25942 25943 25944 25945 25946 25947 25948 25949 25950 25951 25952 25953 25954 25955 25956 25957 25958 25959 25960 25961 25962 25963 25964 25965 25966 25967 25968 25969 25970 25971 25972 25973 25974 25975 25976 25977 25978 25979 25980 25981 25982 25983 25984 25985 25986 25987 25988 25989 25990 25991 25992 25993 25994 25995 25996 25997 25998 25999 26000 26001 26002 26003 26004 26005 26006 26007 26008 26009 26010 26011 26012 26013 26014 26015 26016 26017 26018 26019 26020 26021 26022 26023 26024 26025 26026 26027 26028 26029 26030 26031 26032 26033 26034 26035 26036 26037 26038 26039 26040 26041 26042 26043 26044 26045 26046 26047 26048 26049 26050 26051 26052 26053 26054 26055 26056 26057 26058 26059 26060 26061 26062 26063 26064 26065 26066 26067 26068 26069 26070 26071 26072 26073 26074 26075 26076 26077 26078 26079 26080 26081 26082 26083 26084 26085 26086 26087 26088 26089 26090 26091 26092 26093 26094 26095 26096 26097 26098 26099 26100 26101 26102 26103 26104 26105 26106 26107 26108 26109 26110 26111 26112 26113 26114 26115 26116 26117 26118 26119 26120 26121 26122 26123 26124 26125 26126 26127 26128 26129 26130 26131 26132 26133 26134 26135 26136 26137 26138 26139 26140 26141 26142 26143 26144 26145 26146 26147 26148 26149 26150 26151 26152 26153 26154 26155 26156 26157 26158 26159 26160 26161 26162 26163 26164 26165 26166 26167 26168 26169 26170 26171 26172 26173 26174 26175 26176 26177 26178 26179 26180 26181 26182 26183 26184 26185 26186 26187 26188 26189 26190 26191 26192 26193 26194 26195 26196 26197 26198 26199 26200 26201 26202 26203 26204 26205 26206 26207 26208 26209 26210 26211 26212 26213 26214 26215 26216 26217 26218 26219 26220 26221 26222 26223 26224 26225 26226 26227 26228 26229 26230 26231 26232 26233 26234 26235 26236 26237 26238 26239 26240 26241 26242 26243 26244 26245 26246 26247 26248 26249 26250 26251 26252 26253 26254 26255 26256 26257 26258 26259 26260 26261 26262 26263 26264 26265 26266 26267 26268 26269 26270 26271 26272 26273 26274 26275 26276 26277 26278 26279 26280 26281 26282 26283 26284 26285 26286 26287 26288 26289 26290 26291 26292 26293 26294 26295 26296 26297 26298 26299 26300 26301 26302 26303 26304 26305 26306 26307 26308 26309 26310 26311 26312 26313 26314 26315 26316 26317 26318 26319 26320 26321 26322 26323 26324 26325 26326 26327 26328 26329 26330 26331 26332 26333 26334 26335 26336 26337 26338 26339 26340 26341 26342 26343 26344 26345 26346 26347 26348 26349 26350 26351 26352 26353 26354 26355 26356 26357 26358 26359 26360 26361 26362 26363 26364 26365 26366 26367 26368 26369 26370 26371 26372 26373 26374 26375 26376 26377 26378 26379 26380 26381 26382 26383 26384 26385 26386 26387 26388 26389 26390 26391 26392 26393 26394 26395 26396 26397 26398 26399 26400 26401 26402 26403 26404 26405 26406 26407 26408 26409 26410 26411 26412 26413 26414 26415 26416 26417 26418 26419 26420 26421 26422 26423 26424 26425 26426 26427 26428 26429 26430 26431 26432 26433 26434 26435 26436 26437 26438 26439 26440 26441 26442 26443 26444 26445 26446 26447 26448 26449 26450 26451 26452 26453 26454 26455 26456 26457 26458 26459 26460 26461 26462 26463 26464 26465 26466 26467 26468 26469 26470 26471 26472 26473 26474 26475 26476 26477 26478 26479 26480 26481 26482 26483 26484 26485 26486 26487 26488 26489 26490 26491 26492 26493 26494 26495 26496 26497 26498 26499 26500 26501 26502 26503 26504 26505 26506 26507 26508 26509 26510 26511 26512 26513 26514 26515 26516 26517 26518 26519 26520 26521 26522 26523 26524 26525 26526 26527 26528 26529 26530 26531 26532 26533 26534 26535 26536 26537 26538 26539 26540 26541 26542 26543 26544 26545 26546 26547 26548 26549 26550 26551 26552 26553 26554 26555 26556 26557 26558 26559 26560 26561 26562 26563 26564 26565 26566 26567 26568 26569 26570 26571 26572 26573 26574 26575 26576 26577 26578 26579 26580 26581 26582 26583 26584 26585 26586 26587 26588 26589 26590 26591 26592 26593 26594 26595 26596 26597 26598 26599 26600 26601 26602 26603 26604 26605 26606 26607 26608 26609 26610 26611 26612 26613 26614 26615 26616 26617 26618 26619 26620 26621 26622 26623 26624 26625 26626 26627 26628 26629 26630 26631 26632 26633 26634 26635 26636 26637 26638 26639 26640 26641 26642 26643 26644 26645 26646 26647 26648 26649 26650 26651 26652 26653 26654 26655 26656 26657 26658 26659 26660 26661 26662 26663 26664 26665 26666 26667 26668 26669 26670 26671 26672 26673 26674 26675 26676 26677 26678 26679 26680 26681 26682 26683 26684 26685 26686 26687 26688 26689 26690 26691 26692 26693 26694 26695 26696 26697 26698 26699 26700 26701 26702 26703 26704 26705 26706 26707 26708 26709 26710 26711 26712 26713 26714 26715 26716 26717 26718 26719 26720 26721 26722 26723 26724 26725 26726 26727 26728 26729 26730 26731 26732 26733 26734 26735 26736 26737 26738 26739 26740 26741 26742 26743 26744 26745 26746 26747 26748 26749 26750 26751 26752 26753 26754 26755 26756 26757 26758 26759 26760 26761 26762 26763 26764 26765 26766 26767 26768 26769 26770 26771 26772 26773 26774 26775 26776 26777 26778 26779 26780 26781 26782 26783 26784 26785 26786 26787 26788 26789 26790 26791 26792 26793 26794 26795 26796 26797 26798 26799 26800 26801 26802 26803 26804 26805 26806 26807 26808 26809 26810 26811 26812 26813 26814 26815 26816 26817 26818 26819 26820 26821 26822 26823 26824 26825 26826 26827 26828 26829 26830 26831 26832 26833 26834 26835 26836 26837 26838 26839 26840 26841 26842 26843 26844 26845 26846 26847 26848 26849 26850 26851 26852 26853 26854 26855 26856 26857 26858 26859 26860 26861 26862 26863 26864 26865 26866 26867 26868 26869 26870 26871 26872 26873 26874 26875 26876 26877 26878 26879 26880 26881 26882 26883 26884 26885 26886 26887 26888 26889 26890 26891 26892 26893 26894 26895 26896 26897 26898 26899 26900 26901 26902 26903 26904 26905 26906 26907 26908 26909 26910 26911 26912 26913 26914 26915 26916 26917 26918 26919 26920 26921 26922 26923 26924 26925 26926 26927 26928 26929 26930 26931 26932 26933 26934 26935 26936 26937 26938 26939 26940 26941 26942 26943 26944 26945 26946 26947 26948 26949 26950 26951 26952 26953 26954 26955 26956 26957 26958 26959 26960 26961 26962 26963 26964 26965 26966 26967 26968 26969 26970 26971 26972 26973 26974 26975 26976 26977 26978 26979 26980 26981 26982 26983 26984 26985 26986 26987 26988 26989 26990 26991 26992 26993 26994 26995 26996 26997 26998 26999 27000 27001 27002 27003 27004 27005 27006 27007 27008 27009 27010 27011 27012 27013 27014 27015 27016 27017 27018 27019 27020 27021 27022 27023 27024 27025 27026 27027 27028 27029 27030 27031 27032 27033 27034 27035 27036 27037 27038 27039 27040 27041 27042 27043 27044 27045 27046 27047 27048 27049 27050 27051 27052 27053 27054 27055 27056 27057 27058 27059 27060 27061 27062 27063 27064 27065 27066 27067 27068 27069 27070 27071 27072 27073 27074 27075 27076 27077 27078 27079 27080 27081 27082 27083 27084 27085 27086 27087 27088 27089 27090 27091 27092 27093 27094 27095 27096 27097 27098 27099 27100 27101 27102 27103 27104 27105 27106 27107 27108 27109 27110 27111 27112 27113 27114 27115 27116 27117 27118 27119 27120 27121 27122 27123 27124 27125 27126 27127 27128 27129 27130 27131 27132 27133 27134 27135 27136 27137 27138 27139 27140 27141 27142 27143 27144 27145 27146 27147 27148 27149 27150 27151 27152 27153 27154 27155 27156 27157 27158 27159 27160 27161 27162 27163 27164 27165 27166 27167 27168 27169 27170 27171 27172 27173 27174 27175 27176 27177 27178 27179 27180 27181 27182 27183 27184 27185 27186 27187 27188 27189 27190 27191 27192 27193 27194 27195 27196 27197 27198 27199 27200 27201 27202 27203 27204 27205 27206 27207 27208 27209 27210 27211 27212 27213 27214 27215 27216 27217 27218 27219 27220 27221 27222 27223 27224 27225 27226 27227 27228 27229 27230 27231 27232 27233 27234 27235 27236 27237 27238 27239 27240 27241 27242 27243 27244 27245 27246 27247 27248 27249 27250 27251 27252 27253 27254 27255 27256 27257 27258 27259 27260 27261 27262 27263 27264 27265 27266 27267 27268 27269 27270 27271 27272 27273 27274 27275 27276 27277 27278 27279 27280 27281 27282 27283 27284 27285 27286 27287 27288 27289 27290 27291 27292 27293 27294 27295 27296 27297 27298 27299 27300 27301 27302 27303 27304 27305 27306 27307 27308 27309 27310 27311 27312 27313 27314 27315 27316 27317 27318 27319 27320 27321 27322 27323 27324 27325 27326 27327 27328 27329 27330 27331 27332 27333 27334 27335 27336 27337 27338 27339 27340 27341 27342 27343 27344 27345 27346 27347 27348 27349 27350 27351 27352 27353 27354 27355 27356 27357 27358 27359 27360 27361 27362 27363 27364 27365 27366 27367 27368 27369 27370 27371 27372 27373 27374 27375 27376 27377 27378 27379 27380 27381 27382 27383 27384 27385 27386 27387 27388 27389 27390 27391 27392 27393 27394 27395 27396 27397 27398 27399 27400 27401 27402 27403 27404 27405 27406 27407 27408 27409 27410 27411 27412 27413 27414 27415 27416 27417 27418 27419 27420 27421 27422 27423 27424 27425 27426 27427 27428 27429 27430 27431 27432 27433 27434 27435 27436 27437 27438 27439 27440 27441 27442 27443 27444 27445 27446 27447 27448 27449 27450 27451 27452 27453 27454 27455 27456 27457 27458 27459 27460 27461 27462 27463 27464 27465 27466 27467 27468 27469 27470 27471 27472 27473 27474 27475 27476 27477 27478 27479 27480 27481 27482 27483 27484 27485 27486 27487 27488 27489 27490 27491 27492 27493 27494 27495 27496 27497 27498 27499 27500 27501 27502 27503 27504 27505 27506 27507 27508 27509 27510 27511 27512 27513 27514 27515 27516 27517 27518 27519 27520 27521 27522 27523 27524 27525 27526 27527 27528 27529 27530 27531 27532 27533 27534 27535 27536 27537 27538 27539 27540 27541 27542 27543 27544 27545 27546 27547 27548 27549 27550 27551 27552 27553 27554 27555 27556 27557 27558 27559 27560 27561 27562 27563 27564 27565 27566 27567 27568 27569 27570 27571 27572 27573 27574 27575 27576 27577 27578 27579 27580 27581 27582 27583 27584 27585 27586 27587 27588 27589 27590 27591 27592 27593 27594 27595 27596 27597 27598 27599 27600 27601 27602 27603 27604 27605 27606 27607 27608 27609 27610 27611 27612 27613 27614 27615 27616 27617 27618 27619 27620 27621 27622 27623 27624 27625 27626 27627 27628 27629 27630 27631 27632 27633 27634 27635 27636 27637 27638 27639 27640 27641 27642 27643 27644 27645 27646 27647 27648 27649 27650 27651 27652 27653 27654 27655 27656 27657 27658 27659 27660 27661 27662 27663 27664 27665 27666 27667 27668 27669 27670 27671 27672 27673 27674 27675 27676 27677 27678 27679 27680 27681 27682 27683 27684 27685 27686 27687 27688 27689 27690 27691 27692 27693 27694 27695 27696 27697 27698 27699 27700 27701 27702 27703 27704 27705 27706 27707 27708 27709 27710 27711 27712 27713 27714 27715 27716 27717 27718 27719 27720 27721 27722 27723 27724 27725 27726 27727 27728 27729 27730 27731 27732 27733 27734 27735 27736 27737 27738 27739 27740 27741 27742 27743 27744 27745 27746 27747 27748 27749 27750 27751 27752 27753 27754 27755 27756 27757 27758 27759 27760 27761 27762 27763 27764 27765 27766 27767 27768 27769 27770 27771 27772 27773 27774 27775 27776 27777 27778 27779 27780 27781 27782 27783 27784 27785 27786 27787 27788 27789 27790 27791 27792 27793 27794 27795 27796 27797 27798 27799 27800 27801 27802 27803 27804 27805 27806 27807 27808 27809 27810 27811 27812 27813 27814 27815 27816 27817 27818 27819 27820 27821 27822 27823 27824 27825 27826 27827 27828 27829 27830 27831 27832 27833 27834 27835 27836 27837 27838 27839 27840 27841 27842 27843 27844 27845 27846 27847 27848 27849 27850 27851 27852 27853 27854 27855 27856 27857 27858 27859 27860 27861 27862 27863 27864 27865 27866 27867 27868 27869 27870 27871 27872 27873 27874 27875 27876 27877 27878 27879 27880 27881 27882 27883 27884 27885 27886 27887 27888 27889 27890 27891 27892 27893 27894 27895 27896 27897 27898 27899 27900 27901 27902 27903 27904 27905 27906 27907 27908 27909 27910 27911 27912 27913 27914 27915 27916 27917 27918 27919 27920 27921 27922 27923 27924 27925 27926 27927 27928 27929 27930 27931 27932 27933 27934 27935 27936 27937 27938 27939 27940 27941 27942 27943 27944 27945 27946 27947 27948 27949 27950 27951 27952 27953 27954 27955 27956 27957 27958 27959 27960 27961 27962 27963 27964 27965 27966 27967 27968 27969 27970 27971 27972 27973 27974 27975 27976 27977 27978 27979 27980 27981 27982 27983 27984 27985 27986 27987 27988 27989 27990 27991 27992 27993 27994 27995 27996 27997 27998 27999 28000 28001 28002 28003 28004 28005 28006 28007 28008 28009 28010 28011 28012 28013 28014 28015 28016 28017 28018 28019 28020 28021 28022 28023 28024 28025 28026 28027 28028 28029 28030 28031 28032 28033 28034 28035 28036 28037 28038 28039 28040 28041 28042 28043 28044 28045 28046 28047 28048 28049 28050 28051 28052 28053 28054 28055 28056 28057 28058 28059 28060 28061 28062 28063 28064 28065 28066 28067 28068 28069 28070 28071 28072 28073 28074 28075 28076 28077 28078 28079 28080 28081 28082 28083 28084 28085 28086 28087 28088 28089 28090 28091 28092 28093 28094 28095 28096 28097 28098 28099 28100 28101 28102 28103 28104 28105 28106 28107 28108 28109 28110 28111 28112 28113 28114 28115 28116 28117 28118 28119 28120 28121 28122 28123 28124 28125 28126 28127 28128 28129 28130 28131 28132 28133 28134 28135 28136 28137 28138 28139 28140 28141 28142 28143 28144 28145 28146 28147 28148 28149 28150 28151 28152 28153 28154 28155 28156 28157 28158 28159 28160 28161 28162 28163 28164 28165 28166 28167 28168 28169 28170 28171 28172 28173 28174 28175 28176 28177 28178 28179 28180 28181 28182 28183 28184 28185 28186 28187 28188 28189 28190 28191 28192 28193 28194 28195 28196 28197 28198 28199 28200 28201 28202 28203 28204 28205 28206 28207 28208 28209 28210 28211 28212 28213 28214 28215 28216 28217 28218 28219 28220 28221 28222 28223 28224 28225 28226 28227 28228 28229 28230 28231 28232 28233 28234 28235 28236 28237 28238 28239 28240 28241 28242 28243 28244 28245 28246 28247 28248 28249 28250 28251 28252 28253 28254 28255 28256 28257 28258 28259 28260 28261 28262 28263 28264 28265 28266 28267 28268 28269 28270 28271 28272 28273 28274 28275 28276 28277 28278 28279 28280 28281 28282 28283 28284 28285 28286 28287 28288 28289 28290 28291 28292 28293 28294 28295 28296 28297 28298 28299 28300 28301 28302 28303 28304 28305 28306 28307 28308 28309 28310 28311 28312 28313 28314 28315 28316 28317 28318 28319 28320 28321 28322 28323 28324 28325 28326 28327 28328 28329 28330 28331 28332 28333 28334 28335 28336 28337 28338 28339 28340 28341 28342 28343 28344 28345 28346 28347 28348 28349 28350 28351 28352 28353 28354 28355 28356 28357 28358 28359 28360 28361 28362 28363 28364 28365 28366 28367 28368 28369 28370 28371 28372 28373 28374 28375 28376 28377 28378 28379 28380 28381 28382 28383 28384 28385 28386 28387 28388 28389 28390 28391 28392 28393 28394 28395 28396 28397 28398 28399 28400 28401 28402 28403 28404 28405 28406 28407 28408 28409 28410 28411 28412 28413 28414 28415 28416 28417 28418 28419 28420 28421 28422 28423 28424 28425 28426 28427 28428 28429 28430 28431 28432 28433 28434 28435 28436 28437 28438 28439 28440 28441 28442 28443 28444 28445 28446 28447 28448 28449 28450 28451 28452 28453 28454 28455 28456 28457 28458 28459 28460 28461 28462 28463 28464 28465 28466 28467 28468 28469 28470 28471 28472 28473 28474 28475 28476 28477 28478 28479 28480 28481 28482 28483 28484 28485 28486 28487 28488 28489 28490 28491 28492 28493 28494 28495 28496 28497 28498 28499 28500 28501 28502 28503 28504 28505 28506 28507 28508 28509 28510 28511 28512 28513 28514 28515 28516 28517 28518 28519 28520 28521 28522 28523 28524 28525 28526 28527 28528 28529 28530 28531 28532 28533 28534 28535 28536 28537 28538 28539 28540 28541 28542 28543 28544 28545 28546 28547 28548 28549 28550 28551 28552 28553 28554 28555 28556 28557 28558 28559 28560 28561 28562 28563 28564 28565 28566 28567 28568 28569 28570 28571 28572 28573 28574 28575 28576 28577 28578 28579 28580 28581 28582 28583 28584 28585 28586 28587 28588 28589 28590 28591 28592 28593 28594 28595 28596 28597 28598 28599 28600 28601 28602 28603 28604 28605 28606 28607 28608 28609 28610 28611 28612 28613 28614 28615 28616 28617 28618 28619 28620 28621 28622 28623 28624 28625 28626 28627 28628 28629 28630 28631 28632 28633 28634 28635 28636 28637 28638 28639 28640 28641 28642 28643 28644 28645 28646 28647 28648 28649 28650 28651 28652 28653 28654 28655 28656 28657 28658 28659 28660 28661 28662 28663 28664 28665 28666 28667 28668 28669 28670 28671 28672 28673 28674 28675 28676 28677 28678 28679 28680 28681 28682 28683 28684 28685 28686 28687 28688 28689 28690 28691 28692 28693 28694 28695 28696 28697 28698 28699 28700 28701 28702 28703 28704 28705 28706 28707 28708 28709 28710 28711 28712 28713 28714 28715 28716 28717 28718 28719 28720 28721 28722 28723 28724 28725 28726 28727 28728 28729 28730 28731 28732 28733 28734 28735 28736 28737 28738 28739 28740 28741 28742 28743 28744 28745 28746 28747 28748 28749 28750 28751 28752 28753 28754 28755 28756 28757 28758 28759 28760 28761 28762 28763 28764 28765 28766 28767 28768 28769 28770 28771 28772 28773 28774 28775 28776 28777 28778 28779 28780 28781 28782 28783 28784 28785 28786 28787 28788 28789 28790 28791 28792 28793 28794 28795 28796 28797 28798 28799 28800 28801 28802 28803 28804 28805 28806 28807 28808 28809 28810 28811 28812 28813 28814 28815 28816 28817 28818 28819 28820 28821 28822 28823 28824 28825 28826 28827 28828 28829 28830 28831 28832 28833 28834 28835 28836 28837 28838 28839 28840 28841 28842 28843 28844 28845 28846 28847 28848 28849 28850 28851 28852 28853 28854 28855 28856 28857 28858 28859 28860 28861 28862 28863 28864 28865 28866 28867 28868 28869 28870 28871 28872 28873 28874 28875 28876 28877 28878 28879 28880 28881 28882 28883 28884 28885 28886 28887 28888 28889 28890 28891 28892 28893 28894 28895 28896 28897 28898 28899 28900 28901 28902 28903 28904 28905 28906 28907 28908 28909 28910 28911 28912 28913 28914 28915 28916 28917 28918 28919 28920 28921 28922 28923 28924 28925 28926 28927 28928 28929 28930 28931 28932 28933 28934 28935 28936 28937 28938 28939 28940 28941 28942 28943 28944 28945 28946 28947 28948 28949 28950 28951 28952 28953 28954 28955 28956 28957 28958 28959 28960 28961 28962 28963 28964 28965 28966 28967 28968 28969 28970 28971 28972 28973 28974 28975 28976 28977 28978 28979 28980 28981 28982 28983 28984 28985 28986 28987 28988 28989 28990 28991 28992 28993 28994 28995 28996 28997 28998 28999 29000 29001 29002 29003 29004 29005 29006 29007 29008 29009 29010 29011 29012 29013 29014 29015 29016 29017 29018 29019 29020 29021 29022 29023 29024 29025 29026 29027 29028 29029 29030 29031 29032 29033 29034 29035 29036 29037 29038 29039 29040 29041 29042 29043 29044 29045 29046 29047 29048 29049 29050 29051 29052 29053 29054 29055 29056 29057 29058 29059 29060 29061 29062 29063 29064 29065 29066 29067 29068 29069 29070 29071 29072 29073 29074 29075 29076 29077 29078 29079 29080 29081 29082 29083 29084 29085 29086 29087 29088 29089 29090 29091 29092 29093 29094 29095 29096 29097 29098 29099 29100 29101 29102 29103 29104 29105 29106 29107 29108 29109 29110 29111 29112 29113 29114 29115 29116 29117 29118 29119 29120 29121 29122 29123 29124 29125 29126 29127 29128 29129 29130 29131 29132 29133 29134 29135 29136 29137 29138 29139 29140 29141 29142 29143 29144 29145 29146 29147 29148 29149 29150 29151 29152 29153 29154 29155 29156 29157 29158 29159 29160 29161 29162 29163 29164 29165 29166 29167 29168 29169 29170 29171 29172 29173 29174 29175 29176 29177 29178 29179 29180 29181 29182 29183 29184 29185 29186 29187 29188 29189 29190 29191 29192 29193 29194 29195 29196 29197 29198 29199 29200 29201 29202 29203 29204 29205 29206 29207 29208 29209 29210 29211 29212 29213 29214 29215 29216 29217 29218 29219 29220 29221 29222 29223 29224 29225 29226 29227 29228 29229 29230 29231 29232 29233 29234 29235 29236 29237 29238 29239 29240 29241 29242 29243 29244 29245 29246 29247 29248 29249 29250 29251 29252 29253 29254 29255 29256 29257 29258 29259 29260 29261 29262 29263 29264 29265 29266 29267 29268 29269 29270 29271 29272 29273 29274 29275 29276 29277 29278 29279 29280 29281 29282 29283 29284 29285 29286 29287 29288 29289 29290 29291 29292 29293 29294 29295 29296 29297 29298 29299 29300 29301 29302 29303 29304 29305 29306 29307 29308 29309 29310 29311 29312 29313 29314 29315 29316 29317 29318 29319 29320 29321 29322 29323 29324 29325 29326 29327 29328 29329 29330 29331 29332 29333 29334 29335 29336 29337 29338 29339 29340 29341 29342 29343 29344 29345 29346 29347 29348 29349 29350 29351 29352 29353 29354 29355 29356 29357 29358 29359 29360 29361 29362 29363 29364 29365 29366 29367 29368 29369 29370 29371 29372 29373 29374 29375 29376 29377 29378 29379 29380 29381 29382 29383 29384 29385 29386 29387 29388 29389 29390 29391 29392 29393 29394 29395 29396 29397 29398 29399 29400 29401 29402 29403 29404 29405 29406 29407 29408 29409 29410 29411 29412 29413 29414 29415 29416 29417 29418 29419 29420 29421 29422 29423 29424 29425 29426 29427 29428 29429 29430 29431 29432 29433 29434 29435 29436 29437 29438 29439 29440 29441 29442 29443 29444 29445 29446 29447 29448 29449 29450 29451 29452 29453 29454 29455 29456 29457 29458 29459 29460 29461 29462 29463 29464 29465 29466 29467 29468 29469 29470 29471 29472 29473 29474 29475 29476 29477 29478 29479 29480 29481 29482 29483 29484 29485 29486 29487 29488 29489 29490 29491 29492 29493 29494 29495 29496 29497 29498 29499 29500 29501 29502 29503 29504 29505 29506 29507 29508 29509 29510 29511 29512 29513 29514 29515 29516 29517 29518 29519 29520 29521 29522 29523 29524 29525 29526 29527 29528 29529 29530 29531 29532 29533 29534 29535 29536 29537 29538 29539 29540 29541 29542 29543 29544 29545 29546 29547 29548 29549 29550 29551 29552 29553 29554 29555 29556 29557 29558 29559 29560 29561 29562 29563 29564 29565 29566 29567 29568 29569 29570 29571 29572 29573 29574 29575 29576 29577 29578 29579 29580 29581 29582 29583 29584 29585 29586 29587 29588 29589 29590 29591 29592 29593 29594 29595 29596 29597 29598 29599 29600 29601 29602 29603 29604 29605 29606 29607 29608 29609 29610 29611 29612 29613 29614 29615 29616 29617 29618 29619 29620 29621 
</DataArray>
<DataArray type="UInt32" Name="offsets" format="ascii">
3 6 9 12 15 17 20 23 26 29 32 35 38 41 44 47 49 52 55 57 60 62 65 68 71 74 76 79 82 85 88 91 94 96 99 102 105 108 111 114 116 118 121 124 126 128 131 134 137 140 143 146 149 152 155 158 160 162 165 168 171 173 176 179 182 185 187 190 193 196 199 202 205 208 211 214 217 220 222 225 228 231 233 236 239 242 244 247 250 253 256 258 261 264 267 270 273 276 278 281 284 286 289 292 295 298 300 303 306 309 312 315 317 320 323 326 329 332 335 338 341 344 347 350 353 356 359 362 365 368 371 374 377 380 383 385 388 391 394 396 399 402 405 408 411 414 416 419 422 425 428 431 434 437 440 443 446 449 452 455 458 461 464 467 470 473 476 479 482 485 487 490 492 495 498 501 504 507 510 513 516 519 522 525 528 530 533 536 539 542 545 548 551 554 557 560 563 566 568 571 574 577 580 583 586 589 592 595 598 601 604 606 609 612 615 617 619 622 625 628 631 634 637 640 642 645 648 651 654 657 660 663 666 669 671 674 677 679 682 685 688 691 694 697 700 703 706 709 712 715 718 721 724 727 730 733 735 738 741 744 747 750 753 756 759 762 764 767 770 773 776 779 782 785 788 791 794 797 800 803 806 809 811 814 817 820 823 826 829 832 835 838 841 844 847 850 853 856 859 862 865 867 870 873 876 879 881 884 887 890 893 896 899 902 905 907 910 913 915 918 921 924 927 930 933 936 939 942 945 948 951 954 957 960 963 966 969 972 975 978 981 984 986 989 992 995 998 1000 1003 1006 1009 1012 1015 1017 1019 1022 1025 1027 1029 1032 1035 1038 1041 1044 1047 1050 1052 1055 1058 1061 1064 1067 1070 1073 1076 1078 1081 1084 1087 1090 1093 1096 1099 1102 1104 1107 1110 1113 1116 1118 1121 1124 1127 1130 1133 1136 1138 1141 1144 1147 1150 1153 1156 1159 1162 1165 1168 1171 1174 1177 1180 1183 1186 1189 1192 1195 1198 1201 1204 1207 1210 1213 1216 1219 1222 1225 1227 1230 1233 1236 1239 1242 1245 1248 1251 1253 1256 1259 1262 1264 1267 1270 1272 1275 1278 1281 1284 1287 1290 1293 1296 1298 1301 1304 1307 1309 1312 1314 1317 1320 1323 1326 1328 1331 1334 1336 1339 1342 1344 1347 1350 1353 1355 1358 1361 1364 1367 1370 1373 1376 1379 1382 1385 1388 1391 1394 1397 1400 1403 1406 1409 1412 1415 1418 1421 1424 1426 1429 1432 1435 1438 1441 1444 1447 1450 1452 1455 1458 1461 1464 1467 1470 1473 1476 1479 1482 1485 1488 1491 1493 1496 1499 1502 1505 1508 1511 1514 1517 1520 1523 1526 1529 1532 1535 1538 1541 1544 1547 1550 1553 1556 1558 1561 1564 1567 1569 1572 1575 1577 1580 1583 1586 1589 1591 1594 1597 1600 1603 1606 1609 1612 1614 1617 1619 1622 1625 1628 1631 1634 1637 1640 1643 1646 1649 1652 1655 1658 1661 1664 1667 1670 1673 1676 1679 1682 1685 1687 1690 1692 1695 1697 1700 1703 1705 1707 1710 1713 1716 1719 1722 1725 1728 1731 1734 1737 1740 1743 1746 1749 1752 1755 1758 1760 1763 1766 1769 1772 1774 1777 1780 1783 1786 1788 1790 1793 1795 1798 1801 1804 1807 1810 1813 1816 1819 1822 1825 1828 1831 1834 1837 1840 1843 1846 1849 1852 1855 1858 1861 1864 1867 1870 1873 1875 1878 1881 1884 1887 1890 1893 1896 1899 1902 1905 1908 1911 1913 1916 1919 1922 1924 1927 1929 1932 1935 1938 1941 1944 1947 1950 1953 1956 1959 1961 1964 1967 1970 1972 1975 1978 1981 1984 1987 1990 1993 1996 1999 2001 2004 2007 2010 2013 2015 2018 2021 2024 2027 2030 2033 2036 2039 2042 2044 2047 2050 2052 2055 2058 2061 2064 2067 2069 2072 2075 2078 2081 2083 2086 2089 2092 2095 2098 2101 2104 2106 2108 2111 2114 2117 2120 2123 2126 2128 2131 2133 2136 2139 2141 2144 2146 2149 2152 2155 2157 2160 2163 2166 2169 2171 2174 2177 2179 2182 2184 2186 2189 2191 2193 2196 2199 2201 2204 2206 2209 2212 2215 2217 2219 2222 2225 2228 2231 2234 2236 2239 2242 2245 2248 2251 2254 2257 2260 2262 2265 2267 2270 2273 2276 2279 2281 2283 2286 2289 2291 2294 2297 2300 2303 2306 2308 2311 2314 2316 2319 2321 2324 2326 2328 2331 2333 2336 2338 2340 2342 2345 2348 2350 2353 2355 2358 2361 2363 2366 2369 2372 2375 2378 2380 2383 2386 2388 2391 2394 2397 2400 2402 2405 2408 2411 2414 2417 2420 2423 2425 2428 2430 2433 2436 2439 2441 2444 2447 2450 2453 2456 2459 2462 2465 2468 2471 2474 2477 2480 2483 2486 2489 2492 2495 2497 2500 2503 2506 2509 2512 2515 2518 2521 2524 2526 2529 2532 2535 2538 2541 2544 2547 2550 2553 2556 2559 2562 2565 2567 2570 2573 2576 2579 2582 2585 2588 2591 2594 2597 2600 2603 2606 2609 2612 2615 2618 2621 2624 2627 2630 2633 2636 2639 2642 2645 2648 2651 2654 2657 2660 2663 2666 2669 2672 2675 2678 2681 2684 2687 2689 2692 2695 2698 2701 2704 2707 2710 2713 2716 2719 2722 2725 2728 2731 2734 2736 2738 2741 2744 2746 2749 2752 2755 2758 2761 2764 2767 2770 2773 2776 2779 2782 2785 2788 2791 2794 2797 2800 2803 2806 2808 2811 2813 2816 2819 2822 2825 2828 2830 2832 2835 2838 2841 2844 2847 2850 2853 2856 2859 2862 2865 2868 2871 2874 2877 2880 2883 2886 2889 2892 2895 2898 2901 2904 2907 2910 2913 2916 2919 2922 2925 2928 2931 2934 2937 2940 2943 2946 2949 2952 2955 2958 2961 2964 2967 2970 2973 2976 2979 2982 2985 2988 2991 2994 2997 3000 3002 3005 3008 3011 3014 3017 3020 3023 3025 3028 3031 3034 3037 3039 3042 3045 3048 3051 3054 3057 3060 3063 3066 3069 3072 3075 3078 3081 3084 3086 3089 3092 3095 3098 3100 3103 3106 3109 3112 3114 3117 3120 3122 3125 3128 3130 3133 3136 3139 3142 3144 3147 3150 3153 3156 3159 3162 3165 3168 3171 3174 3177 3180 3183 3186 3189 3192 3195 3198 3201 3204 3207 3210 3213 3216 3218 3221 3223 3226 3229 3232 3235 3238 3241 3244 3247 3250 3253 3256 3259 3261 3264 3267 3270 3273 3276 3278 3281 3284 3287 3290 3293 3296 3299 3302 3305 3308 3311 3313 3315 3318 3321 3323 3326 3329 3332 3335 3337 3340 3343 3345 3348 3351 3354 3357 3360 3363 3365 3368 3371 3374 3377 3380 3383 3386 3389 3392 3395 3398 3401 3404 3407 3410 3413 3416 3418 3421 3424 3426 3429 3432 3435 3437 3440 3442 3445 3448 3451 3454 3456 3459 3462 3465 3468 3471 3474 3477 3479 3482 3485 3488 3491 3493 3495 3498 3501 3503 3506 3509 3512 3514 3517 3520 3522 3525 3528 3530 3533 3536 3538 3541 3544 3547 3549 3552 3555 3558 3561 3564 3567 3570 3573 3576 3579 3582 3584 3587 3590 3593 3595 3597 3600 3603 3605 3608 3611 3613 3616 3619 3621 3624 3626 3629 3632 3635 3637 3639 3641 3644 3647 3649 3652 3655 3658 3661 3664 3666 3669 3672 3675 3678 3680 3683 3686 3688 3691 3694 3696 3698 3701 3704 3707 3710 3712 3715 3718 3721 3723 3726 3728 3731 3734 3737 3740 3743 3746 3749 3752 3754 3757 3760 3763 3765 3768 3771 3774 3777 3780 3783 3786 3789 3792 3795 3798 3800 3803 3806 3809 3812 3815 3817 3819 3822 3824 3826 3829 3832 3835 3837 3840 3842 3845 3848 3850 3853 3856 3859 3862 3865 3868 3871 3874 3877 3879 3882 3885 3888 3891 3893 3896 3899 3902 3905 3908 3911 3914 3917 3920 3922 3925 3928 3931 3934 3937 3939 3941 3944 3947 3949 3952 3955 3958 3961 3964 3966 3969 3971 3974 3977 3980 3982 3985 3988 3991 3994 3997 4000 4003 4006 4009 4011 4013 4016 4019 4022 4024 4027 4030 4032 4034 4037 4040 4043 4045 4048 4051 4054 4057 4060 4063 4065 4068 4071 4074 4076 4078 4081 4084 4087 4089 4091 4094 4097 4099 4102 4105 4108 4110 4113 4115 4118 4121 4124 4126 4129 4132 4135 4138 4141 4144 4146 4148 4151 4153 4156 4159 4161 4164 4166 4168 4171 4174 4176 4179 4182 4185 4188 4191 4193 4196 4199 4202 4205 4207 4210 4213 4216 4219 4222 4225 4228 4230 4233 4236 4239 4242 4244 4247 4250 4253 4256 4259 4262 4265 4268 4271 4274 4276 4279 4282 4284 4286 4289 4292 4295 4298 4301 4304 4307 4309 4312 4315 4318 4320 4322 4325 4328 4331 4334 4337 4340 4343 4346 4348 4351 4354 4357 4360 4362 4365 4368 4371 4374 4377 4379 4382 4385 4388 4391 4394 4397 4400 4403 4406 4409 4412 4415 4418 4421 4424 4427 4430 4433 4436 4439 4442 4444 4447 4450 4452 4455 4458 4461 4464 4466 4469 4472 4475 4478 4481 4484 4487 4490 4493 4496 4499 4502 4505 4508 4511 4514 4517 4520 4523 4526 4529 4532 4535 4538 4541 4544 4547 4550 4553 4556 4559 4562 4565 4568 4571 4574 4577 4580 4583 4586 4589 4592 4595 4598 4601 4604 4607 4610 4613 4615 4618 4621 4624 4627 4630 4633 4635 4638 4641 4644 4647 4649 4652 4654 4657 4660 4662 4665 4668 4671 4674 4677 4680 4683 4686 4689 4692 4695 4698 4701 4703 4706 4709 4711 4714 4717 4719 4722 4724 4727 4730 4733 4736 4739 4742 4745 4748 4751 4754 4757 4760 4763 4766 4769 4772 4775 4778 4781 4784 4787 4790 4792 4795 4798 4801 4804 4807 4810 4813 4816 4819 4822 4825 4828 4831 4834 4837 4840 4843 4846 4849 4852 4855 4858 4861 4864 4867 4870 4873 4876 4879 4882 4885 4888 4891 4894 4896 4899 4902 4905 4908 4911 4914 4916 4919 4922 4924 4926 4929 4932 4935 4938 4941 4944 4947 4949 4952 4955 4957 4960 4963 4966 4969 4972 4975 4977 4980 4983 4986 4988 4991 4993 4996 4999 5002 5004 5007 5010 5013 5015 5018 5021 5024 5027 5030 5032 5035 5038 5040 5043 5045 5047 5050 5053 5055 5058 5060 5063 5066 5069 5072 5075 5077 5080 5083 5085 5088 5090 5093 5096 5098 5101 5104 5107 5110 5113 5115 5117 5119 5122 5125 5128 5131 5134 5137 5140 5143 5146 5149 5151 5154 5157 5159 5162 5165 5167 5169 5171 5174 5176 5179 5182 5185 5188 5190 5193 5195 5198 5201 5204 5206 5209 5211 5214 5216 5219 5222 5225 5227 5230 5233 5235 5238 5240 5242 5244 5247 5250 5252 5255 5257 5259 5262 5265 5268 5271 5274 5277 5280 5283 5286 5289 5292 5295 5297 5300 5303 5306 5309 5311 5314 5317 5320 5322 5324 5326 5329 5332 5335 5337 5340 5342 5345 5347 5350 5353 5356 5359 5362 5365 5367 5370 5373 5375 5377 5379 5382 5385 5388 5390 5393 5395 5398 5401 5404 5407 5410 5413 5416 5418 5421 5424 5427 5430 5432 5435 5438 5441 5443 5446 5448 5450 5453 5455 5458 5461 5464 5467 5470 5473 5476 5479 5482 5485 5488 5491 5494 5497 5499 5502 5505 5508 5511 5514 5517 5520 5523 5526 5529 5532 5534 5537 5540 5543 5546 5549 5552 5555 5558 5561 5564 5567 5570 5573 5576 5579 5582 5585 5587 5590 5593 5596 5599 5601 5604 5607 5610 5613 5616 5619 5622 5625 5628 5631 5634 5637 5640 5643 5646 5649 5651 5654 5656 5659 5662 5665 5668 5670 5673 5676 5678 5681 5684 5686 5689 5692 5694 5696 5699 5702 5704 5707 5710 5712 5715 5718 5721 5723 5726 5729 5732 5735 5737 5740 5742 5745 5748 5751 5754 5757 5760 5763 5766 5769 5772 5775 5778 5781 5784 5787 5790 5793 5796 5799 5802 5805 5808 5811 5814 5817 5819 5822 5825 5827 5830 5833 5836 5839 5842 5845 5848 5851 5854 5857 5860 5862 5865 5868 5871 5874 5876 5879 5882 5884 5887 5890 5893 5896 5899 5901 5904 5906 5909 5912 5915 5918 5921 5924 5927 5930 5933 5936 5939 5942 5945 5948 5951 5954 5957 5960 5963 5966 5969 5972 5975 5978 5981 5983 5986 5988 5991 5993 5995 5998 6001 6004 6007 6010 6012 6015 6018 6021 6024 6027 6030 6032 6035 6038 6041 6044 6047 6050 6052 6054 6057 6060 6063 6066 6068 6071 6074 6077 6080 6083 6086 6089 6092 6095 6098 6101 6104 6107 6110 6113 6116 6119 6122 6124 6127 6129 6131 6134 6137 6140 6143 6146 6149 6152 6154 6157 6160 6163 6165 6167 6170 6173 6176 6179 6182 6185 6188 6191 6194 6197 6200 6203 6206 6209 6212 6215 6218 6221 6224 6227 6230 6233 6236 6239 6242 6245 6248 6251 6253 6256 6259 6262 6265 6267 6270 6273 6276 6279 6282 6285 6288 6291 6294 6297 6300 6303 6306 6309 6312 6315 6318 6321 6323 6326 6329 6332 6335 6338 6341 6344 6347 6349 6351 6354 6356 6359 6362 6365 6368 6371 6374 6377 6380 6383 6386 6389 6391 6394 6396 6399 6402 6405 6408 6411 6414 6417 6420 6423 6425 6428 6431 6434 6436 6438 6441 6444 6447 6449 6451 6454 6456 6459 6462 6465 6468 6471 6474 6477 6480 6483 6485 6488 6491 6494 6497 6500 6503 6506 6508 6511 6514 6517 6520 6523 6526 6528 6531 6534 6537 6540 6543 6546 6548 6551 6554 6557 6560 6563 6566 6569 6572 6575 6578 6581 6584 6587 6590 6593 6595 6598 6601 6604 6607 6610 6613 6616 6619 6622 6625 6628 6631 6634 6637 6640 6642 6645 6648 6651 6654 6657 6660 6663 6666 6669 6672 6674 6677 6680 6683 6685 6688 6691 6694 6697 6700 6703 6706 6708 6711 6714 6717 6719 6722 6725 6727 6730 6733 6736 6738 6740 6743 6746 6749 6751 6754 6757 6760 6763 6766 6769 6772 6774 6777 6780 6783 6786 6789 6791 6794 6797 6800 6803 6805 6808 6811 6814 6817 6820 6823 6826 6829 6831 6834 6837 6840 6843 6846 6849 6852 6855 6858 6861 6864 6867 6870 6873 6876 6879 6882 6885 6888 6891 6894 6897 6900 6903 6906 6909 6912 6915 6918 6921 6924 6927 6930 6932 6935 6938 6940 6943 6946 6949 6951 6953 6956 6959 6962 6965 6967 6969 6972 6975 6978 6981 6984 6986 6989 6992 6995 6998 7001 7004 7007 7009 7012 7015 7018 7021 7024 7026 7029 7032 7035 7037 7040 7043 7046 7049 7052 7054 7056 7059 7062 7065 7068 7071 7074 7077 7080 7083 7086 7089 7091 7094 7097 7099 7102 7105 7108 7111 7114 7117 7120 7123 7126 7129 7132 7135 7138 7140 7142 7145 7148 7151 7154 7157 7160 7163 7166 7169 7172 7175 7178 7181 7184 7186 7189 7192 7195 7197 7200 7203 7206 7209 7212 7215 7218 7221 7224 7227 7230 7233 7236 7239 7241 7244 7246 7249 7251 7254 7257 7260 7263 7266 7268 7270 7273 7276 7279 7282 7285 7287 7290 7293 7296 7299 7302 7305 7308 7311 7314 7317 7319 7322 7325 7328 7331 7334 7337 7340 7343 7346 7349 7352 7355 7358 7361 7364 7367 7370 7373 7376 7379 7381 7384 7387 7390 7393 7396 7399 7402 7405 7408 7411 7414 7417 7420 7423 7426 7429 7432 7435 7438 7441 7444 7447 7450 7453 7456 7458 7461 7464 7467 7470 7473 7476 7479 7481 7484 7487 7490 7492 7495 7498 7501 7504 7506 7509 7511 7514 7517 7520 7523 7526 7529 7531 7534 7537 7540 7542 7545 7548 7551 7554 7556 7559 7561 7564 7566 7569 7572 7575 7577 7580 7582 7585 7588 7591 7594 7597 7600 7603 7606 7608 7611 7614 7617 7620 7623 7626 7628 7631 7634 7637 7640 7643 7645 7647 7649 7652 7655 7658 7661 7664 7667 7670 7673 7676 7679 7682 7685 7688 7690 7693 7695 7698 7701 7704 7707 7710 7713 7716 7719 7722 7724 7727 7730 7732 7734 7737 7740 7742 7745 7748 7751 7754 7756 7759 7762 7765 7768 7770 7773 7776 7779 7782 7785 7787 7790 7793 7796 7799 7801 7804 7807 7810 7812 7815 7818 7821 7824 7827 7829 7832 7835 7838 7841 7844 7847 7850 7853 7856 7858 7861 7864 7867 7870 7873 7876 7879 7882 7885 7887 7890 7893 7896 7899 7902 7905 7908 7911 7914 7917 7919 7922 7925 7927 7930 7932 7935 7938 7941 7944 7947 7950 7953 7956 7959 7962 7964 7967 7969 7972 7975 7978 7981 7984 7987 7990 7993 7996 7999 8002 8004 8007 8010 8013 8015 8018 8021 8024 8027 8029 8032 8035 8037 8040 8043 8046 8049 8052 8055 8058 8061 8064 8067 8070 8073 8076 8079 8082 8085 8088 8091 8094 8097 8100 8103 8106 8109 8112 8115 8118 8120 8123 8126 8129 8132 8134 8137 8139 8141 8144 8147 8150 8153 8156 8158 8160 8163 8166 8169 8172 8175 8178 8181 8184 8187 8190 8193 8196 8199 8202 8205 8208 8211 8214 8217 8219 8222 8225 8228 8231 8233 8236 8239 8242 8245 8248 8251 8254 8256 8258 8261 8264 8266 8269 8272 8274 8277 8279 8282 8284 8287 8290 8293 8296 8299 8301 8304 8307 8309 8312 8314 8317 8320 8323 8326 8329 8332 8335 8338 8341 8344 8347 8350 8353 8356 8359 8362 8364 8367 8369 8372 8375 8378 8381 8384 8387 8390 8393 8396 8399 8402 8405 8408 8411 8414 8417 8420 8423 8426 8429 8432 8435 8438 8441 8444 8447 8450 8453 8456 8459 8462 8465 8468 8471 8474 8476 8479 8482 8485 8488 8490 8493 8496 8499 8502 8505 8508 8511 8514 8517 8520 8523 8526 8529 8531 8534 8536 8539 8542 8545 8547 8549 8552 8555 8558 8561 8564 8566 8569 8572 8575 8578 8580 8583 8586 8588 8591 8594 8597 8600 8603 8606 8609 8612 8615 8618 8621 8624 8627 8630 8633 8636 8639 8642 8645 8648 8651 8654 8657 8660 8663 8666 8669 8672 8675 8678 8681 8684 8687 8690 8693 8696 8698 8701 8704 8707 8710 8713 8716 8719 8722 8725 8728 8731 8734 8737 8740 8743 8746 8749 8752 8755 8758 8761 8764 8767 8770 8773 8776 8779 8782 8785 8788 8791 8794 8796 8799 8801 8804 8807 8810 8813 8815 8818 8821 8824 8827 8829 8832 8835 8838 8841 8844 8847 8850 8853 8856 8859 8862 8865 8868 8871 8874 8877 8880 8883 8886 8888 8891 8894 8897 8900 8903 8906 8908 8911 8914 8917 8920 8923 8925 8928 8931 8934 8937 8940 8943 8946 8949 8952 8955 8958 8960 8963 8966 8969 8972 8975 8978 8981 8984 8986 8989 8992 8995 8998 9001 9004 9007 9009 9012 9015 9018 9021 9024 9027 9030 9033 9036 9039 9042 9045 9048 9051 9054 9057 9060 9063 9066 9069 9071 9074 9076 9079 9082 9085 9088 9091 9094 9097 9100 9103 9105 9107 9110 9113 9115 9118 9121 9124 9126 9129 9132 9135 9138 9140 9143 9146 9149 9151 9154 9157 9160 9163 9166 9169 9172 9175 9178 9181 9184 9186 9189 9192 9194 9197 9200 9203 9206 9208 9211 9214 9216 9219 9222 9225 9228 9231 9234 9237 9240 9243 9246 9249 9252 9255 9257 9260 9263 9266 9269 9272 9275 9277 9280 9283 9286 9288 9291 9294 9297 9300 9303 9306 9309 9312 9314 9317 9320 9323 9325 9328 9331 9334 9336 9339 9341 9344 9347 9350 9353 9356 9359 9362 9365 9368 9371 9373 9376 9378 9381 9383 9386 9388 9391 9394 9397 9400 9403 9406 9409 9412 9414 9417 9419 9422 9425 9428 9431 9433 9436 9439 9442 9445 9448 9450 9453 9456 9459 9462 9464 9467 9470 9473 9476 9479 9481 9484 9486 9489 9491 9493 9496 9499 9502 9505 9507 9510 9513 9516 9519 9522 9525 9528 9531 9534 9537 9540 9543 9546 9549 9552 9555 9558 9561 9564 9567 9570 9573 9575 9578 9580 9583 9585 9588 9591 9594 9596 9599 9601 9604 9607 9610 9612 9615 9618 9621 9624 9627 9630 9633 9636 9639 9642 9645 9648 9651 9654 9657 9660 9663 9666 9669 9672 9675 9678 9681 9684 9687 9690 9693 9696 9699 9702 9705 9708 9711 9714 9717 9720 9723 9726 9729 9732 9735 9738 9741 9744 9747 9750 9753 9756 9759 9762 9765 9768 9771 9774 9777 9780 9783 9786 9789 9792 9795 9798 9801 9804 9807 9810 9813 9816 9819 9822 9825 9828 9831 9834 9837 9840 9843 9846 9849 9851 9854 9857 9860 9863 9866 9869 9871 9874 9877 9880 9883 9886 9889 9891 9894 9897 9900 9903 9906 9908 9911 9914 9917 9919 9922 9925 9928 9931 9934 9937 9939 9942 9945 9947 9950 9952 9954 9957 9960 9963 9965 9968 9971 9974 9977 9980 9983 9986 9989 9992 9995 9998 10001 10004 10007 10010 10013 10016 10019 10022 10025 10028 10031 10034 10037 10040 10043 10046 10049 10052 10055 10058 10061 10064 10067 10070 10073 10075 10078 10081 10084 10087 10090 10092 10095 10098 10101 10104 10107 10110 10113 10116 10119 10121 10123 10126 10129 10131 10134 10136 10139 10142 10144 10146 10149 10152 10154 10157 10160 10163 10166 10169 10172 10175 10178 10181 10184 10187 10190 10193 10195 10198 10201 10204 10207 10210 10213 10216 10219 10222 10225 10228 10231 10234 10237 10240 10243 10246 10249 10252 10255 10257 10260 10263 10266 10269 10271 10274 10277 10279 10282 10285 10288 10291 10294 10297 10300 10303 10306 10309 10312 10314 10317 10320 10323 10326 10329 10332 10335 10338 10341 10344 10347 10350 10353 10356 10358 10361 10364 10367 10370 10372 10375 10378 10381 10384 10387 10389 10392 10395 10398 10401 10404 10407 10410 10413 10416 10419 10422 10425 10428 10430 10433 10436 10439 10442 10445 10448 10451 10454 10457 10460 10463 10466 10469 10472 10475 10478 10481 10484 10486 10488 10491 10494 10497 10500 10503 10506 10509 10512 10515 10518 10520 10523 10526 10529 10532 10535 10538 10541 10544 10547 10550 10553 10555 10558 10561 10564 10567 10569 10572 10575 10578 10581 10584 10587 10590 10593 10596 10599 10602 10605 10607 10610 10613 10616 10619 10622 10625 10628 10631 10634 10637 10640 10643 10646 10649 10652 10655 10658 10661 10664 10667 10670 10672 10674 10677 10680 10683 10686 10689 10692 10695 10698 10701 10704 10707 10709 10711 10714 10717 10720 10723 10726 10728 10731 10734 10737 10740 10742 10744 10747 10749 10752 10755 10757 10760 10762 10765 10768 10771 10773 10776 10779 10782 10785 10787 10790 10793 10796 10799 10802 10804 10807 10810 10813 10815 10818 10821 10824 10827 10830 10832 10835 10838 10841 10844 10847 10849 10852 10855 10857 10860 10863 10865 10868 10871 10874 10876 10879 10882 10885 10887 10890 10893 10896 10898 10901 10904 10907 10909 10912 10914 10917 10920 10923 10926 10929 10932 10935 10937 10940 10943 10946 10948 10951 10954 10957 10960 10963 10966 10969 10972 10975 10978 10981 10984 10987 10990 10993 10996 10999 11002 11005 11008 11011 11014 11017 11020 11023 11026 11029 11032 11035 11038 11041 11044 11047 11050 11053 11056 11059 11062 11065 11068 11071 11074 11077 11080 11083 11086 11089 11092 11095 11098 11101 11104 11107 11110 11113 11116 11119 11122 11125 11128 11131 11134 11137 11140 11143 11146 11149 11152 11155 11158 11161 11164 11167 11170 11173 11176 11179 11182 11184 11187 11190 11192 11195 11198 11201 11204 11207 11210 11213 11216 11219 11222 11225 11228 11231 11234 11236 11239 11242 11244 11247 11250 11252 11255 11258 11261 11264 11267 11270 11273 11276 11279 11282 11285 11288 11291 11294 11297 11300 11303 11306 11309 11312 11315 11318 11321 11324 11327 11330 11333 11336 11339 11342 11345 11348 11351 11353 11356 11359 11362 11365 11368 11371 11374 11377 11380 11383 11386 11389 11392 11395 11398 11401 11404 11407 11410 11413 11416 11419 11422 11425 11428 11431 11434 11437 11440 11443 11446 11449 11452 11455 11458 11461 11464 11466 11469 11472 11475 11478 11481 11484 11487 11490 11493 11496 11499 11502 11505 11508 11511 11514 11517 11520 11523 11526 11529 11532 11535 11538 11541 11544 11547 11550 11553 11556 11559 11562 11565 11568 11571 11574 11577 11580 11583 11586 11589 11592 11595 11598 11601 11604 11607 11610 11613 11616 11619 11622 11625 11628 11631 11634 11637 11640 11642 11645 11648 11651 11654 11657 11660 11663 11666 11669 11672 11675 11678 11681 11684 11687 11690 11692 11695 11698 11700 11703 11705 11707 11710 11713 11716 11719 11722 11725 11728 11731 11734 11737 11740 11743 11746 11749 11752 11755 11758 11761 11764 11767 11770 11773 11776 11779 11782 11785 11788 11791 11794 11797 11800 11803 11806 11809 11812 11815 11818 11821 11824 11827 11829 11832 11835 11838 11841 11843 11846 11849 11852 11855 11858 11860 11862 11865 11868 11871 11873 11875 11877 11880 11883 11886 11889 11892 11895 11898 11900 11903 11906 11908 11911 11914 11916 11919 11922 11924 11927 11930 11933 11936 11939 11942 11944 11947 11950 11952 11955 11958 11961 11964 11967 11970 11973 11976 11979 11982 11985 11988 11991 11994 11997 12000 12003 12006 12009 12012 12015 12018 12021 12024 12027 12030 12032 12035 12038 12041 12044 12047 12050 12053 12056 12059 12062 12065 12068 12071 12074 12077 12080 12083 12086 12089 12092 12095 12098 12101 12104 12107 12110 12113 12116 12119 12122 12125 12128 12131 12134 12137 12140 12143 12146 12149 12152 12155 12158 12161 12164 12167 12170 12173 12176 12179 12182 12185 12188 12191 12194 12197 12200 12202 12205 12208 12210 12212 12215 12218 12220 12222 12225 12228 12231 12233 12236 12238 12241 12244 12247 12249 12252 12255 12258 12261 12264 12267 12270 12273 12276 12279 12282 12285 12288 12291 12293 12296 12299 12302 12305 12308 12310 12313 12316 12319 12322 12325 12328 12331 12334 12336 12339 12342 12345 12348 12351 12353 12356 12359 12362 12365 12368 12371 12374 12377 12380 12383 12386 12389 12392 12395 12397 12400 12403 12406 12408 12410 12413 12416 12419 12422 12425 12428 12431 12434 12436 12439 12441 12444 12446 12449 12451 12454 12457 12459 12462 12464 12467 12470 12473 12476 12479 12482 12485 12488 12491 12494 12497 12499 12502 12505 12508 12511 12514 12517 12520 12523 12526 12529 12531 12534 12537 12540 12543 12546 12549 12552 12555 12558 12561 12564 12567 12570 12573 12576 12578 12581 12584 12587 12590 12593 12596 12599 12602 12604 12607 12610 12612 12614 12617 12619 12621 12624 12626 12629 12632 12634 12637 12639 12642 12644 12647 12649 12652 12655 12658 12661 12664 12666 12669 12672 12675 12677 12680 12683 12686 12689 12692 12695 12698 12701 12704 12706 12709 12712 12715 12718 12721 12724 12727 12730 12733 12736 12739 12742 12745 12748 12751 12754 12757 12760 12763 12765 12768 12771 12774 12777 12780 12783 12786 12788 12791 12793 12796 12799 12802 12805 12807 12810 12813 12816 12819 12822 12825 12827 12830 12833 12836 12839 12842 12845 12848 12851 12854 12857 12860 12863 12866 12869 12872 12875 12878 12880 12883 12886 12889 12892 12894 12897 12899 12902 12905 12908 12910 12912 12915 12918 12921 12924 12927 12929 12932 12935 12938 12940 12943 12946 12949 12951 12953 12956 12959 12962 12965 12968 12970 12972 12975 12977 12980 12983 12986 12989 12992 12995 12998 13001 13004 13007 13010 13013 13016 13019 13022 13025 13027 13030 13033 13036 13039 13041 13044 13047 13049 13052 13055 13058 13061 13064 13067 13070 13073 13076 13079 13082 13085 13088 13091 13094 13097 13100 13103 13105 13108 13111 13114 13117 13120 13123 13126 13129 13131 13134 13137 13139 13142 13145 13148 13151 13153 13156 13159 13162 13165 13168 13171 13173 13175 13178 13181 13184 13187 13190 13192 13195 13198 13201 13204 13206 13209 13212 13214 13217 13220 13223 13226 13228 13230 13233 13236 13239 13242 13244 13246 13249 13252 13255 13258 13261 13264 13267 13270 13273 13276 13278 13281 13284 13287 13290 13293 13295 13297 13300 13303 13306 13309 13312 13315 13318 13321 13324 13327 13330 13333 13335 13338 13341 13344 13347 13350 13353 13356 13359 13361 13364 13367 13370 13372 13375 13378 13381 13384 13386 13389 13392 13394 13397 13400 13403 13406 13409 13412 13415 13418 13421 13424 13427 13430 13433 13436 13439 13442 13445 13448 13451 13454 13457 13460 13463 13466 13468 13471 13474 13477 13480 13483 13486 13489 13492 13495 13498 13501 13504 13507 13510 13513 13516 13519 13522 13525 13528 13531 13534 13537 13540 13543 13546 13549 13552 13554 13557 13560 13562 13565 13568 13570 13573 13576 13579 13582 13584 13587 13590 13593 13596 13599 13601 13604 13607 13610 13613 13616 13619 13621 13624 13627 13630 13633 13636 13639 13642 13645 13647 13650 13653 13656 13659 13662 13665 13668 13671 13674 13677 13680 13683 13686 13689 13692 13695 13698 13701 13703 13706 13709 13711 13714 13716 13719 13722 13724 13727 13730 13733 13736 13739 13742 13745 13748 13751 13754 13757 13760 13763 13766 13769 13772 13775 13778 13781 13784 13787 13790 13793 13796 13799 13802 13805 13808 13811 13814 13817 13819 13822 13825 13827 13830 13833 13835 13837 13840 13843 13846 13849 13852 13855 13858 13861 13864 13867 13870 13873 13876 13879 13882 13885 13888 13891 13894 13897 13900 13903 13906 13909 13912 13915 13918 13921 13924 13927 13930 13933 13936 13938 13941 13943 13946 13948 13951 13954 13957 13960 13963 13965 13968 13971 13974 13977 13980 13982 13985 13987 13990 13992 13995 13998 14001 14004 14007 14010 14013 14016 14018 14021 14023 14026 14029 14031 14034 14037 14040 14043 14046 14049 14051 14054 14056 14058 14061 14064 14067 14070 14073 14076 14079 14082 14084 14087 14090 14092 14095 14098 14100 14103 14105 14108 14111 14114 14116 14118 14121 14123 14126 14129 14132 14135 14138 14141 14144 14147 14150 14153 14156 14159 14162 14165 14168 14171 14174 14177 14180 14182 14185 14188 14191 14194 14197 14200 14203 14206 14209 14212 14215 14218 14221 14224 14227 14230 14233 14236 14239 14242 14245 14248 14251 14254 14257 14260 14263 14266 14269 14272 14275 14278 14281 14284 14287 14290 14293 14296 14299 14302 14305 14308 14311 14314 14317 14320 14323 14326 14329 14332 14335 14338 14341 14344 14346 14349 14352 14355 14358 14360 14363 14366 14369 14372 14375 14378 14381 14384 14387 14390 14393 14396 14399 14402 14405 14408 14410 14413 14415 14418 14421 14424 14427 14430 14433 14436 14438 14440 14442 14445 14448 14451 14454 14456 14458 14460 14462 14464 14467 14470 14472 14475 14478 14481 14484 14486 14489 14492 14495 14498 14501 14504 14507 14509 14512 14515 14517 14519 14522 14525 14528 14531 14534 14537 14539 14542 14544 14546 14549 14551 14553 14556 14559 14562 14565 14567 14570 14572 14575 14578 14580 14583 14586 14588 14591 14593 14596 14599 14601 14604 14606 14609 14612 14615 14618 14620 14623 14626 14629 14632 14634 14637 14640 14642 14645 14648 14651 14654 14657 14660 14662 14665 14668 14671 14674 14677 14680 14683 14686 14689 14691 14694 14696 14699 14702 14705 14708 14711 14714 14717 14719 14722 14725 14728 14731 14734 14737 14740 14743 14746 14749 14752 14754 14756 14759 14762 14764 14766 14769 14772 14774 14777 14780 14783 14785 14788 14790 14792 14795 14798 14801 14803 14805 14808 14811 14813 14816 14819 14821 14824 14826 14829 14831 14834 14837 14840 14843 14846 14848 14851 14854 14856 14859 14861 14863 14866 14868 14870 14873 14876 14879 14882 14885 14888 14890 14892 14895 14897 14900 14903 14906 14909 14911 14914 14917 14920 14923 14926 14929 14932 14935 14938 14941 14944 14947 14950 14953 14956 14959 14962 14965 14968 14971 14974 14977 14980 14983 14986 14989 14992 14995 14998 15001 15004 15007 15010 15013 15016 15019 15022 15025 15028 15031 15034 15037 15040 15043 15046 15049 15052 15055 15058 15061 15064 15067 15070 15073 15076 15079 15082 15085 15088 15091 15094 15097 15100 15103 15106 15109 15112 15115 15118 15121 15124 15127 15130 15133 15136 15139 15142 15145 15148 15151 15154 15156 15159 15162 15165 15168 15171 15174 15176 15179 15182 15185 15188 15191 15194 15196 15199 15202 15204 15207 15210 15213 15216 15219 15222 15225 15228 15231 15234 15237 15240 15243 15246 15248 15251 15254 15257 15260 15263 15265 15268 15271 15274 15277 15279 15282 15285 15288 15291 15294 15297 15300 15303 15306 15309 15312 15315 15318 15321 15324 15327 15330 15333 15336 15339 15342 15345 15348 15351 15354 15357 15360 15363 15366 15369 15372 15375 15378 15381 15384 15386 15389 15392 15395 15398 15401 15404 15407 15410 15413 15416 15419 15422 15425 15428 15431 15434 15437 15440 15443 15446 15449 15452 15455 15458 15461 15464 15467 15470 15473 15476 15479 15482 15485 15488 15491 15494 15497 15500 15503 15506 15509 15512 15515 15518 15521 15524 15527 15530 15533 15536 15539 15542 15545 15548 15551 15554 15557 15560 15563 15566 15569 15572 15575 15578 15581 15584 15587 15590 15593 15596 15599 15602 15605 15608 15611 15614 15617 15620 15623 15626 15629 15632 15635 15638 15641 15644 15647 15650 15653 15656 15659 15662 15665 15668 15671 15674 15677 15680 15683 15686 15688 15691 15694 15697 15700 15703 15706 15709 15712 15715 15718 15721 15724 15727 15730 15733 15736 15739 15742 15745 15748 15751 15754 15756 15759 15761 15764 15767 15770 15773 15776 15778 15780 15783 15786 15788 15791 15793 15796 15799 15801 15804 15807 15810 15813 15816 15819 15822 15825 15828 15831 15834 15837 15840 15843 15846 15849 15852 15855 15857 15860 15863 15866 15868 15871 15874 15877 15879 15882 15884 15887 15890 15893 15896 15899 15902 15905 15908 15911 15914 15916 15919 15922 15925 15928 15930 15932 15934 15937 15940 15943 15946 15949 15952 15955 15958 15960 15963 15966 15969 15972 15975 15978 15981 15984 15986 15989 15992 15994 15997 16000 16003 16006 16009 16011 16014 16016 16019 16021 16023 16026 16028 16031 16034 16036 16039 16041 16044 16047 16050 16053 16056 16059 16062 16065 16067 16070 16072 16074 16077 16079 16082 16084 16087 16090 16093 16095 16097 16100 16103 16105 16108 16110 16113 16115 16118 16121 16124 16127 16130 16132 16135 16138 16141 16144 16147 16150 16153 16156 16159 16161 16164 16166 16169 16172 16175 16178 16181 16184 16187 16189 16192 16195 16198 16200 16203 16205 16207 16210 16213 16216 16219 16222 16224 16226 16229 16232 16235 16238 16241 16244 16247 16250 16252 16255 16257 16260 16262 16265 16268 16271 16274 16277 16279 16282 16285 16288 16291 16294 16297 16300 16303 16306 16309 16312 16315 16318 16321 16324 16327 16330 16333 16336 16339 16342 16345 16347 16350 16353 16356 16359 16362 16364 16367 16370 16373 16376 16378 16381 16384 16387 16390 16393 16396 16399 16401 16404 16407 16409 16412 16415 16418 16421 16424 16427 16430 16433 16436 16439 16442 16445 16448 16450 16453 16455 16458 16461 16464 16467 16470 16473 16476 16479 16482 16485 16488 16491 16494 16496 16499 16502 16505 16507 16510 16513 16515 16518 16520 16523 16526 16529 16532 16535 16538 16540 16543 16546 16549 16552 16555 16558 16561 16563 16566 16569 16571 16574 16576 16579 16581 16583 16585 16588 16591 16594 16596 16599 16602 16604 16607 16609 16612 16615 16618 16621 16624 16627 16630 16633 16636 16639 16642 16645 16648 16651 16654 16657 16659 16662 16664 16667 16670 16673 16676 16679 16682 16685 16688 16691 16694 16697 16700 16703 16706 16709 16712 16714 16717 16720 16723 16726 16728 16731 16734 16737 16740 16743 16746 16749 16752 16755 16758 16761 16764 16767 16770 16773 16776 16779 16782 16785 16788 16790 16793 16796 16799 16802 16804 16807 16810 16813 16816 16819 16822 16824 16827 16830 16833 16836 16839 16842 16845 16848 16851 16854 16857 16860 16863 16866 16868 16870 16873 16876 16879 16882 16884 16887 16890 16893 16896 16898 16900 16903 16906 16909 16912 16915 16918 16921 16924 16927 16930 16933 16936 16939 16942 16944 16947 16949 16952 16955 16958 16961 16964 16967 16970 16973 16976 16979 16982 16985 16988 16991 16994 16997 17000 17003 17006 17009 17012 17015 17018 17021 17024 17027 17030 17033 17036 17039 17042 17045 17048 17051 17054 17057 17060 17063 17066 17069 17072 17074 17077 17080 17083 17086 17089 17092 17095 17098 17101 17104 17106 17109 17112 17115 17118 17121 17124 17127 17130 17133 17136 17139 17142 17145 17148 17151 17154 17156 17159 17162 17164 17167 17169 17172 17175 17178 17181 17184 17186 17189 17191 17194 17197 17199 17202 17205 17208 17211 17214 17217 17220 17223 17226 17229 17232 17235 17238 17241 17244 17247 17249 17252 17255 17257 17260 17263 17266 17269 17272 17275 17278 17281 17284 17287 17290 17293 17296 17299 17302 17305 17308 17311 17314 17317 17320 17323 17326 17329 17332 17335 17338 17341 17344 17347 17350 17353 17356 17359 17362 17364 17367 17370 17373 17375 17378 17381 17384 17387 17390 17393 17396 17399 17401 17404 17407 17410 17412 17415 17418 17420 17423 17426 17429 17432 17434 17436 17439 17441 17444 17447 17450 17453 17456 17458 17461 17463 17466 17468 17471 17474 17477 17480 17483 17486 17489 17491 17494 17497 17500 17503 17506 17508 17511 17514 17517 17519 17522 17525 17528 17530 17533 17536 17538 17541 17544 17546 17549 17552 17555 17558 17561 17564 17567 17570 17573 17575 17578 17581 17584 17587 17590 17593 17595 17598 17601 17604 17606 17608 17611 17614 17617 17620 17623 17626 17629 17632 17635 17638 17641 17644 17647 17650 17653 17656 17659 17662 17665 17668 17670 17673 17676 17679 17682 17685 17688 17691 17694 17696 17699 17702 17705 17708 17711 17714 17717 17720 17723 17726 17729 17732 17735 17737 17740 17743 17745 17748 17751 17754 17757 17760 17763 17766 17769 17772 17775 17778 17781 17784 17787 17790 17793 17796 17799 17802 17805 17808 17811 17814 17817 17820 17823 17826 17829 17832 17835 17838 17841 17844 17847 17850 17853 17856 17859 17862 17865 17868 17871 17874 17877 17880 17883 17886 17889 17892 17895 17898 17901 17904 17906 17909 17912 17915 17918 17921 17924 17927 17930 17933 17936 17939 17942 17945 17948 17951 17954 17957 17960 17963 17966 17969 17972 17975 17978 17981 17984 17987 17990 17993 17996 17999 18002 18005 18008 18011 18014 18017 18020 18023 18026 18029 18032 18035 18038 18041 18044 18047 18050 18053 18056 18059 18062 18065 18068 18071 18074 18077 18080 18083 18086 18089 18091 18094 18097 18100 18103 18106 18109 18112 18115 18118 18120 18123 18126 18129 18132 18135 18138 18141 18143 18146 18149 18152 18155 18158 18161 18164 18167 18169 18172 18175 18178 18181 18184 18187 18190 18192 18194 18197 18200 18203 18206 18209 18212 18215 18218 18221 18224 18227 18230 18233 18236 18239 18242 18245 18248 18251 18254 18257 18260 18262 18265 18268 18271 18274 18277 18280 18283 18286 18289 18292 18295 18298 18301 18304 18307 18310 18313 18316 18319 18322 18325 18328 18331 18334 18337 18340 18343 18346 18349 18352 18355 18358 18361 18364 18367 18370 18373 18376 18379 18382 18385 18388 18391 18393 18396 18399 18402 18405 18408 18411 18414 18417 18420 18422 18425 18428 18431 18434 18437 18440 18442 18445 18448 18451 18454 18457 18460 18463 18465 18468 18470 18473 18476 18478 18481 18484 18487 18490 18492 18495 18497 18500 18502 18505 18508 18510 18513 18516 18519 18522 18525 18528 18531 18534 18537 18540 18543 18546 18548 18551 18554 18557 18560 18563 18566 18569 18572 18575 18578 18581 18584 18587 18590 18593 18596 18599 18602 18605 18608 18611 18614 18617 18620 18623 18626 18629 18632 18635 18638 18640 18643 18646 18649 18652 18655 18658 18661 18664 18667 18670 18673 18676 18679 18681 18684 18687 18689 18692 18695 18698 18700 18702 18705 18708 18710 18712 18715 18718 18721 18724 18727 18730 18733 18736 18739 18742 18745 18748 18751 18753 18756 18759 18762 18765 18767 18770 18772 18775 18778 18780 18782 18785 18788 18791 18794 18796 18799 18802 18805 18807 18810 18813 18816 18819 18822 18825 18828 18831 18834 18837 18840 18843 18846 18849 18851 18853 18856 18859 18862 18865 18868 18871 18874 18876 18879 18882 18884 18887 18889 18892 18895 18898 18901 18904 18906 18908 18911 18914 18916 18919 18922 18924 18927 18929 18932 18935 18938 18941 18944 18946 18948 18951 18954 18957 18960 18963 18965 18968 18970 18973 18976 18979 18982 18984 18987 18990 18993 18996 18998 19001 19004 19007 19010 19013 19016 19019 19022 19024 19027 19030 19032 19035 19038 19041 19044 19047 19050 19053 19056 19059 19061 19064 19067 19070 19073 19076 19079 19082 19085 19088 19091 19094 19097 19100 19102 19105 19108 19111 19114 19116 19119 19122 19125 19128 19131 19134 19136 19139 19142 19145 19147 19150 19152 19154 19157 19160 19163 19166 19169 19172 19175 19178 19181 19184 19187 19190 19192 19195 19198 19201 19204 19207 19209 19212 19214 19217 19220 19223 19226 19229 19232 19234 19237 19240 19243 19246 19249 19252 19255 19258 19261 19264 19267 19270 19273 19276 19279 19282 19284 19287 19290 19293 19296 19299 19302 19305 19308 19311 19314 19316 19319 19322 19325 19327 19329 19332 19335 19338 19341 19344 19346 19348 19351 19353 19356 19359 19361 19364 19367 19370 19373 19375 19378 19381 19384 19387 19390 19393 19396 19399 19402 19405 19408 19411 19413 19416 19419 19422 19425 19427 19430 19433 19436 19438 19441 19444 19447 19449 19452 19455 19458 19460 19463 19466 19469 19471 19474 19477 19480 19483 19486 19489 19492 19495 19498 19501 19504 19507 19510 19512 19515 19518 19521 19523 19526 19529 19532 19535 19538 19541 19543 19546 19549 19552 19555 19558 19561 19564 19567 19570 19573 19576 19579 19581 19584 19587 19590 19593 19596 19598 19601 19604 19607 19610 19612 19615 19618 19621 19624 19627 19630 19633 19636 19639 19642 19645 19647 19650 19653 19656 19659 19662 19665 19667 19670 19673 19676 19679 19682 19685 19688 19691 19694 19697 19700 19703 19706 19709 19712 19715 19718 19721 19724 19727 19730 19732 19735 19738 19741 19744 19746 19749 19752 19755 19758 19761 19764 19767 19770 19773 19776 19778 19781 19783 19786 19789 19792 19795 19797 19800 19803 19806 19809 19812 19815 19818 19821 19823 19826 19829 19832 19835 19838 19840 19843 19846 19849 19851 19854 19857 19860 19863 19866 19868 19871 19874 19877 19880 19883 19886 19888 19890 19893 19896 19899 19901 19904 19907 19909 19911 19913 19916 19919 19922 19924 19927 19930 19933 19935 19938 19941 19944 19947 19950 19953 19956 19959 19962 19965 19968 19970 19972 19975 19978 19981 19984 19986 19989 19992 19995 19998 20001 20004 20007 20010 20013 20016 20019 20022 20025 20027 20030 20033 20036 20038 20041 20044 20047 20050 20053 20056 20059 20062 20064 20067 20070 20072 20075 20078 20081 20084 20087 20090 20092 20095 20098 20101 20104 20106 20109 20112 20114 20116 20119 20121 20123 20126 20129 20131 20134 20137 20139 20142 20145 20148 20151 20154 20157 20160 20163 20165 20168 20171 20174 20176 20179 20182 20185 20188 20191 20194 20197 20200 20203 20206 20209 20212 20215 20218 20221 20224 20227 20230 20233 20236 20239 20242 20245 20248 20251 20254 20257 20260 20263 20266 20269 20272 20275 20277 20280 20283 20286 20289 20292 20295 20298 20301 20304 20307 20310 20313 20316 20319 20322 20325 20328 20330 20333 20336 20339 20342 20345 20348 20351 20354 20357 20359 20362 20365 20368 20371 20374 20376 20379 20381 20384 20387 20390 20393 20396 20399 20402 20405 20408 20411 20414 20417 20420 20423 20426 20429 20432 20435 20438 20441 20444 20446 20449 20452 20455 20458 20461 20464 20467 20470 20473 20476 20479 20481 20483 20486 20489 20492 20494 20497 20500 20503 20506 20509 20512 20515 20518 20521 20523 20526 20529 20532 20535 20538 20541 20544 20546 20549 20551 20554 20557 20560 20563 20566 20569 20572 20575 20578 20581 20584 20587 20590 20593 20596 20599 20602 20605 20608 20611 20614 20617 20619 20622 20625 20628 20631 20634 20637 20640 20643 20646 20649 20652 20655 20658 20661 20664 20667 20670 20673 20676 20678 20681 20684 20687 20690 20693 20696 20699 20702 20705 20708 20711 20714 20717 20720 20723 20726 20729 20732 20735 20738 20741 20744 20747 20750 20753 20756 20759 20762 20765 20768 20771 20774 20777 20780 20783 20786 20789 20792 20795 20798 20801 20804 20807 20810 20813 20816 20819 20822 20825 20828 20831 20834 20837 20840 20843 20846 20849 20852 20855 20858 20861 20864 20867 20870 20873 20876 20879 20882 20885 20888 20891 20894 20897 20900 20903 20906 20909 20912 20915 20918 20921 20924 20927 20930 20933 20936 20939 20942 20945 20948 20951 20954 20957 20960 20963 20966 20969 20972 20975 20978 20981 20984 20987 20990 20993 20996 20999 21001 21003 21006 21009 21012 21015 21018 21021 21023 21025 21028 21031 21034 21037 21040 21043 21046 21049 21052 21055 21058 21061 21064 21067 21069 21072 21075 21078 21081 21084 21087 21090 21093 21096 21099 21102 21105 21108 21111 21114 21117 21120 21122 21125 21128 21131 21134 21137 21140 21143 21146 21149 21152 21154 21157 21160 21163 21165 21168 21171 21174 21177 21180 21183 21186 21189 21192 21195 21198 21201 21204 21207 21210 21212 21215 21218 21220 21223 21226 21229 21232 21235 21238 21241 21244 21247 21250 21253 21256 21259 21262 21265 21268 21270 21273 21276 21278 21281 21284 21287 21290 21293 21295 21298 21301 21304 21307 21310 21313 21315 21317 21320 21323 21326 21328 21331 21334 21336 21338 21341 21344 21347 21350 21352 21354 21357 21360 21363 21365 21368 21371 21374 21377 21380 21383 21385 21387 21390 21393 21395 21398 21400 21402 21405 21408 21411 21414 21416 21419 21422 21424 21427 21430 21433 21436 21438 21441 21444 21447 21450 21453 21456 21459 21461 21464 21467 21470 21473 21476 21479 21482 21485 21488 21491 21494 21497 21500 21503 21506 21509 21512 21515 21518 21520 21523 21526 21529 21532 21534 21537 21540 21543 21546 21549 21551 21554 21557 21560 21563 21565 21568 21571 21574 21577 21579 21582 21585 21588 21591 21594 21596 21599 21602 21605 21608 21610 21613 21616 21619 21622 21625 21628 21630 21633 21636 21638 21640 21643 21646 21648 21651 21654 21657 21660 21662 21665 21667 21670 21673 21676 21678 21680 21682 21685 21688 21691 21694 21697 21699 21702 21705 21707 21710 21713 21716 21719 21722 21725 21728 21731 21734 21737 21740 21742 21745 21748 21751 21754 21757 21759 21762 21764 21766 21769 21772 21775 21777 21779 21782 21785 21787 21790 21793 21796 21798 21801 21803 21806 21809 21812 21814 21817 21820 21823 21825 21827 21830 21833 21836 21839 21842 21845 21848 21851 21854 21857 21860 21863 21866 21869 21872 21875 21878 21881 21884 21887 21890 21893 21896 21899 21902 21905 21908 21911 21914 21917 21920 21923 21926 21929 21932 21935 21938 21941 21944 21947 21950 21953 21956 21959 21962 21965 21968 21971 21974 21976 21979 21982 21984 21987 21990 21993 21995 21998 22001 22004 22007 22009 22012 22015 22018 22020 22023 22026 22028 22031 22034 22037 22039 22042 22044 22047 22049 22052 22055 22058 22061 22064 22066 22069 22072 22075 22078 22081 22084 22087 22090 22093 22096 22099 22102 22105 22108 22111 22114 22116 22119 22122 22124 22127 22130 22133 22136 22139 22142 22144 22147 22150 22152 22155 22158 22161 22164 22166 22168 22170 22172 22175 22178 22181 22184 22187 22190 22193 22196 22198 22200 22203 22206 22209 22212 22214 22217 22220 22223 22226 22229 22232 22235 22237 22240 22243 22246 22249 22252 22255 22258 22261 22264 22267 22270 22273 22276 22279 22282 22285 22288 22291 22294 22297 22300 22303 22306 22309 22312 22315 22318 22321 22324 22327 22330 22333 22336 22339 22342 22345 22348 22351 22354 22357 22360 22363 22366 22369 22372 22375 22378 22381 22384 22387 22390 22393 22396 22399 22402 22405 22408 22411 22414 22417 22420 22423 22425 22428 22431 22434 22437 22440 22442 22444 22447 22450 22453 22455 22458 22461 22463 22466 22468 22471 22474 22476 22479 22482 22485 22488 22491 22494 22497 22500 22503 22506 22509 22512 22515 22518 22521 22524 22527 22530 22533 22536 22539 22542 22545 22548 22551 22554 22557 22560 22563 22566 22568 22571 22574 22577 22580 22583 22586 22588 22591 22594 22597 22599 22602 22605 22608 22611 22614 22617 22620 22622 22625 22628 22631 22634 22637 22640 22643 22646 22648 22651 22654 22656 22659 22662 22665 22668 22671 22674 22677 22680 22683 22686 22689 22692 22695 22698 22701 22704 22707 22710 22713 22716 22719 22722 22725 22728 22731 22734 22736 22739 22742 22745 22748 22751 22754 22757 22760 22763 22765 22768 22771 22774 22777 22780 22783 22786 22789 22792 22794 22797 22799 22802 22805 22807 22810 22812 22815 22818 22821 22824 22827 22830 22833 22835 22838 22841 22844 22847 22850 22853 22856 22859 22862 22865 22868 22871 22874 22877 22880 22882 22885 22888 22890 22893 22896 22899 22902 22905 22907 22910 22913 22915 22918 22921 22923 22925 22928 22931 22933 22936 22939 22942 22944 22947 22949 22952 22955 22958 22961 22963 22966 22969 22972 22975 22978 22981 22984 22987 22990 22992 22995 22998 23001 23004 23007 23010 23013 23016 23018 23021 23024 23027 23030 23032 23035 23037 23040 23043 23046 23049 23052 23054 23057 23059 23061 23064 23067 23069 23072 23075 23078 23081 23084 23086 23089 23091 23094 23097 23100 23103 23106 23108 23111 23114 23116 23119 23121 23124 23127 23130 23133 23136 23139 23141 23144 23147 23150 23153 23155 23158 23161 23163 23165 23168 23171 23174 23177 23180 23183 23185 23188 23191 23194 23197 23200 23203 23206 23209 23212 23215 23217 23220 23223 23226 23228 23231 23234 23237 23240 23243 23246 23249 23252 23255 23258 23260 23263 23266 23269 23272 23275 23278 23281 23284 23287 23290 23293 23296 23299 23302 23305 23308 23311 23314 23316 23319 23322 23325 23328 23331 23333 23336 23338 23341 23344 23347 23350 23353 23356 23359 23362 23365 23368 23370 23373 23376 23379 23381 23384 23387 23390 23393 23396 23399 23402 23405 23408 23411 23414 23417 23420 23423 23426 23429 23431 23434 23437 23440 23443 23446 23449 23452 23454 23457 23460 23463 23466 23468 23471 23474 23477 23480 23482 23485 23488 23490 23493 23496 23498 23501 23504 23507 23510 23512 23514 23517 23520 23523 23526 23529 23532 23535 23538 23541 23544 23547 23550 23553 23556 23559 23562 23565 23568 23571 23574 23577 23579 23582 23585 23588 23591 23593 23596 23599 23602 23605 23608 23611 23614 23617 23619 23622 23624 23626 23629 23632 23635 23637 23640 23643 23646 23649 23652 23655 23658 23661 23664 23666 23669 23671 23674 23677 23680 23682 23685 23688 23690 23693 23695 23698 23701 23704 23707 23709 23711 23714 23717 23720 23723 23725 23728 23730 23732 23735 23738 23741 23744 23747 23750 23753 23756 23759 23762 23765 23768 23771 23774 23777 23780 23782 23785 23788 23791 23794 23797 23800 23803 23806 23809 23812 23815 23818 23821 23824 23827 23830 23833 23836 23839 23842 23845 23848 23851 23854 23857 23860 23863 23866 23869 23872 23875 23878 23881 23884 23887 23890 23893 23895 23898 23901 23904 23907 23910 23912 23915 23918 23921 23923 23926 23929 23932 23935 23938 23941 23943 23945 23948 23951 23954 23957 23959 23962 23965 23968 23971 23974 23977 23980 23982 23985 23988 23991 23994 23997 23999 24002 24005 24008 24010 24013 24016 24019 24022 24024 24027 24030 24033 24036 24039 24042 24044 24047 24050 24053 24056 24059 24062 24065 24068 24071 24074 24077 24079 24082 24085 24088 24091 24094 24097 24100 24103 24106 24109 24112 24115 24118 24121 24123 24126 24129 24131 24134 24136 24138 24141 24144 24147 24150 24153 24156 24159 24162 24165 24168 24171 24174 24177 24180 24183 24186 24189 24192 24195 24198 24201 24203 24206 24209 24212 24215 24218 24221 24224 24227 24230 24233 24236 24239 24242 24245 24248 24251 24254 24257 24260 24263 24266 24269 24272 24275 24278 24281 24284 24287 24290 24293 24296 24299 24302 24305 24308 24311 24314 24317 24320 24323 24326 24329 24332 24335 24338 24341 24344 24347 24350 24353 24356 24359 24362 24365 24368 24371 24374 24377 24380 24383 24386 24389 24392 24395 24398 24401 24403 24406 24409 24412 24415 24417 24419 24422 24425 24428 24431 24433 24436 24439 24442 24445 24448 24451 24454 24457 24460 24463 24466 24469 24471 24474 24477 24480 24483 24486 24489 24492 24495 24498 24501 24504 24507 24509 24512 24515 24518 24521 24524 24527 24530 24533 24536 24539 24541 24544 24547 24549 24552 24555 24558 24561 24564 24567 24570 24573 24576 24579 24582 24585 24588 24591 24594 24597 24600 24603 24606 24609 24612 24615 24618 24621 24624 24626 24629 24632 24634 24637 24640 24642 24645 24648 24651 24654 24657 24660 24662 24665 24668 24671 24674 24676 24679 24682 24685 24688 24691 24694 24697 24700 24703 24706 24709 24712 24715 24718 24721 24724 24727 24730 24733 24736 24739 24741 24744 24747 24750 24753 24756 24759 24762 24765 24768 24771 24774 24777 24780 24783 24786 24788 24791 24793 24796 24799 24802 24805 24808 24811 24814 24817 24820 24823 24826 24829 24832 24834 24837 24840 24843 24846 24849 24852 24854 24857 24860 24862 24865 24868 24871 24874 24877 24880 24883 24886 24888 24891 24894 24897 24900 24903 24906 24908 24911 24914 24917 24920 24923 24926 24929 24932 24935 24938 24941 24944 24947 24950 24953 24956 24959 24962 24965 24968 24971 24974 24976 24979 24982 24985 24988 24991 24994 24997 25000 25003 25006 25009 25012 25015 25018 25021 25024 25027 25030 25033 25036 25039 25042 25044 25047 25050 25053 25056 25058 25061 25064 25066 25069 25072 25074 25077 25080 25083 25086 25089 25091 25093 25096 25098 25100 25103 25106 25109 25111 25114 25117 25119 25122 25125 25128 25131 25134 25137 25140 25143 25146 25149 25152 25155 25158 25161 25164 25167 25170 25173 25176 25179 25182 25185 25188 25191 25194 25197 25200 25203 25206 25209 25212 25215 25218 25221 25224 25227 25230 25233 25236 25239 25242 25245 25248 25251 25254 25257 25259 25262 25265 25268 25271 25274 25277 25280 25283 25286 25289 25292 25295 25298 25300 25303 25306 25308 25310 25313 25316 25319 25322 25325 25328 25331 25333 25336 25339 25341 25344 25347 25350 25352 25355 25358 25361 25363 25366 25369 25372 25375 25378 25381 25384 25387 25390 25393 25396 25399 25402 25405 25408 25411 25414 25417 25420 25423 25426 25428 25431 25434 25437 25440 25442 25445 25447 25450 25452 25455 25458 25460 25462 25465 25468 25471 25474 25477 25480 25483 25485 25488 25490 25493 25496 25499 25502 25505 25508 25511 25514 25517 25519 25522 25524 25527 25530 25533 25535 25538 25541 25543 25546 25548 25551 25554 25557 25559 25562 25565 25568 25571 25574 25577 25580 25583 25586 25589 25592 25594 25597 25600 25603 25606 25608 25611 25614 25617 25620 25623 25626 25629 25632 25635 25638 25641 25644 25647 25650 25653 25656 25659 25662 25665 25668 25670 25673 25676 25679 25681 25684 25686 25688 25690 25693 25696 25699 25702 25705 25708 25711 25714 25717 25720 25723 25726 25728 25731 25734 25736 25739 25741 25744 25746 25749 25752 25754 25757 25760 25763 25766 25768 25771 25774 25777 25780 25783 25786 25789 25791 25794 25797 25800 25803 25806 25809 25812 25815 25818 25821 25823 25826 25829 25832 25835 25838 25841 25844 25847 25850 25853 25856 25859 25862 25864 25867 25870 25873 25875 25877 25879 25882 25885 25888 25891 25894 25897 25899 25902 25905 25908 25911 25914 25916 25919 25922 25925 25928 25931 25934 25936 25939 25942 25944 25947 25950 25952 25955 25958 25961 25963 25966 25969 25971 25974 25977 25980 25982 25985 25988 25990 25992 25995 25998 26001 26004 26006 26009 26012 26015 26018 26021 26024 26027 26030 26033 26036 26039 26042 26045 26048 26051 26054 26057 26060 26063 26066 26069 26072 26075 26078 26081 26084 26087 26090 26093 26096 26099 26101 26104 26107 26110 26113 26116 26119 26122 26125 26127 26130 26133 26136 26139 26142 26145 26148 26151 26154 26157 26160 26162 26165 26168 26171 26174 26177 26180 26183 26186 26189 26192 26195 26198 26201 26204 26207 26210 26213 26215 26218 26221 26224 26227 26230 26232 26235 26238 26240 26243 26246 26249 26252 26255 26258 26260 26263 26266 26269 26271 26274 26277 26279 26282 26285 26288 26290 26293 26295 26298 26301 26304 26307 26309 26312 26315 26318 26321 26324 26326 26328 26331 26334 26337 26340 26343 26346 26349 26352 26355 26358 26361 26364 26366 26369 26372 26375 26378 26381 26384 26387 26390 26393 26396 26399 26402 26405 26407 26410 26413 26416 26418 26421 26424 26426 26429 26432 26434 26437 26439 26442 26445 26447 26450 26453 26456 26459 26461 26463 26466 26468 26471 26474 26477 26480 26483 26486 26489 26492 26495 26498 26501 26504 26507 26509 26512 26515 26518 26521 26524 26526 26529 26532 26535 26538 26541 26544 26547 26550 26553 26556 26559 26562 26565 26568 26571 26574 26577 26580 26583 26586 26589 26592 26595 26598 26601 26604 26607 26610 26613 26616 26619 26621 26624 26627 26630 26633 26635 26638 26641 26644 26646 26649 26652 26655 26658 26661 26664 26667 26670 26673 26676 26679 26682 26685 26688 26691 26693 26696 26699 26702 26705 26708 26711 26714 26717 26720 26723 26726 26729 26732 26735 26737 26739 26742 26744 26747 26749 26752 26755 26758 26761 26764 26767 26770 26773 26776 26779 26782 26784 26787 26790 26793 26796 26799 26801 26804 26807 26810 26813 26816 26819 26821 26824 26827 26830 26833 26836 26839 26842 26845 26848 26851 26854 26857 26860 26863 26866 26869 26872 26875 26878 26881 26884 26887 26890 26893 26895 26898 26901 26904 26907 26910 26912 26915 26918 26921 26924 26927 26930 26933 26936 26939 26942 26945 26948 26951 26954 26957 26960 26963 26966 26969 26972 26975 26978 26981 26984 26986 26989 26992 26995 26997 27000 27003 27006 27009 27012 27015 27018 27021 27024 27027 27030 27033 27036 27039 27042 27045 27048 27051 27054 27057 27060 27063 27066 27069 27072 27075 27078 27081 27084 27087 27089 27092 27095 27097 27100 27103 27106 27109 27112 27115 27118 27121 27124 27126 27129 27131 27134 27137 27140 27143 27146 27149 27152 27155 27157 27160 27163 27166 27168 27171 27174 27177 27180 27183 27186 27188 27191 27194 27197 27199 27202 27205 27208 27211 27214 27217 27220 27223 27226 27229 27232 27235 27238 27241 27244 27247 27250 27253 27256 27259 27262 27265 27267 27270 27273 27276 27279 27282 27285 27287 27290 27293 27296 27298 27300 27303 27306 27309 27312 27315 27318 27320 27322 27325 27327 27330 27332 27335 27338 27340 27343 27345 27348 27351 27354 27357 27359 27361 27364 27367 27370 27373 27376 27379 27382 27385 27388 27390 27393 27396 27399 27402 27405 27407 27410 27413 27416 27419 27422 27425 27428 27431 27434 27437 27439 27442 27444 27447 27450 27453 27456 27459 27462 27465 27468 27471 27474 27477 27480 27483 27486 27489 27492 27495 27498 27501 27504 27507 27510 27513 27516 27518 27521 27524 27527 27530 27533 27536 27539 27542 27545 27548 27551 27553 27556 27558 27561 27564 27567 27570 27573 27576 27579 27582 27585 27588 27591 27593 27596 27599 27602 27604 27607 27610 27613 27615 27618 27621 27624 27627 27630 27633 27636 27639 27642 27645 27648 27651 27654 27657 27660 27663 27666 27669 27671 27674 27676 27679 27682 27685 27688 27691 27693 27696 27698 27701 27704 27707 27709 27712 27715 27718 27721 27724 27727 27729 27732 27735 27737 27740 27743 27746 27749 27752 27755 27758 27761 27764 27767 27770 27773 27776 27779 27782 27785 27788 27791 27794 27797 27800 27803 27806 27809 27812 27815 27818 27821 27824 27827 27830 27833 27836 27839 27842 27845 27848 27851 27854 27857 27860 27863 27866 27869 27872 27875 27878 27881 27884 27887 27890 27893 27896 27899 27901 27904 27907 27910 27913 27916 27918 27921 27924 27927 27930 27933 27936 27939 27942 27945 27948 27951 27954 27957 27960 27963 27966 27969 27972 27975 27978 27981 27984 27987 27990 27993 27996 27999 28002 28005 28008 28011 28014 28017 28020 28023 28026 28029 28032 28035 28038 28041 28044 28047 28050 28053 28056 28059 28062 28065 28068 28071 28074 28077 28080 28083 28086 28089 28092 28095 28098 28101 28104 28106 28109 28112 28115 28118 28120 28123 28126 28129 28132 28135 28138 28141 28144 28147 28150 28153 28156 28159 28162 28165 28168 28171 28173 28176 28179 28182 28184 28187 28189 28192 28195 28198 28201 28204 28207 28210 28213 28216 28219 28222 28225 28228 28231 28234 28237 28239 28242 28245 28248 28251 28253 28256 28259 28262 28265 28268 28271 28274 28277 28280 28283 28286 28289 28292 28295 28298 28301 28304 28306 28309 28311 28314 28317 28319 28321 28324 28326 28329 28332 28335 28338 28340 28343 28346 28349 28351 28354 28357 28360 28363 28366 28369 28372 28375 28377 28380 28383 28386 28388 28391 28394 28397 28400 28403 28405 28408 28411 28414 28416 28418 28421 28424 28427 28429 28432 28434 28437 28440 28443 28446 28449 28452 28455 28458 28461 28464 28467 28470 28473 28476 28479 28482 28485 28488 28491 28494 28497 28500 28503 28506 28508 28510 28513 28516 28519 28522 28525 28527 28529 28532 28535 28538 28541 28544 28546 28549 28552 28555 28558 28561 28564 28567 28570 28573 28576 28579 28582 28585 28587 28590 28593 28596 28599 28602 28604 28607 28610 28613 28616 28619 28621 28624 28627 28630 28633 28636 28639 28642 28645 28648 28651 28654 28656 28659 28662 28665 28668 28671 28674 28677 28680 28683 28686 28689 28692 28694 28696 28699 28702 28705 28708 28711 28714 28717 28720 28723 28726 28728 28731 28734 28737 28740 28743 28745 28748 28751 28754 28757 28760 28763 28766 28769 28772 28774 28777 28779 28782 28785 28788 28791 28794 28797 28800 28803 28806 28809 28812 28815 28818 28820 28823 28826 28829 28831 28834 28836 28839 28842 28845 28847 28850 28852 28855 28858 28861 28864 28867 28870 28873 28876 28879 28881 28884 28887 28890 28893 28896 28899 28902 28905 28908 28911 28914 28917 28920 28923 28926 28929 28932 28935 28938 28941 28944 28947 28950 28953 28956 28958 28961 28964 28967 28970 28973 28976 28979 28982 28984 28987 28990 28992 28995 28998 29000 29003 29005 29008 29011 29013 29016 29019 29022 29024 29027 29030 29033 29036 29039 29042 29045 29048 29051 29054 29056 29059 29062 29065 29068 29071 29073 29076 29078 29081 29083 29086 29089 29092 29095 29098 29101 29104 29106 29108 29111 29114 29117 29119 29121 29124 29126 29129 29132 29135 29138 29141 29143 29146 29149 29151 29154 29157 29160 29163 29166 29169 29171 29174 29177 29180 29182 29185 29188 29191 29194 29197 29199 29202 29204 29207 29209 29212 29215 29218 29221 29224 29227 29230 29233 29236 29239 29242 29245 29248 29251 29254 29257 29260 29263 29266 29269 29272 29275 29278 29281 29284 29287 29290 29293 29296 29298 29301 29304 29307 29310 29313 29316 29319 29321 29324 29327 29330 29332 29335 29337 29340 29343 29345 29348 29351 29354 29356 29359 29362 29365 29368 29370 29373 29376 29379 29382 29385 29388 29391 29394 29397 29400 29403 29406 29409 29411 29414 29417 29420 29423 29426 29429 29431 29434 29437 29440 29443 29446 29449 29452 29455 29458 29461 29464 29467 29469 29472 29475 29478 29481 29484 29487 29489 29492 29495 29498 29501 29504 29507 29509 29512 29514 29517 29520 29523 29525 29528 29531 29534 29537 29540 29543 29545 29548 29551 29554 29557 29560 29563 29566 29569 29572 29575 29578 29581 29584 29587 29590 29593 29595 29598 29601 29604 29607 29610 29613 29616 29619 29622 
</DataArray>
<DataArray type="UInt32" Name="types" format="ascii">
5 5 5 5 5 3 5 5 5 5 5 5 5 5 5 5 3 5 5 3 5 3 5 5 5 5 3 5 5 5 5 5 5 3 5 5 5 5 5 5 3 3 5 5 3 3 5 5 5 5 5 5 5 5 5 5 3 3 5 5 5 3 5 5 5 5 3 5 5 5 5 5 5 5 5 5 5 5 3 5 5 5 3 5 5 5 3 5 5 5 5 3 5 5 5 5 5 5 3 5 5 3 5 5 5 5 3 5 5 5 5 5 3 5 5 5 5 5 5 5 5 5 5 5 5 5 5 5 5 5 5 5 5 5 5 3 5 5 5 3 5 5 5 5 5 5 3 5 5 5 5 5 5 5 5 5 5 5 5 5 5 5 5 5 5 5 5 5 5 5 3 5 3 5 5 5 5 5 5 5 5 5 5 5 5 3 5 5 5 5 5 5 5 5 5 5 5 5 3 5 5 5 5 5 5 5 5 5 5 5 5 3 5 5 5 3 3 5 5 5 5 5 5 5 3 5 5 5 5 5 5 5 5 5 3 5 5 3 5 5 5 5 5 5 5 5 5 5 5 5 5 5 5 5 5 5 3 5 5 5 5 5 5 5 5 5 3 5 5 5 5 5 5 5 5 5 5 5 5 5 5 5 3 5 5 5 5 5 5 5 5 5 5 5 5 5 5 5 5 5 5 3 5 5 5 5 3 5 5 5 5 5 5 5 5 3 5 5 3 5 5 5 5 5 5 5 5 5 5 5 5 5 5 5 5 5 5 5 5 5 5 5 3 5 5 5 5 3 5 5 5 5 5 3 3 5 5 3 3 5 5 5 5 5 5 5 3 5 5 5 5 5 5 5 5 3 5 5 5 5 5 5 5 5 3 5 5 5 5 3 5 5 5 5 5 5 3 5 5 5 5 5 5 5 5 5 5 5 5 5 5 5 5 5 5 5 5 5 5 5 5 5 5 5 5 5 3 5 5 5 5 5 5 5 5 3 5 5 5 3 5 5 3 5 5 5 5 5 5 5 5 3 5 5 5 3 5 3 5 5 5 5 3 5 5 3 5 5 3 5 5 5 3 5 5 5 5 5 5 5 5 5 5 5 5 5 5 5 5 5 5 5 5 5 5 5 3 5 5 5 5 5 5 5 5 3 5 5 5 5 5 5 5 5 5 5 5 5 5 3 5 5 5 5 5 5 5 5 5 5 5 5 5 5 5 5 5 5 5 5 5 3 5 5 5 3 5 5 3 5 5 5 5 3 5 5 5 5 5 5 5 3 5 3 5 5 5 5 5 5 5 5 5 5 5 5 5 5 5 5 5 5 5 5 5 5 3 5 3 5 3 5 5 3 3 5 5 5 5 5 5 5 5 5 5 5 5 5 5 5 5 5 3 5 5 5 5 3 5 5 5 5 3 3 5 3 5 5 5 5 5 5 5 5 5 5 5 5 5 5 5 5 5 5 5 5 5 5 5 5 5 5 3 5 5 5 5 5 5 5 5 5 5 5 5 3 5 5 5 3 5 3 5 5 5 5 5 5 5 5 5 5 3 5 5 5 3 5 5 5 5 5 5 5 5 5 3 5 5 5 5 3 5 5 5 5 5 5 5 5 5 3 5 5 3 5 5 5 5 5 3 5 5 5 5 3 5 5 5 5 5 5 5 3 3 5 5 5 5 5 5 3 5 3 5 5 3 5 3 5 5 5 3 5 5 5 5 3 5 5 3 5 3 3 5 3 3 5 5 3 5 3 5 5 5 3 3 5 5 5 5 5 3 5 5 5 5 5 5 5 5 3 5 3 5 5 5 5 3 3 5 5 3 5 5 5 5 5 3 5 5 3 5 3 5 3 3 5 3 5 3 3 3 5 5 3 5 3 5 5 3 5 5 5 5 5 3 5 5 3 5 5 5 5 3 5 5 5 5 5 5 5 3 5 3 5 5 5 3 5 5 5 5 5 5 5 5 5 5 5 5 5 5 5 5 5 5 3 5 5 5 5 5 5 5 5 5 3 5 5 5 5 5 5 5 5 5 5 5 5 5 3 5 5 5 5 5 5 5 5 5 5 5 5 5 5 5 5 5 5 5 5 5 5 5 5 5 5 5 5 5 5 5 5 5 5 5 5 5 5 5 5 3 5 5 5 5 5 5 5 5 5 5 5 5 5 5 5 3 3 5 5 3 5 5 5 5 5 5 5 5 5 5 5 5 5 5 5 5 5 5 5 5 3 5 3 5 5 5 5 5 3 3 5 5 5 5 5 5 5 5 5 5 5 5 5 5 5 5 5 5 5 5 5 5 5 5 5 5 5 5 5 5 5 5 5 5 5 5 5 5 5 5 5 5 5 5 5 5 5 5 5 5 5 5 5 5 5 5 3 5 5 5 5 5 5 5 3 5 5 5 5 3 5 5 5 5 5 5 5 5 5 5 5 5 5 5 5 3 5 5 5 5 3 5 5 5 5 3 5 5 3 5 5 3 5 5 5 5 3 5 5 5 5 5 5 5 5 5 5 5 5 5 5 5 5 5 5 5 5 5 5 5 5 3 5 3 5 5 5 5 5 5 5 5 5 5 5 5 3 5 5 5 5 5 3 5 5 5 5 5 5 5 5 5 5 5 3 3 5 5 3 5 5 5 5 3 5 5 3 5 5 5 5 5 5 3 5 5 5 5 5 5 5 5 5 5 5 5 5 5 5 5 5 3 5 5 3 5 5 5 3 5 3 5 5 5 5 3 5 5 5 5 5 5 5 3 5 5 5 5 3 3 5 5 3 5 5 5 3 5 5 3 5 5 3 5 5 3 5 5 5 3 5 5 5 5 5 5 5 5 5 5 5 3 5 5 5 3 3 5 5 3 5 5 3 5 5 3 5 3 5 5 5 3 3 3 5 5 3 5 5 5 5 5 3 5 5 5 5 3 5 5 3 5 5 3 3 5 5 5 5 3 5 5 5 3 5 3 5 5 5 5 5 5 5 5 3 5 5 5 3 5 5 5 5 5 5 5 5 5 5 5 3 5 5 5 5 5 3 3 5 3 3 5 5 5 3 5 3 5 5 3 5 5 5 5 5 5 5 5 5 3 5 5 5 5 3 5 5 5 5 5 5 5 5 5 3 5 5 5 5 5 3 3 5 5 3 5 5 5 5 5 3 5 3 5 5 5 3 5 5 5 5 5 5 5 5 5 3 3 5 5 5 3 5 5 3 3 5 5 5 3 5 5 5 5 5 5 3 5 5 5 3 3 5 5 5 3 3 5 5 3 5 5 5 3 5 3 5 5 5 3 5 5 5 5 5 5 3 3 5 3 5 5 3 5 3 3 5 5 3 5 5 5 5 5 3 5 5 5 5 3 5 5 5 5 5 5 5 3 5 5 5 5 3 5 5 5 5 5 5 5 5 5 5 3 5 5 3 3 5 5 5 5 5 5 5 3 5 5 5 3 3 5 5 5 5 5 5 5 5 3 5 5 5 5 3 5 5 5 5 5 3 5 5 5 5 5 5 5 5 5 5 5 5 5 5 5 5 5 5 5 5 5 3 5 5 3 5 5 5 5 3 5 5 5 5 5 5 5 5 5 5 5 5 5 5 5 5 5 5 5 5 5 5 5 5 5 5 5 5 5 5 5 5 5 5 5 5 5 5 5 5 5 5 5 5 5 5 5 5 5 3 5 5 5 5 5 5 3 5 5 5 5 3 5 3 5 5 3 5 5 5 5 5 5 5 5 5 5 5 5 5 3 5 5 3 5 5 3 5 3 5 5 5 5 5 5 5 5 5 5 5 5 5 5 5 5 5 5 5 5 5 5 3 5 5 5 5 5 5 5 5 5 5 5 5 5 5 5 5 5 5 5 5 5 5 5 5 5 5 5 5 5 5 5 5 5 5 3 5 5 5 5 5 5 3 5 5 3 3 5 5 5 5 5 5 5 3 5 5 3 5 5 5 5 5 5 3 5 5 5 3 5 3 5 5 5 3 5 5 5 3 5 5 5 5 5 3 5 5 3 5 3 3 5 5 3 5 3 5 5 5 5 5 3 5 5 3 5 3 5 5 3 5 5 5 5 5 3 3 3 5 5 5 5 5 5 5 5 5 5 3 5 5 3 5 5 3 3 3 5 3 5 5 5 5 3 5 3 5 5 5 3 5 3 5 3 5 5 5 3 5 5 3 5 3 3 3 5 5 3 5 3 3 5 5 5 5 5 5 5 5 5 5 5 5 3 5 5 5 5 3 5 5 5 3 3 3 5 5 5 3 5 3 5 3 5 5 5 5 5 5 3 5 5 3 3 3 5 5 5 3 5 3 5 5 5 5 5 5 5 3 5 5 5 5 3 5 5 5 3 5 3 3 5 3 5 5 5 5 5 5 5 5 5 5 5 5 5 5 3 5 5 5 5 5 5 5 5 5 5 5 3 5 5 5 5 5 5 5 5 5 5 5 5 5 5 5 5 5 3 5 5 5 5 3 5 5 5 5 5 5 5 5 5 5 5 5 5 5 5 5 3 5 3 5 5 5 5 3 5 5 3 5 5 3 5 5 3 3 5 5 3 5 5 3 5 5 5 3 5 5 5 5 3 5 3 5 5 5 5 5 5 5 5 5 5 5 5 5 5 5 5 5 5 5 5 5 5 5 5 5 3 5 5 3 5 5 5 5 5 5 5 5 5 5 5 3 5 5 5 5 3 5 5 3 5 5 5 5 5 3 5 3 5 5 5 5 5 5 5 5 5 5 5 5 5 5 5 5 5 5 5 5 5 5 5 5 5 3 5 3 5 3 3 5 5 5 5 5 3 5 5 5 5 5 5 3 5 5 5 5 5 5 3 3 5 5 5 5 3 5 5 5 5 5 5 5 5 5 5 5 5 5 5 5 5 5 5 3 5 3 3 5 5 5 5 5 5 5 3 5 5 5 3 3 5 5 5 5 5 5 5 5 5 5 5 5 5 5 5 5 5 5 5 5 5 5 5 5 5 5 5 5 3 5 5 5 5 3 5 5 5 5 5 5 5 5 5 5 5 5 5 5 5 5 5 5 3 5 5 5 5 5 5 5 5 3 3 5 3 5 5 5 5 5 5 5 5 5 5 5 3 5 3 5 5 5 5 5 5 5 5 5 3 5 5 5 3 3 5 5 5 3 3 5 3 5 5 5 5 5 5 5 5 5 3 5 5 5 5 5 5 5 3 5 5 5 5 5 5 3 5 5 5 5 5 5 3 5 5 5 5 5 5 5 5 5 5 5 5 5 5 5 3 5 5 5 5 5 5 5 5 5 5 5 5 5 5 5 3 5 5 5 5 5 5 5 5 5 5 3 5 5 5 3 5 5 5 5 5 5 5 3 5 5 5 3 5 5 3 5 5 5 3 3 5 5 5 3 5 5 5 5 5 5 5 3 5 5 5 5 5 3 5 5 5 5 3 5 5 5 5 5 5 5 5 3 5 5 5 5 5 5 5 5 5 5 5 5 5 5 5 5 5 5 5 5 5 5 5 5 5 5 5 5 5 5 5 5 5 3 5 5 3 5 5 5 3 3 5 5 5 5 3 3 5 5 5 5 5 3 5 5 5 5 5 5 5 3 5 5 5 5 5 3 5 5 5 3 5 5 5 5 5 3 3 5 5 5 5 5 5 5 5 5 5 5 3 5 5 3 5 5 5 5 5 5 5 5 5 5 5 5 5 3 3 5 5 5 5 5 5 5 5 5 5 5 5 5 5 3 5 5 5 3 5 5 5 5 5 5 5 5 5 5 5 5 5 5 3 5 3 5 3 5 5 5 5 5 3 3 5 5 5 5 5 3 5 5 5 5 5 5 5 5 5 5 3 5 5 5 5 5 5 5 5 5 5 5 5 5 5 5 5 5 5 5 5 3 5 5 5 5 5 5 5 5 5 5 5 5 5 5 5 5 5 5 5 5 5 5 5 5 5 3 5 5 5 5 5 5 5 3 5 5 5 3 5 5 5 5 3 5 3 5 5 5 5 5 5 3 5 5 5 3 5 5 5 5 3 5 3 5 3 5 5 5 3 5 3 5 5 5 5 5 5 5 5 3 5 5 5 5 5 5 3 5 5 5 5 5 3 3 3 5 5 5 5 5 5 5 5 5 5 5 5 5 3 5 3 5 5 5 5 5 5 5 5 5 3 5 5 3 3 5 5 3 5 5 5 5 3 5 5 5 5 3 5 5 5 5 5 3 5 5 5 5 3 5 5 5 3 5 5 5 5 5 3 5 5 5 5 5 5 5 5 5 3 5 5 5 5 5 5 5 5 5 3 5 5 5 5 5 5 5 5 5 5 3 5 5 3 5 3 5 5 5 5 5 5 5 5 5 5 3 5 3 5 5 5 5 5 5 5 5 5 5 5 3 5 5 5 3 5 5 5 5 3 5 5 3 5 5 5 5 5 5 5 5 5 5 5 5 5 5 5 5 5 5 5 5 5 5 5 5 5 5 5 3 5 5 5 5 3 5 3 3 5 5 5 5 5 3 3 5 5 5 5 5 5 5 5 5 5 5 5 5 5 5 5 5 5 5 3 5 5 5 5 3 5 5 5 5 5 5 5 3 3 5 5 3 5 5 3 5 3 5 3 5 5 5 5 5 3 5 5 3 5 3 5 5 5 5 5 5 5 5 5 5 5 5 5 5 5 5 3 5 3 5 5 5 5 5 5 5 5 5 5 5 5 5 5 5 5 5 5 5 5 5 5 5 5 5 5 5 5 5 5 5 5 5 5 5 3 5 5 5 5 3 5 5 5 5 5 5 5 5 5 5 5 5 5 3 5 3 5 5 5 3 3 5 5 5 5 5 3 5 5 5 5 3 5 5 3 5 5 5 5 5 5 5 5 5 5 5 5 5 5 5 5 5 5 5 5 5 5 5 5 5 5 5 5 5 5 5 5 5 5 5 5 3 5 5 5 5 5 5 5 5 5 5 5 5 5 5 5 5 5 5 5 5 5 5 5 5 5 5 5 5 5 5 5 5 3 5 3 5 5 5 5 3 5 5 5 5 3 5 5 5 5 5 5 5 5 5 5 5 5 5 5 5 5 5 5 5 3 5 5 5 5 5 5 3 5 5 5 5 5 3 5 5 5 5 5 5 5 5 5 5 5 3 5 5 5 5 5 5 5 5 3 5 5 5 5 5 5 5 3 5 5 5 5 5 5 5 5 5 5 5 5 5 5 5 5 5 5 5 5 3 5 3 5 5 5 5 5 5 5 5 5 3 3 5 5 3 5 5 5 3 5 5 5 5 3 5 5 5 3 5 5 5 5 5 5 5 5 5 5 5 3 5 5 3 5 5 5 5 3 5 5 3 5 5 5 5 5 5 5 5 5 5 5 5 5 3 5 5 5 5 5 5 3 5 5 5 3 5 5 5 5 5 5 5 5 3 5 5 5 3 5 5 5 3 5 3 5 5 5 5 5 5 5 5 5 5 3 5 3 5 3 5 3 5 5 5 5 5 5 5 5 3 5 3 5 5 5 5 3 5 5 5 5 5 3 5 5 5 5 3 5 5 5 5 5 3 5 3 5 3 3 5 5 5 5 3 5 5 5 5 5 5 5 5 5 5 5 5 5 5 5 5 5 5 5 5 5 5 3 5 3 5 3 5 5 5 3 5 3 5 5 5 3 5 5 5 5 5 5 5 5 5 5 5 5 5 5 5 5 5 5 5 5 5 5 5 5 5 5 5 5 5 5 5 5 5 5 5 5 5 5 5 5 5 5 5 5 5 5 5 5 5 5 5 5 5 5 5 5 5 5 5 5 5 5 5 5 5 5 5 5 5 5 5 5 5 5 5 5 5 5 5 3 5 5 5 5 5 5 3 5 5 5 5 5 5 3 5 5 5 5 5 3 5 5 5 3 5 5 5 5 5 5 3 5 5 3 5 3 3 5 5 5 3 5 5 5 5 5 5 5 5 5 5 5 5 5 5 5 5 5 5 5 5 5 5 5 5 5 5 5 5 5 5 5 5 5 5 5 5 3 5 5 5 5 5 3 5 5 5 5 5 5 5 5 5 3 3 5 5 3 5 3 5 5 3 3 5 5 3 5 5 5 5 5 5 5 5 5 5 5 5 5 3 5 5 5 5 5 5 5 5 5 5 5 5 5 5 5 5 5 5 5 5 3 5 5 5 5 3 5 5 3 5 5 5 5 5 5 5 5 5 5 5 3 5 5 5 5 5 5 5 5 5 5 5 5 5 5 3 5 5 5 5 3 5 5 5 5 5 3 5 5 5 5 5 5 5 5 5 5 5 5 5 3 5 5 5 5 5 5 5 5 5 5 5 5 5 5 5 5 5 5 3 3 5 5 5 5 5 5 5 5 5 5 3 5 5 5 5 5 5 5 5 5 5 5 3 5 5 5 5 3 5 5 5 5 5 5 5 5 5 5 5 5 3 5 5 5 5 5 5 5 5 5 5 5 5 5 5 5 5 5 5 5 5 5 3 3 5 5 5 5 5 5 5 5 5 5 5 3 3 5 5 5 5 5 3 5 5 5 5 3 3 5 3 5 5 3 5 3 5 5 5 3 5 5 5 5 3 5 5 5 5 5 3 5 5 5 3 5 5 5 5 5 3 5 5 5 5 5 3 5 5 3 5 5 3 5 5 5 3 5 5 5 3 5 5 5 3 5 5 5 3 5 3 5 5 5 5 5 5 5 3 5 5 5 3 5 5 5 5 5 5 5 5 5 5 5 5 5 5 5 5 5 5 5 5 5 5 5 5 5 5 5 5 5 5 5 5 5 5 5 5 5 5 5 5 5 5 5 5 5 5 5 5 5 5 5 5 5 5 5 5 5 5 5 5 5 5 5 5 5 5 5 5 5 5 5 5 5 5 5 5 5 5 3 5 5 3 5 5 5 5 5 5 5 5 5 5 5 5 5 5 3 5 5 3 5 5 3 5 5 5 5 5 5 5 5 5 5 5 5 5 5 5 5 5 5 5 5 5 5 5 5 5 5 5 5 5 5 5 5 5 3 5 5 5 5 5 5 5 5 5 5 5 5 5 5 5 5 5 5 5 5 5 5 5 5 5 5 5 5 5 5 5 5 5 5 5 5 5 3 5 5 5 5 5 5 5 5 5 5 5 5 5 5 5 5 5 5 5 5 5 5 5 5 5 5 5 5 5 5 5 5 5 5 5 5 5 5 5 5 5 5 5 5 5 5 5 5 5 5 5 5 5 5 5 5 5 5 3 5 5 5 5 5 5 5 5 5 5 5 5 5 5 5 5 3 5 5 3 5 3 3 5 5 5 5 5 5 5 5 5 5 5 5 5 5 5 5 5 5 5 5 5 5 5 5 5 5 5 5 5 5 5 5 5 5 5 5 5 5 5 5 3 5 5 5 5 3 5 5 5 5 5 3 3 5 5 5 3 3 3 5 5 5 5 5 5 5 3 5 5 3 5 5 3 5 5 3 5 5 5 5 5 5 3 5 5 3 5 5 5 5 5 5 5 5 5 5 5 5 5 5 5 5 5 5 5 5 5 5 5 5 5 5 3 5 5 5 5 5 5 5 5 5 5 5 5 5 5 5 5 5 5 5 5 5 5 5 5 5 5 5 5 5 5 5 5 5 5 5 5 5 5 5 5 5 5 5 5 5 5 5 5 5 5 5 5 5 5 5 5 3 5 5 3 3 5 5 3 3 5 5 5 3 5 3 5 5 5 3 5 5 5 5 5 5 5 5 5 5 5 5 5 5 3 5 5 5 5 5 3 5 5 5 5 5 5 5 5 3 5 5 5 5 5 3 5 5 5 5 5 5 5 5 5 5 5 5 5 5 3 5 5 5 3 3 5 5 5 5 5 5 5 5 3 5 3 5 3 5 3 5 5 3 5 3 5 5 5 5 5 5 5 5 5 5 5 3 5 5 5 5 5 5 5 5 5 5 3 5 5 5 5 5 5 5 5 5 5 5 5 5 5 5 3 5 5 5 5 5 5 5 5 3 5 5 3 3 5 3 3 5 3 5 5 3 5 3 5 3 5 3 5 5 5 5 5 3 5 5 5 3 5 5 5 5 5 5 5 5 5 3 5 5 5 5 5 5 5 5 5 5 5 5 5 5 5 5 5 5 5 3 5 5 5 5 5 5 5 3 5 3 5 5 5 5 3 5 5 5 5 5 5 3 5 5 5 5 5 5 5 5 5 5 5 5 5 5 5 5 5 3 5 5 5 5 3 5 3 5 5 5 3 3 5 5 5 5 5 3 5 5 5 3 5 5 5 3 3 5 5 5 5 5 3 3 5 3 5 5 5 5 5 5 5 5 5 5 5 5 5 5 5 5 3 5 5 5 5 3 5 5 3 5 5 5 5 5 5 5 5 5 5 5 5 5 5 5 5 5 5 3 5 5 5 5 5 5 5 5 3 5 5 3 5 5 5 5 3 5 5 5 5 5 5 3 3 5 5 5 5 5 3 5 5 5 5 3 5 5 3 5 5 5 5 3 3 5 5 5 5 3 3 5 5 5 5 5 5 5 5 5 5 3 5 5 5 5 5 3 3 5 5 5 5 5 5 5 5 5 5 5 5 3 5 5 5 5 5 5 5 5 3 5 5 5 3 5 5 5 5 3 5 5 3 5 5 5 5 5 5 5 5 5 5 5 5 5 5 5 5 5 5 5 5 5 5 5 5 3 5 5 5 5 5 5 5 5 5 5 5 5 5 5 5 5 5 5 5 5 5 5 5 5 5 5 5 5 3 5 5 3 5 5 3 5 5 5 5 3 5 5 5 5 5 3 5 5 5 5 5 5 3 5 5 5 5 5 5 5 5 3 5 5 5 5 5 5 5 5 5 5 5 5 5 5 5 5 5 5 3 5 5 3 5 3 5 5 3 5 5 5 5 5 5 5 5 5 5 5 5 5 5 5 5 5 5 5 5 5 5 5 5 5 5 5 5 5 5 5 3 5 5 3 5 5 3 3 5 5 5 5 5 5 5 5 5 5 5 5 5 5 5 5 5 5 5 5 5 5 5 5 5 5 5 5 5 5 5 5 5 3 5 3 5 3 5 5 5 5 5 3 5 5 5 5 5 3 5 3 5 3 5 5 5 5 5 5 5 5 3 5 3 5 5 3 5 5 5 5 5 5 3 5 3 3 5 5 5 5 5 5 5 5 3 5 5 3 5 5 3 5 3 5 5 5 3 3 5 3 5 5 5 5 5 5 5 5 5 5 5 5 5 5 5 5 5 5 5 3 5 5 5 5 5 5 5 5 5 5 5 5 5 5 5 5 5 5 5 5 5 5 5 5 5 5 5 5 5 5 5 5 5 5 5 5 5 5 5 5 5 5 5 5 5 5 5 5 5 5 5 5 5 5 3 5 5 5 5 3 5 5 5 5 5 5 5 5 5 5 5 5 5 5 5 5 3 5 3 5 5 5 5 5 5 5 3 3 3 5 5 5 5 3 3 3 3 3 5 5 3 5 5 5 5 3 5 5 5 5 5 5 5 3 5 5 3 3 5 5 5 5 5 5 3 5 3 3 5 3 3 5 5 5 5 3 5 3 5 5 3 5 5 3 5 3 5 5 3 5 3 5 5 5 5 3 5 5 5 5 3 5 5 3 5 5 5 5 5 5 3 5 5 5 5 5 5 5 5 5 3 5 3 5 5 5 5 5 5 5 3 5 5 5 5 5 5 5 5 5 5 5 3 3 5 5 3 3 5 5 3 5 5 5 3 5 3 3 5 5 5 3 3 5 5 3 5 5 3 5 3 5 3 5 5 5 5 5 3 5 5 3 5 3 3 5 3 3 5 5 5 5 5 5 3 3 5 3 5 5 5 5 3 5 5 5 5 5 5 5 5 5 5 5 5 5 5 5 5 5 5 5 5 5 5 5 5 5 5 5 5 5 5 5 5 5 5 5 5 5 5 5 5 5 5 5 5 5 5 5 5 5 5 5 5 5 5 5 5 5 5 5 5 5 5 5 5 5 5 5 5 5 5 5 5 5 5 5 5 5 5 5 5 5 3 5 5 5 5 5 5 3 5 5 5 5 5 5 3 5 5 3 5 5 5 5 5 5 5 5 5 5 5 5 5 5 3 5 5 5 5 5 3 5 5 5 5 3 5 5 5 5 5 5 5 5 5 5 5 5 5 5 5 5 5 5 5 5 5 5 5 5 5 5 5 5 5 5 5 5 5 5 5 3 5 5 5 5 5 5 5 5 5 5 5 5 5 5 5 5 5 5 5 5 5 5 5 5 5 5 5 5 5 5 5 5 5 5 5 5 5 5 5 5 5 5 5 5 5 5 5 5 5 5 5 5 5 5 5 5 5 5 5 5 5 5 5 5 5 5 5 5 5 5 5 5 5 5 5 5 5 5 5 5 5 5 5 5 5 5 5 5 5 5 5 5 5 5 5 5 5 5 5 5 3 5 5 5 5 5 5 5 5 5 5 5 5 5 5 5 5 5 5 5 5 5 5 3 5 3 5 5 5 5 5 3 3 5 5 3 5 3 5 5 3 5 5 5 5 5 5 5 5 5 5 5 5 5 5 5 5 5 5 3 5 5 5 3 5 5 5 3 5 3 5 5 5 5 5 5 5 5 5 5 3 5 5 5 5 3 3 3 5 5 5 5 5 5 5 5 3 5 5 5 5 5 5 5 5 3 5 5 3 5 5 5 5 5 3 5 3 5 3 3 5 3 5 5 3 5 3 5 5 5 5 5 5 5 5 3 5 3 3 5 3 5 3 5 5 5 3 3 5 5 3 5 3 5 3 5 5 5 5 5 3 5 5 5 5 5 5 5 5 5 3 5 3 5 5 5 5 5 5 5 3 5 5 5 3 5 3 3 5 5 5 5 5 3 3 5 5 5 5 5 5 5 5 3 5 3 5 3 5 5 5 5 5 3 5 5 5 5 5 5 5 5 5 5 5 5 5 5 5 5 5 5 5 5 5 5 3 5 5 5 5 5 3 5 5 5 5 3 5 5 5 5 5 5 5 3 5 5 3 5 5 5 5 5 5 5 5 5 5 5 5 5 3 5 3 5 5 5 5 5 5 5 5 5 5 5 5 5 3 5 5 5 3 5 5 3 5 3 5 5 5 5 5 5 3 5 5 5 5 5 5 5 3 5 5 3 5 3 5 3 3 3 5 5 5 3 5 5 3 5 3 5 5 5 5 5 5 5 5 5 5 5 5 5 5 5 5 3 5 3 5 5 5 5 5 5 5 5 5 5 5 5 5 5 5 5 3 5 5 5 5 3 5 5 5 5 5 5 5 5 5 5 5 5 5 5 5 5 5 5 5 5 3 5 5 5 5 3 5 5 5 5 5 5 3 5 5 5 5 5 5 5 5 5 5 5 5 5 5 3 3 5 5 5 5 3 5 5 5 5 3 3 5 5 5 5 5 5 5 5 5 5 5 5 5 5 3 5 3 5 5 5 5 5 5 5 5 5 5 5 5 5 5 5 5 5 5 5 5 5 5 5 5 5 5 5 5 5 5 5 5 5 5 5 5 5 5 5 5 5 3 5 5 5 5 5 5 5 5 5 5 3 5 5 5 5 5 5 5 5 5 5 5 5 5 5 5 5 3 5 5 3 5 3 5 5 5 5 5 3 5 3 5 5 3 5 5 5 5 5 5 5 5 5 5 5 5 5 5 5 5 3 5 5 3 5 5 5 5 5 5 5 5 5 5 5 5 5 5 5 5 5 5 5 5 5 5 5 5 5 5 5 5 5 5 5 5 5 5 5 3 5 5 5 3 5 5 5 5 5 5 5 5 3 5 5 5 3 5 5 3 5 5 5 5 3 3 5 3 5 5 5 5 5 3 5 3 5 3 5 5 5 5 5 5 5 3 5 5 5 5 5 3 5 5 5 3 5 5 5 3 5 5 3 5 5 3 5 5 5 5 5 5 5 5 5 3 5 5 5 5 5 5 3 5 5 5 3 3 5 5 5 5 5 5 5 5 5 5 5 5 5 5 5 5 5 5 5 5 3 5 5 5 5 5 5 5 5 3 5 5 5 5 5 5 5 5 5 5 5 5 5 3 5 5 3 5 5 5 5 5 5 5 5 5 5 5 5 5 5 5 5 5 5 5 5 5 5 5 5 5 5 5 5 5 5 5 5 5 5 5 5 5 5 5 5 5 5 5 5 5 5 5 5 5 5 5 5 5 3 5 5 5 5 5 5 5 5 5 5 5 5 5 5 5 5 5 5 5 5 5 5 5 5 5 5 5 5 5 5 5 5 5 5 5 5 5 5 5 5 5 5 5 5 5 5 5 5 5 5 5 5 5 5 5 5 5 5 5 5 5 3 5 5 5 5 5 5 5 5 5 3 5 5 5 5 5 5 5 3 5 5 5 5 5 5 5 5 3 5 5 5 5 5 5 5 3 3 5 5 5 5 5 5 5 5 5 5 5 5 5 5 5 5 5 5 5 5 5 5 3 5 5 5 5 5 5 5 5 5 5 5 5 5 5 5 5 5 5 5 5 5 5 5 5 5 5 5 5 5 5 5 5 5 5 5 5 5 5 5 5 5 5 5 3 5 5 5 5 5 5 5 5 5 3 5 5 5 5 5 5 3 5 5 5 5 5 5 5 3 5 3 5 5 3 5 5 5 5 3 5 3 5 3 5 5 3 5 5 5 5 5 5 5 5 5 5 5 5 3 5 5 5 5 5 5 5 5 5 5 5 5 5 5 5 5 5 5 5 5 5 5 5 5 5 5 5 5 5 5 3 5 5 5 5 5 5 5 5 5 5 5 5 5 3 5 5 3 5 5 5 3 3 5 5 3 3 5 5 5 5 5 5 5 5 5 5 5 5 5 3 5 5 5 5 3 5 3 5 5 3 3 5 5 5 5 3 5 5 5 3 5 5 5 5 5 5 5 5 5 5 5 5 5 5 3 3 5 5 5 5 5 5 5 3 5 5 3 5 3 5 5 5 5 5 3 3 5 5 3 5 5 3 5 3 5 5 5 5 5 3 3 5 5 5 5 5 3 5 3 5 5 5 5 3 5 5 5 5 3 5 5 5 5 5 5 5 5 3 5 5 3 5 5 5 5 5 5 5 5 5 3 5 5 5 5 5 5 5 5 5 5 5 5 5 3 5 5 5 5 3 5 5 5 5 5 5 3 5 5 5 3 5 3 3 5 5 5 5 5 5 5 5 5 5 5 5 3 5 5 5 5 5 3 5 3 5 5 5 5 5 5 3 5 5 5 5 5 5 5 5 5 5 5 5 5 5 5 5 3 5 5 5 5 5 5 5 5 5 5 3 5 5 5 3 3 5 5 5 5 5 3 3 5 3 5 5 3 5 5 5 5 3 5 5 5 5 5 5 5 5 5 5 5 5 3 5 5 5 5 3 5 5 5 3 5 5 5 3 5 5 5 3 5 5 5 3 5 5 5 5 5 5 5 5 5 5 5 5 5 3 5 5 5 3 5 5 5 5 5 5 3 5 5 5 5 5 5 5 5 5 5 5 5 3 5 5 5 5 5 3 5 5 5 5 3 5 5 5 5 5 5 5 5 5 5 5 3 5 5 5 5 5 5 3 5 5 5 5 5 5 5 5 5 5 5 5 5 5 5 5 5 5 5 5 5 3 5 5 5 5 3 5 5 5 5 5 5 5 5 5 5 3 5 3 5 5 5 5 3 5 5 5 5 5 5 5 5 3 5 5 5 5 5 3 5 5 5 3 5 5 5 5 5 3 5 5 5 5 5 5 3 3 5 5 5 3 5 5 3 3 3 5 5 5 3 5 5 5 3 5 5 5 5 5 5 5 5 5 5 5 3 3 5 5 5 5 3 5 5 5 5 5 5 5 5 5 5 5 5 5 3 5 5 5 3 5 5 5 5 5 5 5 5 3 5 5 3 5 5 5 5 5 5 3 5 5 5 5 3 5 5 3 3 5 3 3 5 5 3 5 5 3 5 5 5 5 5 5 5 5 3 5 5 5 3 5 5 5 5 5 5 5 5 5 5 5 5 5 5 5 5 5 5 5 5 5 5 5 5 5 5 5 5 5 5 5 5 5 3 5 5 5 5 5 5 5 5 5 5 5 5 5 5 5 5 5 3 5 5 5 5 5 5 5 5 5 3 5 5 5 5 5 3 5 3 5 5 5 5 5 5 5 5 5 5 5 5 5 5 5 5 5 5 5 5 5 3 5 5 5 5 5 5 5 5 5 5 5 3 3 5 5 5 3 5 5 5 5 5 5 5 5 5 3 5 5 5 5 5 5 5 3 5 3 5 5 5 5 5 5 5 5 5 5 5 5 5 5 5 5 5 5 5 5 5 5 3 5 5 5 5 5 5 5 5 5 5 5 5 5 5 5 5 5 5 5 3 5 5 5 5 5 5 5 5 5 5 5 5 5 5 5 5 5 5 5 5 5 5 5 5 5 5 5 5 5 5 5 5 5 5 5 5 5 5 5 5 5 5 5 5 5 5 5 5 5 5 5 5 5 5 5 5 5 5 5 5 5 5 5 5 5 5 5 5 5 5 5 5 5 5 5 5 5 5 5 5 5 5 5 5 5 5 5 5 5 5 5 5 5 5 5 5 5 5 5 5 5 5 5 5 5 5 5 3 3 5 5 5 5 5 5 3 3 5 5 5 5 5 5 5 5 5 5 5 5 5 5 3 5 5 5 5 5 5 5 5 5 5 5 5 5 5 5 5 5 3 5 5 5 5 5 5 5 5 5 5 3 5 5 5 3 5 5 5 5 5 5 5 5 5 5 5 5 5 5 5 3 5 5 3 5 5 5 5 5 5 5 5 5 5 5 5 5 5 5 5 3 5 5 3 5 5 5 5 5 3 5 5 5 5 5 5 3 3 5 5 5 3 5 5 3 3 5 5 5 5 3 3 5 5 5 3 5 5 5 5 5 5 3 3 5 5 3 5 3 3 5 5 5 5 3 5 5 3 5 5 5 5 3 5 5 5 5 5 5 5 3 5 5 5 5 5 5 5 5 5 5 5 5 5 5 5 5 5 5 5 3 5 5 5 5 3 5 5 5 5 5 3 5 5 5 5 3 5 5 5 5 3 5 5 5 5 5 3 5 5 5 5 3 5 5 5 5 5 5 3 5 5 3 3 5 5 3 5 5 5 5 3 5 3 5 5 5 3 3 3 5 5 5 5 5 3 5 5 3 5 5 5 5 5 5 5 5 5 5 5 3 5 5 5 5 5 3 5 3 3 5 5 5 3 3 5 5 3 5 5 5 3 5 3 5 5 5 3 5 5 5 3 3 5 5 5 5 5 5 5 5 5 5 5 5 5 5 5 5 5 5 5 5 5 5 5 5 5 5 5 5 5 5 5 5 5 5 5 5 5 5 5 5 5 5 5 5 5 5 5 5 5 3 5 5 3 5 5 5 3 5 5 5 5 3 5 5 5 3 5 5 3 5 5 5 3 5 3 5 3 5 5 5 5 5 3 5 5 5 5 5 5 5 5 5 5 5 5 5 5 5 5 3 5 5 3 5 5 5 5 5 5 3 5 5 3 5 5 5 5 3 3 3 3 5 5 5 5 5 5 5 5 3 3 5 5 5 5 3 5 5 5 5 5 5 5 3 5 5 5 5 5 5 5 5 5 5 5 5 5 5 5 5 5 5 5 5 5 5 5 5 5 5 5 5 5 5 5 5 5 5 5 5 5 5 5 5 5 5 5 5 5 5 5 5 5 5 5 5 5 5 5 5 5 5 5 5 5 5 3 5 5 5 5 5 3 3 5 5 5 3 5 5 3 5 3 5 5 3 5 5 5 5 5 5 5 5 5 5 5 5 5 5 5 5 5 5 5 5 5 5 5 5 5 5 5 5 5 5 3 5 5 5 5 5 5 3 5 5 5 3 5 5 5 5 5 5 5 3 5 5 5 5 5 5 5 5 3 5 5 3 5 5 5 5 5 5 5 5 5 5 5 5 5 5 5 5 5 5 5 5 5 5 5 5 5 5 3 5 5 5 5 5 5 5 5 5 3 5 5 5 5 5 5 5 5 5 3 5 3 5 5 3 5 3 5 5 5 5 5 5 5 3 5 5 5 5 5 5 5 5 5 5 5 5 5 5 5 3 5 5 3 5 5 5 5 5 3 5 5 3 5 5 3 3 5 5 3 5 5 5 3 5 3 5 5 5 5 3 5 5 5 5 5 5 5 5 5 3 5 5 5 5 5 5 5 5 3 5 5 5 5 3 5 3 5 5 5 5 5 3 5 3 3 5 5 3 5 5 5 5 5 3 5 3 5 5 5 5 5 3 5 5 3 5 3 5 5 5 5 5 5 3 5 5 5 5 3 5 5 3 3 5 5 5 5 5 5 3 5 5 5 5 5 5 5 5 5 5 3 5 5 5 3 5 5 5 5 5 5 5 5 5 5 3 5 5 5 5 5 5 5 5 5 5 5 5 5 5 5 5 5 5 3 5 5 5 5 5 3 5 3 5 5 5 5 5 5 5 5 5 5 3 5 5 5 3 5 5 5 5 5 5 5 5 5 5 5 5 5 5 5 5 3 5 5 5 5 5 5 5 3 5 5 5 5 3 5 5 5 5 3 5 5 3 5 5 3 5 5 5 5 3 3 5 5 5 5 5 5 5 5 5 5 5 5 5 5 5 5 5 5 5 5 5 3 5 5 5 5 3 5 5 5 5 5 5 5 5 3 5 3 3 5 5 5 3 5 5 5 5 5 5 5 5 5 3 5 3 5 5 5 3 5 5 3 5 3 5 5 5 5 3 3 5 5 5 5 3 5 3 3 5 5 5 5 5 5 5 5 5 5 5 5 5 5 5 5 3 5 5 5 5 5 5 5 5 5 5 5 5 5 5 5 5 5 5 5 5 5 5 5 5 5 5 5 5 5 5 5 5 5 5 5 5 5 3 5 5 5 5 5 3 5 5 5 3 5 5 5 5 5 5 3 3 5 5 5 5 3 5 5 5 5 5 5 5 3 5 5 5 5 5 3 5 5 5 3 5 5 5 5 3 5 5 5 5 5 5 3 5 5 5 5 5 5 5 5 5 5 5 3 5 5 5 5 5 5 5 5 5 5 5 5 5 5 3 5 5 3 5 3 3 5 5 5 5 5 5 5 5 5 5 5 5 5 5 5 5 5 5 5 5 5 3 5 5 5 5 5 5 5 5 5 5 5 5 5 5 5 5 5 5 5 5 5 5 5 5 5 5 5 5 5 5 5 5 5 5 5 5 5 5 5 5 5 5 5 5 5 5 5 5 5 5 5 5 5 5 5 5 5 5 5 5 5 5 5 5 5 5 3 5 5 5 5 3 3 5 5 5 5 3 5 5 5 5 5 5 5 5 5 5 5 5 3 5 5 5 5 5 5 5 5 5 5 5 5 3 5 5 5 5 5 5 5 5 5 5 3 5 5 3 5 5 5 5 5 5 5 5 5 5 5 5 5 5 5 5 5 5 5 5 5 5 5 5 5 3 5 5 3 5 5 3 5 5 5 5 5 5 3 5 5 5 5 3 5 5 5 5 5 5 5 5 5 5 5 5 5 5 5 5 5 5 5 5 5 3 5 5 5 5 5 5 5 5 5 5 5 5 5 5 5 3 5 3 5 5 5 5 5 5 5 5 5 5 5 5 5 3 5 5 5 5 5 5 3 5 5 3 5 5 5 5 5 5 5 5 3 5 5 5 5 5 5 3 5 5 5 5 5 5 5 5 5 5 5 5 5 5 5 5 5 5 5 5 5 5 3 5 5 5 5 5 5 5 5 5 5 5 5 5 5 5 5 5 5 5 5 5 5 3 5 5 5 5 3 5 5 3 5 5 3 5 5 5 5 5 3 3 5 3 3 5 5 5 3 5 5 3 5 5 5 5 5 5 5 5 5 5 5 5 5 5 5 5 5 5 5 5 5 5 5 5 5 5 5 5 5 5 5 5 5 5 5 5 5 5 5 5 5 5 5 5 5 5 3 5 5 5 5 5 5 5 5 5 5 5 5 5 3 5 5 3 3 5 5 5 5 5 5 5 3 5 5 3 5 5 5 3 5 5 5 3 5 5 5 5 5 5 5 5 5 5 5 5 5 5 5 5 5 5 5 5 5 3 5 5 5 5 3 5 3 5 3 5 5 3 3 5 5 5 5 5 5 5 3 5 3 5 5 5 5 5 5 5 5 5 3 5 3 5 5 5 3 5 5 3 5 3 5 5 5 3 5 5 5 5 5 5 5 5 5 5 5 3 5 5 5 5 3 5 5 5 5 5 5 5 5 5 5 5 5 5 5 5 5 5 5 5 5 3 5 5 5 3 5 3 3 3 5 5 5 5 5 5 5 5 5 5 5 5 3 5 5 3 5 3 5 3 5 5 3 5 5 5 5 3 5 5 5 5 5 5 5 3 5 5 5 5 5 5 5 5 5 5 3 5 5 5 5 5 5 5 5 5 5 5 5 5 3 5 5 5 3 3 3 5 5 5 5 5 5 3 5 5 5 5 5 3 5 5 5 5 5 5 3 5 5 3 5 5 3 5 5 5 3 5 5 3 5 5 5 3 5 5 3 3 5 5 5 5 3 5 5 5 5 5 5 5 5 5 5 5 5 5 5 5 5 5 5 5 5 5 5 5 5 5 5 5 5 5 5 5 3 5 5 5 5 5 5 5 5 3 5 5 5 5 5 5 5 5 5 5 5 3 5 5 5 5 5 5 5 5 5 5 5 5 5 5 5 5 5 3 5 5 5 5 5 3 5 5 3 5 5 5 5 5 5 3 5 5 5 3 5 5 3 5 5 5 3 5 3 5 5 5 5 3 5 5 5 5 5 3 3 5 5 5 5 5 5 5 5 5 5 5 5 3 5 5 5 5 5 5 5 5 5 5 5 5 5 3 5 5 5 3 5 5 3 5 5 3 5 3 5 5 3 5 5 5 5 3 3 5 3 5 5 5 5 5 5 5 5 5 5 5 5 5 3 5 5 5 5 5 3 5 5 5 5 5 5 5 5 5 5 5 5 5 5 5 5 5 5 5 5 5 5 5 5 5 5 5 5 5 5 5 3 5 5 5 5 3 5 5 5 3 5 5 5 5 5 5 5 5 5 5 5 5 5 5 5 3 5 5 5 5 5 5 5 5 5 5 5 5 5 5 3 3 5 3 5 3 5 5 5 5 5 5 5 5 5 5 5 3 5 5 5 5 5 3 5 5 5 5 5 5 3 5 5 5 5 5 5 5 5 5 5 5 5 5 5 5 5 5 5 5 5 5 5 5 5 3 5 5 5 5 5 3 5 5 5 5 5 5 5 5 5 5 5 5 5 5 5 5 5 5 5 5 5 5 5 5 3 5 5 5 3 5 5 5 5 5 5 5 5 5 5 5 5 5 5 5 5 5 5 5 5 5 5 5 5 5 5 5 5 5 5 3 5 5 3 5 5 5 5 5 5 5 5 5 3 5 3 5 5 5 5 5 5 5 5 3 5 5 5 3 5 5 5 5 5 5 3 5 5 5 3 5 5 5 5 5 5 5 5 5 5 5 5 5 5 5 5 5 5 5 5 5 5 3 5 5 5 5 5 5 3 5 5 5 3 3 5 5 5 5 5 5 3 3 5 3 5 3 5 5 3 5 3 5 5 5 5 3 3 5 5 5 5 5 5 5 5 5 3 5 5 5 5 5 3 5 5 5 5 5 5 5 5 5 5 3 5 3 5 5 5 5 5 5 5 5 5 5 5 5 5 5 5 5 5 5 5 5 5 5 5 5 3 5 5 5 5 5 5 5 5 5 5 5 3 5 3 5 5 5 5 5 5 5 5 5 5 5 3 5 5 5 3 5 5 5 3 5 5 5 5 5 5 5 5 5 5 5 5 5 5 5 5 5 5 3 5 3 5 5 5 5 5 3 5 3 5 5 5 3 5 5 5 5 5 5 3 5 5 3 5 5 5 5 5 5 5 5 5 5 5 5 5 5 5 5 5 5 5 5 5 5 5 5 5 5 5 5 5 5 5 5 5 5 5 5 5 5 5 5 5 5 5 5 5 5 5 5 5 5 5 5 5 5 3 5 5 5 5 5 3 5 5 5 5 5 5 5 5 5 5 5 5 5 5 5 5 5 5 5 5 5 5 5 5 5 5 5 5 5 5 5 5 5 5 5 5 5 5 5 5 5 5 5 5 5 5 5 5 5 5 5 5 5 5 5 5 5 5 5 5 5 5 3 5 5 5 5 3 5 5 5 5 5 5 5 5 5 5 5 5 5 5 5 5 5 3 5 5 5 3 5 3 5 5 5 5 5 5 5 5 5 5 5 5 5 5 5 5 3 5 5 5 5 3 5 5 5 5 5 5 5 5 5 5 5 5 5 5 5 5 5 3 5 3 5 5 3 3 5 3 5 5 5 5 3 5 5 5 3 5 5 5 5 5 5 5 5 3 5 5 5 3 5 5 5 5 5 3 5 5 5 3 3 5 5 5 3 5 3 5 5 5 5 5 5 5 5 5 5 5 5 5 5 5 5 5 5 5 5 5 5 5 5 3 3 5 5 5 5 5 3 3 5 5 5 5 5 3 5 5 5 5 5 5 5 5 5 5 5 5 5 3 5 5 5 5 5 3 5 5 5 5 5 3 5 5 5 5 5 5 5 5 5 5 5 3 5 5 5 5 5 5 5 5 5 5 5 5 3 3 5 5 5 5 5 5 5 5 5 5 3 5 5 5 5 5 3 5 5 5 5 5 5 5 5 5 3 5 3 5 5 5 5 5 5 5 5 5 5 5 5 5 3 5 5 5 3 5 3 5 5 5 3 5 3 5 5 5 5 5 5 5 5 5 3 5 5 5 5 5 5 5 5 5 5 5 5 5 5 5 5 5 5 5 5 5 5 5 5 5 3 5 5 5 5 5 5 5 5 3 5 5 3 5 5 3 5 3 5 5 3 5 5 5 3 5 5 5 5 5 5 5 5 5 5 3 5 5 5 5 5 3 5 3 5 3 5 5 5 5 5 5 5 3 3 5 5 5 3 3 5 3 5 5 5 5 5 3 5 5 3 5 5 5 5 5 5 3 5 5 5 3 5 5 5 5 5 3 5 3 5 3 5 5 5 5 5 5 5 5 5 5 5 5 5 5 5 5 5 5 5 5 5 5 5 5 5 5 5 5 5 3 5 5 5 5 5 5 5 3 5 5 5 3 5 3 5 5 3 5 5 5 3 5 5 5 5 3 5 5 5 5 5 5 5 5 5 5 5 5 5 3 5 5 5 5 5 5 3 5 5 5 5 5 5 5 5 5 5 5 5 3 5 5 5 5 5 5 3 5 5 5 5 5 5 3 5 3 5 5 5 3 5 5 5 5 5 5 3 5 5 5 5 5 5 5 5 5 5 5 5 5 5 5 5 3 5 5 5 5 5 5 5 5 5 
</DataArray>
</Cells>
<PointData Scalars="" Vectors="displacement," Tensors="">
<DataArray type="Float64" Name="displacement" NumberOfComponents="3" format="ascii">
4.1155992720367161e-05 -0.024402280442228835 0 0.00034057126451534828 -0.024511423908758549 0 -1.3232129848052579e-07 -0.024999768931866711 0 4.1155992720367161e-05 -0.024402280442228835 0 7.0827035280548968e-05 -0.02283312507272164 0 5.5383053835341838e-07 -0.019651149802007023 0 4.1155992720367161e-05 -0.024402280442228835 0 5.3223085671984045e-07 -0.024998246893678213 0 5.5383053835341838e-07 -0.019651149802007023 0 4.1155992720367161e-05 -0.024402280442228835 0 5.3223085671984045e-07 -0.024998246893678213 0 -1.3232129848052579e-07 -0.024999768931866711 0 4.1155992720367161e-05 -0.024402280442228835 0 0.00034057126451534828 -0.024511423908758549 0 0.00074668004042729747 -0.024336354584618053 0 0.0001023448259262695 -0.024188673830799957 0 0.00028405602597332107 -0.023746184682459082 0 0.00034057126451534828 -0.024511423908758549 0 0.00062041316289494471 -0.024479297659657628 0 0.00074668004042729747 -0.024336354584618053 0 0.00034057126451534828 -0.024511423908758549 0 0.00062041316289494471 -0.024479297659657628 0 -1.3232129848052579e-07 -0.024999768931866711 0 -1.3232129848052579e-07 -0.024999768931866711 0 5.2697260966331515e-07 -0.025000142727795164 0 0.00024134416393438221 -0.024965057607230043 0 0.00062041316289494471 -0.024479297659657628 0 0.00034643514875116891 -0.024885611522747202 0 0.00041144328111988469 -0.024914212266147609 0 0.00062041316289494471 -0.024479297659657628 0 -1.3232129848052579e-07 -0.024999768931866711 0 0.00034643514875116891 -0.024885611522747202 0 0.00034643514875116891 -0.024885611522747202 0 0.00024134416393438221 -0.024965057607230043 0 0.00031201736269491972 -0.024948214406699993 0 -1.3232129848052579e-07 -0.024999768931866711 0 0.00034643514875116891 -0.024885611522747202 0 0.00024134416393438221 -0.024965057607230043 0 0.00061806219035358506 -0.022576014505181305 0 8.7077170689810071e-05 -0.021676229396219986 0 0.001209175248277853 -0.020752942126836902 0 0.00061806219035358506 -0.022576014505181305 0 0.0014203729885145814 -0.022829395357257254 0 0.001209175248277853 -0.020752942126836902 0 0.00034643514875116891 -0.024885611522747202 0 0.00041144328111988469 -0.024914212266147609 0 0.00031201736269491972 -0.024948214406699993 0 0.00084073382464763921 -0.023815225502288821 0 0.00065056134314191931 -0.022799684240543589 0 0.00041144328111988469 -0.024914212266147609 0 0.00031201736269491972 -0.024948214406699993 0 0.00017045517057063565 -0.024958637487730934 0 0.00062041316289494471 -0.024479297659657628 0 0.0014203729885145814 -0.022829395357257254 0 0.0008640988700564275 -0.023949173294623385 0 0.00065557853880388365 -0.024313237462449785 0 0.00084073382464763921 -0.023815225502288821 0 0.0014203729885145814 -0.022829395357257254 0 0.00093110160020128758 -0.023360030678776789 0 0.0008640988700564275 -0.023949173294623385 0 0.0007425530763907034 -0.023651488224271319 0 0.0010362186405854807 -0.021380572196942987 0 0.00093110160020128758 -0.023360030678776789 0 0.0008640988700564275 -0.023949173294623385 0 0.0006794964459342094 -0.02366478871674282 0 0.00061806219035358506 -0.022576014505181305 0 0.00093110160020128758 -0.023360030678776789 0 0.0006794964459342094 -0.02366478871674282 0 0.00061806219035358506 -0.022576014505181305 0 0.0014203729885145814 -0.022829395357257254 0 0.00093110160020128758 -0.023360030678776789 0 0.00061806219035358506 -0.022576014505181305 0 0.0006794964459342094 -0.02366478871674282 0 -0.00058943584027719518 -0.022648405958285125 0 0.0010362186405854807 -0.021380572196942987 0 0.00028405602597332107 -0.023746184682459082 0 0.0008640988700564275 -0.023949173294623385 0 0.00065788220759767119 -0.023890866777067334 0 0.00074668004042729747 -0.024336354584618053 0 0.00062041316289494471 -0.024479297659657628 0 0.0008640988700564275 -0.023949173294623385 0 0.00074668004042729747 -0.024336354584618053 0 7.4455605600632269e-05 -0.021603428186297211 0 5.5383053835341838e-07 -0.019651149802007023 0 7.7194169893833885e-05 -0.020547181979115335 0 7.4455605600632269e-05 -0.021603428186297211 0 7.0827035280548968e-05 -0.02283312507272164 0 5.5383053835341838e-07 -0.019651149802007023 0 5.5383053835341838e-07 -0.019651149802007023 0 7.802376585496203e-05 -0.019293358767643012 0 7.7194169893833885e-05 -0.020547181979115335 0 5.5383053835341838e-07 -0.019651149802007023 0 7.802376585496203e-05 -0.019293358767643012 0 0.00024413608046115125 -0.017604634958859906 0 0.00055760506396255582 -0.018325712801154314 0 0.00017535347536759487 -0.017747941944906972 0 0.00083057788243923441 -0.016926057941311159 0 0.0012402660038919632 -0.017363402424304404 0 0.00024413608046115125 -0.017604634958859906 0 0.00083057788243923441 -0.016926057941311159 0 0.0012402660038919632 -0.017363402424304404 0 0.0015703562673809511 -0.017034975323781752 0 0.00083057788243923441 -0.016926057941311159 0 0.0013490355501262034 -0.016401032015400715 0 0.0015703562673809511 -0.017034975323781752 0 0.00083057788243923441 -0.016926057941311159 0 0.0013490355501262034 -0.016401032015400715 0 0.00046309265377877462 -0.016404180018466191 0 0.00083057788243923441 -0.016926057941311159 0 0.00028542371426913015 -0.016736278113156519 0 0.00046309265377877462 -0.016404180018466191 0 0.0026213379926752385 -0.017399305705537479 0 0.0020334884199088589 -0.016930935216843589 0 0.0019564554015840591 -0.017349522303737076 0 0.0010362186405854807 -0.021380572196942987 0 0.00080959382795943696 -0.019660125504327615 0 0.0010362186405854807 -0.021380572196942987 0 0.00102418084685744 -0.018746507083350884 0 0.0012402660038919632 -0.017363402424304404 0 0.0019564554015840591 -0.017349522303737076 0 0.0015703562673809511 -0.017034975323781752 0 0.0020334884199088589 -0.016930935216843589 0 0.0019564554015840591 -0.017349522303737076 0 0.0015703562673809511 -0.017034975323781752 0 0.00055760506396255582 -0.018325712801154314 0 0.00102418084685744 -0.018746507083350884 0 -0.00068834408188423986 -0.019107120318336428 0 0.00080959382795943696 -0.019660125504327615 0 0.0013490355501262034 -0.016401032015400715 0 0.0020334884199088589 -0.016930935216843589 0 0.0015703562673809511 -0.017034975323781752 0 -0.0024502262549833524 -0.021312837066218508 0 -0.00058943584027719518 -0.022648405958285125 0 -0.00058009960154244405 -0.020588091538525394 0 -0.00058943584027719518 -0.022648405958285125 0 8.7077170689810071e-05 -0.021676229396219986 0 -0.00058009960154244405 -0.020588091538525394 0 0.00061806219035358506 -0.022576014505181305 0 -0.00058943584027719518 -0.022648405958285125 0 8.7077170689810071e-05 -0.021676229396219986 0 8.7077170689810071e-05 -0.021676229396219986 0 -0.00058009960154244405 -0.020588091538525394 0 0.001209175248277853 -0.020752942126836902 0 -0.00058009960154244405 -0.020588091538525394 0 0.00052961122687914441 -0.018420521298601611 0 0.001209175248277853 -0.020752942126836902 0 -0.0024502262549833524 -0.021312837066218508 0 -0.00058009960154244405 -0.020588091538525394 0 -0.0027147108614638074 -0.01937622919479513 0 -0.0010506225574484626 -0.018376083261781594 0 -0.0027147108614638074 -0.01937622919479513 0 -0.0019267938716300748 -0.016922454430361195 0 -0.00058009960154244405 -0.020588091538525394 0 -0.0010506225574484626 -0.018376083261781594 0 -0.0027147108614638074 -0.01937622919479513 0 -0.00058009960154244405 -0.020588091538525394 0 -0.0010506225574484626 -0.018376083261781594 0 0.00052961122687914441 -0.018420521298601611 0 -0.00068834408188423986 -0.019107120318336428 0 -0.00090114036719323614 -0.016001940288622288 0 -0.00090114036719323614 -0.016001940288622288 0 0.00069040089525510722 -0.01570972868051429 0 0.0013490355501262034 -0.016401032015400715 0 0.00063299274821979816 -0.015914599938943123 0 0.00046309265377877462 -0.016404180018466191 0 -0.0024502262549833524 -0.021312837066218508 0 -0.0046180920339229511 -0.019883304105196519 0 -0.0027147108614638074 -0.01937622919479513 0 -0.0027147108614638074 -0.01937622919479513 0 -0.0038363439688337796 -0.017596314217289057 0 -0.0019267938716300748 -0.016922454430361195 0 -0.00090114036719323614 -0.016001940288622288 0 -0.0031052719433552972 -0.015849517266441127 0 -0.0046180920339229511 -0.019883304105196519 0 -0.0027147108614638074 -0.01937622919479513 0 -0.0038363439688337796 -0.017596314217289057 0 -0.0015779735626436952 -0.012958448859519906 0 -0.0019408279168522725 -0.01372847855938274 0 -0.0012502475190657085 -0.013874309302077704 0 -0.0019408279168522725 -0.01372847855938274 0 -0.0018098931188144556 -0.014389512366188094 0 -0.0012502475190657085 -0.013874309302077704 0 -0.0038363439688337796 -0.017596314217289057 0 -0.0019267938716300748 -0.016922454430361195 0 -0.0024580613200310113 -0.014947842379495419 0 -0.0031052719433552972 -0.015849517266441127 0 -0.0024661886204048905 -0.014935053636617679 0 -0.0019267938716300748 -0.016922454430361195 0 -0.0016781234280296919 -0.015271884389535893 0 -0.0024580613200310113 -0.014947842379495419 0 -0.0016781234280296919 -0.015271884389535893 0 -0.0024580613200310113 -0.014947842379495419 0 -0.002117135674305375 -0.014659443086292603 0 -0.0024580613200310113 -0.014947842379495419 0 -0.0021977959089786786 -0.014730378769690598 0 -0.002117135674305375 -0.014659443086292603 0 -0.0019408279168522725 -0.01372847855938274 0 -0.0024580613200310113 -0.014947842379495419 0 -0.0018098931188144556 -0.014389512366188094 0 -0.0024580613200310113 -0.014947842379495419 0 -0.0020956392880028024 -0.014686816009008808 0 -0.0018098931188144556 -0.014389512366188094 0 -0.0021977959089786786 -0.014730378769690598 0 -0.0018886863056843868 -0.014597768916090565 0 -0.0017894557742309922 -0.014660465437737377 0 -0.0020956392880028024 -0.014686816009008808 0 -0.0018886863056843868 -0.014597768916090565 0 -0.0018098931188144556 -0.014389512366188094 0 -0.0024580613200310113 -0.014947842379495419 0 -0.0020956392880028024 -0.014686816009008808 0 -0.0021977959089786786 -0.014730378769690598 0 -0.0020956392880028024 -0.014686816009008808 0 -0.0021977959089786786 -0.014730378769690598 0 -0.0018886863056843868 -0.014597768916090565 0 -0.0018886863056843868 -0.014597768916090565 0 -0.0015294182739470882 -0.014441338184633092 0 -0.0017894557742309922 -0.014660465437737377 0 -0.0018886863056843868 -0.014597768916090565 0 -0.0018098931188144556 -0.014389512366188094 0 -0.0015294182739470882 -0.014441338184633092 0 0.00020579553693806445 -0.021621029437283203 0 -0.00060266945168259238 -0.019780593022214504 0 -0.00013335829429201451 -0.024744943464547395 0 -0.00046219628183855402 -0.024313310375390751 0 5.0093467309413377e-05 -0.024294810845109576 0 -0.0010506225574484626 -0.018376083261781594 0 0.00052961122687914441 -0.018420521298601611 0 -0.00049336621490023863 -0.015945272225967751 0 -0.0010506225574484626 -0.018376083261781594 0 -0.0019267938716300748 -0.016922454430361195 0 -0.00049336621490023863 -0.015945272225967751 0 -0.00060266945168259238 -0.019780593022214504 0 -0.0011520868379846047 -0.020933716260292431 0 -0.0019267938716300748 -0.016922454430361195 0 -0.0016781234280296919 -0.015271884389535893 0 -0.00049336621490023863 -0.015945272225967751 0 -0.0016781234280296919 -0.015271884389535893 0 -0.00049336621490023863 -0.015945272225967751 0 -0.0016426284904050882 -0.014245682765960284 0 -0.00046219628183855402 -0.024313310375390751 0 5.0093467309413377e-05 -0.024294810845109576 0 -0.00034450137288584377 -0.023897295359565411 0 -3.2466007824294412e-05 -0.024619958567693681 0 -0.00025158618734929069 -0.024832879541408063 0 -6.94582715505717e-05 -0.02504281045581766 0 -7.2717085823703262e-05 -0.025049111576804034 0 -7.1025098222422537e-05 -0.025044487890134699 0 5.0093467309413377e-05 -0.024294810845109576 0 0.00028444308923974439 -0.024659791558250672 0 0.00013946246146961063 -0.024757815369650483 0 -0.00013335829429201451 -0.024744943464547395 0 5.0093467309413377e-05 -0.024294810845109576 0 0.00013946246146961063 -0.024757815369650483 0 -6.94582715505717e-05 -0.02504281045581766 0 -9.3414691837705679e-05 -0.02505421757111782 0 -7.2717085823703262e-05 -0.025049111576804034 0 -3.2466007824294412e-05 -0.024619958567693681 0 0.0001002916967143911 -0.024847327629577455 0 -6.94582715505717e-05 -0.02504281045581766 0 -7.0877908230029886e-05 -0.025031904450116375 0 -9.3414691837705679e-05 -0.02505421757111782 0 -4.4490150772833484e-05 -0.025024789666729157 0 -9.3414691837705679e-05 -0.02505421757111782 0 -5.6832518306543681e-08 -0.025000043537716767 0 -7.0877908230029886e-05 -0.025031904450116375 0 -4.4490150772833484e-05 -0.025024789666729157 0 -9.3414691837705679e-05 -0.02505421757111782 0 -4.4490150772833484e-05 -0.025024789666729157 0 -3.5951787632647881e-08 -0.02500004544916487 0 -5.6832518306543681e-08 -0.025000043537716767 0 -4.4490150772833484e-05 -0.025024789666729157 0 -3.5951787632647881e-08 -0.02500004544916487 0 -3.0785341401784221e-05 -0.025021179317587745 0 -7.0877908230029886e-05 -0.025031904450116375 0 -4.4490150772833484e-05 -0.025024789666729157 0 -3.0785341401784221e-05 -0.025021179317587745 0 0.0001002916967143911 -0.024847327629577455 0 0.00010528133068223714 -0.024964321547798807 0 0.00028444308923974439 -0.024659791558250672 0 0.0002782920063510104 -0.024938223388954989 0 0.00027484358399028136 -0.024913200453278606 0 -3.5951787632647881e-08 -0.02500004544916487 0 -3.0785341401784221e-05 -0.025021179317587745 0 6.4652846920345438e-10 -0.025000024710718487 0 0.00010528133068223714 -0.024964321547798807 0 1.4109275535099056e-08 -0.024999961809260861 0 0.0002782920063510104 -0.024938223388954989 0 5.2697260966331515e-07 -0.025000142727795164 0 0.00024134416393438221 -0.024965057607230043 0 0.0002782920063510104 -0.024938223388954989 0 0.00024134416393438221 -0.024965057607230043 0 0.00027484358399028136 -0.024913200453278606 0 0.00024134416393438221 -0.024965057607230043 0 0.00031201736269491972 -0.024948214406699993 0 0.00027484358399028136 -0.024913200453278606 0 0.00031201736269491972 -0.024948214406699993 0 0.00017045517057063565 -0.024958637487730934 0 0.00027484358399028136 -0.024913200453278606 0 0.00020579553693806445 -0.021621029437283203 0 0.00065056134314191931 -0.022799684240543589 0 -0.00013335829429201451 -0.024744943464547395 0 0.00017045517057063565 -0.024958637487730934 0 0.00013946246146961063 -0.024757815369650483 0 0.00017045517057063565 -0.024958637487730934 0 0.00013946246146961063 -0.024757815369650483 0 0.00027484358399028136 -0.024913200453278606 0 0.00028444308923974439 -0.024659791558250672 0 0.00013946246146961063 -0.024757815369650483 0 0.00027484358399028136 -0.024913200453278606 0 -0.00019761424210108466 -0.013220854005008848 0 -0.00025023513211794334 -0.01310184315154907 0 -0.00026077197358185991 -0.013114968121928887 0 -0.00019761424210108466 -0.013220854005008848 0 -0.00016869294674760389 -0.013774471536459294 0 -0.00026077197358185991 -0.013114968121928887 0 -0.00015876569352406801 -0.013782016759965399 0 -0.00017858003302719864 -0.013796034108036724 0 -0.00016869294674760389 -0.013774471536459294 0 -0.00044364734929332856 -0.01456736073727535 0 -0.00041058500838066935 -0.014575945800089632 0 -0.00019761424210108466 -0.013220854005008848 0 -0.00016869294674760389 -0.013774471536459294 0 9.9872348157119977e-05 -0.013073097146078055 0 -0.00016869294674760389 -0.013774471536459294 0 -0.00024465030010018169 -0.014247574160856586 0 -0.00044364734929332856 -0.01456736073727535 0 -0.00016869294674760389 -0.013774471536459294 0 -0.00014401576765833246 -0.013273232204882102 0 -0.00024465030010018169 -0.014247574160856586 0 -0.00016869294674760389 -0.013774471536459294 0 -0.00014401576765833246 -0.013273232204882102 0 -0.00026077197358185991 -0.013114968121928887 0 -0.00014401576765833246 -0.013273232204882102 0 -9.7724375400921788e-07 -0.01267321474723951 0 -0.00024465030010018169 -0.014247574160856586 0 -9.7724375400921788e-07 -0.01267321474723951 0 -0.00024465030010018169 -0.014247574160856586 0 -8.0643629901203357e-07 -0.015627233742557759 0 -0.00024465030010018169 -0.014247574160856586 0 -0.00031575593122320768 -0.015036581816850905 0 -8.0643629901203357e-07 -0.015627233742557759 0 -0.00024465030010018169 -0.014247574160856586 0 -0.00031575593122320768 -0.015036581816850905 0 -0.00044364734929332856 -0.01456736073727535 0 -0.00031575593122320768 -0.015036581816850905 0 -0.00044364734929332856 -0.01456736073727535 0 -0.0003610593640982322 -0.01462802380578815 0 -0.00031575593122320768 -0.015036581816850905 0 -0.00021408236148089016 -0.01500272334779053 0 -0.0003610593640982322 -0.01462802380578815 0 5.5383053835341838e-07 -0.019651149802007023 0 -8.0643629901203357e-07 -0.015627233742557759 0 -1.8196281064842705e-05 -0.017069126531082151 0 -0.00031575593122320768 -0.015036581816850905 0 -0.0001927876732779645 -0.015803648757444468 0 -0.00021408236148089016 -0.01500272334779053 0 -0.0001927876732779645 -0.015803648757444468 0 9.0424887600979031e-05 -0.015040371418372887 0 -0.00021408236148089016 -0.01500272334779053 0 -0.0001927876732779645 -0.015803648757444468 0 -3.734942004510712e-05 -0.016085884058967267 0 9.0424887600979031e-05 -0.015040371418372887 0 -0.00031575593122320768 -0.015036581816850905 0 -0.0001927876732779645 -0.015803648757444468 0 -8.0643629901203357e-07 -0.015627233742557759 0 -0.0001927876732779645 -0.015803648757444468 0 -8.0643629901203357e-07 -0.015627233742557759 0 -1.8196281064842705e-05 -0.017069126531082151 0 5.5383053835341838e-07 -0.019651149802007023 0 -1.8196281064842705e-05 -0.017069126531082151 0 0.00024413608046115125 -0.017604634958859906 0 -1.8196281064842705e-05 -0.017069126531082151 0 0.00024413608046115125 -0.017604634958859906 0 0.00028542371426913015 -0.016736278113156519 0 -1.8196281064842705e-05 -0.017069126531082151 0 0.00028542371426913015 -0.016736278113156519 0 -3.734942004510712e-05 -0.016085884058967267 0 0.00083057788243923441 -0.016926057941311159 0 0.00024413608046115125 -0.017604634958859906 0 0.00028542371426913015 -0.016736278113156519 0 -0.0001927876732779645 -0.015803648757444468 0 -1.8196281064842705e-05 -0.017069126531082151 0 -3.734942004510712e-05 -0.016085884058967267 0 -3.1342622640033457e-05 -0.015936750716618282 0 -0.00040692651472420721 -0.014793462218668134 0 -3.734942004510712e-05 -0.016085884058967267 0 7.7064215079397102e-05 -0.015327573509844903 0 -0.00091563385898138115 -0.014480967709096133 0 0.00028542371426913015 -0.016736278113156519 0 7.7064215079397102e-05 -0.015327573509844903 0 0.00081891074062361881 -0.015436446307795643 0 0.00028542371426913015 -0.016736278113156519 0 -3.734942004510712e-05 -0.016085884058967267 0 7.7064215079397102e-05 -0.015327573509844903 0 0.00031549525116273975 -0.016714532940048588 0 0.00069040089525510722 -0.01570972868051429 0 0.001083423246744342 -0.01439044679720374 0 0.00081891074062361881 -0.015436446307795643 0 -4.9785101350831338e-05 -0.014553032650427072 0 7.7064215079397102e-05 -0.015327573509844903 0 0.00081891074062361881 -0.015436446307795643 0 -4.9785101350831338e-05 -0.014553032650427072 0 -4.9785101350831338e-05 -0.014553032650427072 0 -0.00059087155876370596 -0.013690355294088255 0 -0.00091563385898138115 -0.014480967709096133 0 7.7064215079397102e-05 -0.015327573509844903 0 -4.9785101350831338e-05 -0.014553032650427072 0 -0.00091563385898138115 -0.014480967709096133 0 -0.00059087155876370596 -0.013690355294088255 0 -0.00068725738449629866 -0.013709378076396668 0 -0.00091563385898138115 -0.014480967709096133 0 0.001083423246744342 -0.01439044679720374 0 -4.9785101350831338e-05 -0.014553032650427072 0 -0.00059087155876370596 -0.013690355294088255 0 -0.00090114036719323614 -0.016001940288622288 0 -0.00048921367122268156 -0.013023561883476214 0 -0.0015779735626436952 -0.012958448859519906 0 -0.00059087155876370596 -0.013690355294088255 0 -0.0012502475190657085 -0.013874309302077704 0 -0.0012502475190657085 -0.013874309302077704 0 -0.001271813225312658 -0.014153168399485399 0 -0.00083898663407948142 -0.013937767582680678 0 -0.00059087155876370596 -0.013690355294088255 0 -0.0012502475190657085 -0.013874309302077704 0 -0.00083898663407948142 -0.013937767582680678 0 -0.0018098931188144556 -0.014389512366188094 0 -0.0012502475190657085 -0.013874309302077704 0 -0.001271813225312658 -0.014153168399485399 0 -0.0018098931188144556 -0.014389512366188094 0 -0.001271813225312658 -0.014153168399485399 0 -0.0015294182739470882 -0.014441338184633092 0 -0.001271813225312658 -0.014153168399485399 0 -0.0011732022593979739 -0.014217320600099059 0 -0.00083898663407948142 -0.013937767582680678 0 -0.0011732022593979739 -0.014217320600099059 0 -0.0010514292229839163 -0.014235524734590171 0 -0.0013523374924641807 -0.014399322288869571 0 -0.001271813225312658 -0.014153168399485399 0 -0.0011732022593979739 -0.014217320600099059 0 -0.0015294182739470882 -0.014441338184633092 0 -0.0011732022593979739 -0.014217320600099059 0 -0.0015294182739470882 -0.014441338184633092 0 -0.0013523374924641807 -0.014399322288869571 0 -0.00083898663407948142 -0.013937767582680678 0 -0.00062546708218121105 -0.013877228425579532 0 -0.00077302240623762573 -0.014068555675519651 0 -0.00083898663407948142 -0.013937767582680678 0 -0.0010514292229839163 -0.014235524734590171 0 -0.00077302240623762573 -0.014068555675519651 0 -0.0011732022593979739 -0.014217320600099059 0 -0.00083898663407948142 -0.013937767582680678 0 -0.0010514292229839163 -0.014235524734590171 0 -0.00059087155876370596 -0.013690355294088255 0 -0.00083898663407948142 -0.013937767582680678 0 -0.00068725738449629866 -0.013709378076396668 0 -0.00068725738449629866 -0.013709378076396668 0 -0.00049523027891529693 -0.013733524244818154 0 -0.00078437962883180757 -0.013820534663543049 0 -0.00083898663407948142 -0.013937767582680678 0 -0.00068725738449629866 -0.013709378076396668 0 -0.00062546708218121105 -0.013877228425579532 0 -0.00062546708218121105 -0.013877228425579532 0 -0.00049523027891529693 -0.013733524244818154 0 -0.00047383582678199354 -0.01386999348117336 0 -0.00068725738449629866 -0.013709378076396668 0 -0.00062546708218121105 -0.013877228425579532 0 -0.00049523027891529693 -0.013733524244818154 0 -0.00062546708218121105 -0.013877228425579532 0 -0.00047383582678199354 -0.01386999348117336 0 -0.00063529043365709954 -0.014010673242325286 0 -0.00062546708218121105 -0.013877228425579532 0 -0.00063529043365709954 -0.014010673242325286 0 -0.00077302240623762573 -0.014068555675519651 0 -0.00049523027891529693 -0.013733524244818154 0 -0.00047383582678199354 -0.01386999348117336 0 -0.00030624740158448241 -0.013645132183447763 0 -0.00049523027891529693 -0.013733524244818154 0 -0.00023581559406113362 -0.013636153687832541 0 -0.00030624740158448241 -0.013645132183447763 0 7.6178398608208506e-06 -0.014303097048754322 0 -0.00031098165041830623 -0.014102953574274574 0 -0.00023581559406113362 -0.013636153687832541 0 -0.00049523027891529693 -0.013733524244818154 0 -0.00078437962883180757 -0.013820534663543049 0 -0.00023581559406113362 -0.013636153687832541 0 -0.00037824574133994427 -0.014068934761903117 0 -0.00027344863968929868 -0.013705463908805433 0 -0.00068725738449629866 -0.013709378076396668 0 -0.00078437962883180757 -0.013820534663543049 0 -0.00091563385898138115 -0.014480967709096133 0 -0.00037824574133994427 -0.014068934761903117 0 -0.00040692651472420721 -0.014793462218668134 0 7.6178398608208506e-06 -0.014303097048754322 0 9.0424887600979031e-05 -0.015040371418372887 0 -0.00021408236148089016 -0.01500272334779053 0 7.6178398608208506e-06 -0.014303097048754322 0 -0.00021408236148089016 -0.01500272334779053 0 -0.0003610593640982322 -0.01462802380578815 0 -0.00044364734929332856 -0.01456736073727535 0 -0.00047205422257685546 -0.014478464324295727 0 -0.00041058500838066935 -0.014575945800089632 0 -0.00044364734929332856 -0.01456736073727535 0 -0.0003610593640982322 -0.01462802380578815 0 -0.00047205422257685546 -0.014478464324295727 0 -0.00047205422257685546 -0.014478464324295727 0 -0.00067089917721052271 -0.014146046510133703 0 -0.00031098165041830623 -0.014102953574274574 0 -0.00047205422257685546 -0.014478464324295727 0 -0.00067089917721052271 -0.014146046510133703 0 -0.00041058500838066935 -0.014575945800089632 0 7.6178398608208506e-06 -0.014303097048754322 0 -0.0003610593640982322 -0.01462802380578815 0 -0.00031098165041830623 -0.014102953574274574 0 -0.0003610593640982322 -0.01462802380578815 0 -0.00047205422257685546 -0.014478464324295727 0 -0.00031098165041830623 -0.014102953574274574 0 -0.00031098165041830623 -0.014102953574274574 0 -0.00023581559406113362 -0.013636153687832541 0 -0.00023582991424169278 -0.013145426432711686 0 -0.00023581559406113362 -0.013636153687832541 0 -0.00023582991424169278 -0.013145426432711686 0 -0.00022444459703927695 -0.013389045265516266 0 -0.00023581559406113362 -0.013636153687832541 0 -0.00022444459703927695 -0.013389045265516266 0 -0.00030624740158448241 -0.013645132183447763 0 -0.00067089917721052271 -0.014146046510133703 0 -0.00031098165041830623 -0.014102953574274574 0 -0.00023582991424169278 -0.013145426432711686 0 -0.00029100573684223772 -0.013449047814071247 0 -0.00025176047101304895 -0.013179368270588063 0 3.6436994147375338e-05 -0.012736561449297027 0 -0.00023582991424169278 -0.013145426432711686 0 4.7655812970481946e-05 -0.012808040679077731 0 4.7655812970481946e-05 -0.012808040679077731 0 3.8619527720414023e-05 -0.012815957153408164 0 9.7074438096724692e-06 -0.012815177624828547 0 3.8619527720414023e-05 -0.012815957153408164 0 -1.0145355592329211e-05 -0.012839316913192544 0 9.7074438096724692e-06 -0.012815177624828547 0 3.8619527720414023e-05 -0.012815957153408164 0 7.5608836509182098e-05 -0.012809334593419762 0 6.0426967968618326e-05 -0.012764244974859418 0 4.7655812970481946e-05 -0.012808040679077731 0 3.8619527720414023e-05 -0.012815957153408164 0 7.5608836509182098e-05 -0.012809334593419762 0 -0.00023582991424169278 -0.013145426432711686 0 7.5608836509182098e-05 -0.012809334593419762 0 4.6697751871259185e-05 -0.012780802384629333 0 -0.00023582991424169278 -0.013145426432711686 0 4.7655812970481946e-05 -0.012808040679077731 0 7.5608836509182098e-05 -0.012809334593419762 0 7.5608836509182098e-05 -0.012809334593419762 0 0.0001202137126628604 -0.012594894291169159 0 6.0426967968618326e-05 -0.012764244974859418 0 7.5608836509182098e-05 -0.012809334593419762 0 0.0001202137126628604 -0.012594894291169159 0 4.6697751871259185e-05 -0.012780802384629333 0 0.0001202137126628604 -0.012594894291169159 0 4.6697751871259185e-05 -0.012780802384629333 0 0.00015878075519616574 -0.012331903827754384 0 4.2163414526545003e-05 -0.012408621898697219 0 -0.00030110541233093987 -0.012946253897958487 0 0.00021897511202695631 -0.011753172641066846 0 0.00038867585408794024 -0.01158001525825476 0 0.00021897511202695631 -0.011753172641066846 0 0.00031979589356291501 -0.011599073396258262 0 -3.409858059075959e-05 -0.011585581363986229 0 0.000201368894424862 -0.012095411965025303 0 0.0001202137126628604 -0.012594894291169159 0 0.00015228775270639878 -0.012267243655866957 0 0.00015878075519616574 -0.012331903827754384 0 0.0001202137126628604 -0.012594894291169159 0 4.2163414526545003e-05 -0.012408621898697219 0 0.00015228775270639878 -0.012267243655866957 0 0.0001202137126628604 -0.012594894291169159 0 5.2173946411217756e-05 -0.012636796023066143 0 6.0426967968618326e-05 -0.012764244974859418 0 0.0001202137126628604 -0.012594894291169159 0 4.2163414526545003e-05 -0.012408621898697219 0 5.2173946411217756e-05 -0.012636796023066143 0 5.2173946411217756e-05 -0.012636796023066143 0 -7.3225631511697879e-05 -0.012698072233548345 0 -9.5237272609477038e-06 -0.012794480189789162 0 5.2173946411217756e-05 -0.012636796023066143 0 6.0426967968618326e-05 -0.012764244974859418 0 -9.5237272609477038e-06 -0.012794480189789162 0 4.2163414526545003e-05 -0.012408621898697219 0 -7.3225631511697879e-05 -0.012698072233548345 0 -0.00030110541233093987 -0.012946253897958487 0 4.2163414526545003e-05 -0.012408621898697219 0 5.2173946411217756e-05 -0.012636796023066143 0 -7.3225631511697879e-05 -0.012698072233548345 0 -5.7472584106545129e-05 -0.012869306221280971 0 -1.0145355592329211e-05 -0.012839316913192544 0 9.7074438096724692e-06 -0.012815177624828547 0 -8.9866417009307642e-05 -0.012828742581357539 0 -5.4809502980561725e-05 -0.012872595772456211 0 -0.00030110541233093987 -0.012946253897958487 0 -5.4809502980561725e-05 -0.012872595772456211 0 -5.7472584106545129e-05 -0.012869306221280971 0 -1.0145355592329211e-05 -0.012839316913192544 0 -7.3225631511697879e-05 -0.012698072233548345 0 -8.9866417009307642e-05 -0.012828742581357539 0 -0.00030110541233093987 -0.012946253897958487 0 -3.6275124068017145e-05 -0.011379743951531435 0 6.5339976342357797e-05 -0.013212484990516126 0 -7.3225631511697879e-05 -0.012698072233548345 0 -8.9866417009307642e-05 -0.012828742581357539 0 -9.5237272609477038e-06 -0.012794480189789162 0 -8.9866417009307642e-05 -0.012828742581357539 0 -5.4809502980561725e-05 -0.012872595772456211 0 -9.5237272609477038e-06 -0.012794480189789162 0 -5.4809502980561725e-05 -0.012872595772456211 0 -5.7472584106545129e-05 -0.012869306221280971 0 -5.7545511945582659e-05 -0.012867411532934215 0 8.4270399460579792e-06 -0.011818024208466935 0 -3.409858059075959e-05 -0.011585581363986229 0 -3.6275124068017145e-05 -0.011379743951531435 0 -3.409858059075959e-05 -0.011585581363986229 0 6.0426967968618326e-05 -0.012764244974859418 0 -9.5237272609477038e-06 -0.012794480189789162 0 -1.0145355592329211e-05 -0.012839316913192544 0 -5.4809502980561725e-05 -0.012872595772456211 0 -9.5237272609477038e-06 -0.012794480189789162 0 -1.0145355592329211e-05 -0.012839316913192544 0 3.8619527720414023e-05 -0.012815957153408164 0 6.0426967968618326e-05 -0.012764244974859418 0 -1.0145355592329211e-05 -0.012839316913192544 0 -0.0002982073155121497 -0.012498504732218583 0 -0.00019129153680304698 -0.012824251594897168 0 -0.00033730477898112577 -0.012778151291952911 0 -0.0002982073155121497 -0.012498504732218583 0 -0.00019129153680304698 -0.012824251594897168 0 9.7074438096724692e-06 -0.012815177624828547 0 -0.00019129153680304698 -0.012824251594897168 0 -0.00027763740544577684 -0.012977620045679542 0 -0.00033730477898112577 -0.012778151291952911 0 -0.00019129153680304698 -0.012824251594897168 0 9.7074438096724692e-06 -0.012815177624828547 0 -0.00012759111073022531 -0.013000264624900669 0 -0.00029100573684223772 -0.013449047814071247 0 -0.00017858003302719864 -0.013796034108036724 0 3.6436994147375338e-05 -0.012736561449297027 0 4.7655812970481946e-05 -0.012808040679077731 0 9.7074438096724692e-06 -0.012815177624828547 0 3.6436994147375338e-05 -0.012736561449297027 0 9.7074438096724692e-06 -0.012815177624828547 0 9.9872348157119977e-05 -0.013073097146078055 0 9.7074438096724692e-06 -0.012815177624828547 0 9.9872348157119977e-05 -0.013073097146078055 0 -0.00012759111073022531 -0.013000264624900669 0 -0.00019761424210108466 -0.013220854005008848 0 9.9872348157119977e-05 -0.013073097146078055 0 -0.00012759111073022531 -0.013000264624900669 0 -0.00019761424210108466 -0.013220854005008848 0 -0.00025023513211794334 -0.01310184315154907 0 -0.00012759111073022531 -0.013000264624900669 0 -0.00025023513211794334 -0.01310184315154907 0 -0.00027763740544577684 -0.012977620045679542 0 -0.00012759111073022531 -0.013000264624900669 0 -0.00019129153680304698 -0.012824251594897168 0 -0.00027763740544577684 -0.012977620045679542 0 -0.00012759111073022531 -0.013000264624900669 0 -0.00025023513211794334 -0.01310184315154907 0 -0.00027763740544577684 -0.012977620045679542 0 -0.00029570577876753446 -0.013072045199934604 0 -9.1002327535807836e-05 -0.012875987357110711 0 0.00018768730420986129 -0.012471581165873798 0 0.00059605162438749646 -0.013158393339095185 0 -7.7255391666219115e-05 -0.013039537009805367 0 -0.00052665836459958029 -0.0099036114023092914 0 -0.00057772639440665358 -0.012686418551606545 0 -0.00057582926706544379 -0.012706282869981709 0 -0.00055163505188542247 -0.012672745454308555 0 -0.00057772639440665358 -0.012686418551606545 0 -0.00055645389340062881 -0.012697824538766054 0 -0.00059342301443180985 -0.012699980402079534 0 -7.7255391666219115e-05 -0.013039537009805367 0 -0.00065046000662297859 -0.012642204391735606 0 -0.00057772639440665358 -0.012686418551606545 0 -0.00059342301443180985 -0.012699980402079534 0 -0.00057582926706544379 -0.012706282869981709 0 -9.1002327535807836e-05 -0.012875987357110711 0 -0.00031766631271104475 -0.012552426454970308 0 -0.00055645389340062881 -0.012697824538766054 0 -9.1002327535807836e-05 -0.012875987357110711 0 -7.1505100017915784e-05 -0.012506617993351985 0 -0.00031766631271104475 -0.012552426454970308 0 -0.00031766631271104475 -0.012552426454970308 0 -0.0004618574361264875 -0.012610023889885287 0 -0.00055645389340062881 -0.012697824538766054 0 -0.00031766631271104475 -0.012552426454970308 0 -9.4788623948489204e-05 -0.012110897865504493 0 -0.00042303200148793759 -0.012423359089894528 0 -0.00031766631271104475 -0.012552426454970308 0 -0.00042303200148793759 -0.012423359089894528 0 -0.0004618574361264875 -0.012610023889885287 0 -7.1505100017915784e-05 -0.012506617993351985 0 -0.00031766631271104475 -0.012552426454970308 0 -9.4788623948489204e-05 -0.012110897865504493 0 -7.1505100017915784e-05 -0.012506617993351985 0 0.00018768730420986129 -0.012471581165873798 0 -9.4788623948489204e-05 -0.012110897865504493 0 0.00018768730420986129 -0.012471581165873798 0 0.00024550046526534031 -0.011789345118276401 0 -9.4788623948489204e-05 -0.012110897865504493 0 -9.1002327535807836e-05 -0.012875987357110711 0 -7.1505100017915784e-05 -0.012506617993351985 0 0.00018768730420986129 -0.012471581165873798 0 0.00018768730420986129 -0.012471581165873798 0 0.00024550046526534031 -0.011789345118276401 0 0.00069501268698227896 -0.012444327558070166 0 0.00024550046526534031 -0.011789345118276401 0 0.00030573195923985541 -0.011508027273446591 0 0.0006673823605637027 -0.010984859126460795 0 0.00024550046526534031 -0.011789345118276401 0 0.00030573195923985541 -0.011508027273446591 0 -9.4788623948489204e-05 -0.012110897865504493 0 0.00030573195923985541 -0.011508027273446591 0 0.00021897511202695631 -0.011753172641066846 0 0.00015878075519616574 -0.012331903827754384 0 0.00030573195923985541 -0.011508027273446591 0 0.00021897511202695631 -0.011753172641066846 0 0.00036632847129264756 -0.011477821397509939 0 0.00021897511202695631 -0.011753172641066846 0 0.00015228775270639878 -0.012267243655866957 0 0.00015878075519616574 -0.012331903827754384 0 4.2163414526545003e-05 -0.012408621898697219 0 0.00021897511202695631 -0.011753172641066846 0 0.00015228775270639878 -0.012267243655866957 0 0.00021897511202695631 -0.011753172641066846 0 0.00031979589356291501 -0.011599073396258262 0 0.00036632847129264756 -0.011477821397509939 0 0.00023295335932724167 -0.011670799171614578 0 -0.00025753592797936239 -0.012462132938778302 0 0.00030573195923985541 -0.011508027273446591 0 0.00015878075519616574 -0.012331903827754384 0 -1.8160981285623453e-05 -0.012969217996357741 0 4.6697751871259185e-05 -0.012780802384629333 0 0.00015878075519616574 -0.012331903827754384 0 -1.8160981285623453e-05 -0.012969217996357741 0 0.00030573195923985541 -0.011508027273446591 0 -9.4788623948489204e-05 -0.012110897865504493 0 -0.00046682168165462947 -0.012059901833821591 0 -9.4788623948489204e-05 -0.012110897865504493 0 -0.00042303200148793759 -0.012423359089894528 0 -0.00046682168165462947 -0.012059901833821591 0 -0.0006316888129679313 -0.012494536953575722 0 -0.00046682168165462947 -0.012059901833821591 0 -0.0010636972351856814 -0.012597175358090346 0 -0.00042303200148793759 -0.012423359089894528 0 -0.0006316888129679313 -0.012494536953575722 0 -0.00046682168165462947 -0.012059901833821591 0 -0.0006316888129679313 -0.012494536953575722 0 -0.00084732380795945561 -0.012674232355463416 0 -0.0006986332479072422 -0.012714044324972303 0 -0.00023582991424169278 -0.013145426432711686 0 4.6697751871259185e-05 -0.012780802384629333 0 -1.8160981285623453e-05 -0.012969217996357741 0 -0.00023582991424169278 -0.013145426432711686 0 -1.8160981285623453e-05 -0.012969217996357741 0 -0.00022444459703927695 -0.013389045265516266 0 -0.00025753592797936239 -0.012462132938778302 0 -0.0006727192419483663 -0.013147182204830844 0 -1.8160981285623453e-05 -0.012969217996357741 0 -0.00022444459703927695 -0.013389045265516266 0 -0.00028935630928608307 -0.013682261703485432 0 -0.00022444459703927695 -0.013389045265516266 0 -0.00028935630928608307 -0.013682261703485432 0 -0.00030624740158448241 -0.013645132183447763 0 -0.0006316888129679313 -0.012494536953575722 0 -0.0010636972351856814 -0.012597175358090346 0 -0.00084732380795945561 -0.012674232355463416 0 -0.0010636972351856814 -0.012597175358090346 0 -0.00084732380795945561 -0.012674232355463416 0 -0.0010213809099086171 -0.012742709793496707 0 -0.00084732380795945561 -0.012674232355463416 0 -0.0010213809099086171 -0.012742709793496707 0 -0.0010286263746197375 -0.012893338403776629 0 -0.0010286263746197375 -0.012893338403776629 0 -0.00078230116950330343 -0.012988511713478814 0 -0.0010374961519525139 -0.013174393080280676 0 -0.00084732380795945561 -0.012674232355463416 0 -0.00078230116950330343 -0.012988511713478814 0 -0.0006986332479072422 -0.012714044324972303 0 -0.00084732380795945561 -0.012674232355463416 0 -0.0010286263746197375 -0.012893338403776629 0 -0.00078230116950330343 -0.012988511713478814 0 -0.00078230116950330343 -0.012988511713478814 0 -0.00052772163254850976 -0.01269579537298186 0 -0.00066844846861773347 -0.013505623858538492 0 -0.00078230116950330343 -0.012988511713478814 0 -0.0006986332479072422 -0.012714044324972303 0 -0.00052772163254850976 -0.01269579537298186 0 -0.0006316888129679313 -0.012494536953575722 0 -0.0006986332479072422 -0.012714044324972303 0 -0.00052772163254850976 -0.01269579537298186 0 -0.00042303200148793759 -0.012423359089894528 0 -0.0006316888129679313 -0.012494536953575722 0 -0.00052772163254850976 -0.01269579537298186 0 -0.00042303200148793759 -0.012423359089894528 0 -0.00052772163254850976 -0.01269579537298186 0 -0.0004618574361264875 -0.012610023889885287 0 -0.00052772163254850976 -0.01269579537298186 0 -0.0004618574361264875 -0.012610023889885287 0 -0.00055645389340062881 -0.012697824538766054 0 -0.00052772163254850976 -0.01269579537298186 0 -0.00055645389340062881 -0.012697824538766054 0 -0.00064122847822393504 -0.012690915556454928 0 -0.00053967680704735462 -0.012754592027517888 0 -0.00065391416701019085 -0.013075931443158323 0 -0.00055645389340062881 -0.012697824538766054 0 -0.00064122847822393504 -0.012690915556454928 0 -0.00059342301443180985 -0.012699980402079534 0 -0.00066844846861773347 -0.013505623858538492 0 -0.0010972679101228866 -0.013572430985422594 0 -0.0010374961519525139 -0.013174393080280676 0 -0.00078230116950330343 -0.012988511713478814 0 -0.00066844846861773347 -0.013505623858538492 0 -0.0010374961519525139 -0.013174393080280676 0 -0.0010972679101228866 -0.013572430985422594 0 -0.0015073231188638147 -0.013515803203590604 0 -0.0012832455376253695 -0.013258884471892777 0 -0.0010972679101228866 -0.013572430985422594 0 -0.0012832455376253695 -0.013258884471892777 0 -0.0010374961519525139 -0.013174393080280676 0 -0.0015073231188638147 -0.013515803203590604 0 -0.0014791047839922231 -0.013183997054612692 0 -0.0016935135610793347 -0.01334503229345085 0 -0.0015073231188638147 -0.013515803203590604 0 -0.0014791047839922231 -0.013183997054612692 0 -0.0012832455376253695 -0.013258884471892777 0 -0.0014791047839922231 -0.013183997054612692 0 -0.0012311784302652803 -0.013023283241205994 0 -0.0012832455376253695 -0.013258884471892777 0 -0.0014791047839922231 -0.013183997054612692 0 -0.0016999710817382878 -0.013116879423162869 0 -0.0016935135610793347 -0.01334503229345085 0 -0.0014791047839922231 -0.013183997054612692 0 -0.0014800680973750095 -0.012989377962557442 0 -0.0016999710817382878 -0.013116879423162869 0 -0.0014791047839922231 -0.013183997054612692 0 -0.0012311784302652803 -0.013023283241205994 0 -0.0014800680973750095 -0.012989377962557442 0 -0.0012311784302652803 -0.013023283241205994 0 -0.0012832455376253695 -0.013258884471892777 0 -0.0010374961519525139 -0.013174393080280676 0 -0.0010286263746197375 -0.012893338403776629 0 -0.0012311784302652803 -0.013023283241205994 0 -0.0011385802562319017 -0.012826086554831619 0 -0.0010286263746197375 -0.012893338403776629 0 -0.0012311784302652803 -0.013023283241205994 0 -0.0010374961519525139 -0.013174393080280676 0 -0.0010636972351856814 -0.012597175358090346 0 -0.0011385802562319017 -0.012826086554831619 0 -0.0012498774378400938 -0.013349279312565476 0 -0.0010213809099086171 -0.012742709793496707 0 -0.0010286263746197375 -0.012893338403776629 0 -0.0011385802562319017 -0.012826086554831619 0 -0.0012311784302652803 -0.013023283241205994 0 -0.0011385802562319017 -0.012826086554831619 0 -0.0014800680973750095 -0.012989377962557442 0 -0.0010636972351856814 -0.012597175358090346 0 -0.0010213809099086171 -0.012742709793496707 0 -0.0011385802562319017 -0.012826086554831619 0 -0.0006727192419483663 -0.013147182204830844 0 -0.00095891385978354355 -0.013825970086559171 0 -0.00028935630928608307 -0.013682261703485432 0 -0.00047383582678199354 -0.01386999348117336 0 -0.00068928825360552442 -0.014263054892055977 0 -0.00028935630928608307 -0.013682261703485432 0 -0.00047383582678199354 -0.01386999348117336 0 -0.00030624740158448241 -0.013645132183447763 0 -0.00063529043365709954 -0.014010673242325286 0 -0.00068928825360552442 -0.014263054892055977 0 -0.00077302240623762573 -0.014068555675519651 0 -0.00047383582678199354 -0.01386999348117336 0 -0.00063529043365709954 -0.014010673242325286 0 -0.00068928825360552442 -0.014263054892055977 0 -0.0011986163593516407 -0.012884026176688304 0 -0.0014510728033746369 -0.013151448121600675 0 -0.0011385802562319017 -0.012826086554831619 0 -0.001618959017715021 -0.012842794046631828 0 -0.0014800680973750095 -0.012989377962557442 0 -0.0011385802562319017 -0.012826086554831619 0 -0.0012498774378400938 -0.013349279312565476 0 -0.0012623171319692929 -0.013412123564445913 0 -0.0014800680973750095 -0.012989377962557442 0 -0.0016681952647905349 -0.012986544886858522 0 -0.0016999710817382878 -0.013116879423162869 0 -0.001618959017715021 -0.012842794046631828 0 -0.0014800680973750095 -0.012989377962557442 0 -0.0016681952647905349 -0.012986544886858522 0 -0.0016681952647905349 -0.012986544886858522 0 -0.0018670511113845294 -0.012999029626593004 0 -0.0016999710817382878 -0.013116879423162869 0 -0.001618959017715021 -0.012842794046631828 0 -0.0016681952647905349 -0.012986544886858522 0 -0.0018670511113845294 -0.012999029626593004 0 -0.001618959017715021 -0.012842794046631828 0 -0.0018670511113845294 -0.012999029626593004 0 -0.002058098064923916 -0.012872129076332775 0 -0.0012498774378400938 -0.013349279312565476 0 -0.0012623171319692929 -0.013412123564445913 0 -0.0014478331683756712 -0.014402465797261538 0 -0.0014510728033746369 -0.013151448121600675 0 -0.0019011218680690075 -0.01350095478358139 0 -0.0012498774378400938 -0.013349279312565476 0 -0.0015060646823064729 -0.014532770382154942 0 -0.0014478331683756712 -0.014402465797261538 0 -0.00068928825360552442 -0.014263054892055977 0 -0.0010016091254703642 -0.0142754550601123 0 -0.0015060646823064729 -0.014532770382154942 0 -0.00095891385978354355 -0.013825970086559171 0 -0.0014321499218289517 -0.014420319120026875 0 -0.00068928825360552442 -0.014263054892055977 0 -0.0010016091254703642 -0.0142754550601123 0 -0.00077302240623762573 -0.014068555675519651 0 -0.0010514292229839163 -0.014235524734590171 0 -0.0010016091254703642 -0.0142754550601123 0 -0.00077302240623762573 -0.014068555675519651 0 -0.0010514292229839163 -0.014235524734590171 0 -0.0010016091254703642 -0.0142754550601123 0 -0.0015060646823064729 -0.014532770382154942 0 -0.0015294182739470882 -0.014441338184633092 0 -0.0015622351115664229 -0.01454434929076316 0 -0.0013523374924641807 -0.014399322288869571 0 -0.0015622351115664229 -0.01454434929076316 0 -0.0013523374924641807 -0.014399322288869571 0 -0.0015060646823064729 -0.014532770382154942 0 -0.0010514292229839163 -0.014235524734590171 0 -0.0013523374924641807 -0.014399322288869571 0 -0.0015060646823064729 -0.014532770382154942 0 -0.0015060646823064729 -0.014532770382154942 0 -0.0014478331683756712 -0.014402465797261538 0 -0.0016575265656350827 -0.014638119228870141 0 -0.0015622351115664229 -0.01454434929076316 0 -0.0015060646823064729 -0.014532770382154942 0 -0.0016575265656350827 -0.014638119228870141 0 -0.002058098064923916 -0.012872129076332775 0 -0.002134134817089006 -0.013012712458471219 0 -0.0022755845413554498 -0.012977286377515437 0 -0.002058098064923916 -0.012872129076332775 0 -0.0020320549556007822 -0.013038985548575435 0 -0.002134134817089006 -0.013012712458471219 0 -0.0018670511113845294 -0.012999029626593004 0 -0.002058098064923916 -0.012872129076332775 0 -0.0020320549556007822 -0.013038985548575435 0 -0.0018670511113845294 -0.012999029626593004 0 -0.0020320549556007822 -0.013038985548575435 0 -0.0019303543378978957 -0.013267284044215674 0 -0.0020320549556007822 -0.013038985548575435 0 -0.002134134817089006 -0.013012712458471219 0 -0.0021723702320422507 -0.013168456516266348 0 -0.002134134817089006 -0.013012712458471219 0 -0.0021723702320422507 -0.013168456516266348 0 -0.0022755845413554498 -0.012977286377515437 0 -0.0021723702320422507 -0.013168456516266348 0 -0.0019303543378978957 -0.013267284044215674 0 -0.0022706803111892586 -0.013651466469862603 0 -0.0020320549556007822 -0.013038985548575435 0 -0.0021723702320422507 -0.013168456516266348 0 -0.0019303543378978957 -0.013267284044215674 0 -0.0018670511113845294 -0.012999029626593004 0 -0.0016999710817382878 -0.013116879423162869 0 -0.0019303543378978957 -0.013267284044215674 0 -0.0016999710817382878 -0.013116879423162869 0 -0.0016935135610793347 -0.01334503229345085 0 -0.0019303543378978957 -0.013267284044215674 0 -0.0016935135610793347 -0.01334503229345085 0 -0.0019303543378978957 -0.013267284044215674 0 -0.0018825916262194848 -0.013660416606593296 0 -0.0015073231188638147 -0.013515803203590604 0 -0.0018825916262194848 -0.013660416606593296 0 -0.0016795898040236461 -0.013888319343918886 0 -0.0015073231188638147 -0.013515803203590604 0 -0.0016935135610793347 -0.01334503229345085 0 -0.0018825916262194848 -0.013660416606593296 0 -0.0019303543378978957 -0.013267284044215674 0 -0.0018825916262194848 -0.013660416606593296 0 -0.0022706803111892586 -0.013651466469862603 0 -0.0018825916262194848 -0.013660416606593296 0 -0.0020441612176785692 -0.014147562859773706 0 -0.0022706803111892586 -0.013651466469862603 0 -0.0010658769540450633 -0.019435338818819373 0 -0.0015496371515292613 -0.018315833353255085 0 -0.00037226203201170166 -0.024372515574566093 0 -0.00045680506721016741 -0.023919028752753702 0 -0.00055066670818997672 -0.024325943617313991 0 -0.0018825916262194848 -0.013660416606593296 0 -0.0016795898040236461 -0.013888319343918886 0 -0.0020441612176785692 -0.014147562859773706 0 -0.0020441612176785692 -0.014147562859773706 0 -0.0017548054312611051 -0.01470267031999902 0 -0.001639730627234631 -0.014219223370120151 0 -0.0016795898040236461 -0.013888319343918886 0 -0.0020441612176785692 -0.014147562859773706 0 -0.001639730627234631 -0.014219223370120151 0 -0.0010658769540450633 -0.019435338818819373 0 -0.0015801762066403548 -0.019269847899944768 0 -0.00037226203201170166 -0.024372515574566093 0 -0.00049977659603372439 -0.024541424371906786 0 -0.00055066670818997672 -0.024325943617313991 0 -0.00037226203201170166 -0.024372515574566093 0 -0.00049977659603372439 -0.024541424371906786 0 -0.00033391019040764644 -0.024531902707137589 0 -0.00049977659603372439 -0.024541424371906786 0 -0.00049364410254405864 -0.024632190643532715 0 -0.00033391019040764644 -0.024531902707137589 0 -0.0021075460337082247 -0.022186560364587174 0 -0.0018605356196562544 -0.022241322120458824 0 -0.0021081413561129954 -0.022341040624530836 0 -0.0021075460337082247 -0.022186560364587174 0 -0.0018605356196562544 -0.022241322120458824 0 -0.0018487060331627619 -0.021994587237524989 0 -0.0014006244677893453 -0.023855288208051141 0 -0.0015801762066403548 -0.019269847899944768 0 -0.0015801762066403548 -0.019269847899944768 0 -0.0010626658313623325 -0.013203431935990171 0 -0.0021296191162934529 -0.014901299491280299 0 -0.0011391734522353141 -0.014856911919332702 0 -0.0012287482511813444 -0.014405300103633783 0 -0.0018605356196562544 -0.022241322120458824 0 -0.0018487060331627619 -0.021994587237524989 0 -0.0016841242190909257 -0.022256715958806659 0 -0.00092511944075842711 -0.013425384403014164 0 -0.0014306887667759718 -0.017193624258040833 0 -0.0015801762066403548 -0.019269847899944768 0 -0.0014306887667759718 -0.017193624258040833 0 -0.0021296191162934529 -0.014901299491280299 0 -0.0011391734522353141 -0.014856911919332702 0 -0.0015972563380509603 -0.015768677151840292 0 -0.00095160479691177051 -0.013265838119830682 0 -0.00081174393571719207 -0.013143711890164667 0 -0.00077529537202706503 -0.013375604703799789 0 -0.00095160479691177051 -0.013265838119830682 0 -0.00095852981558072823 -0.013000390841520682 0 -0.0011529174155963504 -0.0133490492219695 0 -0.00095160479691177051 -0.013265838119830682 0 -0.00095852981558072823 -0.013000390841520682 0 -0.00081174393571719207 -0.013143711890164667 0 -0.00095852981558072823 -0.013000390841520682 0 -0.00084354680416817848 -0.012926883162813521 0 -0.00081174393571719207 -0.013143711890164667 0 -0.00095852981558072823 -0.013000390841520682 0 -0.00084354680416817848 -0.012926883162813521 0 -0.00076224577727884572 -0.012747598457004303 0 -0.0012287482511813444 -0.014405300103633783 0 -0.0013058573680495397 -0.013905838844246681 0 -0.00086688722061957848 -0.014102830523962427 0 -0.00092511944075842711 -0.013425384403014164 0 -0.00086027347845310737 -0.013544386934260792 0 -0.0011391734522353141 -0.014856911919332702 0 -0.0012287482511813444 -0.014405300103633783 0 -0.00086688722061957848 -0.014102830523962427 0 -0.0017548054312611051 -0.01470267031999902 0 -0.0012287482511813444 -0.014405300103633783 0 -0.001639730627234631 -0.014219223370120151 0 -0.0012287482511813444 -0.014405300103633783 0 -0.001639730627234631 -0.014219223370120151 0 -0.0013058573680495397 -0.013905838844246681 0 -0.0016795898040236461 -0.013888319343918886 0 -0.001639730627234631 -0.014219223370120151 0 -0.0013058573680495397 -0.013905838844246681 0 -0.0015073231188638147 -0.013515803203590604 0 -0.0016795898040236461 -0.013888319343918886 0 -0.0013058573680495397 -0.013905838844246681 0 -0.0010972679101228866 -0.013572430985422594 0 -0.0015073231188638147 -0.013515803203590604 0 -0.0013058573680495397 -0.013905838844246681 0 -0.0010972679101228866 -0.013572430985422594 0 -0.0013058573680495397 -0.013905838844246681 0 -0.00086688722061957848 -0.014102830523962427 0 -0.00064122847822393504 -0.012690915556454928 0 -0.00064704075766519814 -0.012744153590441452 0 -0.00076224577727884572 -0.012747598457004303 0 -0.00065391416701019085 -0.013075931443158323 0 -0.00086027347845310737 -0.013544386934260792 0 -0.00066844846861773347 -0.013505623858538492 0 -0.0010972679101228866 -0.013572430985422594 0 -0.00086688722061957848 -0.014102830523962427 0 -0.00064704075766519814 -0.012744153590441452 0 -0.00060292286673060719 -0.012745805856123607 0 -0.00059342301443180985 -0.012699980402079534 0 -0.00064122847822393504 -0.012690915556454928 0 -0.00064704075766519814 -0.012744153590441452 0 -0.00059342301443180985 -0.012699980402079534 0 -0.00064704075766519814 -0.012744153590441452 0 -0.00062846796297324093 -0.01280729486682367 0 -0.00060292286673060719 -0.012745805856123607 0 -0.00064704075766519814 -0.012744153590441452 0 -0.00069663622763355159 -0.012815951283992178 0 -0.00062846796297324093 -0.01280729486682367 0 -0.00084354680416817848 -0.012926883162813521 0 -0.00076224577727884572 -0.012747598457004303 0 -0.00069663622763355159 -0.012815951283992178 0 -0.00064704075766519814 -0.012744153590441452 0 -0.00076224577727884572 -0.012747598457004303 0 -0.00069663622763355159 -0.012815951283992178 0 -0.00084354680416817848 -0.012926883162813521 0 -0.00069663622763355159 -0.012815951283992178 0 -0.00066185809005241212 -0.012868179209671059 0 -0.00081647081406210789 -0.012931294584866282 0 -0.00070762777229609378 -0.012953152066638312 0 -0.00084354680416817848 -0.012926883162813521 0 -0.00081174393571719207 -0.013143711890164667 0 -0.0006276736732956518 -0.013096320458550975 0 -0.00081174393571719207 -0.013143711890164667 0 -0.0006276736732956518 -0.013096320458550975 0 -0.00077529537202706503 -0.013375604703799789 0 -0.0006276736732956518 -0.013096320458550975 0 -0.0005528966347132946 -0.01333167660791248 0 -0.00077529537202706503 -0.013375604703799789 0 -0.0006276736732956518 -0.013096320458550975 0 -0.00047274336903181435 -0.013207830340692178 0 -0.0005528966347132946 -0.01333167660791248 0 -0.00070762777229609378 -0.012953152066638312 0 -0.00032896790265032888 -0.013162185550712668 0 -0.00062846796297324093 -0.01280729486682367 0 -0.00066185809005241212 -0.012868179209671059 0 -0.00060344050006718092 -0.012828091516856488 0 -0.00069663622763355159 -0.012815951283992178 0 -0.00062846796297324093 -0.01280729486682367 0 -0.00066185809005241212 -0.012868179209671059 0 -0.00062846796297324093 -0.01280729486682367 0 -0.0005963860739034133 -0.012790405741970675 0 -0.00060344050006718092 -0.012828091516856488 0 -0.0005963860739034133 -0.012790405741970675 0 -0.00060344050006718092 -0.012828091516856488 0 -0.0005854654178924462 -0.01280447271590949 0 -0.00047274336903181435 -0.013207830340692178 0 -0.0003669999403545359 -0.01326634236835135 0 -0.00041081446305811124 -0.013293321538530863 0 -0.00058170393828326373 -0.012806873225236456 0 -0.0005854654178924462 -0.01280447271590949 0 -0.00056550709299390818 -0.012775570250387223 0 -0.00032896790265032888 -0.013162185550712668 0 -0.0013556981122418588 -0.012000677185469797 0 -0.00060344050006718092 -0.012828091516856488 0 -0.0005854654178924462 -0.01280447271590949 0 -0.00058325630177991224 -0.012808618488759234 0 -0.00058170393828326373 -0.012806873225236456 0 -0.0005854654178924462 -0.01280447271590949 0 -0.00058325630177991224 -0.012808618488759234 0 -0.0005963860739034133 -0.012790405741970675 0 -0.0005854654178924462 -0.01280447271590949 0 -0.00056550709299390818 -0.012775570250387223 0 -0.0005963860739034133 -0.012790405741970675 0 -0.00057875801227461174 -0.012746037717927278 0 -0.00056550709299390818 -0.012775570250387223 0 -0.00057875801227461174 -0.012746037717927278 0 -0.00055265721788251435 -0.012715840974985394 0 -0.00056550709299390818 -0.012775570250387223 0 -0.00057875801227461174 -0.012746037717927278 0 -0.00057582926706544379 -0.012706282869981709 0 -0.00055265721788251435 -0.012715840974985394 0 -0.00062846796297324093 -0.01280729486682367 0 -0.0005963860739034133 -0.012790405741970675 0 -0.00060292286673060719 -0.012745805856123607 0 -0.0005963860739034133 -0.012790405741970675 0 -0.00057875801227461174 -0.012746037717927278 0 -0.00060292286673060719 -0.012745805856123607 0 -0.00057875801227461174 -0.012746037717927278 0 -0.00060292286673060719 -0.012745805856123607 0 -0.00057582926706544379 -0.012706282869981709 0 -0.00060292286673060719 -0.012745805856123607 0 -0.00059342301443180985 -0.012699980402079534 0 -0.00057582926706544379 -0.012706282869981709 0 -0.00057582926706544379 -0.012706282869981709 0 -0.00055265721788251435 -0.012715840974985394 0 -0.00055163505188542247 -0.012672745454308555 0 -0.00027119932755003762 -0.024973980735546918 0 -0.0001663848136092775 -0.024976145934193832 0 -0.00017994431097842915 -0.02500970715298393 0 -0.00027119932755003762 -0.024973980735546918 0 -0.00026139816961006534 -0.024938462810784295 0 -0.0001663848136092775 -0.024976145934193832 0 -0.00027119932755003762 -0.024973980735546918 0 -0.00033051769134576049 -0.024922790529950254 0 -0.00037634057479777347 -0.02493710811170944 0 -0.00027119932755003762 -0.024973980735546918 0 -0.00035471592392868694 -0.024987800675855248 0 -0.00037634057479777347 -0.02493710811170944 0 -0.00033051769134576049 -0.024922790529950254 0 -0.00041263090654680039 -0.024878419639736027 0 -0.0003443486527427287 -0.024892993999613082 0 -0.00027119932755003762 -0.024973980735546918 0 -0.00033051769134576049 -0.024922790529950254 0 -0.00026139816961006534 -0.024938462810784295 0 -0.00033051769134576049 -0.024922790529950254 0 -0.00026139816961006534 -0.024938462810784295 0 -0.0003443486527427287 -0.024892993999613082 0 -0.00026139816961006534 -0.024938462810784295 0 -0.0001663848136092775 -0.024976145934193832 0 -0.00024609575398653206 -0.024942811119330641 0 -0.0001663848136092775 -0.024976145934193832 0 -1.8639325630865237e-07 -0.02499988555067752 0 -0.00024609575398653206 -0.024942811119330641 0 -0.0001663848136092775 -0.024976145934193832 0 -2.4855093454601865e-08 -0.025000032479444319 0 -1.8639325630865237e-07 -0.02499988555067752 0 -0.0001663848136092775 -0.024976145934193832 0 -0.00010807427782693276 -0.025001026678721755 0 -0.00017994431097842915 -0.02500970715298393 0 -0.0001663848136092775 -0.024976145934193832 0 -2.4855093454601865e-08 -0.025000032479444319 0 -0.00010807427782693276 -0.025001026678721755 0 -0.00010807427782693276 -0.025001026678721755 0 -7.1275219310136184e-05 -0.02501870613216086 0 -0.00017994431097842915 -0.02500970715298393 0 -2.4855093454601865e-08 -0.025000032479444319 0 -0.00010807427782693276 -0.025001026678721755 0 -7.1275219310136184e-05 -0.02501870613216086 0 -2.4855093454601865e-08 -0.025000032479444319 0 -5.6832518306543681e-08 -0.025000043537716767 0 -7.1275219310136184e-05 -0.02501870613216086 0 -9.3414691837705679e-05 -0.02505421757111782 0 -7.1275219310136184e-05 -0.02501870613216086 0 -0.00017994431097842915 -0.02500970715298393 0 -9.3414691837705679e-05 -0.02505421757111782 0 -5.6832518306543681e-08 -0.025000043537716767 0 -7.1275219310136184e-05 -0.02501870613216086 0 -9.3414691837705679e-05 -0.02505421757111782 0 -0.00023467031903325666 -0.025041559733180677 0 -0.00026195008736598716 -0.025109711088852956 0 -0.00010968465965625047 -0.02505877861823725 0 -0.00016196446993183808 -0.025092545970119003 0 -9.3414691837705679e-05 -0.02505421757111782 0 -0.00017994431097842915 -0.02500970715298393 0 -0.00023467031903325666 -0.025041559733180677 0 -0.00017994431097842915 -0.02500970715298393 0 -0.00027199162186856876 -0.025010225057728933 0 -0.00023467031903325666 -0.025041559733180677 0 -0.00027119932755003762 -0.024973980735546918 0 -0.00017994431097842915 -0.02500970715298393 0 -0.00027199162186856876 -0.025010225057728933 0 -0.00027119932755003762 -0.024973980735546918 0 -0.00027199162186856876 -0.025010225057728933 0 -0.00035471592392868694 -0.024987800675855248 0 -0.00027199162186856876 -0.025010225057728933 0 -0.00033102195256338589 -0.02504901456662019 0 -0.00023467031903325666 -0.025041559733180677 0 -0.00027199162186856876 -0.025010225057728933 0 -0.00033102195256338589 -0.02504901456662019 0 -0.00035471592392868694 -0.024987800675855248 0 -0.00033102195256338589 -0.02504901456662019 0 -0.00023467031903325666 -0.025041559733180677 0 -0.00026195008736598716 -0.025109711088852956 0 -0.00033102195256338589 -0.02504901456662019 0 -0.00026195008736598716 -0.025109711088852956 0 -0.00041769411046238899 -0.025097632212199912 0 -0.00016196446993183808 -0.025092545970119003 0 -0.00025158618734929069 -0.024832879541408063 0 -0.00033102195256338589 -0.02504901456662019 0 -0.00041769411046238899 -0.025097632212199912 0 -0.00040940079331773911 -0.025017998641096561 0 -0.00041769411046238899 -0.025097632212199912 0 -0.00047807189715491204 -0.025045255867328035 0 -0.00040940079331773911 -0.025017998641096561 0 -0.00043808056022152551 -0.025073868414401373 0 -0.00053641946078073746 -0.025043025252191018 0 -0.00047807189715491204 -0.025045255867328035 0 -0.00025158618734929069 -0.024832879541408063 0 -0.0011520868379846047 -0.020933716260292431 0 -0.00046219628183855402 -0.024313310375390751 0 -0.00034450137288584377 -0.023897295359565411 0 -0.00080800953240334932 -0.023782342226041985 0 -0.00053641946078073746 -0.025043025252191018 0 -0.00047807189715491204 -0.025045255867328035 0 -0.00052506704897967691 -0.024977947629215163 0 -0.00025158618734929069 -0.024832879541408063 0 -0.00038851864652166208 -0.024961335414471729 0 -0.00047807189715491204 -0.025045255867328035 0 -0.00052506704897967691 -0.024977947629215163 0 -0.00046434263717483348 -0.024989854626204542 0 -0.00047807189715491204 -0.025045255867328035 0 -0.00046434263717483348 -0.024989854626204542 0 -0.00040940079331773911 -0.025017998641096561 0 -0.00052506704897967691 -0.024977947629215163 0 -0.00046434263717483348 -0.024989854626204542 0 -0.00048681919797081248 -0.024953038628273288 0 -0.00046434263717483348 -0.024989854626204542 0 -0.00042137693144671641 -0.024962076799555633 0 -0.00048681919797081248 -0.024953038628273288 0 -0.00046434263717483348 -0.024989854626204542 0 -0.00040940079331773911 -0.025017998641096561 0 -0.00042137693144671641 -0.024962076799555633 0 -0.00035471592392868694 -0.024987800675855248 0 -0.00040940079331773911 -0.025017998641096561 0 -0.00042137693144671641 -0.024962076799555633 0 -0.00033102195256338589 -0.02504901456662019 0 -0.00035471592392868694 -0.024987800675855248 0 -0.00040940079331773911 -0.025017998641096561 0 -0.0014478331683756712 -0.014402465797261538 0 -0.0016575265656350827 -0.014638119228870141 0 -0.0019432293898873681 -0.014879167573275674 0 -0.0019011218680690075 -0.01350095478358139 0 -0.0017944023691741087 -0.014802477836855029 0 -0.0016575265656350827 -0.014638119228870141 0 -0.0017894557742309922 -0.014660465437737377 0 -0.0019432293898873681 -0.014879167573275674 0 -0.0015294182739470882 -0.014441338184633092 0 -0.0015622351115664229 -0.01454434929076316 0 -0.0017894557742309922 -0.014660465437737377 0 -0.0015622351115664229 -0.01454434929076316 0 -0.0016575265656350827 -0.014638119228870141 0 -0.0017894557742309922 -0.014660465437737377 0 -0.0020920636171289451 -0.014621638113884932 0 -0.0017944023691741087 -0.014802477836855029 0 -0.0021977959089786786 -0.014730378769690598 0 -0.0017894557742309922 -0.014660465437737377 0 -0.0019432293898873681 -0.014879167573275674 0 -0.0011520868379846047 -0.020933716260292431 0 -0.0017944023691741087 -0.014802477836855029 0 -0.0016426284904050882 -0.014245682765960284 0 -0.0023656133125268936 -0.014343350983746421 0 -0.002117135674305375 -0.014659443086292603 0 -0.0021977959089786786 -0.014730378769690598 0 -0.0023656133125268936 -0.014343350983746421 0 -0.002117135674305375 -0.014659443086292603 0 -0.0016781234280296919 -0.015271884389535893 0 -0.0016426284904050882 -0.014245682765960284 0 -0.002117135674305375 -0.014659443086292603 0 -0.0017328959422952576 -0.018672021856647479 0 -0.0012637544485210594 -0.018740250420189966 0 -0.0012991312279700437 -0.019380201550416844 0 -0.0011520868379846047 -0.020933716260292431 0 -0.0012605695972793052 -0.020395357223745351 0 -0.00053641946078073746 -0.025043025252191018 0 -0.00052506704897967691 -0.024977947629215163 0 -0.00062422554868862476 -0.024917439026379041 0 -0.0024515803870866592 -0.012858065017534762 0 -0.0022755845413554498 -0.012977286377515437 0 -0.0024817474683125175 -0.013250857879289752 0 -0.0017944023691741087 -0.014802477836855029 0 -0.0012605695972793052 -0.020395357223745351 0 -0.002058098064923916 -0.012872129076332775 0 -0.0024515803870866592 -0.012858065017534762 0 -0.0022755845413554498 -0.012977286377515437 0 -0.0021723702320422507 -0.013168456516266348 0 -0.0022755845413554498 -0.012977286377515437 0 -0.0024817474683125175 -0.013250857879289752 0 -0.0012605695972793052 -0.020395357223745351 0 -0.0015496371515292613 -0.018315833353255085 0 -0.0021723702320422507 -0.013168456516266348 0 -0.0024817474683125175 -0.013250857879289752 0 -0.0022706803111892586 -0.013651466469862603 0 -0.00052506704897967691 -0.024977947629215163 0 -0.00062422554868862476 -0.024917439026379041 0 -0.00055236140406410793 -0.024910244849375318 0 -0.00062422554868862476 -0.024917439026379041 0 -0.00055236140406410793 -0.024910244849375318 0 -0.00064827145278390376 -0.024830284518820703 0 -0.0012605695972793052 -0.020395357223745351 0 -0.00070156125422500895 -0.025233656262591893 0 -0.00064827145278390376 -0.024830284518820703 0 -0.00055242753579215498 -0.024857615582704252 0 -0.00051580218701568722 -0.024807874975731739 0 -0.00055236140406410793 -0.024910244849375318 0 -0.00064827145278390376 -0.024830284518820703 0 -0.00055242753579215498 -0.024857615582704252 0 -0.00084358339123243107 -0.023179511650635691 0 -0.00085123471727268545 -0.023989624251083169 0 -0.00045680506721016741 -0.023919028752753702 0 -0.00037634057479777347 -0.02493710811170944 0 -0.00042137693144671641 -0.024962076799555633 0 -0.00047482564037506716 -0.024901047365185513 0 -0.00035471592392868694 -0.024987800675855248 0 -0.00037634057479777347 -0.02493710811170944 0 -0.00042137693144671641 -0.024962076799555633 0 -0.00052506704897967691 -0.024977947629215163 0 -0.00055236140406410793 -0.024910244849375318 0 -0.00048681919797081248 -0.024953038628273288 0 -0.00042137693144671641 -0.024962076799555633 0 -0.00048681919797081248 -0.024953038628273288 0 -0.00047482564037506716 -0.024901047365185513 0 -0.00055236140406410793 -0.024910244849375318 0 -0.00048681919797081248 -0.024953038628273288 0 -0.00047482564037506716 -0.024901047365185513 0 -0.00047482564037506716 -0.024901047365185513 0 -0.00055242753579215498 -0.024857615582704252 0 -0.00051580218701568722 -0.024807874975731739 0 -0.00047482564037506716 -0.024901047365185513 0 -0.00041263090654680039 -0.024878419639736027 0 -0.00051580218701568722 -0.024807874975731739 0 -0.00055236140406410793 -0.024910244849375318 0 -0.00047482564037506716 -0.024901047365185513 0 -0.00055242753579215498 -0.024857615582704252 0 -0.00037634057479777347 -0.02493710811170944 0 -0.00047482564037506716 -0.024901047365185513 0 -0.00041263090654680039 -0.024878419639736027 0 -0.00033051769134576049 -0.024922790529950254 0 -0.00037634057479777347 -0.02493710811170944 0 -0.00041263090654680039 -0.024878419639736027 0 -0.00041263090654680039 -0.024878419639736027 0 -0.00042581935101830261 -0.024830744063163199 0 -0.0003443486527427287 -0.024892993999613082 0 -0.00042581935101830261 -0.024830744063163199 0 -0.00051580218701568722 -0.024807874975731739 0 -0.00049322864155018772 -0.024764272330348527 0 -0.00041263090654680039 -0.024878419639736027 0 -0.00042581935101830261 -0.024830744063163199 0 -0.00051580218701568722 -0.024807874975731739 0 -0.00051580218701568722 -0.024807874975731739 0 -0.00049322864155018772 -0.024764272330348527 0 -0.00067145238154721549 -0.024578530023440581 0 -0.00049322864155018772 -0.024764272330348527 0 -0.00067145238154721549 -0.024578530023440581 0 -0.00053139444765995828 -0.024707596754103563 0 -0.00049322864155018772 -0.024764272330348527 0 -0.00046902493723628057 -0.02478090166629715 0 -0.00053139444765995828 -0.024707596754103563 0 -0.00042581935101830261 -0.024830744063163199 0 -0.00049322864155018772 -0.024764272330348527 0 -0.00046902493723628057 -0.02478090166629715 0 -0.00085123471727268545 -0.023989624251083169 0 -0.00055066670818997672 -0.024325943617313991 0 -0.00067145238154721549 -0.024578530023440581 0 -0.00085123471727268545 -0.023989624251083169 0 -0.00045680506721016741 -0.023919028752753702 0 -0.00055066670818997672 -0.024325943617313991 0 -0.00064827145278390376 -0.024830284518820703 0 -0.00051580218701568722 -0.024807874975731739 0 -0.00067145238154721549 -0.024578530023440581 0 -0.00070156125422500895 -0.025233656262591893 0 -0.00068843137165680178 -0.024207545299087838 0 -0.00067145238154721549 -0.024578530023440581 0 -0.00060616898972827126 -0.02463350113544488 0 -0.00053139444765995828 -0.024707596754103563 0 -0.00049977659603372439 -0.024541424371906786 0 -0.00055066670818997672 -0.024325943617313991 0 -0.00067145238154721549 -0.024578530023440581 0 -0.00049977659603372439 -0.024541424371906786 0 -0.00067145238154721549 -0.024578530023440581 0 -0.00059876670737742512 -0.024617447496042312 0 -0.00049977659603372439 -0.024541424371906786 0 -0.00049364410254405864 -0.024632190643532715 0 -0.00059876670737742512 -0.024617447496042312 0 -0.00067145238154721549 -0.024578530023440581 0 -0.00059876670737742512 -0.024617447496042312 0 -0.00060616898972827126 -0.02463350113544488 0 -0.00059876670737742512 -0.024617447496042312 0 -0.00060616898972827126 -0.02463350113544488 0 -0.00058609667480027613 -0.024637997968961961 0 -0.00059876670737742512 -0.024617447496042312 0 -0.00058609667480027613 -0.024637997968961961 0 -0.00060010533887986999 -0.02463522995758748 0 -0.00049364410254405864 -0.024632190643532715 0 -0.00059876670737742512 -0.024617447496042312 0 -0.00060010533887986999 -0.02463522995758748 0 -0.0014006244677893453 -0.023855288208051141 0 -0.0013920387307861893 -0.02344864610822563 0 -0.0021075460337082247 -0.022186560364587174 0 -0.0022948790987744653 -0.022392850341926483 0 -0.0021081413561129954 -0.022341040624530836 0 -0.00046902493723628057 -0.02478090166629715 0 -0.00054207225447940304 -0.024674020821249948 0 -0.00049853634945929272 -0.024642792952945448 0 -0.00046902493723628057 -0.02478090166629715 0 -0.00049853634945929272 -0.024642792952945448 0 -0.00043347484284508815 -0.024888972551533113 0 -0.00046902493723628057 -0.02478090166629715 0 -0.00053139444765995828 -0.024707596754103563 0 -0.00054207225447940304 -0.024674020821249948 0 -0.00060616898972827126 -0.02463350113544488 0 -0.00053139444765995828 -0.024707596754103563 0 -0.00054207225447940304 -0.024674020821249948 0 -0.00060616898972827126 -0.02463350113544488 0 -0.00054207225447940304 -0.024674020821249948 0 -0.00058609667480027613 -0.024637997968961961 0 -0.00054207225447940304 -0.024674020821249948 0 -0.00058609667480027613 -0.024637997968961961 0 -0.00049853634945929272 -0.024642792952945448 0 -0.00058609667480027613 -0.024637997968961961 0 -0.00049853634945929272 -0.024642792952945448 0 -0.00058079422993665049 -0.024584187318901173 0 -0.0011007652823025889 -0.024767336235288359 0 -0.00053984088094214213 -0.024790932506253003 0 -0.001014282577140377 -0.024025258308273425 0 -0.0011007652823025889 -0.024767336235288359 0 -0.00053984088094214213 -0.024790932506253003 0 -0.00043347484284508815 -0.024888972551533113 0 -0.00053984088094214213 -0.024790932506253003 0 -0.00040999676832283448 -0.024963212031815632 0 -0.00069094626385509793 -0.025031122313866467 0 -0.00053984088094214213 -0.024790932506253003 0 -0.00043347484284508815 -0.024888972551533113 0 -0.00040999676832283448 -0.024963212031815632 0 -0.00043347484284508815 -0.024888972551533113 0 -0.00034454606524513052 -0.024927395125844489 0 -0.00040999676832283448 -0.024963212031815632 0 -0.00073747654177889219 -0.024814814093929775 0 -0.00051726457624200802 -0.024823367671255231 0 -0.00046902493723628057 -0.02478090166629715 0 -0.00043347484284508815 -0.024888972551533113 0 -0.00038027544660136962 -0.02487302514710326 0 -0.00042581935101830261 -0.024830744063163199 0 -0.00046902493723628057 -0.02478090166629715 0 -0.00038027544660136962 -0.02487302514710326 0 -0.00038027544660136962 -0.02487302514710326 0 -0.00034454606524513052 -0.024927395125844489 0 -0.00024609575398653206 -0.024942811119330641 0 -0.00043347484284508815 -0.024888972551533113 0 -0.00038027544660136962 -0.02487302514710326 0 -0.00034454606524513052 -0.024927395125844489 0 -0.00026139816961006534 -0.024938462810784295 0 -0.0003443486527427287 -0.024892993999613082 0 -0.00024609575398653206 -0.024942811119330641 0 -0.00038027544660136962 -0.02487302514710326 0 -0.0003443486527427287 -0.024892993999613082 0 -0.00024609575398653206 -0.024942811119330641 0 -0.00042581935101830261 -0.024830744063163199 0 -0.00038027544660136962 -0.02487302514710326 0 -0.0003443486527427287 -0.024892993999613082 0 -1.8639325630865237e-07 -0.02499988555067752 0 -0.00024609575398653206 -0.024942811119330641 0 -0.00018003136114288156 -0.024977529150201017 0 -0.00034454606524513052 -0.024927395125844489 0 -0.00024609575398653206 -0.024942811119330641 0 -0.00018003136114288156 -0.024977529150201017 0 -1.8639325630865237e-07 -0.02499988555067752 0 -0.00018003136114288156 -0.024977529150201017 0 7.5872705591009519e-08 -0.025000335332825165 0 7.5872705591009519e-08 -0.025000335332825165 0 -0.00040999676832283448 -0.024963212031815632 0 -1.076916048959376e-06 -0.024998709879192001 0 -0.00018003136114288156 -0.024977529150201017 0 7.5872705591009519e-08 -0.025000335332825165 0 -0.00040999676832283448 -0.024963212031815632 0 -0.00034454606524513052 -0.024927395125844489 0 -0.00018003136114288156 -0.024977529150201017 0 -0.00040999676832283448 -0.024963212031815632 0 -0.00040999676832283448 -0.024963212031815632 0 -0.00064165421558312662 -0.025130806365484211 0 -0.00069094626385509793 -0.025031122313866467 0 -0.00040999676832283448 -0.024963212031815632 0 -1.076916048959376e-06 -0.024998709879192001 0 -0.00064165421558312662 -0.025130806365484211 0 -1.076916048959376e-06 -0.024998709879192001 0 -0.00064165421558312662 -0.025130806365484211 0 1.5753282389794741e-06 -0.025005856491358228 0 -0.00064165421558312662 -0.025130806365484211 0 -0.00069094626385509793 -0.025031122313866467 0 -0.0010676143917342205 -0.025276923214553507 0 -0.00064165421558312662 -0.025130806365484211 0 -0.0010676143917342205 -0.025276923214553507 0 -0.0013199288743791643 -0.025399574567842087 0 -0.00064165421558312662 -0.025130806365484211 0 1.5753282389794741e-06 -0.025005856491358228 0 -0.0013199288743791643 -0.025399574567842087 0 -0.00053984088094214213 -0.024790932506253003 0 -0.00044060046571823533 -0.023454189039230428 0 -0.001014282577140377 -0.024025258308273425 0 -0.00053984088094214213 -0.024790932506253003 0 -0.00077998604584032024 -0.025070237886211981 0 -0.00080405463167623574 -0.025215893866632002 0 -0.00055180929853458583 -0.024710087247772138 0 -0.0006330079474795449 -0.024377835522930005 0 -0.00077998604584032024 -0.025070237886211981 0 -0.0010676143917342205 -0.025276923214553507 0 -0.00080405463167623574 -0.025215893866632002 0 -0.00077998604584032024 -0.025070237886211981 0 -0.00069094626385509793 -0.025031122313866467 0 -0.0010676143917342205 -0.025276923214553507 0 -0.00053984088094214213 -0.024790932506253003 0 -0.00077998604584032024 -0.025070237886211981 0 -0.00069094626385509793 -0.025031122313866467 0 -0.0012406808290942918 -0.025214238785410889 0 -0.0018462124699075168 -0.025092800460611724 0 -0.0010676143917342205 -0.025276923214553507 0 -0.00095664853288854595 -0.025189846013933814 0 -0.00078810384993921608 -0.025038511167594438 0 -0.0010676143917342205 -0.025276923214553507 0 -0.00095664853288854595 -0.025189846013933814 0 -0.00080405463167623574 -0.025215893866632002 0 -0.0006330079474795449 -0.024377835522930005 0 -0.00097410728981766172 -0.02339751414443739 0 -0.00044060046571823533 -0.023454189039230428 0 -0.00062462079763754802 -0.022338740276616885 0 -0.0010418523861987813 -0.023162394974459651 0 -0.00095664853288854595 -0.025189846013933814 0 -0.00080405463167623574 -0.025215893866632002 0 -0.0011696225242878448 -0.025044980981637436 0 -0.00080405463167623574 -0.025215893866632002 0 -0.00120806023630295 -0.025033241098424357 0 -0.0011696225242878448 -0.025044980981637436 0 -0.0012967767542079037 -0.024983748767934418 0 -0.0011696225242878448 -0.025044980981637436 0 -0.0011555377151877798 -0.0248131032150006 0 -0.00097410728981766172 -0.02339751414443739 0 -0.00089208234440478994 -0.023563863337903765 0 -0.00095664853288854595 -0.025189846013933814 0 -0.0011696225242878448 -0.025044980981637436 0 -0.00098830907304767353 -0.025054117489521667 0 -0.0011696225242878448 -0.025044980981637436 0 -0.00098830907304767353 -0.025054117489521667 0 -0.0010361861063012544 -0.024930053022524046 0 -0.0011696225242878448 -0.025044980981637436 0 -0.0010361861063012544 -0.024930053022524046 0 -0.0011555377151877798 -0.0248131032150006 0 -0.00098830907304767353 -0.025054117489521667 0 -0.0010361861063012544 -0.024930053022524046 0 -0.00078810384993921608 -0.025038511167594438 0 -0.0010361861063012544 -0.024930053022524046 0 -0.00078810384993921608 -0.025038511167594438 0 -0.0010452335188753366 -0.024604284333394767 0 -0.00095664853288854595 -0.025189846013933814 0 -0.00098830907304767353 -0.025054117489521667 0 -0.00078810384993921608 -0.025038511167594438 0 -0.002758516354310262 -0.025546993012211534 0 -0.0025837080912556021 -0.025178615782084159 0 -0.0054800269151012654 -0.024756168274850943 0 -0.0018462124699075168 -0.025092800460611724 0 -0.0031991327085394709 -0.024461692915468885 0 -0.00078810384993921608 -0.025038511167594438 0 -0.0010452335188753366 -0.024604284333394767 0 -0.0007505245958112503 -0.024141646019946322 0 -0.00097410728981766172 -0.02339751414443739 0 -0.0011389460837369231 -0.023136919599636083 0 -0.0010452335188753366 -0.024604284333394767 0 -0.001506324174734756 -0.024258305310693649 0 -0.0007505245958112503 -0.024141646019946322 0 -0.0012967767542079037 -0.024983748767934418 0 -0.0011555377151877798 -0.0248131032150006 0 -0.001506324174734756 -0.024258305310693649 0 -0.0010452335188753366 -0.024604284333394767 0 -0.0011555377151877798 -0.0248131032150006 0 -0.001506324174734756 -0.024258305310693649 0 -0.0010361861063012544 -0.024930053022524046 0 -0.0010452335188753366 -0.024604284333394767 0 -0.0011555377151877798 -0.0248131032150006 0 1.5753282389794741e-06 -0.025005856491358228 0 -0.0013199288743791643 -0.025399574567842087 0 -1.0043547651323998e-05 -0.024981105077104777 0 -0.0010676143917342205 -0.025276923214553507 0 -0.002758516354310262 -0.025546993012211534 0 -0.0013199288743791643 -0.025399574567842087 0 -0.002758516354310262 -0.025546993012211534 0 -0.0013199288743791643 -0.025399574567842087 0 -0.0025837080912556021 -0.025178615782084159 0 -0.0025837080912556021 -0.025178615782084159 0 -1.0043547651323998e-05 -0.024981105077104777 0 -0.0020933694694035229 -0.024822166833386554 0 -0.0013199288743791643 -0.025399574567842087 0 -0.0025837080912556021 -0.025178615782084159 0 -1.0043547651323998e-05 -0.024981105077104777 0 -0.0020933694694035229 -0.024822166833386554 0 2.9491050354094334e-05 -0.025072922609940259 0 -0.0047591865686671736 -0.022856063675365038 0 -1.0043547651323998e-05 -0.024981105077104777 0 -0.0020933694694035229 -0.024822166833386554 0 2.9491050354094334e-05 -0.025072922609940259 0 2.9491050354094334e-05 -0.025072922609940259 0 -0.0047591865686671736 -0.022856063675365038 0 -0.0047773407666864562 -0.021830381470267019 0 -0.0070387575631868943 -0.020945025161199615 0 -0.0047591865686671736 -0.022856063675365038 0 -0.0070020563153071116 -0.020462380120045916 0 -0.0047591865686671736 -0.022856063675365038 0 -0.0047773407666864562 -0.021830381470267019 0 -0.0070020563153071116 -0.020462380120045916 0 -0.0047591865686671736 -0.022856063675365038 0 -0.0042803792681845578 -0.024119107647177489 0 -0.0065868913122845776 -0.022448522687722645 0 -0.0070387575631868943 -0.020945025161199615 0 -0.0047591865686671736 -0.022856063675365038 0 -0.0065868913122845776 -0.022448522687722645 0 -0.0020933694694035229 -0.024822166833386554 0 -0.0047591865686671736 -0.022856063675365038 0 -0.0042803792681845578 -0.024119107647177489 0 -0.0025837080912556021 -0.025178615782084159 0 -0.0042803792681845578 -0.024119107647177489 0 -0.0054800269151012654 -0.024756168274850943 0 -0.0025837080912556021 -0.025178615782084159 0 -0.0020933694694035229 -0.024822166833386554 0 -0.0042803792681845578 -0.024119107647177489 0 -0.0042803792681845578 -0.024119107647177489 0 -0.0054800269151012654 -0.024756168274850943 0 -0.0065868913122845776 -0.022448522687722645 0 -0.0007505245958112503 -0.024141646019946322 0 -0.0012025132547069763 -0.023718115579481822 0 -0.00089324210871634391 -0.023049222575005093 0 -0.0054800269151012654 -0.024756168274850943 0 -0.0065868913122845776 -0.022448522687722645 0 -0.0088017460693018464 -0.021825202305608676 0 -0.0031991327085394709 -0.024461692915468885 0 -0.0041423682628167558 -0.021147003623200107 0 -0.001506324174734756 -0.024258305310693649 0 -0.0012025132547069763 -0.023718115579481822 0 -0.0016503565211813593 -0.02339805782923611 0 -0.0011389460837369231 -0.023136919599636083 0 -0.0027601291625327052 -0.019065996887402733 0 -0.001506324174734756 -0.024258305310693649 0 -0.0007505245958112503 -0.024141646019946322 0 -0.0012025132547069763 -0.023718115579481822 0 -0.0027601291625327052 -0.019065996887402733 0 -0.0043480724074464652 -0.016133789715786818 0 -0.0049127313344313776 -0.018748909113430086 0 -0.0044361652241947901 -0.018534352069841543 0 -0.0045260602912907026 -0.017982754846121874 0 -0.0012025132547069763 -0.023718115579481822 0 -0.0016503565211813593 -0.02339805782923611 0 -0.00089324210871634391 -0.023049222575005093 0 -0.0027601291625327052 -0.019065996887402733 0 -0.0041423682628167558 -0.021147003623200107 0 -0.0041423682628167558 -0.021147003623200107 0 -0.0072796336779501593 -0.017950399625303627 0 -0.0088017460693018464 -0.021825202305608676 0 -0.0087899821996913936 -0.020232855551351472 0 -0.010065849093514314 -0.018591140863655962 0 -0.0065868913122845776 -0.022448522687722645 0 -0.0088017460693018464 -0.021825202305608676 0 -0.0081713398538660661 -0.020966521109053057 0 -0.0088017460693018464 -0.021825202305608676 0 -0.0087899821996913936 -0.020232855551351472 0 -0.0081713398538660661 -0.020966521109053057 0 -0.0081713398538660661 -0.020966521109053057 0 -0.0075140867622544771 -0.021002955709697218 0 -0.0082369336093181811 -0.019741679665368259 0 -0.0087899821996913936 -0.020232855551351472 0 -0.0081713398538660661 -0.020966521109053057 0 -0.0082369336093181811 -0.019741679665368259 0 -0.0070387575631868943 -0.020945025161199615 0 -0.0065868913122845776 -0.022448522687722645 0 -0.0075140867622544771 -0.021002955709697218 0 -0.0065868913122845776 -0.022448522687722645 0 -0.0081713398538660661 -0.020966521109053057 0 -0.0075140867622544771 -0.021002955709697218 0 -0.0070387575631868943 -0.020945025161199615 0 -0.0075140867622544771 -0.021002955709697218 0 -0.0082369336093181811 -0.019741679665368259 0 -0.0087899821996913936 -0.020232855551351472 0 -0.0082369336093181811 -0.019741679665368259 0 -0.0088390353437574152 -0.018514472849914296 0 -0.0082369336093181811 -0.019741679665368259 0 -0.0088390353437574152 -0.018514472849914296 0 -0.008085084264545097 -0.019014293217403912 0 -0.0087899821996913936 -0.020232855551351472 0 -0.0088390353437574152 -0.018514472849914296 0 -0.010065849093514314 -0.018591140863655962 0 -0.0088390353437574152 -0.018514472849914296 0 -0.010065849093514314 -0.018591140863655962 0 -0.0091487811440019925 -0.017434434410891143 0 -0.0088390353437574152 -0.018514472849914296 0 -0.008085084264545097 -0.019014293217403912 0 -0.0087781021207493821 -0.017353289573984205 0 -0.0088390353437574152 -0.018514472849914296 0 -0.0091487811440019925 -0.017434434410891143 0 -0.0087781021207493821 -0.017353289573984205 0 -0.0049127313344313776 -0.018748909113430086 0 -0.0045260602912907026 -0.017982754846121874 0 -0.0050185125818418873 -0.017837601370565677 0 -0.0046152597563120781 -0.017455610955694135 0 -0.0050185125818418873 -0.017837601370565677 0 -0.0050995605452601265 -0.016989733386249064 0 -0.0045260602912907026 -0.017982754846121874 0 -0.0046152597563120781 -0.017455610955694135 0 -0.0050185125818418873 -0.017837601370565677 0 -0.0072796336779501593 -0.017950399625303627 0 -0.007297380058214213 -0.017505497806714676 0 -0.010065849093514314 -0.018591140863655962 0 -0.010318536112651376 -0.016304165016632167 0 -0.0091487811440019925 -0.017434434410891143 0 -0.0088937634354006451 -0.017592661974780738 0 -0.0096796315128850098 -0.01747607233344825 0 -0.0088111401480286313 -0.018049887412181661 0 -0.0088937634354006451 -0.017592661974780738 0 -0.0091487811440019925 -0.017434434410891143 0 -0.0096796315128850098 -0.01747607233344825 0 -0.0091487811440019925 -0.017434434410891143 0 -0.0096796315128850098 -0.01747607233344825 0 -0.0087781021207493821 -0.017353289573984205 0 -0.007297380058214213 -0.017505497806714676 0 -0.0093396038863858746 -0.01683658943055413 0 -0.0096796315128850098 -0.01747607233344825 0 -0.0096468073832274275 -0.015108182319183122 0 -0.0087781021207493821 -0.017353289573984205 0 -2.3622575067162192e-05 -0.024947744446119011 0 -2.5925058484166131e-08 -0.024949828483785526 0 -0.00012663942711600069 -0.024890583151298187 0 -0.0096796315128850098 -0.01747607233344825 0 -0.0083650365931835693 -0.0020091673416934219 0 -0.0096468073832274275 -0.015108182319183122 0 -0.0047172046563925402 -0.020843166537327894 0 -0.0054919041818980588 -0.020486428067901175 0 -0.0051029756302258577 -0.021295639806137356 0 -0.0074241314510821495 -0.01754774048880629 0 -0.0043718744172730932 -0.019213301910456119 0 -0.0043718744172730932 -0.019213301910456119 0 -0.0022919101879654538 -0.023781427355276583 0 -2.3622575067162192e-05 -0.024947744446119011 0 -2.5925058484166131e-08 -0.024949828483785526 0 -6.0955525230183974e-08 -0.024999870477795224 0 -0.0043718744172730932 -0.019213301910456119 0 -7.076315089013026e-06 -0.024986136363655549 0 -0.0096468073832274275 -0.015108182319183122 0 -0.00012462714862327754 -0.024713169171854541 0 -0.0047773407666864562 -0.021830381470267019 0 2.9491050354094334e-05 -0.025072922609940259 0 -0.00012462714862327754 -0.024713169171854541 0 -0.0047773407666864562 -0.021830381470267019 0 -0.0083650365931835693 -0.0020091673416934219 0 -0.0096468073832274275 -0.015108182319183122 0 -0.00012462714862327754 -0.024713169171854541 0 -0.0096468073832274275 -0.015108182319183122 0 -0.0047773407666864562 -0.021830381470267019 0 -0.0083804632483687122 -0.01803965877032826 0 -0.0047773407666864562 -0.021830381470267019 0 -0.0083804632483687122 -0.01803965877032826 0 -0.0070020563153071116 -0.020462380120045916 0 -0.0070387575631868943 -0.020945025161199615 0 -0.0070020563153071116 -0.020462380120045916 0 -0.008085084264545097 -0.019014293217403912 0 -0.0070387575631868943 -0.020945025161199615 0 -0.0082369336093181811 -0.019741679665368259 0 -0.008085084264545097 -0.019014293217403912 0 -0.0083804632483687122 -0.01803965877032826 0 -0.0070020563153071116 -0.020462380120045916 0 -0.008085084264545097 -0.019014293217403912 0 -0.0083804632483687122 -0.01803965877032826 0 -0.008085084264545097 -0.019014293217403912 0 -0.0087781021207493821 -0.017353289573984205 0 -0.0096468073832274275 -0.015108182319183122 0 -0.0083804632483687122 -0.01803965877032826 0 -0.0087781021207493821 -0.017353289573984205 0 -0.0029434044665757522 -0.015693755850554256 0 -0.0029166084042143684 -0.015731941148620206 0 -0.00297648304379381 -0.015764059919908088 0 -0.0029434044665757522 -0.015693755850554256 0 -0.00297648304379381 -0.015764059919908088 0 -0.003014397042121959 -0.015698189302966483 0 -0.0029434044665757522 -0.015693755850554256 0 -0.003014397042121959 -0.015698189302966483 0 -0.0029760121222857532 -0.015649953046409367 0 -0.0029434044665757522 -0.015693755850554256 0 -0.0029760121222857532 -0.015649953046409367 0 -0.0029224360113113503 -0.015645775788545983 0 -0.0029434044665757522 -0.015693755850554256 0 -0.0028984517768131258 -0.015683235475730684 0 -0.0029224360113113503 -0.015645775788545983 0 -0.0028984517768131258 -0.015683235475730684 0 -0.0029224360113113503 -0.015645775788545983 0 -0.0028544981093355216 -0.015634377204967829 0 -0.0028984517768131258 -0.015683235475730684 0 -0.0028716224229673906 -0.015707366013699337 0 -0.0028544981093355216 -0.015634377204967829 0 -0.0028984517768131258 -0.015683235475730684 0 -0.0028716224229673906 -0.015707366013699337 0 -0.0029166084042143684 -0.015731941148620206 0 -0.0029434044665757522 -0.015693755850554256 0 -0.0028984517768131258 -0.015683235475730684 0 -0.0029166084042143684 -0.015731941148620206 0 -0.0028716224229673906 -0.015707366013699337 0 -0.0029116480846766105 -0.015823337206839962 0 -0.0029166084042143684 -0.015731941148620206 0 -0.0028716224229673906 -0.015707366013699337 0 -0.0029116480846766105 -0.015823337206839962 0 -0.0028556845961687245 -0.01569680425739671 0 -0.0029116480846766105 -0.015823337206839962 0 -0.00297648304379381 -0.015764059919908088 0 -0.0030375813242669815 -0.015919890986431179 0 -0.0029116480846766105 -0.015823337206839962 0 -0.0029166084042143684 -0.015731941148620206 0 -0.00297648304379381 -0.015764059919908088 0 -0.00297648304379381 -0.015764059919908088 0 -0.0030694380000442132 -0.015758767612841479 0 -0.0030375813242669815 -0.015919890986431179 0 -0.0032383416943133295 -0.015763335891754694 0 -0.0030694380000442132 -0.015758767612841479 0 -0.0030375813242669815 -0.015919890986431179 0 -0.0032383416943133295 -0.015763335891754694 0 -0.0032659568326420915 -0.016033357822074049 0 -0.0030375813242669815 -0.015919890986431179 0 -0.0043480724074464652 -0.016133789715786818 0 -0.0040644087735163563 -0.017670403080873351 0 -0.0032383416943133295 -0.015763335891754694 0 -0.0030694380000442132 -0.015758767612841479 0 -0.0030930522503373348 -0.015694500183942989 0 -0.0032383416943133295 -0.015763335891754694 0 -0.0030930522503373348 -0.015694500183942989 0 -0.0031465271600462693 -0.015657234707107857 0 -0.00297648304379381 -0.015764059919908088 0 -0.0030694380000442132 -0.015758767612841479 0 -0.003014397042121959 -0.015698189302966483 0 -0.0030930522503373348 -0.015694500183942989 0 -0.003014397042121959 -0.015698189302966483 0 -0.003037445515044093 -0.01564511998626349 0 -0.0030694380000442132 -0.015758767612841479 0 -0.0030930522503373348 -0.015694500183942989 0 -0.003014397042121959 -0.015698189302966483 0 -0.003037445515044093 -0.01564511998626349 0 -0.0030698667327089834 -0.015606454201682265 0 -0.0031465271600462693 -0.015657234707107857 0 -0.0030930522503373348 -0.015694500183942989 0 -0.003037445515044093 -0.01564511998626349 0 -0.0031465271600462693 -0.015657234707107857 0 -0.003037445515044093 -0.01564511998626349 0 -0.0030698667327089834 -0.015606454201682265 0 -0.0029963095827319993 -0.015609186759129185 0 -0.0032125341773534071 -0.015621198850133281 0 -0.0032383416943133295 -0.015763335891754694 0 -0.0031465271600462693 -0.015657234707107857 0 -0.0032125341773534071 -0.015621198850133281 0 -0.0031465271600462693 -0.015657234707107857 0 -0.0031306020714787297 -0.015579266903241823 0 -0.0030698667327089834 -0.015606454201682265 0 -0.0031465271600462693 -0.015657234707107857 0 -0.0031306020714787297 -0.015579266903241823 0 -0.00089084574086272818 -0.021062559308960799 0 -0.0010572164968413176 -0.019556333250602038 0 -0.0022567984121259878 -0.020094854247202691 0 -0.0027601291625327052 -0.019065996887402733 0 -0.0025818410058182492 -0.017865677002218267 0 -0.0022567984121259878 -0.020094854247202691 0 -0.0034539058416651058 -0.020627099529403437 0 -0.0020998239950492494 -0.02160113111883517 0 -0.0030698667327089834 -0.015606454201682265 0 -0.0030443946406351328 -0.015546018570320098 0 -0.0029963095827319993 -0.015609186759129185 0 -0.0030698667327089834 -0.015606454201682265 0 -0.0031306020714787297 -0.015579266903241823 0 -0.0030443946406351328 -0.015546018570320098 0 -0.0025818410058182492 -0.017865677002218267 0 -0.0024549994181323228 -0.018478373830999661 0 -0.0016876749522909819 -0.01631618286395238 0 -0.0024010800197950236 -0.016206546758570844 0 -0.0026656458350851672 -0.015660995115111803 0 -0.0024549994181323228 -0.018478373830999661 0 -0.0029204899454552164 -0.01529671330009893 0 -0.0030443946406351328 -0.015546018570320098 0 -0.0029963095827319993 -0.015609186759129185 0 -0.0029358373446637565 -0.015601907236737062 0 -0.0016876749522909819 -0.01631618286395238 0 -0.0024010800197950236 -0.016206546758570844 0 -0.0025603068520836715 -0.016718124149873354 0 -0.0024010800197950236 -0.016206546758570844 0 -0.0027128186297609362 -0.016126975866280962 0 -0.0025603068520836715 -0.016718124149873354 0 -0.0024010800197950236 -0.016206546758570844 0 -0.0026656458350851672 -0.015660995115111803 0 -0.0027128186297609362 -0.016126975866280962 0 -0.003037445515044093 -0.01564511998626349 0 -0.0029963095827319993 -0.015609186759129185 0 -0.0029760121222857532 -0.015649953046409367 0 -0.0029963095827319993 -0.015609186759129185 0 -0.0029568830778689452 -0.01562720930902619 0 -0.0029760121222857532 -0.015649953046409367 0 -0.0029568830778689452 -0.01562720930902619 0 -0.0029358373446637565 -0.015601907236737062 0 -0.0029224360113113503 -0.015645775788545983 0 -0.0029963095827319993 -0.015609186759129185 0 -0.0029568830778689452 -0.01562720930902619 0 -0.0029358373446637565 -0.015601907236737062 0 -0.0029568830778689452 -0.01562720930902619 0 -0.0029760121222857532 -0.015649953046409367 0 -0.0029224360113113503 -0.015645775788545983 0 -0.003014397042121959 -0.015698189302966483 0 -0.003037445515044093 -0.01564511998626349 0 -0.0029760121222857532 -0.015649953046409367 0 -0.0029204899454552164 -0.01529671330009893 0 -0.0027675794879458027 -0.015735102810144654 0 -0.0026656458350851672 -0.015660995115111803 0 -0.0028029132846618867 -0.015683300918359629 0 -0.0028544981093355216 -0.015634377204967829 0 -0.0029358373446637565 -0.015601907236737062 0 -0.0029224360113113503 -0.015645775788545983 0 -0.0028544981093355216 -0.015634377204967829 0 -0.0026656458350851672 -0.015660995115111803 0 -0.0028029132846618867 -0.015683300918359629 0 -0.0027467933829311516 -0.015755425052796663 0 -0.0028308620591622532 -0.015787012367392259 0 -0.0031614172132621559 -0.015886807216550114 0 -0.0028029132846618867 -0.015683300918359629 0 -0.0027467933829311516 -0.015755425052796663 0 -0.0028358391653955195 -0.015687880387218998 0 -0.0027467933829311516 -0.015755425052796663 0 -0.0031058339244813011 -0.016209420962899061 0 -0.0036888004630182998 -0.016256660340939401 0 -0.0027467933829311516 -0.015755425052796663 0 -0.0028358391653955195 -0.015687880387218998 0 -0.0028568834183123316 -0.015689269317974409 0 -0.0027467933829311516 -0.015755425052796663 0 -0.0027128186297609362 -0.016126975866280962 0 -0.0031058339244813011 -0.016209420962899061 0 -0.0026656458350851672 -0.015660995115111803 0 -0.0027467933829311516 -0.015755425052796663 0 -0.0027128186297609362 -0.016126975866280962 0 -0.0027128186297609362 -0.016126975866280962 0 -0.0031058339244813011 -0.016209420962899061 0 -0.0030113224243414377 -0.016490589223441682 0 -0.0031058339244813011 -0.016209420962899061 0 -0.0033710351788013154 -0.01656097034250564 0 -0.0036888004630182998 -0.016256660340939401 0 -0.0031058339244813011 -0.016209420962899061 0 -0.0033710351788013154 -0.01656097034250564 0 -0.0030113224243414377 -0.016490589223441682 0 -0.0030113224243414377 -0.016490589223441682 0 -0.0025603068520836715 -0.016718124149873354 0 -0.0034613558828726913 -0.017162915773693617 0 -0.0022644743174143642 -0.019355361816537141 0 -0.0030327672857110334 -0.01977774833643554 0 -0.0033710351788013154 -0.01656097034250564 0 -0.0030113224243414377 -0.016490589223441682 0 -0.0034613558828726913 -0.017162915773693617 0 -0.0022066168397025482 -0.0220105457530884 0 -0.0023080135807217838 -0.02239722193314421 0 -0.0024697652301096658 -0.022234331423030149 0 -0.0027128186297609362 -0.016126975866280962 0 -0.0030113224243414377 -0.016490589223441682 0 -0.0025603068520836715 -0.016718124149873354 0 -0.0017384303276721123 -0.021715195721176125 0 -0.0022066168397025482 -0.0220105457530884 0 -0.0016934388060283012 -0.022162801302584006 0 -0.0024549994181323228 -0.018478373830999661 0 -0.0022644743174143642 -0.019355361816537141 0 -0.0022066168397025482 -0.0220105457530884 0 -0.0020587309273504468 -0.022365923994138615 0 -0.0016934388060283012 -0.022162801302584006 0 -0.0020587309273504468 -0.022365923994138615 0 -0.0017192543254712191 -0.022644749286663851 0 -0.0022335589799319382 -0.022638082019729205 0 -0.0022066168397025482 -0.0220105457530884 0 -0.0020587309273504468 -0.022365923994138615 0 -0.0023080135807217838 -0.02239722193314421 0 -0.0020587309273504468 -0.022365923994138615 0 -0.0023080135807217838 -0.02239722193314421 0 -0.0022335589799319382 -0.022638082019729205 0 -0.0023080135807217838 -0.02239722193314421 0 -0.0024697652301096658 -0.022234331423030149 0 -0.0024999847037974685 -0.022417067197571503 0 -0.0023080135807217838 -0.02239722193314421 0 -0.0022999033095343043 -0.022570297944193744 0 -0.0024999847037974685 -0.022417067197571503 0 -0.0023080135807217838 -0.02239722193314421 0 -0.0022999033095343043 -0.022570297944193744 0 -0.0022335589799319382 -0.022638082019729205 0 -0.00072927148212045259 -0.022578949263630688 0 -0.00089084574086272818 -0.021062559308960799 0 -0.0020998239950492494 -0.02160113111883517 0 -0.0012480378715117619 -0.021992926464620324 0 -0.0016934388060283012 -0.022162801302584006 0 -0.0012277757386363257 -0.022538748988466493 0 -0.00097410728981766172 -0.02339751414443739 0 -0.0015226034850071056 -0.021959318357835305 0 -0.00089084574086272818 -0.021062559308960799 0 -0.0022567984121259878 -0.020094854247202691 0 -0.0020998239950492494 -0.02160113111883517 0 -0.0017384303276721123 -0.021715195721176125 0 -0.0012480378715117619 -0.021992926464620324 0 -0.0016934388060283012 -0.022162801302584006 0 -0.0024549994181323228 -0.018478373830999661 0 -0.0015226034850071056 -0.021959318357835305 0 -0.0020587309273504468 -0.022365923994138615 0 -0.0016934388060283012 -0.022162801302584006 0 -0.0017192543254712191 -0.022644749286663851 0 -0.0016934388060283012 -0.022162801302584006 0 -0.0017192543254712191 -0.022644749286663851 0 -0.0012277757386363257 -0.022538748988466493 0 -0.0017192543254712191 -0.022644749286663851 0 -0.0012277757386363257 -0.022538748988466493 0 -0.0014442207115637974 -0.02293405901357963 0 -0.00062462079763754802 -0.022338740276616885 0 -0.0012480378715117619 -0.021992926464620324 0 -0.0012277757386363257 -0.022538748988466493 0 -0.00062462079763754802 -0.022338740276616885 0 -0.0012277757386363257 -0.022538748988466493 0 -0.0010418523861987813 -0.023162394974459651 0 -0.00123627532762988 -0.023217149196531665 0 -0.0015412809990526034 -0.023544786146182443 0 -0.00044060046571823533 -0.023454189039230428 0 -0.0010418523861987813 -0.023162394974459651 0 -0.001014282577140377 -0.024025258308273425 0 -0.0012277757386363257 -0.022538748988466493 0 -0.0010418523861987813 -0.023162394974459651 0 -0.0014442207115637974 -0.02293405901357963 0 -0.0010418523861987813 -0.023162394974459651 0 -0.0014442207115637974 -0.02293405901357963 0 -0.0017640049330802129 -0.023353356775866585 0 -0.0017192543254712191 -0.022644749286663851 0 -0.0014442207115637974 -0.02293405901357963 0 -0.0017640049330802129 -0.023353356775866585 0 -0.00073747654177889219 -0.024814814093929775 0 -0.0015412809990526034 -0.023544786146182443 0 -0.0010418523861987813 -0.023162394974459651 0 -0.0021340764815514506 -0.023806285646812704 0 -0.001014282577140377 -0.024025258308273425 0 -0.0011007652823025889 -0.024767336235288359 0 -0.0021340764815514506 -0.023806285646812704 0 -0.001014282577140377 -0.024025258308273425 0 -0.0022999033095343043 -0.022570297944193744 0 -0.0022791658220380675 -0.022526385165977138 0 -0.0022236672407402332 -0.02245726972949514 0 -0.0022999033095343043 -0.022570297944193744 0 -0.0022236672407402332 -0.02245726972949514 0 -0.002210499996837755 -0.022505958745423358 0 -0.0022999033095343043 -0.022570297944193744 0 -0.0022335589799319382 -0.022638082019729205 0 -0.0022791658220380675 -0.022526385165977138 0 -0.0017192543254712191 -0.022644749286663851 0 -0.0017640049330802129 -0.023353356775866585 0 -0.0022335589799319382 -0.022638082019729205 0 -0.0024173003708087581 -0.022508966927986967 0 -0.0022335589799319382 -0.022638082019729205 0 -0.0022791658220380675 -0.022526385165977138 0 -0.0015412809990526034 -0.023544786146182443 0 -0.0024549730005214319 -0.022427182796192036 0 -0.0015412809990526034 -0.023544786146182443 0 -0.0013920387307861893 -0.02344864610822563 0 -0.00058609667480027613 -0.024637997968961961 0 -0.00058079422993665049 -0.024584187318901173 0 -0.00060010533887986999 -0.02463522995758748 0 -0.0024173003708087581 -0.022508966927986967 0 -0.0022791658220380675 -0.022526385165977138 0 -0.0022948790987744653 -0.022392850341926483 0 -0.0022948790987744653 -0.022392850341926483 0 -0.0022236672407402332 -0.02245726972949514 0 -0.0021081413561129954 -0.022341040624530836 0 -0.0022791658220380675 -0.022526385165977138 0 -0.0022948790987744653 -0.022392850341926483 0 -0.0022236672407402332 -0.02245726972949514 0 -0.0022236672407402332 -0.02245726972949514 0 -0.0021081413561129954 -0.022341040624530836 0 -0.00198119503127765 -0.0223994439711208 0 -0.0022236672407402332 -0.02245726972949514 0 -0.002210499996837755 -0.022505958745423358 0 -0.0021123618043315706 -0.022424659943278032 0 -0.0022286285726150672 -0.022434580585174495 0 -0.0019965930809416957 -0.022533328047565943 0 -0.0022999033095343043 -0.022570297944193744 0 -0.0025931081024545264 -0.022572818266789623 0 -0.0024999847037974685 -0.022417067197571503 0 -0.0023001516537690062 -0.022558650298673127 0 -0.0023650449887729591 -0.022598888925015912 0 -0.0022999033095343043 -0.022570297944193744 0 -0.002210499996837755 -0.022505958745423358 0 -0.0021336320244545021 -0.022528964256960719 0 -0.002210499996837755 -0.022505958745423358 0 -0.0021336320244545021 -0.022528964256960719 0 -0.0021123618043315706 -0.022424659943278032 0 -0.0027302165724849281 -0.020484084268549564 0 -0.0036106474265033307 -0.018836358945405689 0 -0.0021336320244545021 -0.022528964256960719 0 -0.0020108078069269288 -0.022482421024467503 0 -0.0021123618043315706 -0.022424659943278032 0 -0.0023650449887729591 -0.022598888925015912 0 -0.0027302165724849281 -0.020484084268549564 0 -0.0025931081024545264 -0.022572818266789623 0 -0.00281502681941543 -0.022588280670382148 0 -0.0026778634157212343 -0.022336174602787872 0 -0.0032489645510176452 -0.017548927258756664 0 -0.0031817664410599121 -0.01764722307557413 0 -0.0033643778016552361 -0.017751187619282145 0 -0.0020108078069269288 -0.022482421024467503 0 -0.0021123618043315706 -0.022424659943278032 0 -0.0019659552309459895 -0.022390577300034714 0 -0.0019965930809416957 -0.022533328047565943 0 -0.0021797907389410598 -0.0200316239291978 0 -0.0018605356196562544 -0.022241322120458824 0 -0.00198119503127765 -0.0223994439711208 0 -0.0017317341071646014 -0.022349193151164553 0 -0.0018605356196562544 -0.022241322120458824 0 -0.0021081413561129954 -0.022341040624530836 0 -0.00198119503127765 -0.0223994439711208 0 -0.0018605356196562544 -0.022241322120458824 0 -0.0016841242190909257 -0.022256715958806659 0 -0.0017317341071646014 -0.022349193151164553 0 -0.002940817896702226 -0.018786404811355125 0 -0.0027162111203673884 -0.018367622110548723 0 -0.0022397825764749334 -0.018632937009732928 0 -0.0014306887667759718 -0.017193624258040833 0 -0.0021797907389410598 -0.0200316239291978 0 -0.0016235786970348973 -0.017830057804836194 0 -0.0014971958361928337 -0.018034661489542352 0 -0.00174277808065353 -0.01805035225607815 0 -0.00095160479691177051 -0.013265838119830682 0 -0.0011529174155963504 -0.0133490492219695 0 -0.0010865097362073967 -0.013444611046792773 0 -0.0014306887667759718 -0.017193624258040833 0 -0.0019475440246668843 -0.016553516755579402 0 -0.0024186544426197929 -0.018349065660454904 0 -0.0027162111203673884 -0.018367622110548723 0 -0.0022397825764749334 -0.018632937009732928 0 -0.0019475440246668843 -0.016553516755579402 0 -0.0021797907389410598 -0.0200316239291978 0 -0.0027302165724849281 -0.020484084268549564 0 -0.0021797907389410598 -0.0200316239291978 0 -0.0024195065826465969 -0.015007471969873343 0 -0.0023514001413000797 -0.015116203590505197 0 -0.0020935908112139912 -0.014962280511694502 0 -0.0025534835270641684 -0.01659202814723517 0 -0.0019521793517753507 -0.014864135291174791 0 -0.0019475440246668843 -0.016553516755579402 0 -0.0014162288415500825 -0.013975559860442967 0 -0.00095160479691177051 -0.013265838119830682 0 -0.0010865097362073967 -0.013444611046792773 0 -0.00077529537202706503 -0.013375604703799789 0 -0.0024501465000950164 -0.015126127197933296 0 -0.0022314057631953148 -0.015189458754425303 0 -0.0020533966173768795 -0.01504022349801612 0 -0.0019475440246668843 -0.016553516755579402 0 -0.0025534835270641684 -0.01659202814723517 0 -0.0024501465000950164 -0.015126127197933296 0 -0.0022314057631953148 -0.015189458754425303 0 -0.0022672271820191295 -0.015415475639734239 0 -0.0025534835270641684 -0.01659202814723517 0 -0.0028991082902406684 -0.015587281677176899 0 -0.003089432591604407 -0.017510451055902824 0 -0.003100495435520005 -0.01760240845346004 0 -0.0030178176206215874 -0.017624977531668966 0 -0.0032489645510176452 -0.017548927258756664 0 -0.003089432591604407 -0.017510451055902824 0 -0.003100495435520005 -0.01760240845346004 0 -0.0032489645510176452 -0.017548927258756664 0 -0.003100495435520005 -0.01760240845346004 0 -0.0031817664410599121 -0.01764722307557413 0 -0.0027302165724849281 -0.020484084268549564 0 -0.0025534835270641684 -0.01659202814723517 0 -0.0028665708363910759 -0.015620340037488335 0 -0.0029324036183205233 -0.015662784207206314 0 -0.0030273219241615111 -0.015657974375988166 0 -0.0028525088669899066 -0.015606751405145843 0 -0.0030690521913641841 -0.015759222383404492 0 -0.0028525088669899066 -0.015606751405145843 0 -0.0028445460940139003 -0.015604912343106745 0 -0.002836887701412715 -0.015607689488705183 0 -0.003100495435520005 -0.01760240845346004 0 -0.0031817664410599121 -0.01764722307557413 0 -0.0032016096402778822 -0.017716556115619401 0 -0.0028367695889782861 -0.015575049204060984 0 -0.0030273219241615111 -0.015657974375988166 0 -0.0028525088669899066 -0.015606751405145843 0 -0.003100495435520005 -0.01760240845346004 0 -0.0030178176206215874 -0.017624977531668966 0 -0.0032016096402778822 -0.017716556115619401 0 -0.0028991082902406684 -0.015587281677176899 0 -0.0031272902052381342 -0.016815081893087457 0 -0.0028525088669899066 -0.015606751405145843 0 -0.0028465036310994494 -0.01560232582744139 0 -0.0028445460940139003 -0.015604912343106745 0 -0.0028465036310994494 -0.01560232582744139 0 -0.002842001234962279 -0.015581204447447526 0 -0.002839824440446156 -0.015594875788358902 0 -0.0028465036310994494 -0.01560232582744139 0 -0.0028445460940139003 -0.015604912343106745 0 -0.0028416127662912048 -0.015603264200243144 0 -0.0028465036310994494 -0.01560232582744139 0 -0.0028416127662912048 -0.015603264200243144 0 -0.002839824440446156 -0.015594875788358902 0 -0.0028445460940139003 -0.015604912343106745 0 -0.0028416127662912048 -0.015603264200243144 0 -0.002836887701412715 -0.015607689488705183 0 -0.0028416127662912048 -0.015603264200243144 0 -0.0028372892367295667 -0.01560611456108049 0 -0.002836887701412715 -0.015607689488705183 0 -0.0028416127662912048 -0.015603264200243144 0 -0.0028372892367295667 -0.01560611456108049 0 -0.002839824440446156 -0.015594875788358902 0 -0.0028372892367295667 -0.01560611456108049 0 -0.002836887701412715 -0.015607689488705183 0 -0.0028378208785043517 -0.015614408308801208 0 -0.0031272902052381342 -0.016815081893087457 0 -0.0034634776987238092 -0.016793712894306891 0 -0.002836887701412715 -0.015607689488705183 0 -0.0028406712014113237 -0.015638899933107502 0 -0.0028391747553343847 -0.015625300278873693 0 -0.0029324036183205233 -0.015662784207206314 0 -0.0031614172132621559 -0.015886807216550114 0 -0.0030273219241615111 -0.015657974375988166 0 -0.0030690521913641841 -0.015759222383404492 0 -0.0032638436948802304 -0.0157785176278511 0 -0.002836887701412715 -0.015607689488705183 0 -0.0028444449656397329 -0.015653603549232297 0 -0.0028406712014113237 -0.015638899933107502 0 -0.002836887701412715 -0.015607689488705183 0 -0.0028391747553343847 -0.015625300278873693 0 -0.0028378208785043517 -0.015614408308801208 0 -0.0030690521913641841 -0.015759222383404492 0 -0.0032638436948802304 -0.0157785176278511 0 -0.0033348113667906196 -0.015913244653901672 0 -0.0034634776987238092 -0.016793712894306891 0 -0.0036106474265033307 -0.018836358945405689 0 -0.0034634776987238092 -0.016793712894306891 0 -0.0031614172132621559 -0.015886807216550114 0 -0.0034613558828726913 -0.017162915773693617 0 -0.0040419568684098416 -0.016917336446624982 0 -0.0044057722249670568 -0.017613615077430624 0 -0.0033710351788013154 -0.01656097034250564 0 -0.0035871557691702491 -0.016690638430958759 0 -0.0034613558828726913 -0.017162915773693617 0 -0.0037291673912605832 -0.016825693125456502 0 -0.0034634776987238092 -0.016793712894306891 0 -0.0035871557691702491 -0.016690638430958759 0 -0.0040323219012013403 -0.016906181148794774 0 -0.0036888004630182998 -0.016256660340939401 0 -0.0033710351788013154 -0.01656097034250564 0 -0.0035871557691702491 -0.016690638430958759 0 -0.0036888004630182998 -0.016256660340939401 0 -0.0035871557691702491 -0.016690638430958759 0 -0.0034613558828726913 -0.017162915773693617 0 -0.0040419568684098416 -0.016917336446624982 0 -0.0025931081024545264 -0.022572818266789623 0 -0.0024999847037974685 -0.022417067197571503 0 -0.0026778634157212343 -0.022336174602787872 0 -0.0024697652301096658 -0.022234331423030149 0 -0.0024999847037974685 -0.022417067197571503 0 -0.0026778634157212343 -0.022336174602787872 0 -0.0030327672857110334 -0.01977774833643554 0 -0.0036106474265033307 -0.018836358945405689 0 -0.0032016096402778822 -0.017716556115619401 0 -0.0033561990233420265 -0.017773687755572205 0 -0.0033093914462854865 -0.017701574264813152 0 -0.0031817664410599121 -0.01764722307557413 0 -0.0032016096402778822 -0.017716556115619401 0 -0.0033093914462854865 -0.017701574264813152 0 -0.0029930457804878039 -0.017448811051260622 0 -0.0036106474265033307 -0.018836358945405689 0 -0.0026387452045255784 -0.013847073098432082 0 -0.0027904581279389242 -0.013442785473738738 0 -0.0029183894761489705 -0.013753866360391416 0 -0.003094176215641713 -0.012604915308617872 0 -0.0024954112475818403 -0.011586863590980446 0 -0.0026387452045255784 -0.013847073098432082 0 -0.0026028405362619644 -0.013426637499597896 0 -0.0027904581279389242 -0.013442785473738738 0 -0.0013556981122418588 -0.012000677185469797 0 -0.0016465209231751356 -0.013487719485176245 0 -0.0024954112475818403 -0.011586863590980446 0 -0.0016465209231751356 -0.013487719485176245 0 -0.0019061353632191659 -0.012355365587887275 0 -0.001873940464109457 -0.01239412938609959 0 -0.0017863000599732889 -0.012361291879659373 0 -0.0023333426524077437 -0.011044981974780193 0 -0.0023920073779724153 -0.011245355876963266 0 -0.0021501886299594031 -0.011543493818585408 0 -0.0023434434187054464 -0.0116379175568727 0 -0.0021604680144935674 -0.011720433776267499 0 -0.0023333426524077437 -0.011044981974780193 0 -0.0013556981122418588 -0.012000677185469797 0 -0.0013556981122418588 -0.012000677185469797 0 -0.0023920073779724153 -0.011245355876963266 0 -0.0024954112475818403 -0.011586863590980446 0 -0.0023920073779724153 -0.011245355876963266 0 -0.0019061353632191659 -0.012355365587887275 0 -0.001873940464109457 -0.01239412938609959 0 -0.0019073429304464012 -0.012377573294635943 0 -0.0027904581279389242 -0.013442785473738738 0 -0.0029183894761489705 -0.013753866360391416 0 -0.0032169439952246257 -0.013677274339230893 0 -0.0016465209231751356 -0.013487719485176245 0 -0.0025638919047648494 -0.01438274830534118 0 -0.00047274336903181435 -0.013207830340692178 0 -0.00041081446305811124 -0.013293321538530863 0 -0.0005528966347132946 -0.01333167660791248 0 -0.0016465209231751356 -0.013487719485176245 0 -0.00096130251476573073 -0.014181979672148322 0 -0.001253728733049215 -0.014865023803067475 0 -0.0017545720509536038 -0.015146262037273242 0 -0.001676673570307528 -0.014910808399682257 0 -0.0029183894761489705 -0.013753866360391416 0 -0.0032169439952246257 -0.013677274339230893 0 -0.0030237027766348876 -0.014044334933416747 0 -0.00096130251476573073 -0.014181979672148322 0 -0.0014162288415500825 -0.013975559860442967 0 -0.0017545720509536038 -0.015146262037273242 0 -0.001676673570307528 -0.014910808399682257 0 -0.0020533966173768795 -0.01504022349801612 0 -0.0023514001413000797 -0.015116203590505197 0 -0.0020935908112139912 -0.014962280511694502 0 -0.0020533966173768795 -0.01504022349801612 0 -0.001676673570307528 -0.014910808399682257 0 -0.0020935908112139912 -0.014962280511694502 0 -0.0020533966173768795 -0.01504022349801612 0 -0.0022314057631953148 -0.015189458754425303 0 -0.0022672271820191295 -0.015415475639734239 0 -0.0017545720509536038 -0.015146262037273242 0 -0.0022314057631953148 -0.015189458754425303 0 -0.0017545720509536038 -0.015146262037273242 0 -0.0020533966173768795 -0.01504022349801612 0 -0.0028991082902406684 -0.015587281677176899 0 -0.0025638919047648494 -0.01438274830534118 0 -0.0036185890939869785 -0.013898953504720316 0 -0.0032169439952246257 -0.013677274339230893 0 -0.0033233083158074527 -0.013978016443449042 0 -0.0036185890939869785 -0.013898953504720316 0 -0.0034278688186806386 -0.014205208635408877 0 -0.0033233083158074527 -0.013978016443449042 0 -0.0028991082902406684 -0.015587281677176899 0 -0.0032262481153558869 -0.014729087185919658 0 -0.0028367695889782861 -0.015575049204060984 0 -0.0028525088669899066 -0.015606751405145843 0 -0.0028514195766219863 -0.015603086662692665 0 -0.0028525088669899066 -0.015606751405145843 0 -0.0028465036310994494 -0.01560232582744139 0 -0.0028514195766219863 -0.015603086662692665 0 -0.0028465036310994494 -0.01560232582744139 0 -0.0028514195766219863 -0.015603086662692665 0 -0.002842001234962279 -0.015581204447447526 0 -0.0034278688186806386 -0.014205208635408877 0 -0.0031894680444091959 -0.014271105655159514 0 -0.0032391536326883499 -0.014523843624957771 0 -0.0032262481153558869 -0.014729087185919658 0 -0.0030292370266427272 -0.015077445888467104 0 -0.0034278688186806386 -0.014205208635408877 0 -0.0031894680444091959 -0.014271105655159514 0 -0.0033233083158074527 -0.013978016443449042 0 -0.0031894680444091959 -0.014271105655159514 0 -0.0033233083158074527 -0.013978016443449042 0 -0.0030237027766348876 -0.014044334933416747 0 -0.0032169439952246257 -0.013677274339230893 0 -0.0033233083158074527 -0.013978016443449042 0 -0.0030237027766348876 -0.014044334933416747 0 -0.0026387452045255784 -0.013847073098432082 0 -0.0029183894761489705 -0.013753866360391416 0 -0.0030237027766348876 -0.014044334933416747 0 -0.0030237027766348876 -0.014044334933416747 0 -0.0026773497190859764 -0.014253296799286304 0 -0.0029574595853139353 -0.0144391573211545 0 -0.0031894680444091959 -0.014271105655159514 0 -0.0030237027766348876 -0.014044334933416747 0 -0.0029574595853139353 -0.0144391573211545 0 -0.0026387452045255784 -0.013847073098432082 0 -0.0030237027766348876 -0.014044334933416747 0 -0.0026773497190859764 -0.014253296799286304 0 -0.003094176215641713 -0.012604915308617872 0 -0.0030205360466905411 -0.013496371369247747 0 -0.002720631209051512 -0.014653035752637877 0 -0.0030557530408469478 -0.014844721336705205 0 -0.0027740718600669815 -0.015040221867480637 0 -0.0030205360466905411 -0.013496371369247747 0 -0.0029507924480984527 -0.01433841446526289 0 -0.0026773497190859764 -0.014253296799286304 0 -0.002720631209051512 -0.014653035752637877 0 -0.0029574595853139353 -0.0144391573211545 0 -0.0029574595853139353 -0.0144391573211545 0 -0.0030557530408469478 -0.014844721336705205 0 -0.0032391536326883499 -0.014523843624957771 0 -0.002720631209051512 -0.014653035752637877 0 -0.0029574595853139353 -0.0144391573211545 0 -0.0030557530408469478 -0.014844721336705205 0 -0.002952679371762273 -0.015154307126133108 0 -0.0030292370266427272 -0.015077445888467104 0 -0.0028600073698536533 -0.015475300980520775 0 -0.0028624197504728958 -0.015556238586596787 0 -0.0028415992238072199 -0.015496977873460467 0 -0.0028624197504728958 -0.015556238586596787 0 -0.002838433200452733 -0.015539729257575297 0 -0.0028415992238072199 -0.015496977873460467 0 -0.0031894680444091959 -0.014271105655159514 0 -0.0029574595853139353 -0.0144391573211545 0 -0.0032391536326883499 -0.014523843624957771 0 -0.0028514195766219863 -0.015603086662692665 0 -0.0028624197504728958 -0.015556238586596787 0 -0.002842001234962279 -0.015581204447447526 0 -0.0028624197504728958 -0.015556238586596787 0 -0.002842001234962279 -0.015581204447447526 0 -0.002838433200452733 -0.015539729257575297 0 -0.0028347764420516069 -0.015480250521189044 0 -0.0028391504784363478 -0.015549758362638125 0 -0.0028478442768141094 -0.015539629770505428 0 -0.002838433200452733 -0.015539729257575297 0 -0.0028347764420516069 -0.015480250521189044 0 -0.0028391504784363478 -0.015549758362638125 0 -0.002838433200452733 -0.015539729257575297 0 -0.0028347764420516069 -0.015480250521189044 0 -0.0028415992238072199 -0.015496977873460467 0 -0.0028347764420516069 -0.015480250521189044 0 -0.0028456988009227676 -0.015508131099577717 0 -0.0028385875693758334 -0.015480747989718461 0 -0.0028347764420516069 -0.015480250521189044 0 -0.0028456988009227676 -0.015508131099577717 0 -0.0028478442768141094 -0.015539629770505428 0 -0.0028456988009227676 -0.015508131099577717 0 -0.0028587527323359675 -0.015554447929641514 0 -0.0028566167988162711 -0.015526506952160995 0 -0.0028456988009227676 -0.015508131099577717 0 -0.0028385875693758334 -0.015480747989718461 0 -0.0028566167988162711 -0.015526506952160995 0 -0.0028347764420516069 -0.015480250521189044 0 -0.0028385875693758334 -0.015480747989718461 0 -0.0028222141583190284 -0.015418485050015349 0 -0.0028385875693758334 -0.015480747989718461 0 -0.0028222141583190284 -0.015418485050015349 0 -0.0028144261239945547 -0.015457381905295721 0 -0.0028222141583190284 -0.015418485050015349 0 -0.0028020358556748253 -0.015406314444884255 0 -0.0028144261239945547 -0.015457381905295721 0 -0.0028347764420516069 -0.015480250521189044 0 -0.0028222141583190284 -0.015418485050015349 0 -0.0028415992238072199 -0.015496977873460467 0 -0.0028600073698536533 -0.015475300980520775 0 -0.0028222141583190284 -0.015418485050015349 0 -0.0028415992238072199 -0.015496977873460467 0 -0.0028600073698536533 -0.015475300980520775 0 -0.0028222141583190284 -0.015418485050015349 0 -0.0028171534398475314 -0.01534501892891792 0 -0.002952679371762273 -0.015154307126133108 0 -0.0028337581121290123 -0.015252257924160836 0 -0.0028600073698536533 -0.015475300980520775 0 -0.0028171534398475314 -0.01534501892891792 0 -0.0028227647919443857 -0.015239811205102668 0 -0.0028222141583190284 -0.015418485050015349 0 -0.0028171534398475314 -0.01534501892891792 0 -0.0028020358556748253 -0.015406314444884255 0 -0.0028171534398475314 -0.01534501892891792 0 -0.0028020358556748253 -0.015406314444884255 0 -0.0027573771859291936 -0.015374868551300394 0 -0.0028171534398475314 -0.01534501892891792 0 -0.0028227647919443857 -0.015239811205102668 0 -0.0027573771859291936 -0.015374868551300394 0 -0.0028227647919443857 -0.015239811205102668 0 -0.0026372351182484973 -0.015233281443321645 0 -0.0027573771859291936 -0.015374868551300394 0 -0.0026372351182484973 -0.015233281443321645 0 -0.0027740718600669815 -0.015040221867480637 0 -0.0025412594245357262 -0.015010490672023272 0 -0.0028227647919443857 -0.015239811205102668 0 -0.0026372351182484973 -0.015233281443321645 0 -0.0027740718600669815 -0.015040221867480637 0 -0.0032138702296378887 -0.014049480621228018 0 -0.0027740718600669815 -0.015040221867480637 0 -0.0026559494781544938 -0.014595182300388421 0 -0.0030557530408469478 -0.014844721336705205 0 -0.0028227647919443857 -0.015239811205102668 0 -0.0027740718600669815 -0.015040221867480637 0 -0.0029507924480984527 -0.01433841446526289 0 -0.0028170829089532202 -0.014969884632445619 0 -0.0028422316814539408 -0.015623081971002654 0 -0.0028415447194860273 -0.015610852375299624 0 -0.0028468698126557427 -0.015630408196723438 0 -0.0028422316814539408 -0.015623081971002654 0 -0.0028468698126557427 -0.015630408196723438 0 -0.0028433656357688118 -0.015644327809323014 0 -0.0028422316814539408 -0.015623081971002654 0 -0.0028415447194860273 -0.015610852375299624 0 -0.0028390037174662094 -0.015601416038513108 0 -0.0028415447194860273 -0.015610852375299624 0 -0.0028468698126557427 -0.015630408196723438 0 -0.0028430300444734794 -0.015613074038780416 0 -0.0028468698126557427 -0.015630408196723438 0 -0.0028544981093355216 -0.015634377204967829 0 -0.0028435213298869258 -0.015657657456696363 0 -0.0028468698126557427 -0.015630408196723438 0 -0.0028544981093355216 -0.015634377204967829 0 -0.0028468904991232492 -0.015632235626759194 0 -0.0028029132846618867 -0.015683300918359629 0 -0.0028544981093355216 -0.015634377204967829 0 -0.0028435213298869258 -0.015657657456696363 0 -0.0028468698126557427 -0.015630408196723438 0 -0.0028435213298869258 -0.015657657456696363 0 -0.0028433656357688118 -0.015644327809323014 0 -0.0028435213298869258 -0.015657657456696363 0 -0.0028433656357688118 -0.015644327809323014 0 -0.0028416894761000102 -0.015660005983923555 0 -0.0028433656357688118 -0.015644327809323014 0 -0.0028416894761000102 -0.015660005983923555 0 -0.0028406712014113237 -0.015638899933107502 0 -0.0028435213298869258 -0.015657657456696363 0 -0.0028416894761000102 -0.015660005983923555 0 -0.0028358391653955195 -0.015687880387218998 0 -0.0028029132846618867 -0.015683300918359629 0 -0.0028435213298869258 -0.015657657456696363 0 -0.0028358391653955195 -0.015687880387218998 0 -0.0028416894761000102 -0.015660005983923555 0 -0.0028358391653955195 -0.015687880387218998 0 -0.0028444449656397329 -0.015653603549232297 0 -0.0029772547734820088 -0.015679244917786144 0 -0.0031614172132621559 -0.015886807216550114 0 -0.0028416894761000102 -0.015660005983923555 0 -0.0028444449656397329 -0.015653603549232297 0 -0.0028406712014113237 -0.015638899933107502 0 -0.0028406712014113237 -0.015638899933107502 0 -0.0028405355276265995 -0.015629332329693782 0 -0.0028391747553343847 -0.015625300278873693 0 -0.0028433656357688118 -0.015644327809323014 0 -0.0028406712014113237 -0.015638899933107502 0 -0.0028405355276265995 -0.015629332329693782 0 -0.0028422316814539408 -0.015623081971002654 0 -0.0028433656357688118 -0.015644327809323014 0 -0.0028405355276265995 -0.015629332329693782 0 -0.0028422316814539408 -0.015623081971002654 0 -0.0028405355276265995 -0.015629332329693782 0 -0.0028386168950867161 -0.015614364496718167 0 -0.0028422316814539408 -0.015623081971002654 0 -0.0028386168950867161 -0.015614364496718167 0 -0.0028390037174662094 -0.015601416038513108 0 -0.0028391747553343847 -0.015625300278873693 0 -0.0028378208785043517 -0.015614408308801208 0 -0.0028386168950867161 -0.015614364496718167 0 -0.0028405355276265995 -0.015629332329693782 0 -0.0028391747553343847 -0.015625300278873693 0 -0.0028386168950867161 -0.015614364496718167 0 -0.0028372892367295667 -0.01560611456108049 0 -0.0028378208785043517 -0.015614408308801208 0 -0.0028386168950867161 -0.015614364496718167 0 -0.0028372892367295667 -0.01560611456108049 0 -0.002837356319474852 -0.015598286401598872 0 -0.0028386168950867161 -0.015614364496718167 0 -0.0028372892367295667 -0.01560611456108049 0 -0.002837356319474852 -0.015598286401598872 0 -0.002839824440446156 -0.015594875788358902 0 -0.002837356319474852 -0.015598286401598872 0 -0.0028371886207573301 -0.015577928615671591 0 -0.0028390037174662094 -0.015601416038513108 0 -0.002837356319474852 -0.015598286401598872 0 -0.0028386168950867161 -0.015614364496718167 0 -0.0028390037174662094 -0.015601416038513108 0 -0.002837356319474852 -0.015598286401598872 0 -0.002839824440446156 -0.015594875788358902 0 -0.0028371886207573301 -0.015577928615671591 0 -0.002842001234962279 -0.015581204447447526 0 -0.002839824440446156 -0.015594875788358902 0 -0.0028371886207573301 -0.015577928615671591 0 -0.002842001234962279 -0.015581204447447526 0 -0.002838433200452733 -0.015539729257575297 0 -0.0028371886207573301 -0.015577928615671591 0 -0.0028371886207573301 -0.015577928615671591 0 -0.0028399069192347371 -0.015586263299900833 0 -0.0028391504784363478 -0.015549758362638125 0 -0.002838433200452733 -0.015539729257575297 0 -0.0028371886207573301 -0.015577928615671591 0 -0.0028391504784363478 -0.015549758362638125 0 -0.0028371886207573301 -0.015577928615671591 0 -0.0028390037174662094 -0.015601416038513108 0 -0.0028399069192347371 -0.015586263299900833 0 -0.0028415447194860273 -0.015610852375299624 0 -0.0028390037174662094 -0.015601416038513108 0 -0.0028399069192347371 -0.015586263299900833 0 -0.0028415447194860273 -0.015610852375299624 0 -0.0028399069192347371 -0.015586263299900833 0 -0.0028430300444734794 -0.015613074038780416 0 -0.0028444790447388017 -0.015575712524357887 0 -0.0028479627015263174 -0.015605204281793772 0 -0.0028430300444734794 -0.015613074038780416 0 -0.0028399069192347371 -0.015586263299900833 0 -0.0028444790447388017 -0.015575712524357887 0 -0.0028430300444734794 -0.015613074038780416 0 -0.0028399069192347371 -0.015586263299900833 0 -0.0028444790447388017 -0.015575712524357887 0 -0.0028391504784363478 -0.015549758362638125 0 -0.0028444790447388017 -0.015575712524357887 0 -0.0028391504784363478 -0.015549758362638125 0 -0.0028478442768141094 -0.015539629770505428 0 -0.0028444790447388017 -0.015575712524357887 0 -0.0028478442768141094 -0.015539629770505428 0 -0.002853625572113389 -0.015576132816906164 0 -0.0028478442768141094 -0.015539629770505428 0 -0.0028587527323359675 -0.015554447929641514 0 -0.002853625572113389 -0.015576132816906164 0 -0.0028456988009227676 -0.015508131099577717 0 -0.0028478442768141094 -0.015539629770505428 0 -0.0028587527323359675 -0.015554447929641514 0 -0.0028479627015263174 -0.015605204281793772 0 -0.002853625572113389 -0.015576132816906164 0 -0.0028560784894393803 -0.015599914646002947 0 -0.0028444790447388017 -0.015575712524357887 0 -0.0028479627015263174 -0.015605204281793772 0 -0.002853625572113389 -0.015576132816906164 0 -0.0028479627015263174 -0.015605204281793772 0 -0.0028502195571796789 -0.015632403174184569 0 -0.0028560784894393803 -0.015599914646002947 0 -0.0028479627015263174 -0.015605204281793772 0 -0.0028502195571796789 -0.015632403174184569 0 -0.0028490425516264329 -0.015657283065938925 0 -0.0028479627015263174 -0.015605204281793772 0 -0.0028430300444734794 -0.015613074038780416 0 -0.0028490425516264329 -0.015657283065938925 0 -0.0028430300444734794 -0.015613074038780416 0 -0.0028468904991232492 -0.015632235626759194 0 -0.0028490425516264329 -0.015657283065938925 0 -0.0028468698126557427 -0.015630408196723438 0 -0.0028430300444734794 -0.015613074038780416 0 -0.0028468904991232492 -0.015632235626759194 0 -0.0028716224229673906 -0.015707366013699337 0 -0.0028544981093355216 -0.015634377204967829 0 -0.0028490425516264329 -0.015657283065938925 0 -0.0028544981093355216 -0.015634377204967829 0 -0.0028468904991232492 -0.015632235626759194 0 -0.0028490425516264329 -0.015657283065938925 0 -0.0028502195571796789 -0.015632403174184569 0 -0.0028490425516264329 -0.015657283065938925 0 -0.0028556845961687245 -0.01569680425739671 0 -0.0028716224229673906 -0.015707366013699337 0 -0.0028490425516264329 -0.015657283065938925 0 -0.0028556845961687245 -0.01569680425739671 0 -0.0026954874285916282 -0.015935682249980918 0 -0.0026296959206852386 -0.016080560335413888 0 -0.0024992912507913329 -0.016050479571068713 0 -0.0027858062294396245 -0.015817707819087444 0 -0.0026873227883986669 -0.015833002335865817 0 -0.0026296959206852386 -0.016080560335413888 0 -0.0025512920937676999 -0.016191324753246767 0 -0.0026983581927699997 -0.016208935476455869 0 -0.0026296959206852386 -0.016080560335413888 0 -0.0025512920937676999 -0.016191324753246767 0 -0.0024992912507913329 -0.016050479571068713 0 -0.0025512920937676999 -0.016191324753246767 0 -0.0024992912507913329 -0.016050479571068713 0 -0.0024392990376021126 -0.016230282845042548 0 -0.0028502195571796789 -0.015632403174184569 0 -0.0028556845961687245 -0.01569680425739671 0 -0.0028527608246344538 -0.015619158738730357 0 -0.0028502195571796789 -0.015632403174184569 0 -0.0028527608246344538 -0.015619158738730357 0 -0.0028560784894393803 -0.015599914646002947 0 -0.0028560784894393803 -0.015599914646002947 0 -0.0028590280799469796 -0.015574046587637235 0 -0.0028581043912124836 -0.01559753972023864 0 -0.0028527608246344538 -0.015619158738730357 0 -0.0028560784894393803 -0.015599914646002947 0 -0.0028581043912124836 -0.01559753972023864 0 -0.002853625572113389 -0.015576132816906164 0 -0.0028560784894393803 -0.015599914646002947 0 -0.0028590280799469796 -0.015574046587637235 0 -0.0028587527323359675 -0.015554447929641514 0 -0.0028658314858934861 -0.015556211843142631 0 -0.0028566167988162711 -0.015526506952160995 0 -0.0028587527323359675 -0.015554447929641514 0 -0.002853625572113389 -0.015576132816906164 0 -0.0028590280799469796 -0.015574046587637235 0 -0.0028587527323359675 -0.015554447929641514 0 -0.0028658314858934861 -0.015556211843142631 0 -0.0028590280799469796 -0.015574046587637235 0 -0.0028658314858934861 -0.015556211843142631 0 -0.0028590280799469796 -0.015574046587637235 0 -0.0028734680620355049 -0.015568855494670986 0 -0.0028590280799469796 -0.015574046587637235 0 -0.0028734680620355049 -0.015568855494670986 0 -0.0028840076527709589 -0.015586377334236035 0 -0.0028658314858934861 -0.015556211843142631 0 -0.0028734680620355049 -0.015568855494670986 0 -0.0028650847381181885 -0.015548438243313015 0 -0.0028590280799469796 -0.015574046587637235 0 -0.0028581043912124836 -0.01559753972023864 0 -0.0028115696865519441 -0.015617388532982295 0 -0.0025723692587161541 -0.015896386762474037 0 -0.0026459245889638126 -0.015819547799501395 0 -0.0029474065839698574 -0.015487856457960912 0 -0.0026459245889638126 -0.015819547799501395 0 -0.0028590280799469796 -0.015574046587637235 0 -0.0028840076527709589 -0.015586377334236035 0 -0.0029035429844232736 -0.015608323306046987 0 -0.0023375237790304116 -0.016158623761639332 0 -0.002302826115291417 -0.016254728577802715 0 -0.0022267097966634443 -0.016270385271009703 0 -0.0026873227883986669 -0.015833002335865817 0 -0.0025723692587161541 -0.015896386762474037 0 -0.0024992912507913329 -0.016050479571068713 0 -0.0023375237790304116 -0.016158623761639332 0 -0.0024392990376021126 -0.016230282845042548 0 -0.0023375237790304116 -0.016158623761639332 0 -0.0023592610221109416 -0.016271924141826169 0 -0.0024392990376021126 -0.016230282845042548 0 -0.0023375237790304116 -0.016158623761639332 0 -0.0023592610221109416 -0.016271924141826169 0 -0.002302826115291417 -0.016254728577802715 0 -0.0023592610221109416 -0.016271924141826169 0 -0.0023871400680813481 -0.016330546151647071 0 -0.0023096652621272177 -0.016309953140059359 0 -0.0023592610221109416 -0.016271924141826169 0 -0.0023871400680813481 -0.016330546151647071 0 -0.0024392990376021126 -0.016230282845042548 0 -0.0022589954903799183 -0.016287582236400457 0 -0.002302826115291417 -0.016254728577802715 0 -0.0022666783020000381 -0.016309521200496804 0 -0.0022589954903799183 -0.016287582236400457 0 -0.0022666783020000381 -0.016309521200496804 0 -0.0022406986977387593 -0.016320309573857137 0 -0.0022589954903799183 -0.016287582236400457 0 -0.002302826115291417 -0.016254728577802715 0 -0.0022267097966634443 -0.016270385271009703 0 -0.0023592610221109416 -0.016271924141826169 0 -0.002302826115291417 -0.016254728577802715 0 -0.0023096652621272177 -0.016309953140059359 0 -0.002302826115291417 -0.016254728577802715 0 -0.0023096652621272177 -0.016309953140059359 0 -0.0022666783020000381 -0.016309521200496804 0 -0.0023096652621272177 -0.016309953140059359 0 -0.0022666783020000381 -0.016309521200496804 0 -0.0022654972600288262 -0.016359950820215907 0 -0.0022666783020000381 -0.016309521200496804 0 -0.0022654972600288262 -0.016359950820215907 0 -0.0022411770487345338 -0.016350314248079919 0 -0.0022654972600288262 -0.016359950820215907 0 -0.0022411770487345338 -0.016350314248079919 0 -0.0022123763045727718 -0.016389878157990281 0 -0.0023096652621272177 -0.016309953140059359 0 -0.0022654972600288262 -0.016359950820215907 0 -0.002320439347394232 -0.016369119822081911 0 -0.0022654972600288262 -0.016359950820215907 0 -0.0022828191180719794 -0.016408344373738191 0 -0.002320439347394232 -0.016369119822081911 0 -0.0022654972600288262 -0.016359950820215907 0 -0.0022828191180719794 -0.016408344373738191 0 -0.0022123763045727718 -0.016389878157990281 0 -0.0023871400680813481 -0.016330546151647071 0 -0.0023733871211247047 -0.016436017549229662 0 -0.0025182987612344179 -0.016337100537409752 0 -0.0023871400680813481 -0.016330546151647071 0 -0.002320439347394232 -0.016369119822081911 0 -0.0023733871211247047 -0.016436017549229662 0 -0.0023871400680813481 -0.016330546151647071 0 -0.0023096652621272177 -0.016309953140059359 0 -0.002320439347394232 -0.016369119822081911 0 -0.0022828191180719794 -0.016408344373738191 0 -0.002320439347394232 -0.016369119822081911 0 -0.0023733871211247047 -0.016436017549229662 0 -0.0023842280424436093 -0.016440715279453039 0 -0.0025174660367487741 -0.01637455668629563 0 -0.0024957573878170397 -0.016480218016937088 0 -0.0025797787192771665 -0.016446070542534625 0 -0.0025293613540476019 -0.016416945721952257 0 -0.0024340149934186026 -0.01653431637328533 0 -0.0027476984328942164 -0.016340913561232115 0 -0.0023733871211247047 -0.016436017549229662 0 -0.0024957573878170397 -0.016480218016937088 0 -0.0025293613540476019 -0.016416945721952257 0 -0.0024957573878170397 -0.016480218016937088 0 -0.0026023831124390245 -0.016544319220379234 0 -0.0025849890407842004 -0.016557280280887314 0 -0.0026035502380251777 -0.016557588167859121 0 -0.0026023831124390245 -0.016544319220379234 0 -0.0025849890407842004 -0.016557280280887314 0 -0.0025797787192771665 -0.016446070542534625 0 -0.0026129895505749745 -0.016411077638048201 0 -0.0025293613540476019 -0.016416945721952257 0 -0.0026035502380251777 -0.016557588167859121 0 -0.0026023831124390245 -0.016544319220379234 0 -0.0025722919809544483 -0.016594866623414081 0 -0.0027476984328942164 -0.016340913561232115 0 -0.0022834296789735237 -0.018259799024669305 0 -0.0026520850377210509 -0.016270016586340735 0 -0.0025174660367487741 -0.01637455668629563 0 -0.0025797787192771665 -0.016446070542534625 0 -0.0026129895505749745 -0.016411077638048201 0 -0.0026828311213418932 -0.016431481799419279 0 -0.0026129895505749745 -0.016411077638048201 0 -0.002601233204207637 -0.016340272206806214 0 -0.0025293613540476019 -0.016416945721952257 0 -0.0025512920937676999 -0.016191324753246767 0 -0.0026983581927699997 -0.016208935476455869 0 -0.0025182987612344179 -0.016337100537409752 0 -0.0026129895505749745 -0.016411077638048201 0 -0.002601233204207637 -0.016340272206806214 0 -0.0026435092468092424 -0.016388849203356193 0 -0.0025512920937676999 -0.016191324753246767 0 -0.0025182987612344179 -0.016337100537409752 0 -0.0024392990376021126 -0.016230282845042548 0 -0.0023871400680813481 -0.016330546151647071 0 -0.0025182987612344179 -0.016337100537409752 0 -0.0024392990376021126 -0.016230282845042548 0 -0.0025382805454422842 -0.015668791595458906 0 -0.0024813516247114797 -0.015568312225702825 0 -0.0026772554417554169 -0.015540205523054284 0 -0.0024813516247114797 -0.015568312225702825 0 -0.0026217645729350518 -0.015406772384727362 0 -0.0026772554417554169 -0.015540205523054284 0 -0.0024813516247114797 -0.015568312225702825 0 -0.0026217645729350518 -0.015406772384727362 0 -0.0024711166419966587 -0.015441070735238037 0 -0.0026372351182484973 -0.015233281443321645 0 -0.0026217645729350518 -0.015406772384727362 0 -0.0027573771859291936 -0.015374868551300394 0 -0.0026372351182484973 -0.015233281443321645 0 -0.0026217645729350518 -0.015406772384727362 0 -0.0024254754677056271 -0.015310883719313795 0 -0.0027573771859291936 -0.015374868551300394 0 -0.0027706116811421141 -0.0154776186056973 0 -0.0026772554417554169 -0.015540205523054284 0 -0.0026217645729350518 -0.015406772384727362 0 -0.0027573771859291936 -0.015374868551300394 0 -0.0026772554417554169 -0.015540205523054284 0 -0.0028020358556748253 -0.015406314444884255 0 -0.0027573771859291936 -0.015374868551300394 0 -0.0027706116811421141 -0.0154776186056973 0 -0.0025382805454422842 -0.015668791595458906 0 -0.0026772554417554169 -0.015540205523054284 0 -0.0025870137286229627 -0.015782563989315268 0 -0.0027706116811421141 -0.0154776186056973 0 -0.0026772554417554169 -0.015540205523054284 0 -0.0027767254752892141 -0.015585376423501076 0 -0.0026772554417554169 -0.015540205523054284 0 -0.0027767254752892141 -0.015585376423501076 0 -0.0025870137286229627 -0.015782563989315268 0 -0.0027767254752892141 -0.015585376423501076 0 -0.0028350465347050302 -0.015653740314784153 0 -0.0027535869615063135 -0.015729724784060078 0 -0.0027767254752892141 -0.015585376423501076 0 -0.0028373669081084552 -0.01558718055655578 0 -0.0028350465347050302 -0.015653740314784153 0 -0.0027767254752892141 -0.015585376423501076 0 -0.0028371860440121184 -0.015542902637267901 0 -0.0028130016410236529 -0.015508279210651765 0 -0.0027767254752892141 -0.015585376423501076 0 -0.0028373669081084552 -0.01558718055655578 0 -0.0028371860440121184 -0.015542902637267901 0 -0.0027706116811421141 -0.0154776186056973 0 -0.0027767254752892141 -0.015585376423501076 0 -0.0028130016410236529 -0.015508279210651765 0 -0.0027706116811421141 -0.0154776186056973 0 -0.0028144261239945547 -0.015457381905295721 0 -0.0028130016410236529 -0.015508279210651765 0 -0.0028020358556748253 -0.015406314444884255 0 -0.0027706116811421141 -0.0154776186056973 0 -0.0028144261239945547 -0.015457381905295721 0 -0.0028385875693758334 -0.015480747989718461 0 -0.0028144261239945547 -0.015457381905295721 0 -0.0028130016410236529 -0.015508279210651765 0 -0.0028385875693758334 -0.015480747989718461 0 -0.0028130016410236529 -0.015508279210651765 0 -0.0028484937135446939 -0.015524095787507795 0 -0.0028371860440121184 -0.015542902637267901 0 -0.0028130016410236529 -0.015508279210651765 0 -0.0028484937135446939 -0.015524095787507795 0 -0.0028371860440121184 -0.015542902637267901 0 -0.0028616034109602458 -0.015553291651684323 0 -0.0028484937135446939 -0.015524095787507795 0 -0.0028616034109602458 -0.015553291651684323 0 -0.0028484937135446939 -0.015524095787507795 0 -0.0028650847381181885 -0.015548438243313015 0 -0.0028385875693758334 -0.015480747989718461 0 -0.0028484937135446939 -0.015524095787507795 0 -0.0028566167988162711 -0.015526506952160995 0 -0.0028484937135446939 -0.015524095787507795 0 -0.0028566167988162711 -0.015526506952160995 0 -0.0028650847381181885 -0.015548438243313015 0 -0.0028658314858934861 -0.015556211843142631 0 -0.0028566167988162711 -0.015526506952160995 0 -0.0028650847381181885 -0.015548438243313015 0 -0.0028616034109602458 -0.015553291651684323 0 -0.0028650847381181885 -0.015548438243313015 0 -0.0028756022998387134 -0.015571635640181635 0 -0.0028734680620355049 -0.015568855494670986 0 -0.0028650847381181885 -0.015548438243313015 0 -0.0028756022998387134 -0.015571635640181635 0 -0.0028734680620355049 -0.015568855494670986 0 -0.0028840076527709589 -0.015586377334236035 0 -0.0028756022998387134 -0.015571635640181635 0 -0.0028840076527709589 -0.015586377334236035 0 -0.0028836531630057312 -0.015587277091989694 0 -0.0028756022998387134 -0.015571635640181635 0 -0.0028840076527709589 -0.015586377334236035 0 -0.0028836531630057312 -0.015587277091989694 0 -0.0028931293963670645 -0.01559899892325806 0 -0.0028836531630057312 -0.015587277091989694 0 -0.0028723372811187428 -0.015574924790148315 0 -0.0028756022998387134 -0.015571635640181635 0 -0.0028836531630057312 -0.015587277091989694 0 -0.0028723372811187428 -0.015574924790148315 0 -0.0028775663787459636 -0.015590559718723931 0 -0.0028616034109602458 -0.015553291651684323 0 -0.0028723372811187428 -0.015574924790148315 0 -0.0028756022998387134 -0.015571635640181635 0 -0.0028616034109602458 -0.015553291651684323 0 -0.0028723372811187428 -0.015574924790148315 0 -0.0028603443481129663 -0.015573222908572054 0 -0.0028371860440121184 -0.015542902637267901 0 -0.0028616034109602458 -0.015553291651684323 0 -0.0028603443481129663 -0.015573222908572054 0 -0.0028373669081084552 -0.01558718055655578 0 -0.0028603443481129663 -0.015573222908572054 0 -0.002866825381380896 -0.015602881361521406 0 -0.0028373669081084552 -0.01558718055655578 0 -0.0028371860440121184 -0.015542902637267901 0 -0.0028603443481129663 -0.015573222908572054 0 -0.0028603443481129663 -0.015573222908572054 0 -0.0028775663787459636 -0.015590559718723931 0 -0.002866825381380896 -0.015602881361521406 0 -0.0028723372811187428 -0.015574924790148315 0 -0.0028603443481129663 -0.015573222908572054 0 -0.0028775663787459636 -0.015590559718723931 0 -0.0028373669081084552 -0.01558718055655578 0 -0.002866825381380896 -0.015602881361521406 0 -0.0028350465347050302 -0.015653740314784153 0 -0.0028775663787459636 -0.015590559718723931 0 -0.002866825381380896 -0.015602881361521406 0 -0.0028907500948214672 -0.015605014082282652 0 -0.002866825381380896 -0.015602881361521406 0 -0.0028809415794771379 -0.015619413129181999 0 -0.0028907500948214672 -0.015605014082282652 0 -0.0028809415794771379 -0.015619413129181999 0 -0.0029097797814208581 -0.015626475377028142 0 -0.0028350465347050302 -0.015653740314784153 0 -0.002866825381380896 -0.015602881361521406 0 -0.0028809415794771379 -0.015619413129181999 0 -0.0028350465347050302 -0.015653740314784153 0 -0.0028971738006935686 -0.015613240340678975 0 -0.0029035429844232736 -0.015608323306046987 0 -0.0028931293963670645 -0.01559899892325806 0 -0.0028809415794771379 -0.015619413129181999 0 -0.0028971738006935686 -0.015613240340678975 0 -0.0029097797814208581 -0.015626475377028142 0 -0.0028840076527709589 -0.015586377334236035 0 -0.0029035429844232736 -0.015608323306046987 0 -0.0028931293963670645 -0.01559899892325806 0 -0.0028809415794771379 -0.015619413129181999 0 -0.0028971738006935686 -0.015613240340678975 0 -0.0028907500948214672 -0.015605014082282652 0 -0.0028971738006935686 -0.015613240340678975 0 -0.0029097797814208581 -0.015626475377028142 0 -0.0029035429844232736 -0.015608323306046987 0 -0.0026707760888049375 -0.015807756827487241 0 -0.0026459245889638126 -0.015819547799501395 0 -0.0028836531630057312 -0.015587277091989694 0 -0.0028907500948214672 -0.015605014082282652 0 -0.0028931293963670645 -0.01559899892325806 0 -0.0028836531630057312 -0.015587277091989694 0 -0.0028775663787459636 -0.015590559718723931 0 -0.0028907500948214672 -0.015605014082282652 0 -0.0028971738006935686 -0.015613240340678975 0 -0.0028907500948214672 -0.015605014082282652 0 -0.0028931293963670645 -0.01559899892325806 0 -0.0022406986977387593 -0.016320309573857137 0 -0.0022411770487345338 -0.016350314248079919 0 -0.0022617218061149759 -0.016382638387166425 0 -0.0029097797814208581 -0.015626475377028142 0 -0.0029213411874439588 -0.015617841276455933 0 -0.0028148391104389553 -0.015869773264889728 0 -0.0029097797814208581 -0.015626475377028142 0 -0.0028148391104389553 -0.015869773264889728 0 -0.0028350465347050302 -0.015653740314784153 0 -0.0022267097966634443 -0.016270385271009703 0 -0.0022406986977387593 -0.016320309573857137 0 -0.0022617218061149759 -0.016382638387166425 0 -0.0026459245889638126 -0.015819547799501395 0 -0.0025139028503641707 -0.01614263832396378 0 -0.0022589954903799183 -0.016287582236400457 0 -0.0022267097966634443 -0.016270385271009703 0 -0.0022406986977387593 -0.016320309573857137 0 -0.0022666783020000381 -0.016309521200496804 0 -0.0022406986977387593 -0.016320309573857137 0 -0.0022411770487345338 -0.016350314248079919 0 -0.0022617218061149759 -0.016382638387166425 0 -0.0022711256612135489 -0.016320808576848273 0 -0.0022123763045727718 -0.016389878157990281 0 -0.0022411770487345338 -0.016350314248079919 0 -0.0022617218061149759 -0.016382638387166425 0 -0.0022123763045727718 -0.016389878157990281 0 -0.0025139028503641707 -0.01614263832396378 0 -0.0024902367348110786 -0.016169520264446409 0 -0.0027767254752892141 -0.015585376423501076 0 -0.0027535869615063135 -0.015729724784060078 0 -0.0025870137286229627 -0.015782563989315268 0 -0.0028148391104389553 -0.015869773264889728 0 -0.0028350465347050302 -0.015653740314784153 0 -0.0027535869615063135 -0.015729724784060078 0 -0.0028148391104389553 -0.015869773264889728 0 -0.0027535869615063135 -0.015729724784060078 0 -0.0025870137286229627 -0.015782563989315268 0 -0.0028148391104389553 -0.015869773264889728 0 -0.0025870137286229627 -0.015782563989315268 0 -0.0024725255723852093 -0.016184005817040659 0 -0.0025870137286229627 -0.015782563989315268 0 -0.0023652632819852254 -0.016014694742770553 0 -0.0024725255723852093 -0.016184005817040659 0 -0.0025870137286229627 -0.015782563989315268 0 -0.0023652632819852254 -0.016014694742770553 0 -0.0024053979798647025 -0.015777761162399317 0 -0.0025382805454422842 -0.015668791595458906 0 -0.0025870137286229627 -0.015782563989315268 0 -0.0024053979798647025 -0.015777761162399317 0 -0.0025382805454422842 -0.015668791595458906 0 -0.0024813516247114797 -0.015568312225702825 0 -0.0024053979798647025 -0.015777761162399317 0 -0.0023399795335290472 -0.016138737760912267 0 -0.0024725255723852093 -0.016184005817040659 0 -0.0023741063130318309 -0.016203028563275403 0 -0.0024725255723852093 -0.016184005817040659 0 -0.0023460243427936948 -0.016205911468304017 0 -0.0023741063130318309 -0.016203028563275403 0 -0.0023652632819852254 -0.016014694742770553 0 -0.0023399795335290472 -0.016138737760912267 0 -0.0024725255723852093 -0.016184005817040659 0 -0.0024725255723852093 -0.016184005817040659 0 -0.0023460243427936948 -0.016205911468304017 0 -0.0022711256612135489 -0.016320808576848273 0 -0.0022617218061149759 -0.016382638387166425 0 -0.0024725255723852093 -0.016184005817040659 0 -0.0022711256612135489 -0.016320808576848273 0 -0.0022711256612135489 -0.016320808576848273 0 -0.0022123763045727718 -0.016389878157990281 0 -0.0020949612591271232 -0.016507079491603901 0 -0.0012704046598505424 -0.016826128910510555 0 -0.0020949612591271232 -0.016507079491603901 0 -0.0020729224839991598 -0.016999528779443895 0 -0.0018253449287762562 -0.01652843141438538 0 -0.0020901081343365447 -0.016491313131012656 0 -0.0023460243427936948 -0.016205911468304017 0 -0.0022711256612135489 -0.016320808576848273 0 -0.0020949612591271232 -0.016507079491603901 0 -0.0012704046598505424 -0.016826128910510555 0 -0.0015963544593853322 -0.017359569797837409 0 -0.0020729224839991598 -0.016999528779443895 0 -0.0015963544593853322 -0.017359569797837409 0 -0.0010804743262222652 -0.017322242708068869 0 -0.0012451478250404668 -0.01773042186161624 0 -0.0012704046598505424 -0.016826128910510555 0 -0.0015963544593853322 -0.017359569797837409 0 -0.0010804743262222652 -0.017322242708068869 0 -0.0018253449287762562 -0.01652843141438538 0 -0.0015763037652774072 -0.016691169074504134 0 -0.0012704046598505424 -0.016826128910510555 0 -0.0010804743262222652 -0.017322242708068869 0 -0.00075585599908118957 -0.017188001428705708 0 -0.0010804743262222652 -0.017322242708068869 0 -0.00075585599908118957 -0.017188001428705708 0 -0.00072944116580511882 -0.017542000247658521 0 -0.0010804743262222652 -0.017322242708068869 0 -0.0012451478250404668 -0.01773042186161624 0 -0.00072944116580511882 -0.017542000247658521 0 -0.00075585599908118957 -0.017188001428705708 0 -0.00068143258733340396 -0.017441999350785539 0 -0.00072944116580511882 -0.017542000247658521 0 -0.0015763037652774072 -0.016691169074504134 0 -0.0014738642573127935 -0.016823803229189568 0 -0.0023399795335290472 -0.016138737760912267 0 -0.0023741063130318309 -0.016203028563275403 0 -0.0022070119028405441 -0.016234967063025033 0 -0.002581531556074608 -0.016714064088668407 0 -0.0026239745528579984 -0.016645499839995789 0 -0.0026086619925931175 -0.016790275082948825 0 -0.0021126625417857339 -0.020553406255698681 0 -0.0023791880124605083 -0.019518716804792141 0 -0.002581531556074608 -0.016714064088668407 0 -0.0026239745528579984 -0.016645499839995789 0 -0.002557155241406265 -0.016592267564227041 0 -0.002581531556074608 -0.016714064088668407 0 -0.002557155241406265 -0.016592267564227041 0 -0.0024501377160974034 -0.01655428180917266 0 -0.002042643144115452 -0.016649169450220113 0 -0.0023791880124605083 -0.019518716804792141 0 -0.0017014251491575493 -0.024268462492071458 0 -0.0017092769908789575 -0.02413964782188378 0 -0.0017012033845539138 -0.024288732593416785 0 -0.0017014251491575493 -0.024268462492071458 0 -0.0019335191593692614 -0.024063665871223619 0 -0.0017092769908789575 -0.02413964782188378 0 -0.0015610243100354661 -0.023869641358172114 0 -0.0017014251491575493 -0.024268462492071458 0 -0.0017218702784948762 -0.024075922123200463 0 -0.0026035502380251777 -0.016557588167859121 0 -0.0026239745528579984 -0.016645499839995789 0 -0.0025849890407842004 -0.016557280280887314 0 -0.0020530925989232234 -0.020373672559539455 0 -0.0021126625417857339 -0.020553406255698681 0 -0.0017014251491575493 -0.024268462492071458 0 -0.0017012033845539138 -0.024288732593416785 0 -0.0017218702784948762 -0.024075922123200463 0 -0.0024957573878170397 -0.016480218016937088 0 -0.0025849890407842004 -0.016557280280887314 0 -0.002557155241406265 -0.016592267564227041 0 -0.0026239745528579984 -0.016645499839995789 0 -0.0025849890407842004 -0.016557280280887314 0 -0.002557155241406265 -0.016592267564227041 0 -0.0024957573878170397 -0.016480218016937088 0 -0.002557155241406265 -0.016592267564227041 0 -0.0024501377160974034 -0.01655428180917266 0 -0.0023733871211247047 -0.016436017549229662 0 -0.0024957573878170397 -0.016480218016937088 0 -0.0024501377160974034 -0.01655428180917266 0 -0.0022828191180719794 -0.016408344373738191 0 -0.0023733871211247047 -0.016436017549229662 0 -0.0022708493688596396 -0.016491434794370631 0 -0.0023733871211247047 -0.016436017549229662 0 -0.0024501377160974034 -0.01655428180917266 0 -0.0022708493688596396 -0.016491434794370631 0 -0.0022123763045727718 -0.016389878157990281 0 -0.0022708493688596396 -0.016491434794370631 0 -0.0020949612591271232 -0.016507079491603901 0 -0.0022828191180719794 -0.016408344373738191 0 -0.0022123763045727718 -0.016389878157990281 0 -0.0022708493688596396 -0.016491434794370631 0 -0.0022708493688596396 -0.016491434794370631 0 -0.0020949612591271232 -0.016507079491603901 0 -0.0023373745277600498 -0.016675535934993019 0 -0.0020949612591271232 -0.016507079491603901 0 -0.0023373745277600498 -0.016675535934993019 0 -0.0020729224839991598 -0.016999528779443895 0 -0.002581531556074608 -0.016714064088668407 0 -0.0024501377160974034 -0.01655428180917266 0 -0.0023373745277600498 -0.016675535934993019 0 -0.002581531556074608 -0.016714064088668407 0 -0.0023373745277600498 -0.016675535934993019 0 -0.0024378404930347625 -0.016997896778174738 0 -0.0024501377160974034 -0.01655428180917266 0 -0.0022708493688596396 -0.016491434794370631 0 -0.0023373745277600498 -0.016675535934993019 0 -0.0023373745277600498 -0.016675535934993019 0 -0.0024378404930347625 -0.016997896778174738 0 -0.0020729224839991598 -0.016999528779443895 0 -0.0024378404930347625 -0.016997896778174738 0 -0.0020729224839991598 -0.016999528779443895 0 -0.0021198488182562767 -0.017431071382703871 0 -0.0015963544593853322 -0.017359569797837409 0 -0.0020729224839991598 -0.016999528779443895 0 -0.0021198488182562767 -0.017431071382703871 0 -0.0015963544593853322 -0.017359569797837409 0 -0.0021198488182562767 -0.017431071382703871 0 -0.0018248354556756308 -0.017842332086306957 0 -0.0024378404930347625 -0.016997896778174738 0 -0.0021198488182562767 -0.017431071382703871 0 -0.0025958471624275802 -0.017379994340119304 0 -0.0021198488182562767 -0.017431071382703871 0 -0.0025958471624275802 -0.017379994340119304 0 -0.002309128020832068 -0.01794304213412715 0 -0.0021807837817353717 -0.018271347399194924 0 -0.0019768834800819521 -0.018216259924743489 0 -0.0021307899726718208 -0.018127876823051871 0 -0.0021807837817353717 -0.018271347399194924 0 -0.0020810354645196491 -0.018480052269810161 0 -0.0019768834800819521 -0.018216259924743489 0 -0.0024378404930347625 -0.016997896778174738 0 -0.0025958471624275802 -0.017379994340119304 0 -0.0027387508580500159 -0.016932104472994761 0 -0.002581531556074608 -0.016714064088668407 0 -0.0024378404930347625 -0.016997896778174738 0 -0.0027387508580500159 -0.016932104472994761 0 -0.002490138752377706 -0.017510053172109956 0 -0.0023791880124605083 -0.019518716804792141 0 -0.0019335191593692614 -0.024063665871223619 0 -0.0017092769908789575 -0.02413964782188378 0 -0.001849056409799752 -0.023741175027430901 0 -0.0023791880124605083 -0.019518716804792141 0 -0.0019591186521605024 -0.021287189402815907 0 -0.001849056409799752 -0.023741175027430901 0 -0.0015510541653299557 -0.023687478098376114 0 -0.0014450971148256635 -0.02402005287540988 0 -0.0015510541653299557 -0.023687478098376114 0 -0.0014450971148256635 -0.02402005287540988 0 -0.0012363391687111387 -0.023547415583551362 0 -0.0014450971148256635 -0.02402005287540988 0 -0.0008910309335967134 -0.023808227559308417 0 -0.0012363391687111387 -0.023547415583551362 0 -0.0014450971148256635 -0.02402005287540988 0 -0.0014469713317508408 -0.024296024830427646 0 -0.00096595107328804886 -0.024248655012274474 0 -0.0017092769908789575 -0.02413964782188378 0 -0.001849056409799752 -0.023741175027430901 0 -0.0014450971148256635 -0.02402005287540988 0 -0.0017092769908789575 -0.02413964782188378 0 -0.0014450971148256635 -0.02402005287540988 0 -0.0014469713317508408 -0.024296024830427646 0 -0.0017012033845539138 -0.024288732593416785 0 -0.0014469713317508408 -0.024296024830427646 0 -0.0012064818821515069 -0.024613855819737705 0 -0.0017092769908789575 -0.02413964782188378 0 -0.0017012033845539138 -0.024288732593416785 0 -0.0014469713317508408 -0.024296024830427646 0 -0.0014469713317508408 -0.024296024830427646 0 -0.0012064818821515069 -0.024613855819737705 0 -0.00096595107328804886 -0.024248655012274474 0 -0.0022422206806584875 -0.024178270210854322 0 -0.0020473985613420342 -0.023936501884387361 0 -0.0024076147135686211 -0.023907013175522195 0 -0.0017012033845539138 -0.024288732593416785 0 -0.0022422206806584875 -0.024178270210854322 0 -0.0020473985613420342 -0.023936501884387361 0 -0.0020473985613420342 -0.023936501884387361 0 -0.0017218702784948762 -0.024075922123200463 0 -0.0018052300380405339 -0.023893473124666019 0 -0.0016954061637785107 -0.024311023694975783 0 -0.0016857353558028911 -0.024390607307262707 0 -0.0015610243100354661 -0.023869641358172114 0 -0.0017218702784948762 -0.024075922123200463 0 -0.0018052300380405339 -0.023893473124666019 0 -0.0017012033845539138 -0.024288732593416785 0 -0.0020473985613420342 -0.023936501884387361 0 -0.0017218702784948762 -0.024075922123200463 0 -0.0026571252234151932 -0.024082876261014713 0 -0.0024076147135686211 -0.023907013175522195 0 -0.0026691089710137151 -0.023811357301166115 0 -0.0026571252234151932 -0.024082876261014713 0 -0.002838053691650304 -0.023847988722839424 0 -0.0026691089710137151 -0.023811357301166115 0 -0.0022422206806584875 -0.024178270210854322 0 -0.0026571252234151932 -0.024082876261014713 0 -0.0024076147135686211 -0.023907013175522195 0 -0.0016857353558028911 -0.024390607307262707 0 -0.0017143595935939988 -0.024459586189973043 0 -0.0012064818821515069 -0.024613855819737705 0 -0.00061290180659814158 -0.024831558228420425 0 -0.00075603811539106075 -0.024531857878945986 0 -0.0012064818821515069 -0.024613855819737705 0 -0.00075603811539106075 -0.024531857878945986 0 -0.00096595107328804886 -0.024248655012274474 0 -0.00075603811539106075 -0.024531857878945986 0 -0.00057094959709717353 -0.024332190044821983 0 -0.00096595107328804886 -0.024248655012274474 0 -0.00061290180659814158 -0.024831558228420425 0 -0.00075603811539106075 -0.024531857878945986 0 -0.00040243061632946057 -0.024630021128568207 0 -0.00075603811539106075 -0.024531857878945986 0 -0.00057094959709717353 -0.024332190044821983 0 -0.00040243061632946057 -0.024630021128568207 0 -0.00057094959709717353 -0.024332190044821983 0 -0.00040243061632946057 -0.024630021128568207 0 -0.00033155582020045154 -0.024515779502785356 0 -0.00057094959709717353 -0.024332190044821983 0 -0.00096595107328804886 -0.024248655012274474 0 -0.0008910309335967134 -0.023808227559308417 0 -0.0014450971148256635 -0.02402005287540988 0 -0.00096595107328804886 -0.024248655012274474 0 -0.0008910309335967134 -0.023808227559308417 0 -0.00057094959709717353 -0.024332190044821983 0 -0.0008910309335967134 -0.023808227559308417 0 -0.00042482927055794892 -0.023734309250716259 0 -0.00027705953182897514 -0.025381317966305827 0 -2.6236149737262283e-05 -0.02516087307361926 0 -0.00018888089153973358 -0.02502279395598148 0 -0.00047883440052934469 -0.025206606150041205 0 -0.00027705953182897514 -0.025381317966305827 0 -0.00018888089153973358 -0.02502279395598148 0 -0.00045222286290085982 -0.024497115651618762 0 -0.00015459747583966316 -0.024725871321108171 0 -0.00015459747583966316 -0.024725871321108171 0 -5.2975709393469917e-05 -0.025096365320626091 0 4.1077282652623193e-06 -0.024764057685061493 0 -3.2860152713477728e-05 -0.024922463419931287 0 -4.0675325721630954e-05 -0.024831985176175853 0 -1.6947899187283587e-05 -0.024683187683421377 0 4.1077282652623193e-06 -0.024764057685061493 0 -4.0675325721630954e-05 -0.024831985176175853 0 -9.7926885865850927e-05 -0.024665530491444394 0 -0.00015459747583966316 -0.024725871321108171 0 -0.00042482927055794892 -0.023734309250716259 0 -0.00025163963040539678 -0.02438004240847106 0 -8.1797301852425857e-05 -0.024290416293789217 0 -0.00057094959709717353 -0.024332190044821983 0 -0.00042482927055794892 -0.023734309250716259 0 -0.00025163963040539678 -0.02438004240847106 0 -1.6947899187283587e-05 -0.024683187683421377 0 -0.00012848909823846258 -0.024547516051456407 0 -9.6885381229539139e-05 -0.024356934498618921 0 -0.00012848909823846258 -0.024547516051456407 0 -0.00025163963040539678 -0.02438004240847106 0 -9.6885381229539139e-05 -0.024356934498618921 0 -0.00012026054103523516 -0.024562530838827808 0 -0.00015459747583966316 -0.024725871321108171 0 -0.00057094959709717353 -0.024332190044821983 0 -0.00025163963040539678 -0.02438004240847106 0 -0.00033155582020045154 -0.024515779502785356 0 -0.00012848909823846258 -0.024547516051456407 0 -0.00025163963040539678 -0.02438004240847106 0 -0.00033155582020045154 -0.024515779502785356 0 -5.2975709393469917e-05 -0.025096365320626091 0 9.0255360016581036e-09 -0.024999980268703485 0 -3.2860152713477728e-05 -0.024922463419931287 0 -7.1199918643640586e-08 -0.024999804377958557 0 1.9109498881505748e-08 -0.024999998053583994 0 -3.2860152713477728e-05 -0.024922463419931287 0 -4.0675325721630954e-05 -0.024831985176175853 0 -7.1199918643640586e-08 -0.024999804377958557 0 -7.1199918643640586e-08 -0.024999804377958557 0 -4.3286820458235983e-05 -0.024889401764397124 0 3.008783038913625e-08 -0.02499996234000524 0 -4.0675325721630954e-05 -0.024831985176175853 0 -7.1199918643640586e-08 -0.024999804377958557 0 -4.3286820458235983e-05 -0.024889401764397124 0 -4.0675325721630954e-05 -0.024831985176175853 0 -4.3286820458235983e-05 -0.024889401764397124 0 -2.588550549563736e-05 -0.024790545082286005 0 -4.3286820458235983e-05 -0.024889401764397124 0 -3.6420978268648475e-05 -0.024813267865773217 0 -2.588550549563736e-05 -0.024790545082286005 0 -5.0926905621326594e-05 -0.024882611459360712 0 -9.8173230038769578e-05 -0.024872007516417102 0 -4.3286820458235983e-05 -0.024889401764397124 0 -3.6420978268648475e-05 -0.024813267865773217 0 -0.0001494911900383176 -0.024735168538091351 0 -3.6420978268648475e-05 -0.024813267865773217 0 -6.6778285349807005e-05 -0.024746614435163017 0 -0.0001494911900383176 -0.024735168538091351 0 -4.3286820458235983e-05 -0.024889401764397124 0 3.008783038913625e-08 -0.02499996234000524 0 -2.7516708605999685e-05 -0.024997407358818953 0 -0.00061290180659814158 -0.024831558228420425 0 -0.00011007833428375378 -0.02477646101745816 0 -0.00040243061632946057 -0.024630021128568207 0 -0.00011007833428375378 -0.02477646101745816 0 -0.00018135561505292823 -0.024625528626657012 0 -5.7314698729766572e-05 -0.024721619120750087 0 -0.00011007833428375378 -0.02477646101745816 0 -0.00040243061632946057 -0.024630021128568207 0 -0.00018135561505292823 -0.024625528626657012 0 -0.00040243061632946057 -0.024630021128568207 0 -0.00033155582020045154 -0.024515779502785356 0 -0.00018135561505292823 -0.024625528626657012 0 -0.00012848909823846258 -0.024547516051456407 0 -0.00033155582020045154 -0.024515779502785356 0 -0.00018135561505292823 -0.024625528626657012 0 -0.00012848909823846258 -0.024547516051456407 0 -0.00018135561505292823 -0.024625528626657012 0 -5.7314698729766572e-05 -0.024721619120750087 0 -1.6947899187283587e-05 -0.024683187683421377 0 -0.00012848909823846258 -0.024547516051456407 0 -5.7314698729766572e-05 -0.024721619120750087 0 -1.6947899187283587e-05 -0.024683187683421377 0 -5.7314698729766572e-05 -0.024721619120750087 0 -2.588550549563736e-05 -0.024790545082286005 0 -1.6947899187283587e-05 -0.024683187683421377 0 -4.0675325721630954e-05 -0.024831985176175853 0 -2.588550549563736e-05 -0.024790545082286005 0 -3.6420978268648475e-05 -0.024813267865773217 0 -2.588550549563736e-05 -0.024790545082286005 0 -3.5287422655085981e-05 -0.024792022957292423 0 -0.00011007833428375378 -0.02477646101745816 0 -5.7314698729766572e-05 -0.024721619120750087 0 -3.5287422655085981e-05 -0.024792022957292423 0 -5.7314698729766572e-05 -0.024721619120750087 0 -2.588550549563736e-05 -0.024790545082286005 0 -3.5287422655085981e-05 -0.024792022957292423 0 8.4085064933040897e-06 -0.02480833757174563 0 -2.6116739064815243e-05 -0.024805885196947989 0 -3.1868571889412448e-05 -0.024683620733011016 0 -0.00011007833428375378 -0.02477646101745816 0 -3.5287422655085981e-05 -0.024792022957292423 0 -6.5026248979933076e-05 -0.024820629074933091 0 -0.001073804751154954 -0.024426053402403645 0 -0.0014725295887940281 -0.024357830022215324 0 -6.6778285349807005e-05 -0.024746614435163017 0 -2.6116739064815243e-05 -0.024805885196947989 0 -3.1868571889412448e-05 -0.024683620733011016 0 -3.5287422655085981e-05 -0.024792022957292423 0 -6.5026248979933076e-05 -0.024820629074933091 0 -2.6116739064815243e-05 -0.024805885196947989 0 -0.001073804751154954 -0.024426053402403645 0 -0.00025655570356636456 -0.024584295222694674 0 -3.6420978268648475e-05 -0.024813267865773217 0 -3.5287422655085981e-05 -0.024792022957292423 0 -2.6116739064815243e-05 -0.024805885196947989 0 -3.6420978268648475e-05 -0.024813267865773217 0 -6.6778285349807005e-05 -0.024746614435163017 0 -2.6116739064815243e-05 -0.024805885196947989 0 -0.0026571252234151932 -0.024082876261014713 0 -0.0029342205545533975 -0.024028528135063849 0 -0.002838053691650304 -0.023847988722839424 0 -0.0017143595935939988 -0.024459586189973043 0 -0.001073804751154954 -0.024426053402403645 0 -0.00061290180659814158 -0.024831558228420425 0 -0.00011007833428375378 -0.02477646101745816 0 -2.6587330715445787e-05 -0.024949767824118847 0 -0.00039750012144538376 -0.02497133209031618 0 -0.001073804751154954 -0.024426053402403645 0 -0.002838053691650304 -0.023847988722839424 0 -0.0027947632149618118 -0.023697587880006327 0 -0.0026691089710137151 -0.023811357301166115 0 -0.002838053691650304 -0.023847988722839424 0 -0.002939525098299632 -0.02371385195994764 0 -0.0027947632149618118 -0.023697587880006327 0 -0.0029342205545533975 -0.024028528135063849 0 -0.002838053691650304 -0.023847988722839424 0 -0.0030279301748128767 -0.023817488915573153 0 -0.002838053691650304 -0.023847988722839424 0 -0.0030279301748128767 -0.023817488915573153 0 -0.002939525098299632 -0.02371385195994764 0 -0.0038048092029076292 -0.022742907573181093 0 -0.0023547927053799134 -0.023534034658498643 0 -0.002939525098299632 -0.02371385195994764 0 -0.0029137710452037118 -0.023584557101212197 0 -0.0031179181657839707 -0.023623995538165098 0 -0.0030279301748128767 -0.023817488915573153 0 -0.002939525098299632 -0.02371385195994764 0 -0.0031179181657839707 -0.023623995538165098 0 -0.0029137710452037118 -0.023584557101212197 0 -0.0027947632149618118 -0.023697587880006327 0 -0.0027038321670905083 -0.023546259888431818 0 -0.002939525098299632 -0.02371385195994764 0 -0.0029137710452037118 -0.023584557101212197 0 -0.0027947632149618118 -0.023697587880006327 0 3.008783038913625e-08 -0.02499996234000524 0 -8.988434755299799e-06 -0.02500121691901494 0 -2.7516708605999685e-05 -0.024997407358818953 0 3.008783038913625e-08 -0.02499996234000524 0 -8.988434755299799e-06 -0.02500121691901494 0 -3.6393348442159224e-08 -0.025000038630846381 0 -8.988434755299799e-06 -0.02500121691901494 0 -2.7516708605999685e-05 -0.024997407358818953 0 -6.9129562928580943e-06 -0.025005293438550374 0 -9.8173230038769578e-05 -0.024872007516417102 0 3.9440741028552771e-05 -0.024712947512407667 0 -3.1868571889412448e-05 -0.024683620733011016 0 -0.00011176797211276659 -0.024655346381766998 0 -0.00010623196403082848 -0.024535258328959704 0 -0.0001494911900383176 -0.024735168538091351 0 -0.00011176797211276659 -0.024655346381766998 0 -0.00020855239736558372 -0.024556988059937324 0 -6.6778285349807005e-05 -0.024746614435163017 0 -0.0001494911900383176 -0.024735168538091351 0 -0.00011176797211276659 -0.024655346381766998 0 -6.6778285349807005e-05 -0.024746614435163017 0 -3.1868571889412448e-05 -0.024683620733011016 0 -0.00011176797211276659 -0.024655346381766998 0 -0.0014725295887940281 -0.024357830022215324 0 -0.0023547927053799134 -0.023534034658498643 0 -0.0023547927053799134 -0.023534034658498643 0 3.9440741028552771e-05 -0.024712947512407667 0 -0.00011176797211276659 -0.024655346381766998 0 -0.00010623196403082848 -0.024535258328959704 0 -0.00020855239736558372 -0.024556988059937324 0 1.5094728330393101e-06 -0.024999599168001981 0 3.9724181124533034e-08 -0.025000071827228642 0 7.8427791315267252e-06 -0.025003381346603574 0 3.9440741028552771e-05 -0.024712947512407667 0 -5.7530220784599383e-08 -0.024999896364373848 0 -8.988434755299799e-06 -0.02500121691901494 0 -6.9129562928580943e-06 -0.025005293438550374 0 -3.6393348442159224e-08 -0.025000038630846381 0 -0.00038141892725186287 -0.024511384752061743 0 -0.00014236514890477608 -0.024470534186786696 0 -6.0883442941041409e-05 -0.024811998937607931 0 3.9724181124533034e-08 -0.025000071827228642 0 7.8427791315267252e-06 -0.025003381346603574 0 -6.0955525230183974e-08 -0.024999870477795224 0 3.9440741028552771e-05 -0.024712947512407667 0 -3.5942541581639319e-05 -0.024905213959365537 0 -0.0047044511776816152 -0.022084502706388141 0 -0.0051029756302258577 -0.021295639806137356 0 -0.0045279418363168913 -0.021662354996889177 0 -0.00038141892725186287 -0.024511384752061743 0 -6.0883442941041409e-05 -0.024811998937607931 0 -0.00012663942711600069 -0.024890583151298187 0 -0.0023547927053799134 -0.023534034658498643 0 -0.0022919101879654538 -0.023781427355276583 0 -0.0047172046563925402 -0.020843166537327894 0 -0.0045745742841847596 -0.021285771987244819 0 -0.0051029756302258577 -0.021295639806137356 0 -0.0045745742841847596 -0.021285771987244819 0 -0.0051029756302258577 -0.021295639806137356 0 -0.0045279418363168913 -0.021662354996889177 0 -2.1063131482493463e-05 -0.02494811702227576 0 -3.5942541581639319e-05 -0.024905213959365537 0 -2.3622575067162192e-05 -0.024947744446119011 0 -6.0883442941041409e-05 -0.024811998937607931 0 -0.00012663942711600069 -0.024890583151298187 0 -2.3622575067162192e-05 -0.024947744446119011 0 7.8427791315267252e-06 -0.025003381346603574 0 -6.0955525230183974e-08 -0.024999870477795224 0 -0.0038048092029076292 -0.022742907573181093 0 -0.0028062670514884232 -0.023029477365715822 0 -0.0040577542094988473 -0.021962595587237985 0 -0.0037606181944516287 -0.021707911848945216 0 -0.0033912068355900328 -0.021851447760535703 0 -0.0039684699920581254 -0.021581515203096348 0 -0.0037914745541805456 -0.021504141942405328 0 -0.0039052177343287427 -0.02132148641214238 0 -0.0039684699920581254 -0.021581515203096348 0 -0.0037914745541805456 -0.021504141942405328 0 -0.0037606181944516287 -0.021707911848945216 0 -0.00502954768402924 -0.020436570836851981 0 -0.0035473158424962482 -0.021139904769948304 0 -0.0037914745541805456 -0.021504141942405328 0 -0.0039052177343287427 -0.02132148641214238 0 -0.0034217013860006746 -0.021563609516010586 0 -0.0037914745541805456 -0.021504141942405328 0 -0.0037606181944516287 -0.021707911848945216 0 -0.0034217013860006746 -0.021563609516010586 0 -0.0040577542094988473 -0.021962595587237985 0 -0.0039684699920581254 -0.021581515203096348 0 -0.0037606181944516287 -0.021707911848945216 0 -0.0040577542094988473 -0.021962595587237985 0 -0.0045279418363168913 -0.021662354996889177 0 -0.0042033741901208715 -0.021599434068379667 0 -0.0040577542094988473 -0.021962595587237985 0 -0.0039684699920581254 -0.021581515203096348 0 -0.0042033741901208715 -0.021599434068379667 0 -0.0040577542094988473 -0.021962595587237985 0 -0.0047044511776816152 -0.022084502706388141 0 -0.0045279418363168913 -0.021662354996889177 0 -0.0045279418363168913 -0.021662354996889177 0 -0.0042033741901208715 -0.021599434068379667 0 -0.0043209319633271386 -0.021390735535587034 0 -0.0045745742841847596 -0.021285771987244819 0 -0.0045279418363168913 -0.021662354996889177 0 -0.0043209319633271386 -0.021390735535587034 0 -0.0042033741901208715 -0.021599434068379667 0 -0.0040864391599843772 -0.021359962261841982 0 -0.0043209319633271386 -0.021390735535587034 0 -0.0039684699920581254 -0.021581515203096348 0 -0.0042033741901208715 -0.021599434068379667 0 -0.0040864391599843772 -0.021359962261841982 0 -0.0047172046563925402 -0.020843166537327894 0 -0.0041745532542228209 -0.021191103121920303 0 -0.0039537314743122625 -0.021181792954566504 0 -0.0074241314510821495 -0.01754774048880629 0 -0.0059378682774473687 -0.019757498490544902 0 -0.0040864391599843772 -0.021359962261841982 0 -0.0043209319633271386 -0.021390735535587034 0 -0.0041745532542228209 -0.021191103121920303 0 -0.0047172046563925402 -0.020843166537327894 0 -0.0045745742841847596 -0.021285771987244819 0 -0.0041745532542228209 -0.021191103121920303 0 -0.0045745742841847596 -0.021285771987244819 0 -0.0043209319633271386 -0.021390735535587034 0 -0.0041745532542228209 -0.021191103121920303 0 -0.007297380058214213 -0.017505497806714676 0 -0.0059378682774473687 -0.019757498490544902 0 -0.007297380058214213 -0.017505497806714676 0 -0.0040644087735163563 -0.017670403080873351 0 -0.0063567386380139488 -0.01752340623641551 0 -0.006127582405662183 -0.019107287157431745 0 -0.0043488159522838531 -0.019437700357784218 0 -0.0039684699920581254 -0.021581515203096348 0 -0.0040864391599843772 -0.021359962261841982 0 -0.0039052177343287427 -0.02132148641214238 0 -0.0039992572644294662 -0.021117351636289663 0 -0.00502954768402924 -0.020436570836851981 0 -0.0040864391599843772 -0.021359962261841982 0 -0.0041745532542228209 -0.021191103121920303 0 -0.0039052177343287427 -0.02132148641214238 0 -0.0041745532542228209 -0.021191103121920303 0 -0.0039537314743122625 -0.021181792954566504 0 -0.0039390877869110875 -0.021302986398824112 0 -0.0059378682774473687 -0.019757498490544902 0 -0.00502954768402924 -0.020436570836851981 0 -0.0059128313337602307 -0.019623319538732142 0 -0.004618352154122039 -0.019748716172725118 0 -0.0042658369819609408 -0.020439946779492915 0 -0.0059777106538952034 -0.01916848736526874 0 -0.0059128313337602307 -0.019623319538732142 0 -0.004618352154122039 -0.019748716172725118 0 -0.0059378682774473687 -0.019757498490544902 0 -0.0049739874382369719 -0.019694241949872671 0 -0.006127582405662183 -0.019107287157431745 0 -0.004618352154122039 -0.019748716172725118 0 -0.0043488159522838531 -0.019437700357784218 0 -0.0040644087735163563 -0.017670403080873351 0 -0.0035473158424962482 -0.021139904769948304 0 -0.004618352154122039 -0.019748716172725118 0 -0.0043488159522838531 -0.019437700357784218 0 -0.0042658369819609408 -0.020439946779492915 0 -0.0039315978326721276 -0.019093557729291229 0 -0.0038763613725994492 -0.019643020248152503 0 -0.0028251903915926745 -0.020168316335669852 0 -0.0028596099026588907 -0.022970442481938646 0 -0.0024353253500697608 -0.023215714360269181 0 -0.0025713456668999789 -0.023173376777562898 0 -0.0035473158424962482 -0.021139904769948304 0 -0.0031260242242507558 -0.020299370025483897 0 -0.0040644087735163563 -0.017670403080873351 0 -0.0031260242242507558 -0.020299370025483897 0 -0.0028062670514884232 -0.023029477365715822 0 -0.0026429843048657968 -0.023123957980593701 0 -0.0028596099026588907 -0.022970442481938646 0 -0.0028386466600012973 -0.023205649410807209 0 -0.0025713456668999789 -0.023173376777562898 0 -0.0027971511653572269 -0.023228341827781808 0 -0.0025713456668999789 -0.023173376777562898 0 -0.0025668662921631354 -0.023342419280731459 0 -0.0035473158424962482 -0.021139904769948304 0 -0.0028062670514884232 -0.023029477365715822 0 -0.0037606181944516287 -0.021707911848945216 0 -0.0034217013860006746 -0.021563609516010586 0 -0.0033912068355900328 -0.021851447760535703 0 -0.0029677172879085801 -0.016121215832959959 0 -0.0030678272791231039 -0.016275741021246064 0 -0.0028700296320911937 -0.016374621025123971 0 -0.0032659568326420915 -0.016033357822074049 0 -0.0029677172879085801 -0.016121215832959959 0 -0.0030678272791231039 -0.016275741021246064 0 -0.0024353253500697608 -0.023215714360269181 0 -0.0025713456668999789 -0.023173376777562898 0 -0.0025668662921631354 -0.023342419280731459 0 -0.0032659568326420915 -0.016033357822074049 0 -0.0029677172879085801 -0.016121215832959959 0 -0.0030375813242669815 -0.015919890986431179 0 -0.0030256259442703621 -0.015932453552081775 0 -0.0028378705525714453 -0.016093761659641624 0 -0.0029116480846766105 -0.015823337206839962 0 -0.0030375813242669815 -0.015919890986431179 0 -0.0028912905843549628 -0.016041733755592594 0 -0.0029677172879085801 -0.016121215832959959 0 -0.0030375813242669815 -0.015919890986431179 0 -0.00277518669879021 -0.016148942462213267 0 -0.0026954874285916282 -0.015935682249980918 0 -0.0026296959206852386 -0.016080560335413888 0 -0.0028912905843549628 -0.016041733755592594 0 -0.0029116480846766105 -0.015823337206839962 0 -0.0026954874285916282 -0.015935682249980918 0 -0.0028912905843549628 -0.016041733755592594 0 -0.0029076091965097154 -0.015810759935013977 0 -0.0027858062294396245 -0.015817707819087444 0 -0.002601233204207637 -0.016340272206806214 0 -0.00277518669879021 -0.016148942462213267 0 -0.0026435092468092424 -0.016388849203356193 0 -0.0026296959206852386 -0.016080560335413888 0 -0.0026983581927699997 -0.016208935476455869 0 -0.0028912905843549628 -0.016041733755592594 0 -0.0026520850377210509 -0.016270016586340735 0 -0.0028378705525714453 -0.016093761659641624 0 -0.00277518669879021 -0.016148942462213267 0 -0.0028700296320911937 -0.016374621025123971 0 -0.0027109311428316521 -0.016409604470594259 0 -0.0029677172879085801 -0.016121215832959959 0 -0.00277518669879021 -0.016148942462213267 0 -0.0028700296320911937 -0.016374621025123971 0 -0.0031488821786998774 -0.019112819338571993 0 -0.0022834296789735237 -0.018259799024669305 0 -0.0031260242242507558 -0.020299370025483897 0 -0.002488439214547257 -0.023438733801725072 0 -0.0043067919969060229 -0.021380780764329387 0 -0.0030469403393376636 -0.022654744073488754 0 -0.0032060871614602825 -0.02196050113131847 0 -0.0030469403393376636 -0.022654744073488754 0 -0.0032060871614602825 -0.02196050113131847 0 -0.0021096139315614601 -0.022540747886730918 0 -0.0028700296320911937 -0.016374621025123971 0 -0.002686972400249117 -0.016454572521296045 0 -0.0027109311428316521 -0.016409604470594259 0 -0.00277518669879021 -0.016148942462213267 0 -0.0026435092468092424 -0.016388849203356193 0 -0.0027109311428316521 -0.016409604470594259 0 -0.0022834296789735237 -0.018259799024669305 0 -0.0026316391408295519 -0.017445840883415806 0 -0.0026129895505749745 -0.016411077638048201 0 -0.0026435092468092424 -0.016388849203356193 0 -0.0026828311213418932 -0.016431481799419279 0 -0.0026435092468092424 -0.016388849203356193 0 -0.0026828311213418932 -0.016431481799419279 0 -0.0027109311428316521 -0.016409604470594259 0 -0.0015610243100354661 -0.023869641358172114 0 -0.0021096139315614601 -0.022540747886730918 0 -0.0018052300380405339 -0.023893473124666019 0 -0.0020530925989232234 -0.020373672559539455 0 -0.0022834296789735237 -0.018259799024669305 0 -0.0030469403393376636 -0.022654744073488754 0 -0.0021096139315614601 -0.022540747886730918 0 -0.0018052300380405339 -0.023893473124666019 0 -0.002488439214547257 -0.023438733801725072 0 -0.0019072874244142615 -0.023741226422864522 0 -0.0020473985613420342 -0.023936501884387361 0 -0.0021113693315754612 -0.023585242902495897 0 -0.0018052300380405339 -0.023893473124666019 0 -0.0020473985613420342 -0.023936501884387361 0 -0.0022497247135576568 -0.023754100486419731 0 -0.0024076147135686211 -0.023907013175522195 0 -0.0020473985613420342 -0.023936501884387361 0 -0.0021113693315754612 -0.023585242902495897 0 -0.0022497247135576568 -0.023754100486419731 0 -0.0021113693315754612 -0.023585242902495897 0 -0.0022497247135576568 -0.023754100486419731 0 -0.0024357250004066479 -0.0235846734873205 0 -0.0022497247135576568 -0.023754100486419731 0 -0.0024076147135686211 -0.023907013175522195 0 -0.0024357250004066479 -0.0235846734873205 0 -0.0024076147135686211 -0.023907013175522195 0 -0.0026691089710137151 -0.023811357301166115 0 -0.0024357250004066479 -0.0235846734873205 0 -0.0026691089710137151 -0.023811357301166115 0 -0.0026067133626739157 -0.023491347477658828 0 -0.0024357250004066479 -0.0235846734873205 0 -0.0027971511653572269 -0.023228341827781808 0 -0.0026691089710137151 -0.023811357301166115 0 -0.0026067133626739157 -0.023491347477658828 0 -0.0028062670514884232 -0.023029477365715822 0 -0.0026570682741505411 -0.02394160464785966 0 -0.0027947632149618118 -0.023697587880006327 0 -0.0027038321670905083 -0.023546259888431818 0 -0.0026691089710137151 -0.023811357301166115 0 -0.0027971511653572269 -0.023228341827781808 0 -0.0026067133626739157 -0.023491347477658828 0 -0.0025668662921631354 -0.023342419280731459 0 -0.0024353253500697608 -0.023215714360269181 0 -0.0025668662921631354 -0.023342419280731459 0 -0.0024357250004066479 -0.0235846734873205 0 -0.0031260242242507558 -0.020299370025483897 0 -0.0031488821786998774 -0.019112819338571993 0 -0.0024353253500697608 -0.023215714360269181 0 -0.0021113693315754612 -0.023585242902495897 0 -0.0024357250004066479 -0.0235846734873205 0 -0.0026067133626739157 -0.023491347477658828 0 -0.0025668662921631354 -0.023342419280731459 0 -0.0024357250004066479 -0.0235846734873205 0 0.00022201813435944055 -0.0080737841765200873 0 0.00023318427346997238 -0.0080317517958668396 0 0.00027836436570827483 -0.0080669396717443151 0 0.00022201813435944055 -0.0080737841765200873 0 0.00023318427346997238 -0.0080317517958668396 0 0.00017009309128350808 -0.0080214725012914996 0 0.00022201813435944055 -0.0080737841765200873 0 0.00017009309128350808 -0.0080214725012914996 0 0.00013516258180785122 -0.0081204656041626699 0 0.00023318427346997238 -0.0080317517958668396 0 0.00022640218742510555 -0.0079863250689273108 0 0.00026731490301655568 -0.0080100255055803177 0 0.00023318427346997238 -0.0080317517958668396 0 0.00017009309128350808 -0.0080214725012914996 0 0.00022640218742510555 -0.0079863250689273108 0 0.00022640218742510555 -0.0079863250689273108 0 0.00026731490301655568 -0.0080100255055803177 0 0.00026645507512452929 -0.007972440113088862 0 0.00026731490301655568 -0.0080100255055803177 0 0.00030643429317571197 -0.0080215307635062866 0 0.00026645507512452929 -0.007972440113088862 0 0.00026731490301655568 -0.0080100255055803177 0 0.00031100892903446491 -0.0080199124466134621 0 0.00027836436570827483 -0.0080669396717443151 0 0.00023318427346997238 -0.0080317517958668396 0 0.00026731490301655568 -0.0080100255055803177 0 0.00027836436570827483 -0.0080669396717443151 0 0.00078795998069399267 -0.0068253698022501894 0 0.00067762110771207461 -0.0055854492051630568 0 -0.0017948094573288699 -0.004742637710481278 0 -0.0017716707031025275 -0.0047559031088649662 0 -0.0017229561053864301 -0.0047329776011481835 0 0.00027836436570827483 -0.0080669396717443151 0 0.00032562613740589404 -0.0080935613331024076 0 0.00030007380390874978 -0.0081175996586579785 0 0.00022201813435944055 -0.0080737841765200873 0 0.00027836436570827483 -0.0080669396717443151 0 0.00030007380390874978 -0.0081175996586579785 0 0.00031100892903446491 -0.0080199124466134621 0 0.00027836436570827483 -0.0080669396717443151 0 0.00032562613740589404 -0.0080935613331024076 0 0.00087446291390424037 -0.0037040554226312672 0 0.00078510342181813348 -0.0031316031434562392 0 0.00032696577180727404 -0.0034425114168867249 0 0.00067762110771207461 -0.0055854492051630568 0 0.0010072117388721766 -0.0041185104156215829 0 0.0010072117388721766 -0.0041185104156215829 0 0.00080598906802416932 -0.0017384350146350009 0 0.0013523903864379279 -0.0044314740021297525 0 0.0014069002234016858 -0.0047836855039709424 0 0.0010070840547957653 -0.0046762458079423639 0 0.0010072117388721766 -0.0041185104156215829 0 0.00058694692847836068 -0.0068399370057368476 0 0.00080598906802416932 -0.0017384350146350009 0 0.00058694692847836068 -0.0068399370057368476 0 0.0019438387934610259 -0.012460687739905437 0 -0.00012703236451333937 -0.011918646187479624 0 0.0009137419531380801 -0.013226916158108922 0 0.00022201813435944055 -0.0080737841765200873 0 0.00030007380390874978 -0.0081175996586579785 0 0.00013516258180785122 -0.0081204656041626699 0 -0.00012703236451333937 -0.011918646187479624 0 0.0009137419531380801 -0.013226916158108922 0 5.136657105941158e-05 -0.013114808633728535 0 0.00058694692847836068 -0.0068399370057368476 0 -0.00034777926012066008 -0.011995259657840405 0 -0.00012703236451333937 -0.011918646187479624 0 -0.00061704451016264745 -0.013268171257680404 0 5.136657105941158e-05 -0.013114808633728535 0 -0.00034777926012066008 -0.011995259657840405 0 -0.0010896732460556943 -0.013736204058770816 0 -0.00097807807097877631 -0.013921883993590642 0 -0.0007334789011565105 -0.013777108225052638 0 -0.00088915795718660766 -0.014192251840115926 0 -0.00097807807097877631 -0.013921883993590642 0 -0.0007334789011565105 -0.013777108225052638 0 -0.0011578699417083308 -0.0136751929227302 0 -0.00034777926012066008 -0.011995259657840405 0 -0.00079218815570871219 -0.013885472084591913 0 -0.0011840511012135247 -0.014022979252309763 0 -0.0013235266192887238 -0.014220730214238454 0 -0.0014863569184468003 -0.013927244685928711 0 -0.00097807807097877631 -0.013921883993590642 0 -0.0011840511012135247 -0.014022979252309763 0 -0.00088915795718660766 -0.014192251840115926 0 -0.00097807807097877631 -0.013921883993590642 0 -0.0011840511012135247 -0.014022979252309763 0 -0.0011578699417083308 -0.0136751929227302 0 -0.0011840511012135247 -0.014022979252309763 0 -0.0011578699417083308 -0.0136751929227302 0 -0.0014863569184468003 -0.013927244685928711 0 -0.0011578699417083308 -0.0136751929227302 0 -0.0014846672917778025 -0.013589020962001631 0 -0.0014863569184468003 -0.013927244685928711 0 -0.0011578699417083308 -0.0136751929227302 0 -0.0012559815856987855 -0.013418007152772377 0 -0.0014846672917778025 -0.013589020962001631 0 -0.0011578699417083308 -0.0136751929227302 0 -0.0012559815856987855 -0.013418007152772377 0 -0.00097968931097348628 -0.01333923985691134 0 -0.00074956106357392687 -0.013771230345245069 0 -0.0011578699417083308 -0.0136751929227302 0 -0.0008517393729466793 -0.01353185161522376 0 -0.00061773348280945895 -0.013435477733822991 0 -0.00074956106357392687 -0.013771230345245069 0 -0.0008517393729466793 -0.01353185161522376 0 -0.00012811694763614604 -0.010560496985294758 0 -0.00034777926012066008 -0.011995259657840405 0 -0.0011578699417083308 -0.0136751929227302 0 -0.0008517393729466793 -0.01353185161522376 0 -0.00097968931097348628 -0.01333923985691134 0 -0.0008517393729466793 -0.01353185161522376 0 -0.0007650289239630627 -0.01322649029761659 0 -0.00097968931097348628 -0.01333923985691134 0 -0.00061773348280945895 -0.013435477733822991 0 -0.0008517393729466793 -0.01353185161522376 0 -0.0007650289239630627 -0.01322649029761659 0 -0.00091504456860979732 -0.012598847056017531 0 -0.00072148835317233974 -0.01256886916416728 0 0.00049939263767884818 -0.012902978682953786 0 -0.00093424597955621977 -0.013019442551409041 0 0.00013948786535140936 -0.010935605574837602 0 -0.0007650289239630627 -0.01322649029761659 0 -0.0010411746200345566 -0.012980632020639774 0 -0.00048581944528217161 -0.013096996992610585 0 -0.0007650289239630627 -0.01322649029761659 0 -0.00097968931097348628 -0.01333923985691134 0 -0.00099345490097095014 -0.013178288888242256 0 -0.0007650289239630627 -0.01322649029761659 0 -0.00099345490097095014 -0.013178288888242256 0 -0.0010411746200345566 -0.012980632020639774 0 -0.0012072784624994459 -0.013179219950268925 0 -0.0010411746200345566 -0.012980632020639774 0 -0.0015597038744528016 -0.012825520006788734 0 -0.0012559815856987855 -0.013418007152772377 0 -0.0012072784624994459 -0.013179219950268925 0 -0.0014488293577392263 -0.013312362550730518 0 -0.00097968931097348628 -0.01333923985691134 0 -0.00099345490097095014 -0.013178288888242256 0 -0.0012072784624994459 -0.013179219950268925 0 -0.0012559815856987855 -0.013418007152772377 0 -0.00097968931097348628 -0.01333923985691134 0 -0.0012072784624994459 -0.013179219950268925 0 -0.00099345490097095014 -0.013178288888242256 0 -0.0012072784624994459 -0.013179219950268925 0 -0.0010411746200345566 -0.012980632020639774 0 -0.00091504456860979732 -0.012598847056017531 0 -0.0011209804614620181 -0.01224554552052441 0 -0.0015386607950407085 -0.012522746464747516 0 -0.00093424597955621977 -0.013019442551409041 0 -0.0015901334875606018 -0.012636621108680078 0 -0.0011209804614620181 -0.01224554552052441 0 -0.00072148835317233974 -0.01256886916416728 0 -0.0007326720064740153 -0.011943858916316386 0 -0.00091504456860979732 -0.012598847056017531 0 -0.0011209804614620181 -0.01224554552052441 0 -0.00072148835317233974 -0.01256886916416728 0 -0.00072148835317233974 -0.01256886916416728 0 -0.00012732394145788711 -0.011295418143250663 0 -0.00072154376679524595 -0.010801140184557141 0 -0.00072148835317233974 -0.01256886916416728 0 0.0002572446507002399 -0.011780529946340447 0 0.00049939263767884818 -0.012902978682953786 0 -0.00072148835317233974 -0.01256886916416728 0 0.0002572446507002399 -0.011780529946340447 0 -0.00012732394145788711 -0.011295418143250663 0 -0.00073114074261966327 -0.012494754015819334 0 -0.0007157695303627433 -0.011387803181270674 0 0.00013948786535140936 -0.010935605574837602 0 0.00052481153708407288 -0.0074482828057407186 0 0.00019153015419383853 -0.0079324994731545268 0 0.00029785098923521556 -0.0078916852170608266 0 0.0002780937549234917 -0.0077123835970599993 0 0.0002572446507002399 -0.011780529946340447 0 0.00049939263767884818 -0.012902978682953786 0 0.0012271691576720694 -0.011145267488308916 0 0.00013948786535140936 -0.010935605574837602 0 -0.00014275525084501365 -0.0092924402633268142 0 0.00019153015419383853 -0.0079324994731545268 0 0.00025654688622962578 -0.0079382883576944712 0 0.00029785098923521556 -0.0078916852170608266 0 0.00022640218742510555 -0.0079863250689273108 0 0.00020535061218119078 -0.0079372915328237877 0 0.00025654688622962578 -0.0079382883576944712 0 0.00022640218742510555 -0.0079863250689273108 0 0.00026645507512452929 -0.007972440113088862 0 0.00025654688622962578 -0.0079382883576944712 0 0.00017009309128350808 -0.0080214725012914996 0 0.00022640218742510555 -0.0079863250689273108 0 0.00020535061218119078 -0.0079372915328237877 0 -0.00061773348280945895 -0.013435477733822991 0 -0.0007650289239630627 -0.01322649029761659 0 -0.00048581944528217161 -0.013096996992610585 0 -0.00012811694763614604 -0.010560496985294758 0 0.00013948786535140936 -0.010935605574837602 0 0.00030643429317571197 -0.0080215307635062866 0 0.00026645507512452929 -0.007972440113088862 0 0.00029785098923521556 -0.0078916852170608266 0 0.00067762110771207461 -0.0055854492051630568 0 0.00062028466742108956 -0.0051581180491095538 0 0.0009181756511599721 -0.0027138717496640471 0 0.00099524068171500334 -0.0032034984550637969 0 0.00066775458581040442 -0.0029140064984352829 0 0.00026645507512452929 -0.007972440113088862 0 0.00025654688622962578 -0.0079382883576944712 0 0.00029785098923521556 -0.0078916852170608266 0 0.00099524068171500334 -0.0032034984550637969 0 0.00084727049322635051 -0.0035496777604792492 0 0.0010747786684484465 -0.0037095549427630498 0 0.00062028466742108956 -0.0051581180491095538 0 0.00052481153708407288 -0.0074482828057407186 0 0.00099524068171500334 -0.0032034984550637969 0 0.00084727049322635051 -0.0035496777604792492 0 0.00058481982026935384 -0.0032361327754647567 0 0.00058481982026935384 -0.0032361327754647567 0 0.00026415400948053984 -0.0032780434634807169 0 0.00058293102079903932 -0.0037112868442721169 0 0.00084727049322635051 -0.0035496777604792492 0 0.00058481982026935384 -0.0032361327754647567 0 0.00058293102079903932 -0.0037112868442721169 0 0.00017949686348883926 -0.003529322695071291 0 0.00026415400948053984 -0.0032780434634807169 0 0.00058293102079903932 -0.0037112868442721169 0 0.00017949686348883926 -0.003529322695071291 0 0.00026415400948053984 -0.0032780434634807169 0 1.3809291869019045e-05 -0.0033349101805110687 0 0.00058481982026935384 -0.0032361327754647567 0 0.00026415400948053984 -0.0032780434634807169 0 0.00021585744534655712 -0.0028475713961713294 0 0.00099524068171500334 -0.0032034984550637969 0 0.00058481982026935384 -0.0032361327754647567 0 0.00066775458581040442 -0.0029140064984352829 0 0.00058481982026935384 -0.0032361327754647567 0 0.00066775458581040442 -0.0029140064984352829 0 0.00021585744534655712 -0.0028475713961713294 0 -0.00020281431816189432 -0.0032987456013027299 0 -0.000280312779866556 -0.0032679367052521648 0 -0.0004885645649767682 -0.0033123753126276865 0 -0.00041605355090415177 -0.00042420407635045603 0 -0.00075710323904225948 -0.00052279319908832798 0 -0.00020091632765854029 -0.0031354712623477259 0 -0.00075710323904225948 -0.00052279319908832798 0 -0.00022555068026375777 -0.002472046705446812 0 -0.00027080426809337067 -0.0025127818871798478 0 -0.00029009006404118897 -0.0024671992302861788 0 -0.000280312779866556 -0.0032679367052521648 0 -0.00018218500182410144 -0.0031162420733730658 0 -0.0004885645649767682 -0.0033123753126276865 0 -0.00019634369145851363 -0.0033189185102896501 0 -0.000280312779866556 -0.0032679367052521648 0 -0.00018218500182410144 -0.0031162420733730658 0 -0.00020091632765854029 -0.0031354712623477259 0 -0.00021130967226102573 -0.0031724695671872106 0 0.00026415400948053984 -0.0032780434634807169 0 1.3809291869019045e-05 -0.0033349101805110687 0 -0.00018218500182410144 -0.0031162420733730658 0 0.00017949686348883926 -0.003529322695071291 0 -0.00022805956381370156 -0.0033561439065367825 0 1.3809291869019045e-05 -0.0033349101805110687 0 9.274779072546299e-06 -0.0030108109384153797 0 -0.00020091632765854029 -0.0031354712623477259 0 -0.00020091632765854029 -0.0031354712623477259 0 -4.5471183038055035e-05 -0.0032698924281358357 0 -0.00019634369145851363 -0.0033189185102896501 0 1.3809291869019045e-05 -0.0033349101805110687 0 -0.00018218500182410144 -0.0031162420733730658 0 0.00026415400948053984 -0.0032780434634807169 0 -0.00018218500182410144 -0.0031162420733730658 0 0.00021585744534655712 -0.0028475713961713294 0 -0.00060285040221933742 0.0023482497989216746 0 -0.00062206925138240171 0.0023244462809325129 0 -0.00056769251935874607 0.0023263991168102544 0 -0.00041605355090415177 -0.00042420407635045603 0 -0.00019187418893287117 -0.00019668463472636842 0 -0.00060285040221933742 0.0023482497989216746 0 -0.00057983230212651431 0.0023311888693153065 0 -0.00056769251935874607 0.0023263991168102544 0 -0.00094261651582117458 0.002565685695084636 0 -0.00062206925138240171 0.0023244462809325129 0 -0.0010690853849995318 0.0020255885329256772 0 -0.00060285040221933742 0.0023482497989216746 0 -0.00094261651582117458 0.002565685695084636 0 -0.00062206925138240171 0.0023244462809325129 0 -0.00094261651582117458 0.002565685695084636 0 -0.00063257217624387212 0.0028943257782027758 0 -0.00097481557590354867 0.0031029823712921414 0 -0.00060285040221933742 0.0023482497989216746 0 -0.00094261651582117458 0.002565685695084636 0 -0.00063257217624387212 0.0028943257782027758 0 -0.00057983230212651431 0.0023311888693153065 0 -0.00056769251935874607 0.0023263991168102544 0 -0.00057264737510761589 0.0023076029262982388 0 -0.00059419727771538441 0.0023494187716600907 0 -0.00060229594921868475 0.0026608452226210117 0 -0.00060285040221933742 0.0023482497989216746 0 -0.0005682680866225979 0.002321862688777398 0 -0.00057983230212651431 0.0023311888693153065 0 -0.0005682680866225979 0.002321862688777398 0 -0.00057983230212651431 0.0023311888693153065 0 -0.00057264737510761589 0.0023076029262982388 0 -0.0005682680866225979 0.002321862688777398 0 -0.00057264737510761589 0.0023076029262982388 0 -0.00056780834630576395 0.0023110463793758031 0 -0.00064047107603506343 0.001553613907054758 0 -0.00075244254045740819 0.0025593701905346016 0 -0.00060229594921868475 0.0026608452226210117 0 -0.00075244254045740819 0.0025593701905346016 0 -0.00063257217624387212 0.0028943257782027758 0 -0.00070000228083710826 0.003383179114440471 0 -0.00097481557590354867 0.0031029823712921414 0 0.0009181756511599721 -0.0027138717496640471 0 0.00066775458581040442 -0.0029140064984352829 0 0.00063025723779632252 -0.0025691707927109693 0 0.00066775458581040442 -0.0029140064984352829 0 0.00021585744534655712 -0.0028475713961713294 0 0.00063025723779632252 -0.0025691707927109693 0 0.00067762110771207461 -0.0055854492051630568 0 0.00030565589907080408 -0.00068465004267822193 0 -0.00019187418893287117 -0.00019668463472636842 0 0.00030565589907080408 -0.00068465004267822193 0 -0.00056769251935874607 0.0023263991168102544 0 -0.00057264737510761589 0.0023076029262982388 0 -0.00057533489912503944 0.0022880043452981748 0 -0.00042655460856370913 0.0005424799951043249 0 0.00054664086279932193 0.0005110194328877386 0 -2.8648823119547322e-05 0.0010095600426476151 0 -0.00064047107603506343 0.001553613907054758 0 0.00030565589907080408 -0.00068465004267822193 0 0.001111644699777487 0.00063541928907461843 0 0.00054664086279932193 0.0005110194328877386 0 -2.8648823119547322e-05 0.0010095600426476151 0 -0.00042655460856370913 0.0005424799951043249 0 0.00054664086279932193 0.0005110194328877386 0 0.00060119513567462562 3.9623939017625304e-05 0 0.0011458394743068736 0.00040894710692861039 0 0.00054664086279932193 0.0005110194328877386 0 0.00060119513567462562 3.9623939017625304e-05 0 0.0010072117388721766 -0.0041185104156215829 0 0.00030565589907080408 -0.00068465004267822193 0 0.0011458394743068736 0.00040894710692861039 0 0.001111644699777487 0.00063541928907461843 0 0.00054664086279932193 0.0005110194328877386 0 0.00080598906802416932 -0.0017384350146350009 0 0.00057042217810190368 0.0023325740014964267 0 0.0026419476541890141 0.0026105183097199763 0 0.00099975000519422199 0.003110924611639334 0 0.001408130479329768 0.0039787374467849992 0 0.0026419476541890141 0.0026105183097199763 0 0.001408130479329768 0.0039787374467849992 0 0.0022974437716046158 0.0046583512594934873 0 0.00099975000519422199 0.003110924611639334 0 0.001408130479329768 0.0039787374467849992 0 -0.00070496734763479153 0.0035896412434947003 0 0.0014058837565345307 0.0041089169451695023 0 -0.00067076785861864814 0.0032103751595433066 0 0.00081819332078666323 0.0047394779897576228 0 0.001408130479329768 0.0039787374467849992 0 0.0013059186064815365 0.005213271402977406 0 0.00081819332078666323 0.0047394779897576228 0 0.001408130479329768 0.0039787374467849992 0 0.00031673892091700005 0.0043493128466599723 0 0.001408130479329768 0.0039787374467849992 0 -0.00037221843388694423 0.0037467863555891946 0 0.00031673892091700005 0.0043493128466599723 0 0.00081819332078666323 0.0047394779897576228 0 0.00014268703348970961 0.0048213215664095971 0 0.00051161140881755785 0.0053051815420097114 0 0.001408130479329768 0.0039787374467849992 0 0.0022974437716046158 0.0046583512594934873 0 0.0013059186064815365 0.005213271402977406 0 -0.00090766446370330186 0.0034792735236073087 0 -0.00070000228083710826 0.003383179114440471 0 -0.00097481557590354867 0.0031029823712921414 0 -0.0010809268299992575 0.0036271130907901783 0 -0.0010020032637932637 0.0030986458415884635 0 -0.0010809268299992575 0.0036271130907901783 0 -0.00075244254045740819 0.0025593701905346016 0 -0.0010866232556568517 0.0031811014676130494 0 -0.00088657462171184726 0.0030877329788346376 0 -0.00090460817331624351 0.003211902691392314 0 -0.00075244254045740819 0.0025593701905346016 0 -0.0010020032637932637 0.0030986458415884635 0 -0.00073358430518067632 0.0034170233139956727 0 -0.00072689750131405646 0.0033707623214974092 0 -0.00082940929019982991 0.0033990739235938107 0 -0.0011733930158154913 0.0038981166035379771 0 -0.0009019421737823973 0.0039443618832104349 0 -0.00091657868202206527 0.0040487506051323837 0 -0.0010020032637932637 0.0030986458415884635 0 -0.00067076785861864814 0.0032103751595433066 0 -0.0014558086331165577 0.0010435624770427155 0 -0.0014939673661164643 0.0013204461887862972 0 -0.0011754321318067466 0.001373571526005424 0 -0.0010020032637932637 0.0030986458415884635 0 -0.00095528607181006968 0.0038359937073857587 0 -0.00095528607181006968 0.0038359937073857587 0 -0.00067076785861864814 0.0032103751595433066 0 -0.00042655460856370913 0.0005424799951043249 0 -2.8648823119547322e-05 0.0010095600426476151 0 -0.0011754321318067466 0.001373571526005424 0 -0.00042655460856370913 0.0005424799951043249 0 -0.0014558086331165577 0.0010435624770427155 0 -0.0011754321318067466 0.001373571526005424 0 0.00057042217810190368 0.0023325740014964267 0 -0.00067076785861864814 0.0032103751595433066 0 0.00014268703348970961 0.0048213215664095971 0 -0.00039202707721325644 0.0044777936574035048 0 -0.00038098130492567425 0.0055034086231304383 0 0.00031673892091700005 0.0043493128466599723 0 0.00014268703348970961 0.0048213215664095971 0 -0.00039202707721325644 0.0044777936574035048 0 0.00081819332078666323 0.0047394779897576228 0 0.00031673892091700005 0.0043493128466599723 0 0.00014268703348970961 0.0048213215664095971 0 -0.00037221843388694423 0.0037467863555891946 0 0.00031673892091700005 0.0043493128466599723 0 -0.00039202707721325644 0.0044777936574035048 0 -0.00039202707721325644 0.0044777936574035048 0 -0.00095897935891310301 0.0049665494977291034 0 -0.00038098130492567425 0.0055034086231304383 0 -0.00095528607181006968 0.0038359937073857587 0 -0.00098260296681964838 0.0050517136767968783 0 -0.00090774456126799154 0.0044048194920332136 0 -0.00099986644780742143 0.0050466371180361309 0 -0.0018069170376553848 0.0046678702834088148 0 -0.00080393808854430321 0.0038664332916871521 0 -0.00039202707721325644 0.0044777936574035048 0 -0.00095897935891310301 0.0049665494977291034 0 -0.00080393808854430321 0.0038664332916871521 0 -0.00037221843388694423 0.0037467863555891946 0 -0.00039202707721325644 0.0044777936574035048 0 -0.00095897935891310301 0.0049665494977291034 0 -0.00038098130492567425 0.0055034086231304383 0 -0.0010866309940185215 0.0061240283459716169 0 -0.00098260296681964838 0.0050517136767968783 0 -0.00098849004725837697 0.0059360758999665473 0 -0.00038098130492567425 0.0055034086231304383 0 -0.00065289216395440362 0.0062503643314951 0 -0.0010866309940185215 0.0061240283459716169 0 -0.00038098130492567425 0.0055034086231304383 0 0.00013242310689996013 0.0061056397224049305 0 -0.00065289216395440362 0.0062503643314951 0 0.00014268703348970961 0.0048213215664095971 0 -0.00038098130492567425 0.0055034086231304383 0 0.00051161140881755785 0.0053051815420097114 0 -0.00038098130492567425 0.0055034086231304383 0 0.00013242310689996013 0.0061056397224049305 0 0.00051161140881755785 0.0053051815420097114 0 0.00013242310689996013 0.0061056397224049305 0 -0.00013204119821404794 0.006934212607194754 0 0.00057445362110868862 0.0067284339579344443 0 0.00013242310689996013 0.0061056397224049305 0 -0.00013204119821404794 0.006934212607194754 0 -0.00065289216395440362 0.0062503643314951 0 -0.00065289216395440362 0.0062503643314951 0 -0.0009596770082008426 0.00619005734700636 0 -0.00087654514196727079 0.0069848195056883711 0 -0.00078592517297189802 0.0060675763606335351 0 -0.00098849004725837697 0.0059360758999665473 0 -0.00013204119821404794 0.006934212607194754 0 -0.00065289216395440362 0.0062503643314951 0 -0.00087654514196727079 0.0069848195056883711 0 -0.0009596770082008426 0.00619005734700636 0 -0.0016384647297258323 0.0067673726720363083 0 -0.00087654514196727079 0.0069848195056883711 0 0.0013059186064815365 0.005213271402977406 0 0.00088777161907368867 0.0059776361215168198 0 0.0019127739520449741 0.0065141862359648596 0 0.0022974437716046158 0.0046583512594934873 0 0.0013059186064815365 0.005213271402977406 0 0.0019127739520449741 0.0065141862359648596 0 0.00015979722779033671 0.00019467059573427675 0 2.3293792892945405e-05 0.0010101858310522676 0 0.00081819332078666323 0.0047394779897576228 0 0.0013059186064815365 0.005213271402977406 0 0.00051161140881755785 0.0053051815420097114 0 0.00013242310689996013 0.0061056397224049305 0 0.00051161140881755785 0.0053051815420097114 0 0.00088777161907368867 0.0059776361215168198 0 0.0013059186064815365 0.005213271402977406 0 0.00051161140881755785 0.0053051815420097114 0 0.00088777161907368867 0.0059776361215168198 0 0.00088777161907368867 0.0059776361215168198 0 0.00057445362110868862 0.0067284339579344443 0 0.0019127739520449741 0.0065141862359648596 0 0.00013242310689996013 0.0061056397224049305 0 0.00088777161907368867 0.0059776361215168198 0 0.00057445362110868862 0.0067284339579344443 0 -0.0018871777404928156 -0.0044133393310611287 0 -0.0017161653638606096 -0.0044625553107811205 0 -0.001736875840347157 -0.0045786691542122771 0 -0.0018440665501673625 -0.0045805588662789073 0 -0.0018871777404928156 -0.0044133393310611287 0 -0.001736875840347157 -0.0045786691542122771 0 -0.0018440665501673625 -0.0045805588662789073 0 -0.001736875840347157 -0.0045786691542122771 0 -0.0017532166292778795 -0.0046714541662607363 0 -0.001736875840347157 -0.0045786691542122771 0 -0.0017532166292778795 -0.0046714541662607363 0 -0.0016661576504652057 -0.0047162654521559679 0 -0.0017532166292778795 -0.0046714541662607363 0 -0.0017229561053864301 -0.0047329776011481835 0 -0.0016661576504652057 -0.0047162654521559679 0 -0.00054156480646064264 -0.009082834749439021 0 -0.00036995868341762391 -0.010726713386213669 0 0.0009137419531380801 -0.013226916158108922 0 5.136657105941158e-05 -0.013114808633728535 0 -0.0001270184753300665 -0.013996613553599036 0 -0.0017948094573288699 -0.004742637710481278 0 -0.0017532166292778795 -0.0046714541662607363 0 -0.0017229561053864301 -0.0047329776011481835 0 0.00080598906802416932 -0.0017384350146350009 0 0.00015979722779033671 0.00019467059573427675 0 0.00058694692847836068 -0.0068399370057368476 0 -0.00054156480646064264 -0.009082834749439021 0 -0.0017948094573288699 -0.004742637710481278 0 -0.0018440665501673625 -0.0045805588662789073 0 -0.0017532166292778795 -0.0046714541662607363 0 -0.0011072959482309847 -0.014338175547619101 0 -0.00088915795718660766 -0.014192251840115926 0 -0.00094801229624412019 -0.014564307744901372 0 -0.0011072959482309847 -0.014338175547619101 0 -0.0014171538246608925 -0.014483901629737851 0 -0.0013235266192887238 -0.014220730214238454 0 -0.0011072959482309847 -0.014338175547619101 0 -0.0014171538246608925 -0.014483901629737851 0 -0.0012272899903070171 -0.014586622471186673 0 -0.0011840511012135247 -0.014022979252309763 0 -0.0011072959482309847 -0.014338175547619101 0 -0.0013235266192887238 -0.014220730214238454 0 -0.0011840511012135247 -0.014022979252309763 0 -0.0011072959482309847 -0.014338175547619101 0 -0.00088915795718660766 -0.014192251840115926 0 -0.00061704451016264745 -0.013268171257680404 0 -0.0001270184753300665 -0.013996613553599036 0 -0.00094801229624412019 -0.014564307744901372 0 -0.00079218815570871219 -0.013885472084591913 0 -0.00092971424555607504 -0.014410979598905105 0 -0.00061704451016264745 -0.013268171257680404 0 5.136657105941158e-05 -0.013114808633728535 0 -0.0001270184753300665 -0.013996613553599036 0 -0.00037320898982218448 -0.014142159278632264 0 -0.0011183499594111445 -0.014707472481865332 0 -0.0008302726775688172 -0.015383502808230623 0 -0.0001270184753300665 -0.013996613553599036 0 -0.0011603368550374166 -0.014866378839590714 0 -0.00094801229624412019 -0.014564307744901372 0 -0.00036995868341762391 -0.010726713386213669 0 -0.0013465074834147224 -0.015127397067749576 0 -0.00036995868341762391 -0.010726713386213669 0 -0.0013017023864556367 -0.0097016406503181007 0 -0.001736875840347157 -0.0045786691542122771 0 -0.0016661576504652057 -0.0047162654521559679 0 -0.0016291327752498413 -0.0045748623072561874 0 -0.0011603368550374166 -0.014866378839590714 0 -0.0016581790667055838 -0.015254385480943856 0 -0.0014586306649663852 -0.014775472406460745 0 -0.0011072959482309847 -0.014338175547619101 0 -0.00094801229624412019 -0.014564307744901372 0 -0.0012272899903070171 -0.014586622471186673 0 -0.0011603368550374166 -0.014866378839590714 0 -0.00094801229624412019 -0.014564307744901372 0 -0.0012272899903070171 -0.014586622471186673 0 -0.0014171538246608925 -0.014483901629737851 0 -0.0012272899903070171 -0.014586622471186673 0 -0.0014586306649663852 -0.014775472406460745 0 -0.0011603368550374166 -0.014866378839590714 0 -0.0012272899903070171 -0.014586622471186673 0 -0.0014586306649663852 -0.014775472406460745 0 -0.0011183499594111445 -0.014707472481865332 0 -0.0012766250221477671 -0.01527267480179848 0 -0.0016581790667055838 -0.015254385480943856 0 -0.0012766250221477671 -0.01527267480179848 0 -0.0008302726775688172 -0.015383502808230623 0 -0.0014634308281471782 -0.015737699651741627 0 -0.0013465074834147224 -0.015127397067749576 0 -0.0015147958189939878 -0.01510519986484705 0 -0.0011183499594111445 -0.014707472481865332 0 -0.0012766250221477671 -0.01527267480179848 0 -0.0008302726775688172 -0.015383502808230623 0 -0.0017161653638606096 -0.0044625553107811205 0 -0.001736875840347157 -0.0045786691542122771 0 -0.0016291327752498413 -0.0045748623072561874 0 -0.0017161653638606096 -0.0044625553107811205 0 -0.0016291327752498413 -0.0045748623072561874 0 -0.0016155459903124771 -0.0044001930624137115 0 -0.0014634308281471782 -0.015737699651741627 0 -0.0016564565733636716 -0.016123603601214051 0 -0.001420681995298295 -0.016312122873878711 0 -0.0013017023864556367 -0.0097016406503181007 0 -0.0015181709985558323 -0.010381974551096169 0 -0.0008302726775688172 -0.015383502808230623 0 -0.0014634308281471782 -0.015737699651741627 0 -0.001420681995298295 -0.016312122873878711 0 -0.0014634308281471782 -0.015737699651741627 0 -0.0018907960849401538 -0.015981542320120057 0 -0.0016564565733636716 -0.016123603601214051 0 -0.0014634308281471782 -0.015737699651741627 0 -0.0018907960849401538 -0.015981542320120057 0 -0.0016581790667055838 -0.015254385480943856 0 -0.0018907960849401538 -0.015981542320120057 0 -0.0016581790667055838 -0.015254385480943856 0 -0.0021509129299396102 -0.014955428104809477 0 -0.0012766250221477671 -0.01527267480179848 0 -0.0014634308281471782 -0.015737699651741627 0 -0.0016581790667055838 -0.015254385480943856 0 -0.0018899826027540163 -0.015955389789595945 0 -0.0019746374317749639 -0.015508496008723257 0 -0.0018907960849401538 -0.015981542320120057 0 -0.0018613627115526353 -0.016070641590721434 0 -0.001817363792282307 -0.01604806733997189 0 -0.0018907960849401538 -0.015981542320120057 0 -0.0018613627115526353 -0.016070641590721434 0 -0.0019452996830707921 -0.016111957008840164 0 -0.0019010600209839689 -0.016154021520933544 0 -0.0018613627115526353 -0.016070641590721434 0 -0.0019452996830707921 -0.016111957008840164 0 -0.0019010600209839689 -0.016154021520933544 0 -0.0018632647336411267 -0.016072054624923771 0 -0.0018613627115526353 -0.016070641590721434 0 -0.0018613627115526353 -0.016070641590721434 0 -0.00179450497242399 -0.016022379964019763 0 -0.001817363792282307 -0.01604806733997189 0 -0.0018632647336411267 -0.016072054624923771 0 -0.0018613627115526353 -0.016070641590721434 0 -0.00179450497242399 -0.016022379964019763 0 -0.00179450497242399 -0.016022379964019763 0 -0.0016963655140732228 -0.015938861259535413 0 -0.001817363792282307 -0.01604806733997189 0 -0.0018632647336411267 -0.016072054624923771 0 -0.0018083293995503924 -0.015988889645417979 0 -0.0018991400759890138 -0.015997579304783467 0 -0.0018632647336411267 -0.016072054624923771 0 -0.00179450497242399 -0.016022379964019763 0 -0.0018083293995503924 -0.015988889645417979 0 -0.0018083293995503924 -0.015988889645417979 0 -0.0018991400759890138 -0.015997579304783467 0 -0.0017978546011122158 -0.015885495142413372 0 -0.00179450497242399 -0.016022379964019763 0 -0.0018083293995503924 -0.015988889645417979 0 -0.0016963655140732228 -0.015938861259535413 0 -0.0018083293995503924 -0.015988889645417979 0 -0.0016963655140732228 -0.015938861259535413 0 -0.0017978546011122158 -0.015885495142413372 0 -0.0022299543546856044 -0.01416676310239446 0 -0.0017994377098838874 -0.014563964422538643 0 -0.0018439561306417961 -0.014027847455351716 0 -0.0015895077618490688 -0.014256106859585449 0 -0.0017994377098838874 -0.014563964422538643 0 -0.0018439561306417961 -0.014027847455351716 0 -0.0013235266192887238 -0.014220730214238454 0 -0.0015895077618490688 -0.014256106859585449 0 -0.0014863569184468003 -0.013927244685928711 0 -0.0014171538246608925 -0.014483901629737851 0 -0.0013235266192887238 -0.014220730214238454 0 -0.0015895077618490688 -0.014256106859585449 0 -0.0014171538246608925 -0.014483901629737851 0 -0.0015895077618490688 -0.014256106859585449 0 -0.0017994377098838874 -0.014563964422538643 0 -0.0016581790667055838 -0.015254385480943856 0 -0.0017994377098838874 -0.014563964422538643 0 -0.0021509129299396102 -0.014955428104809477 0 -0.0016581790667055838 -0.015254385480943856 0 -0.0017994377098838874 -0.014563964422538643 0 -0.0014586306649663852 -0.014775472406460745 0 -0.0014171538246608925 -0.014483901629737851 0 -0.0017994377098838874 -0.014563964422538643 0 -0.0014586306649663852 -0.014775472406460745 0 -0.0022299543546856044 -0.01416676310239446 0 -0.0017994377098838874 -0.014563964422538643 0 -0.0021509129299396102 -0.014955428104809477 0 -0.0019629941998824626 -0.015050271035727272 0 -0.0019746374317749639 -0.015508496008723257 0 -0.00075585599908118957 -0.017188001428705708 0 -0.00071938465323528281 -0.017435467635893615 0 -0.00068143258733340396 -0.017441999350785539 0 -0.00071938465323528281 -0.017435467635893615 0 -0.00068143258733340396 -0.017441999350785539 0 -0.00077431770472304907 -0.017355155296076005 0 -0.0014738642573127935 -0.016823803229189568 0 -0.0015124597763008884 -0.016814680253523583 0 -0.00071938465323528281 -0.017435467635893615 0 -0.0010054821753224508 -0.017427172495567002 0 -0.00077431770472304907 -0.017355155296076005 0 -0.0022070119028405441 -0.016234967063025033 0 -0.0020128585474565039 -0.016215949775407509 0 -0.0020675637904784242 -0.016110100096071348 0 -0.0020128585474565039 -0.016215949775407509 0 -0.0019521091116009174 -0.016124333120586695 0 -0.0020675637904784242 -0.016110100096071348 0 -0.0019010600209839689 -0.016154021520933544 0 -0.0020128585474565039 -0.016215949775407509 0 -0.0019521091116009174 -0.016124333120586695 0 -0.0016505912447424159 -0.016687684905265229 0 -0.0015124597763008884 -0.016814680253523583 0 -0.0019010600209839689 -0.016154021520933544 0 -0.0018632647336411267 -0.016072054624923771 0 -0.0019521091116009174 -0.016124333120586695 0 -0.0018632647336411267 -0.016072054624923771 0 -0.0019521091116009174 -0.016124333120586695 0 -0.0018991400759890138 -0.015997579304783467 0 -0.0018991400759890138 -0.015997579304783467 0 -0.0019044202673520636 -0.015850974713443371 0 -0.0017978546011122158 -0.015885495142413372 0 -0.0018991400759890138 -0.015997579304783467 0 -0.0020685035344038334 -0.015960840522241854 0 -0.0019044202673520636 -0.015850974713443371 0 -0.0018991400759890138 -0.015997579304783467 0 -0.0020685035344038334 -0.015960840522241854 0 -0.0020675637904784242 -0.016110100096071348 0 -0.0019521091116009174 -0.016124333120586695 0 -0.0018991400759890138 -0.015997579304783467 0 -0.0020675637904784242 -0.016110100096071348 0 -0.0020685035344038334 -0.015960840522241854 0 -0.0020675637904784242 -0.016110100096071348 0 -0.0022170485359717692 -0.016074826248295024 0 -0.0022070119028405441 -0.016234967063025033 0 -0.0020675637904784242 -0.016110100096071348 0 -0.0022170485359717692 -0.016074826248295024 0 -0.0020685035344038334 -0.015960840522241854 0 -0.0022170485359717692 -0.016074826248295024 0 -0.002220150632682767 -0.01591490822453822 0 -0.0023652632819852254 -0.016014694742770553 0 -0.0022170485359717692 -0.016074826248295024 0 -0.002220150632682767 -0.01591490822453822 0 -0.0023652632819852254 -0.016014694742770553 0 -0.0023399795335290472 -0.016138737760912267 0 -0.0022170485359717692 -0.016074826248295024 0 -0.0023399795335290472 -0.016138737760912267 0 -0.0022070119028405441 -0.016234967063025033 0 -0.0022170485359717692 -0.016074826248295024 0 -0.0024053979798647025 -0.015777761162399317 0 -0.002220150632682767 -0.01591490822453822 0 -0.0022390593472281159 -0.015669760291422065 0 -0.0024813516247114797 -0.015568312225702825 0 -0.0024053979798647025 -0.015777761162399317 0 -0.0022390593472281159 -0.015669760291422065 0 -0.0023652632819852254 -0.016014694742770553 0 -0.0024053979798647025 -0.015777761162399317 0 -0.002220150632682767 -0.01591490822453822 0 -0.0020685035344038334 -0.015960840522241854 0 -0.002220150632682767 -0.01591490822453822 0 -0.0020801700589576158 -0.015782532038327537 0 -0.002220150632682767 -0.01591490822453822 0 -0.0022390593472281159 -0.015669760291422065 0 -0.0020801700589576158 -0.015782532038327537 0 -0.0022390593472281159 -0.015669760291422065 0 -0.0020801700589576158 -0.015782532038327537 0 -0.0020172368996807712 -0.015590860005648619 0 -0.0020801700589576158 -0.015782532038327537 0 -0.0019044202673520636 -0.015850974713443371 0 -0.0018665499589666354 -0.01566403434251596 0 -0.0020801700589576158 -0.015782532038327537 0 -0.0018665499589666354 -0.01566403434251596 0 -0.0020172368996807712 -0.015590860005648619 0 -0.0020685035344038334 -0.015960840522241854 0 -0.0020801700589576158 -0.015782532038327537 0 -0.0019044202673520636 -0.015850974713443371 0 -0.0019044202673520636 -0.015850974713443371 0 -0.0018665499589666354 -0.01566403434251596 0 -0.0017272368795495324 -0.01575795688401823 0 -0.0018665499589666354 -0.01566403434251596 0 -0.0018132991413085809 -0.015352458443069577 0 -0.0016958701480093929 -0.015574404121355445 0 -0.0018665499589666354 -0.01566403434251596 0 -0.0018132991413085809 -0.015352458443069577 0 -0.0020172368996807712 -0.015590860005648619 0 -0.0018132991413085809 -0.015352458443069577 0 -0.0019907388260765476 -0.015344092331820476 0 -0.0018679447720213183 -0.015039345317387647 0 -0.0019907388260765476 -0.015344092331820476 0 -0.0021845542775437974 -0.015258870767838523 0 -0.0018679447720213183 -0.015039345317387647 0 -0.0019907388260765476 -0.015344092331820476 0 -0.0020172368996807712 -0.015590860005648619 0 -0.0021426412328837967 -0.015487877184838019 0 -0.0018132991413085809 -0.015352458443069577 0 -0.0019907388260765476 -0.015344092331820476 0 -0.0020172368996807712 -0.015590860005648619 0 -0.0022390593472281159 -0.015669760291422065 0 -0.0020172368996807712 -0.015590860005648619 0 -0.0021426412328837967 -0.015487877184838019 0 -0.0022390593472281159 -0.015669760291422065 0 -0.0021426412328837967 -0.015487877184838019 0 -0.0023339789118799687 -0.015465558592857658 0 -0.0019907388260765476 -0.015344092331820476 0 -0.0021426412328837967 -0.015487877184838019 0 -0.0021845542775437974 -0.015258870767838523 0 -0.0021426412328837967 -0.015487877184838019 0 -0.0021845542775437974 -0.015258870767838523 0 -0.0023339789118799687 -0.015465558592857658 0 -0.0026217645729350518 -0.015406772384727362 0 -0.0024254754677056271 -0.015310883719313795 0 -0.0024711166419966587 -0.015441070735238037 0 -0.0021845542775437974 -0.015258870767838523 0 -0.0023339789118799687 -0.015465558592857658 0 -0.0024254754677056271 -0.015310883719313795 0 -0.0023339789118799687 -0.015465558592857658 0 -0.0024254754677056271 -0.015310883719313795 0 -0.0024711166419966587 -0.015441070735238037 0 -0.0024813516247114797 -0.015568312225702825 0 -0.0023339789118799687 -0.015465558592857658 0 -0.0024711166419966587 -0.015441070735238037 0 -0.0024813516247114797 -0.015568312225702825 0 -0.0022390593472281159 -0.015669760291422065 0 -0.0023339789118799687 -0.015465558592857658 0 -0.0020269988243517322 -0.013664413499892789 0 -0.0022026494484930154 -0.013514954525048454 0 -0.0018093865561343817 -0.013403026674089697 0 -0.0020269988243517322 -0.013664413499892789 0 -0.0017744926253856783 -0.013697266510985365 0 -0.0018093865561343817 -0.013403026674089697 0 -0.0014846672917778025 -0.013589020962001631 0 -0.0017744926253856783 -0.013697266510985365 0 -0.0018093865561343817 -0.013403026674089697 0 -0.0014846672917778025 -0.013589020962001631 0 -0.0018093865561343817 -0.013403026674089697 0 -0.0014488293577392263 -0.013312362550730518 0 -0.0012559815856987855 -0.013418007152772377 0 -0.0014846672917778025 -0.013589020962001631 0 -0.0014488293577392263 -0.013312362550730518 0 -0.0017744926253856783 -0.013697266510985365 0 -0.0014863569184468003 -0.013927244685928711 0 -0.0018439561306417961 -0.014027847455351716 0 -0.0014846672917778025 -0.013589020962001631 0 -0.0017744926253856783 -0.013697266510985365 0 -0.0014863569184468003 -0.013927244685928711 0 -0.0015895077618490688 -0.014256106859585449 0 -0.0014863569184468003 -0.013927244685928711 0 -0.0018439561306417961 -0.014027847455351716 0 -0.0022299543546856044 -0.01416676310239446 0 -0.0020269988243517322 -0.013664413499892789 0 -0.0018439561306417961 -0.014027847455351716 0 -0.0020269988243517322 -0.013664413499892789 0 -0.0017744926253856783 -0.013697266510985365 0 -0.0018439561306417961 -0.014027847455351716 0 -0.0022299543546856044 -0.01416676310239446 0 -0.0020269988243517322 -0.013664413499892789 0 -0.0022079998595963286 -0.013509580833652909 0 -0.0016963655140732228 -0.015938861259535413 0 -0.0017272368795495324 -0.01575795688401823 0 -0.0016056557548386426 -0.015706595693727468 0 -0.0019629941998824626 -0.015050271035727272 0 -0.0018947924590429033 -0.014623520261681504 0 -0.0016963655140732228 -0.015938861259535413 0 -0.0017978546011122158 -0.015885495142413372 0 -0.0017272368795495324 -0.01575795688401823 0 -0.0019044202673520636 -0.015850974713443371 0 -0.0017978546011122158 -0.015885495142413372 0 -0.0017272368795495324 -0.01575795688401823 0 -0.0018665499589666354 -0.01566403434251596 0 -0.0017272368795495324 -0.01575795688401823 0 -0.0016958701480093929 -0.015574404121355445 0 -0.0017272368795495324 -0.01575795688401823 0 -0.0016056557548386426 -0.015706595693727468 0 -0.0016958701480093929 -0.015574404121355445 0 -0.0020269988243517322 -0.013664413499892789 0 -0.0022079998595963286 -0.013509580833652909 0 -0.0022026494484930154 -0.013514954525048454 0 -0.0022079998595963286 -0.013509580833652909 0 -0.0022026494484930154 -0.013514954525048454 0 -0.0017649966812761271 -0.013918702407797915 0 -0.0018947924590429033 -0.014623520261681504 0 -0.0016659485166092894 -0.01463517054165292 0 -0.0016056557548386426 -0.015706595693727468 0 -0.0016958701480093929 -0.015574404121355445 0 -0.001522441309830422 -0.015343350391553878 0 -0.0018132991413085809 -0.015352458443069577 0 -0.0016958701480093929 -0.015574404121355445 0 -0.001522441309830422 -0.015343350391553878 0 -0.0017649966812761271 -0.013918702407797915 0 -0.0021018793009474385 -0.014394434140031998 0 -0.0016061909970129201 -0.014769051016881328 0 -0.0018132991413085809 -0.015352458443069577 0 -0.001522441309830422 -0.015343350391553878 0 -0.0016061909970129201 -0.014769051016881328 0 -0.0016659485166092894 -0.01463517054165292 0 -0.0016059494611020894 -0.014747636985278962 0 -0.0022026494484930154 -0.013514954525048454 0 -0.0022804379562893226 -0.012479892733461805 0 -0.0023425251844689755 -0.012379428680917152 0 -0.0022130673618272166 -0.013515731604822471 0 -0.0021926497854038267 -0.013349459218735465 0 -0.0022026494484930154 -0.013514954525048454 0 -0.0017649966812761271 -0.013918702407797915 0 -0.0021018793009474385 -0.014394434140031998 0 -0.0022804379562893226 -0.012479892733461805 0 -0.0015386607950407085 -0.012522746464747516 0 -0.0017835373345294486 -0.012056681623260217 0 -0.0022404823555607039 -0.012495386784312435 0 -0.0015901334875606018 -0.012636621108680078 0 -0.0022026494484930154 -0.013514954525048454 0 -0.0022804379562893226 -0.012479892733461805 0 -0.001962299090156161 -0.013004625324629589 0 -0.0022804379562893226 -0.012479892733461805 0 -0.001962299090156161 -0.013004625324629589 0 -0.0015597038744528016 -0.012825520006788734 0 -0.001962299090156161 -0.013004625324629589 0 -0.0018093865561343817 -0.013403026674089697 0 -0.0015597038744528016 -0.012825520006788734 0 -0.0022026494484930154 -0.013514954525048454 0 -0.001962299090156161 -0.013004625324629589 0 -0.0018093865561343817 -0.013403026674089697 0 -0.0012072784624994459 -0.013179219950268925 0 -0.0014488293577392263 -0.013312362550730518 0 -0.0015597038744528016 -0.012825520006788734 0 -0.0018093865561343817 -0.013403026674089697 0 -0.0014488293577392263 -0.013312362550730518 0 -0.0015597038744528016 -0.012825520006788734 0 -0.0011209804614620181 -0.01224554552052441 0 -0.0015386607950407085 -0.012522746464747516 0 -0.0017835373345294486 -0.012056681623260217 0 -0.0011209804614620181 -0.01224554552052441 0 -0.001360689959317155 -0.011598063144945188 0 -0.0017835373345294486 -0.012056681623260217 0 -0.001360689959317155 -0.011598063144945188 0 -0.0017880455418679919 -0.011419120915674919 0 -0.0017835373345294486 -0.012056681623260217 0 -0.001360689959317155 -0.011598063144945188 0 -0.0017880455418679919 -0.011419120915674919 0 -0.0014844335030961887 -0.011154590352109852 0 -0.0017880455418679919 -0.011419120915674919 0 -0.0017835373345294486 -0.012056681623260217 0 -0.0023742155379318703 -0.011442883375760528 0 -0.0017835373345294486 -0.012056681623260217 0 -0.0023425251844689755 -0.012379428680917152 0 -0.0023742155379318703 -0.011442883375760528 0 -0.0022804379562893226 -0.012479892733461805 0 -0.0017835373345294486 -0.012056681623260217 0 -0.0023425251844689755 -0.012379428680917152 0 -0.0021926497854038267 -0.013349459218735465 0 -0.0022388911715605967 -0.013227233042450848 0 -0.0016061909970129201 -0.014769051016881328 0 -0.0018329024527306414 -0.014807498638361746 0 -0.001667891909356539 -0.014789865372437859 0 -0.0021018793009474385 -0.014394434140031998 0 -0.0016061909970129201 -0.014769051016881328 0 -0.0018329024527306414 -0.014807498638361746 0 -0.0022388911715605967 -0.013227233042450848 0 -0.0011494557520601064 -0.012191374091794422 0 -0.0018329024527306414 -0.014807498638361746 0 -0.0017771038048337007 -0.014830420134100741 0 -0.001667891909356539 -0.014789865372437859 0 0.0013409877440036318 -0.013343143853715796 0 -8.2452156639970705e-05 -0.014050473371075777 0 0.00055543468403098468 -0.012700894050374287 0 -0.0011494557520601064 -0.012191374091794422 0 -0.00076475005976855319 -0.014668254307227822 0 -0.0024071656667186978 -0.010568819588088694 0 -0.0018762601450686453 -0.010884740025401166 0 -0.0018037132977502016 -0.010241228741706875 0 -0.0011494557520601064 -0.012191374091794422 0 -0.0015340846029529669 -0.0099374069422690503 0 -0.0013530522146370677 -0.010763130589822405 0 -0.0018762601450686453 -0.010884740025401166 0 -0.0018037132977502016 -0.010241228741706875 0 -0.0013530522146370677 -0.010763130589822405 0 -0.0018037132977502016 -0.010241228741706875 0 -0.0010809223956564501 -0.010396537140284583 0 -0.0017880455418679919 -0.011419120915674919 0 -0.0014844335030961887 -0.011154590352109852 0 -0.0018762601450686453 -0.010884740025401166 0 -0.0013530522146370677 -0.010763130589822405 0 -0.0014844335030961887 -0.011154590352109852 0 -0.0018762601450686453 -0.010884740025401166 0 -0.0013530522146370677 -0.010763130589822405 0 -0.0014844335030961887 -0.011154590352109852 0 -0.0010745297026613788 -0.011157807206922435 0 -0.001360689959317155 -0.011598063144945188 0 -0.0014844335030961887 -0.011154590352109852 0 -0.0010745297026613788 -0.011157807206922435 0 -0.0017880455418679919 -0.011419120915674919 0 -0.0023742155379318703 -0.011442883375760528 0 -0.0018762601450686453 -0.010884740025401166 0 -0.0023742155379318703 -0.011442883375760528 0 -0.0024071656667186978 -0.010568819588088694 0 -0.0018762601450686453 -0.010884740025401166 0 -0.0026559494781544938 -0.014595182300388421 0 -0.0021662999325063196 -0.01493478101975009 0 -0.0023055829678871893 -0.014134068041132779 0 -0.0026559494781544938 -0.014595182300388421 0 -0.0025412594245357262 -0.015010490672023272 0 -0.0021662999325063196 -0.01493478101975009 0 -0.0027740718600669815 -0.015040221867480637 0 -0.0026559494781544938 -0.014595182300388421 0 -0.0025412594245357262 -0.015010490672023272 0 -0.0026372351182484973 -0.015233281443321645 0 -0.0025412594245357262 -0.015010490672023272 0 -0.0023753573544687051 -0.015155535632166067 0 -0.0026372351182484973 -0.015233281443321645 0 -0.0024254754677056271 -0.015310883719313795 0 -0.0023753573544687051 -0.015155535632166067 0 -0.0021845542775437974 -0.015258870767838523 0 -0.0024254754677056271 -0.015310883719313795 0 -0.0023753573544687051 -0.015155535632166067 0 -0.0025412594245357262 -0.015010490672023272 0 -0.0023753573544687051 -0.015155535632166067 0 -0.0021662999325063196 -0.01493478101975009 0 -0.0021845542775437974 -0.015258870767838523 0 -0.0023753573544687051 -0.015155535632166067 0 -0.0021662999325063196 -0.01493478101975009 0 -0.0021845542775437974 -0.015258870767838523 0 -0.0021662999325063196 -0.01493478101975009 0 -0.0018679447720213183 -0.015039345317387647 0 -0.0021662999325063196 -0.01493478101975009 0 -0.0016484819834650336 -0.014647392942905475 0 -0.0023055829678871893 -0.014134068041132779 0 -0.0016061909970129201 -0.014769051016881328 0 -0.001667891909356539 -0.014789865372437859 0 -0.0016484819834650336 -0.014647392942905475 0 -0.0021662999325063196 -0.01493478101975009 0 -0.0018679447720213183 -0.015039345317387647 0 -0.0016484819834650336 -0.014647392942905475 0 -0.0018132991413085809 -0.015352458443069577 0 -0.0016061909970129201 -0.014769051016881328 0 -0.0018679447720213183 -0.015039345317387647 0 -0.0016061909970129201 -0.014769051016881328 0 -0.0018679447720213183 -0.015039345317387647 0 -0.0016484819834650336 -0.014647392942905475 0 -0.00076475005976855319 -0.014668254307227822 0 -0.0016303249294324406 -0.014584379517684251 0 -8.2452156639970705e-05 -0.014050473371075777 0 -0.0012096438627971777 -0.013729484774568717 0 -0.0016484819834650336 -0.014647392942905475 0 -8.2452156639970705e-05 -0.014050473371075777 0 -0.0012096438627971777 -0.013729484774568717 0 -0.00071987589677713641 -0.012707482276565395 0 -8.2452156639970705e-05 -0.014050473371075777 0 -0.00071987589677713641 -0.012707482276565395 0 0.00055543468403098468 -0.012700894050374287 0 -0.0012096438627971777 -0.013729484774568717 0 -0.0018916595047634803 -0.013060962643192417 0 -0.00071987589677713641 -0.012707482276565395 0 -0.0012096438627971777 -0.013729484774568717 0 -0.0016484819834650336 -0.014647392942905475 0 -0.0023055829678871893 -0.014134068041132779 0 -0.0012096438627971777 -0.013729484774568717 0 -0.0023055829678871893 -0.014134068041132779 0 -0.0018916595047634803 -0.013060962643192417 0 -0.0033818770988512594 -0.012773903316058405 0 -0.0032138702296378887 -0.014049480621228018 0 -0.0023055829678871893 -0.014134068041132779 0 -0.0033818770988512594 -0.012773903316058405 0 -0.0023055829678871893 -0.014134068041132779 0 -0.0018916595047634803 -0.013060962643192417 0 -0.0032138702296378887 -0.014049480621228018 0 -0.0026559494781544938 -0.014595182300388421 0 -0.0023055829678871893 -0.014134068041132779 0 -0.0034456598206480324 -0.011334970901897851 0 -0.0033818770988512594 -0.012773903316058405 0 -0.0024905571476725682 -0.012066862748694038 0 -0.0033818770988512594 -0.012773903316058405 0 -0.0024905571476725682 -0.012066862748694038 0 -0.0018916595047634803 -0.013060962643192417 0 -0.0024905571476725682 -0.012066862748694038 0 -0.0018916595047634803 -0.013060962643192417 0 -0.0015599672661066226 -0.011900991994299627 0 -0.0024905571476725682 -0.012066862748694038 0 -0.0015599672661066226 -0.011900991994299627 0 -0.0019816223174223251 -0.011090528924350942 0 -0.0015599672661066226 -0.011900991994299627 0 -0.00071987589677713641 -0.012707482276565395 0 -0.00066432450875046037 -0.011549975449823965 0 -0.0015599672661066226 -0.011900991994299627 0 -0.00066432450875046037 -0.011549975449823965 0 -0.0012900348519045317 -0.010939716433859981 0 -0.0018916595047634803 -0.013060962643192417 0 -0.0015599672661066226 -0.011900991994299627 0 -0.00071987589677713641 -0.012707482276565395 0 -0.00071987589677713641 -0.012707482276565395 0 0.00055543468403098468 -0.012700894050374287 0 5.7860970711409434e-06 -0.011976786800023356 0 -0.00066432450875046037 -0.011549975449823965 0 5.7860970711409434e-06 -0.011976786800023356 0 0.00021940820561088729 -0.011225597842640793 0 -0.00071987589677713641 -0.012707482276565395 0 -0.00066432450875046037 -0.011549975449823965 0 5.7860970711409434e-06 -0.011976786800023356 0 -0.00066432450875046037 -0.011549975449823965 0 -0.00043219776382182631 -0.010566486429527589 0 -0.0012900348519045317 -0.010939716433859981 0 -0.00066432450875046037 -0.011549975449823965 0 -0.00043219776382182631 -0.010566486429527589 0 0.00021940820561088729 -0.011225597842640793 0 -0.00043219776382182631 -0.010566486429527589 0 -0.00014206740937410783 -0.0098923199714617202 0 0.00063061609223457433 -0.010190724895162264 0 -0.00014206740937410783 -0.0098923199714617202 0 -0.00064092945440654997 -0.0096755969978117203 0 -0.00024587209268019507 -0.0094911344267969832 0 -0.00014206740937410783 -0.0098923199714617202 0 6.6212061032814676e-05 -0.009557398505862378 0 -0.00024587209268019507 -0.0094911344267969832 0 -0.00043219776382182631 -0.010566486429527589 0 -0.00064092945440654997 -0.0096755969978117203 0 -0.001199419281805941 -0.010049495280140517 0 -0.00043219776382182631 -0.010566486429527589 0 -0.00014206740937410783 -0.0098923199714617202 0 -0.00064092945440654997 -0.0096755969978117203 0 -0.00064092945440654997 -0.0096755969978117203 0 -0.001199419281805941 -0.010049495280140517 0 -0.0009527377078509075 -0.0091875460794055841 0 -0.001199419281805941 -0.010049495280140517 0 -0.0018885745977429774 -0.0097414503785650201 0 -0.0015189053058989595 -0.0092676893147607825 0 -0.0015599672661066226 -0.011900991994299627 0 -0.0012900348519045317 -0.010939716433859981 0 -0.0019816223174223251 -0.011090528924350942 0 -0.001199419281805941 -0.010049495280140517 0 -0.0012900348519045317 -0.010939716433859981 0 -0.0020191820541210262 -0.010418499767085873 0 -0.00043219776382182631 -0.010566486429527589 0 -0.001199419281805941 -0.010049495280140517 0 -0.0012900348519045317 -0.010939716433859981 0 -0.0024905571476725682 -0.012066862748694038 0 -0.0019816223174223251 -0.011090528924350942 0 -0.0027597860868333337 -0.010671883943716751 0 -0.0019816223174223251 -0.011090528924350942 0 -0.0020191820541210262 -0.010418499767085873 0 -0.0027597860868333337 -0.010671883943716751 0 -0.0012900348519045317 -0.010939716433859981 0 -0.0019816223174223251 -0.011090528924350942 0 -0.0020191820541210262 -0.010418499767085873 0 -0.0020553285625800727 -0.0096132015041125781 0 -0.0029653612038544929 -0.010651311301146963 0 -0.001199419281805941 -0.010049495280140517 0 -0.0020191820541210262 -0.010418499767085873 0 -0.0018885745977429774 -0.0097414503785650201 0 -0.0020191820541210262 -0.010418499767085873 0 -0.0018885745977429774 -0.0097414503785650201 0 -0.0026969830878808524 -0.010069538337533762 0 -0.0020191820541210262 -0.010418499767085873 0 -0.0026969830878808524 -0.010069538337533762 0 -0.0027597860868333337 -0.010671883943716751 0 -0.0018885745977429774 -0.0097414503785650201 0 -0.0032758791379466782 -0.0097754873626577157 0 -0.002672728829096126 -0.0090414660787437873 0 -0.0026969830878808524 -0.010069538337533762 0 -0.0031478011927600267 -0.0098748560674168356 0 -0.0027597860868333337 -0.010671883943716751 0 -0.0018885745977429774 -0.0097414503785650201 0 -0.0026969830878808524 -0.010069538337533762 0 -0.0031433226274121887 -0.0098977176461076365 0 -0.0029758379622404469 -0.01027708197733547 0 -0.0029653612038544929 -0.010651311301146963 0 -0.0035334945581156096 -0.0094718996440797364 0 -0.0035433861051397827 -0.0096559871137098588 0 -0.0032758791379466782 -0.0097754873626577157 0 -0.002300465947998427 -0.010957981914596742 0 -0.0023139725136899431 -0.011195348833792498 0 -0.0027984656012673163 -0.01097606101040611 0 -0.0023920073779724153 -0.011245355876963266 0 -0.0029653612038544929 -0.010651311301146963 0 -0.0024954112475818403 -0.011586863590980446 0 -0.0029653612038544929 -0.010651311301146963 0 -0.0034027588430192417 -0.0098892317409652944 0 -0.0031478011927600267 -0.0098748560674168356 0 -0.0027597860868333337 -0.010671883943716751 0 -0.0034456598206480324 -0.011334970901897851 0 -0.0034027588430192417 -0.0098892317409652944 0 -0.0027597860868333337 -0.010671883943716751 0 -0.0034456598206480324 -0.011334970901897851 0 -0.0024905571476725682 -0.012066862748694038 0 -0.0027597860868333337 -0.010671883943716751 0 -0.0010648973283385154 -0.0092298413612009675 0 -0.0011467513892755221 -0.0099321768280276057 0 -0.001745215256792703 -0.009562065695734227 0 -0.0010648973283385154 -0.0092298413612009675 0 -0.001745215256792703 -0.009562065695734227 0 -0.001769813024927407 -0.008889718667908204 0 -0.0010648973283385154 -0.0092298413612009675 0 -0.0011467513892755221 -0.0099321768280276057 0 -0.0005854394430161923 -0.0096244665228715168 0 -0.0010648973283385154 -0.0092298413612009675 0 -0.00041845702882164506 -0.0092474059349336845 0 -0.0005854394430161923 -0.0096244665228715168 0 -0.0015340846029529669 -0.0099374069422690503 0 -0.00091758762688543178 -0.0098991041024638418 0 -0.0018037132977502016 -0.010241228741706875 0 -0.001190635033171561 -0.0099030858003066845 0 -0.0010809223956564501 -0.010396537140284583 0 -0.00171823978434544 -0.010245509195878537 0 -0.0011467513892755221 -0.0099321768280276057 0 -0.001745215256792703 -0.009562065695734227 0 -0.0011494557520601064 -0.012191374091794422 0 -0.00014145408316883275 -0.010692108330104259 0 0.0013409877440036318 -0.013343143853715796 0 0.00055543468403098468 -0.012700894050374287 0 0.0013190628598599246 -0.012080333065510906 0 0.00055543468403098468 -0.012700894050374287 0 0.00065057959519354504 -0.011833771399986436 0 0.0013190628598599246 -0.012080333065510906 0 0.00055543468403098468 -0.012700894050374287 0 5.7860970711409434e-06 -0.011976786800023356 0 0.00065057959519354504 -0.011833771399986436 0 0.00065057959519354504 -0.011833771399986436 0 0.0010364684889438704 -0.011217453235849056 0 0.00021940820561088729 -0.011225597842640793 0 5.7860970711409434e-06 -0.011976786800023356 0 0.00065057959519354504 -0.011833771399986436 0 0.00021940820561088729 -0.011225597842640793 0 0.0013190628598599246 -0.012080333065510906 0 0.0012912974746908674 -0.010650912579930541 0 0.0010364684889438704 -0.011217453235849056 0 -0.00014145408316883275 -0.010692108330104259 0 -0.00016593427542636082 -0.010016539974442597 0 0.00065057959519354504 -0.011833771399986436 0 0.0013190628598599246 -0.012080333065510906 0 0.0010364684889438704 -0.011217453235849056 0 0.0012912974746908674 -0.010650912579930541 0 0.0010364684889438704 -0.011217453235849056 0 0.00030986454192225867 -0.0098544316674844933 0 -0.00043219776382182631 -0.010566486429527589 0 0.00021940820561088729 -0.011225597842640793 0 0.00063061609223457433 -0.010190724895162264 0 0.00094786218849055308 -0.011036636331510728 0 0.00057626217577711923 -0.010220550120630077 0 0.0010364684889438704 -0.011217453235849056 0 0.00021940820561088729 -0.011225597842640793 0 0.00063061609223457433 -0.010190724895162264 0 0.00057626217577711923 -0.010220550120630077 0 -0.00061390729897719285 -0.0077884620740719026 0 6.6212061032814676e-05 -0.009557398505862378 0 0.00063061609223457433 -0.010190724895162264 0 0.00021252904301229163 -0.0090448097822687524 0 0.00030986454192225867 -0.0098544316674844933 0 -0.00039521548829165839 -0.008359690864194344 0 0.0012116104745692655 -0.0088873345142503907 0 -0.00014206740937410783 -0.0098923199714617202 0 6.6212061032814676e-05 -0.009557398505862378 0 0.00063061609223457433 -0.010190724895162264 0 -0.00016593427542636082 -0.010016539974442597 0 -0.0011873795938827573 -0.0074427780705750464 0 -0.001769813024927407 -0.008889718667908204 0 -0.0010530380323299845 -0.0084641793820646304 0 -0.0017961187414188861 -0.0082226865456886313 0 0.0012912974746908674 -0.010650912579930541 0 0.00030986454192225867 -0.0098544316674844933 0 0.0012116104745692655 -0.0088873345142503907 0 -0.0017761367096384383 -0.0058559795336112332 0 -0.0019249135841633753 -0.0057439325234314989 0 -0.0018651971448883308 -0.0057240203734305979 0 -0.0015716710345120544 -0.0071201805639678597 0 -0.0011873795938827573 -0.0074427780705750464 0 -0.0010648973283385154 -0.0092298413612009675 0 -0.001769813024927407 -0.008889718667908204 0 -0.0010530380323299845 -0.0084641793820646304 0 -0.0010648973283385154 -0.0092298413612009675 0 -0.00074616099412261447 -0.0088986392771810315 0 -0.00041845702882164506 -0.0092474059349336845 0 -0.0010648973283385154 -0.0092298413612009675 0 -0.00074616099412261447 -0.0088986392771810315 0 -0.0010530380323299845 -0.0084641793820646304 0 -0.00074616099412261447 -0.0088986392771810315 0 -0.0010530380323299845 -0.0084641793820646304 0 -0.00031078074136932588 -0.0086991242787455569 0 -0.0017761367096384383 -0.0058559795336112332 0 -0.0015097857440661423 -0.0059174900845984152 0 -0.0016776553766745706 -0.00576256793884728 0 -0.0015716710345120544 -0.0071201805639678597 0 -0.00079984247196251599 -0.0070316053784083661 0 -0.0017761367096384383 -0.0058559795336112332 0 -0.0017971929120353756 -0.005756790190271973 0 -0.0016776553766745706 -0.00576256793884728 0 -0.0017827872767826355 -0.0056311991629288327 0 -0.001720457253597746 -0.0057405941254914938 0 -0.0019392162412373473 -0.005531480715552416 0 -0.0015206627355582771 -0.0059944652611788746 0 -0.0018114765367541316 -0.0056454235894526838 0 -0.0017761367096384383 -0.0058559795336112332 0 -0.0015097857440661423 -0.0059174900845984152 0 -0.0014738494953904962 -0.0059842850325315996 0 -0.0019849977644978587 -0.0052727594484537838 0 -0.0015206627355582771 -0.0059944652611788746 0 -0.0019849977644978587 -0.0052727594484537838 0 -0.0014325752852369334 -0.0055272367046541237 0 -0.0016375065066891392 -0.0058765633146162753 0 -0.001278149150697773 -0.0062111160625036689 0 -0.0010906999356524378 -0.0061365919930692885 0 -0.0018401071470657061 -0.0055249462156612928 0 -0.0016375065066891392 -0.0058765633146162753 0 -0.0010906999356524378 -0.0061365919930692885 0 -0.0015206627355582771 -0.0059944652611788746 0 -0.0011299654640908078 -0.0065620424502588143 0 -0.0013460063142776443 -0.0062425729092580057 0 -0.00088387718007652296 -0.0066750702948590122 0 -0.0011443259465940042 -0.0065891924233143278 0 -0.0015206627355582771 -0.0059944652611788746 0 -0.00079984247196251599 -0.0070316053784083661 0 -0.0020172749515376559 -0.0047156567070228469 0 -0.0017996289569662529 -0.0046943063551980538 0 -0.0017832457109933691 -0.0049057461504563469 0 -0.0017996289569662529 -0.0046943063551980538 0 -0.0016392824848565698 -0.0048045560942723562 0 -0.0015406030557628711 -0.0046356830601928384 0 -0.0016392824848565698 -0.0048045560942723562 0 -0.0017832457109933691 -0.0049057461504563469 0 -0.0015625867036336244 -0.0049579911614977502 0 -0.0017996289569662529 -0.0046943063551980538 0 -0.0016392824848565698 -0.0048045560942723562 0 -0.0017832457109933691 -0.0049057461504563469 0 -0.0012702657842939436 -0.0062113547361964906 0 -0.0011957826768497827 -0.0062355627392114959 0 -0.00067029292025321137 -0.0067682174055011092 0 -0.0011299654640908078 -0.0065620424502588143 0 -0.00077378001405655362 -0.0066770837302640405 0 -0.00087676432342670462 -0.0068224468479249926 0 -0.0011890532204104256 -0.0063877279539184843 0 -0.00087987719341102878 -0.0069117813193717657 0 -0.0011957826768497827 -0.0062355627392114959 0 -0.0010906999356524378 -0.0061365919930692885 0 -0.00067029292025321137 -0.0067682174055011092 0 -0.00079984247196251599 -0.0070316053784083661 0 -0.0004089980991165555 -0.0078649605354032068 0 -0.0010708236869637303 -0.006425424415738186 0 -0.00087676432342670462 -0.0068224468479249926 0 -0.0011890532204104256 -0.0063877279539184843 0 -0.0011299654640908078 -0.0065620424502588143 0 -0.0011462157472848927 -0.006548597614126711 0 -0.001278149150697773 -0.0062111160625036689 0 -0.0011957826768497827 -0.0062355627392114959 0 -0.0010906999356524378 -0.0061365919930692885 0 -0.0017832457109933691 -0.0049057461504563469 0 -0.0015625867036336244 -0.0049579911614977502 0 -0.0015380818759081734 -0.0051060136464252488 0 -0.0014325752852369334 -0.0055272367046541237 0 -0.00093526875039522334 -0.0056680802165446752 0 -0.0010906999356524378 -0.0061365919930692885 0 -0.00067029292025321137 -0.0067682174055011092 0 -0.00042178415754300905 -0.0066944023616570597 0 -0.00067029292025321137 -0.0067682174055011092 0 -0.00087676432342670462 -0.0068224468479249926 0 -0.00088755514103011364 -0.0069258073057964897 0 -0.0010708236869637303 -0.006425424415738186 0 -0.00067029292025321137 -0.0067682174055011092 0 -0.00087676432342670462 -0.0068224468479249926 0 -0.00031078074136932588 -0.0086991242787455569 0 -0.00041845702882164506 -0.0092474059349336845 0 -2.1514988542666102e-05 -0.00918836744599889 0 -0.00074616099412261447 -0.0088986392771810315 0 -0.00031078074136932588 -0.0086991242787455569 0 -0.00041845702882164506 -0.0092474059349336845 0 -0.0011299654640908078 -0.0065620424502588143 0 -0.00079984247196251599 -0.0070316053784083661 0 -0.00098547554523900128 -0.0046307218428582146 0 -0.00050071424377165377 -0.0046720108257090791 0 -0.00098547554523900128 -0.0046307218428582146 0 -0.0013546834371488204 -0.0047678866222363144 0 -0.0011366367834654094 -0.0047334206836694252 0 -0.0013503089139252867 -0.0047801627457865394 0 -0.0013165085394487325 -0.0045879944576024696 0 -0.0011021173048399449 -0.0047304352484947082 0 -0.0013503089139252867 -0.0047801627457865394 0 -0.0011506771156102489 -0.0049819020722237485 0 -0.0013503089139252867 -0.0047801627457865394 0 -0.0015085112619362274 -0.0048339350523861025 0 -0.0014344369255324906 -0.0049611854064785382 0 -0.0013503089139252867 -0.0047801627457865394 0 -0.0013165085394487325 -0.0045879944576024696 0 -0.0015406030557628711 -0.0046356830601928384 0 -0.0013503089139252867 -0.0047801627457865394 0 -0.0015085112619362274 -0.0048339350523861025 0 -0.0015406030557628711 -0.0046356830601928384 0 -0.0016392824848565698 -0.0048045560942723562 0 -0.0015085112619362274 -0.0048339350523861025 0 -0.0015406030557628711 -0.0046356830601928384 0 -0.0016392824848565698 -0.0048045560942723562 0 -0.0015085112619362274 -0.0048339350523861025 0 -0.0015625867036336244 -0.0049579911614977502 0 -0.00038441698687305458 -0.0052526989959613673 0 -0.00018009029784402689 -0.0051439724108675476 0 -0.00034540741298554653 -0.0052825245643919293 0 -0.0014821364921243133 -0.0051499232758349467 0 -0.0014344369255324906 -0.0049611854064785382 0 -0.0011506771156102489 -0.0049819020722237485 0 -0.0015625867036336244 -0.0049579911614977502 0 -0.0015393875966451928 -0.0051039452371551865 0 -0.0014344369255324906 -0.0049611854064785382 0 -0.0013031212997317351 -0.0049674850017020124 0 -0.00093526875039522334 -0.0056680802165446752 0 -0.0015085112619362274 -0.0048339350523861025 0 -0.0015625867036336244 -0.0049579911614977502 0 -0.0014344369255324906 -0.0049611854064785382 0 -0.0015393875966451928 -0.0051039452371551865 0 -0.0014821364921243133 -0.0051499232758349467 0 -0.0014344369255324906 -0.0049611854064785382 0 -0.00093526875039522334 -0.0056680802165446752 0 -0.0006484730260048491 -0.0059797756906155254 0 -0.00067029292025321137 -0.0067682174055011092 0 -0.00042178415754300905 -0.0066944023616570597 0 -0.00041209859295099149 -0.0068649360413048982 0 -0.00073031698140892456 -0.0057616209137001974 0 -0.00073930575487090211 -0.0057546872672864504 0 -0.00073181459819280574 -0.0057511569695454286 0 -0.00082640437701588258 -0.005660076434671011 0 -0.0006484730260048491 -0.0059797756906155254 0 -0.00093526875039522334 -0.0056680802165446752 0 -0.00082640437701588258 -0.005660076434671011 0 -0.00082640437701588258 -0.005660076434671011 0 -0.00050071424377165377 -0.0046720108257090791 0 -0.0013503089139252867 -0.0047801627457865394 0 -0.0014344369255324906 -0.0049611854064785382 0 -0.0011506771156102489 -0.0049819020722237485 0 -0.00050071424377165377 -0.0046720108257090791 0 -0.00019833750840326942 -0.0047168751327582121 0 -0.00018009029784402689 -0.0051439724108675476 0 -0.000307556857399392 -0.0053729309650390128 0 -0.00034540741298554653 -0.0052825245643919293 0 -0.00018009029784402689 -0.0051439724108675476 0 -0.000307556857399392 -0.0053729309650390128 0 -0.00023116331335714199 -0.0054333259270028574 0 -0.000328536078446074 -0.0064847583731808978 0 -0.00030773651571716626 -0.0066037936323850499 0 -0.00040767995180079902 -0.006528112813271111 0 -0.00034540741298554653 -0.0052825245643919293 0 -0.00041226930622010813 -0.0052690741680518991 0 -0.00038126391945581309 -0.005435578573045715 0 -0.0006484730260048491 -0.0059797756906155254 0 -0.00036052721609097907 -0.0059102327521042466 0 -0.000307556857399392 -0.0053729309650390128 0 -0.00034540741298554653 -0.0052825245643919293 0 -0.00038126391945581309 -0.005435578573045715 0 -0.00082640437701588258 -0.005660076434671011 0 -0.00070474938014815792 -0.0056163803910460053 0 -0.00038370358348119294 -0.0052544388486173146 0 -0.00034540741298554653 -0.0052825245643919293 0 -0.00041226930622010813 -0.0052690741680518991 0 -0.00030773651571716626 -0.0066037936323850499 0 -0.00034772503426967332 -0.006625212493688231 0 -0.00040767995180079902 -0.006528112813271111 0 -0.00038126391945581309 -0.005435578573045715 0 -0.00030969279448656039 -0.0055117566165484777 0 -0.00035033015479301352 -0.0056002074898547785 0 -0.00036052721609097907 -0.0059102327521042466 0 0.00010927623295585104 -0.0067567281904421742 0 -0.00030773651571716626 -0.0066037936323850499 0 -0.00034772503426967332 -0.006625212493688231 0 -0.00028448342080832816 -0.0067272566173452418 0 -0.00015642919978752073 -0.0069245143234159603 0 0.00010927623295585104 -0.0067567281904421742 0 -0.000307556857399392 -0.0053729309650390128 0 -0.00038126391945581309 -0.005435578573045715 0 -0.00030969279448656039 -0.0055117566165484777 0 -0.00019833750840326942 -0.0047168751327582121 0 0.00012870142204213583 -0.0051323898686066382 0 -0.00030969279448656039 -0.0055117566165484777 0 -0.00023116331335714199 -0.0054333259270028574 0 -0.00028023780499735216 -0.0057134120687116546 0 -0.00016737292920417953 -0.0041109791078242771 0 -0.00013097276022808063 -0.0041608331890744532 0 -0.00012401117254689633 -0.0041186183465263069 0 -0.000307556857399392 -0.0053729309650390128 0 -0.00030969279448656039 -0.0055117566165484777 0 -0.00023116331335714199 -0.0054333259270028574 0 -0.00046834115602823948 -0.0081261916062926563 0 -0.00091758762688543178 -0.0098991041024638418 0 -0.00041845702882164506 -0.0092474059349336845 0 -2.6344590272234971e-05 -0.0093215267716791634 0 -0.0005854394430161923 -0.0096244665228715168 0 -0.00041845702882164506 -0.0092474059349336845 0 -2.1514988542666102e-05 -0.00918836744599889 0 -2.6344590272234971e-05 -0.0093215267716791634 0 -0.00043915084951760765 -0.0075891526342167139 0 -0.0004089980991165555 -0.0078649605354032068 0 -0.00028447973941824958 -0.0077690202319474436 0 -0.00027988702575311062 -0.0076370824818701513 0 -0.0003438702564397951 -0.0076689552925186628 0 -0.0004089980991165555 -0.0078649605354032068 0 -0.00046834115602823948 -0.0081261916062926563 0 -0.00046834115602823948 -0.0081261916062926563 0 -0.00047035080373382138 -0.00740742452951983 0 -0.0006484730260048491 -0.0059797756906155254 0 -0.00047035080373382138 -0.00740742452951983 0 -0.00067029292025321137 -0.0067682174055011092 0 -0.00041209859295099149 -0.0068649360413048982 0 -0.00082194351973646979 -0.0070554088568572501 0 -0.00067029292025321137 -0.0067682174055011092 0 -0.00088755514103011364 -0.0069258073057964897 0 -0.00082194351973646979 -0.0070554088568572501 0 -0.0004089980991165555 -0.0078649605354032068 0 -0.00047035080373382138 -0.00740742452951983 0 7.2351049302465118e-05 -0.0072575063615140109 0 -0.00038856764640923694 -0.0067151737644741746 0 -0.00028590954249553416 -0.0066639442553710869 0 -0.00015642919978752073 -0.0069245143234159603 0 -0.00047035080373382138 -0.00740742452951983 0 -0.00046834115602823948 -0.0081261916062926563 0 -0.00052750522726247029 -0.009139897252222506 0 7.2351049302465118e-05 -0.0072575063615140109 0 -0.00045298249083316046 -0.0078758178059469951 0 0.00046002527802724297 -0.007869877392614414 0 7.2351049302465118e-05 -0.0072575063615140109 0 -0.00038856764640923694 -0.0067151737644741746 0 -0.00045298249083316046 -0.0078758178059469951 0 -0.001190635033171561 -0.0099030858003066845 0 -0.0010809223956564501 -0.010396537140284583 0 -0.00059374561220526187 -0.010392995823538599 0 -0.00055072165088915085 -0.0095610344748226061 0 -0.001190635033171561 -0.0099030858003066845 0 -0.00059374561220526187 -0.010392995823538599 0 -0.0010809223956564501 -0.010396537140284583 0 -0.00094567756943803277 -0.010782406402403542 0 -0.00059374561220526187 -0.010392995823538599 0 -0.0013530522146370677 -0.010763130589822405 0 -0.0010809223956564501 -0.010396537140284583 0 -0.00094567756943803277 -0.010782406402403542 0 -0.0013530522146370677 -0.010763130589822405 0 -0.00094567756943803277 -0.010782406402403542 0 -0.0010745297026613788 -0.011157807206922435 0 -0.00094567756943803277 -0.010782406402403542 0 -0.0010745297026613788 -0.011157807206922435 0 -0.00065736772843441767 -0.011198857297274279 0 -0.0010745297026613788 -0.011157807206922435 0 -0.00065736772843441767 -0.011198857297274279 0 -0.00094290937009686702 -0.011564475983284771 0 -0.00058563070192063388 -0.0091738216137607839 0 0.0001876952083853673 -0.0091417785839372212 0 -0.00013038147001875631 -0.010020270958950877 0 -0.00020689762338280284 -0.0086497636681713095 0 5.5322823446657788e-05 -0.0084287712652870474 0 0.0001876952083853673 -0.0091417785839372212 0 -0.00058563070192063388 -0.0091738216137607839 0 -0.00020689762338280284 -0.0086497636681713095 0 0.0001876952083853673 -0.0091417785839372212 0 -0.00062265382638513158 -0.010188263188664982 0 -0.00052750522726247029 -0.009139897252222506 0 -0.00058563070192063388 -0.0091738216137607839 0 -0.00020689762338280284 -0.0086497636681713095 0 -0.00045298249083316046 -0.0078758178059469951 0 -0.00094567756943803277 -0.010782406402403542 0 -0.00065736772843441767 -0.011198857297274279 0 -0.00059374561220526187 -0.010392995823538599 0 -0.00020689762338280284 -0.0086497636681713095 0 -0.00045298249083316046 -0.0078758178059469951 0 5.5322823446657788e-05 -0.0084287712652870474 0 -0.00045298249083316046 -0.0078758178059469951 0 0.00046002527802724297 -0.007869877392614414 0 5.5322823446657788e-05 -0.0084287712652870474 0 0.00010927623295585104 -0.0067567281904421742 0 0.00036968584921169881 -0.0070408643248608344 0 0.00046002527802724297 -0.007869877392614414 0 5.5322823446657788e-05 -0.0084287712652870474 0 0.00064356863689244456 -0.0088341579512075889 0 0.00038709216241873749 -0.0064580616479627323 0 0.00021912379444842802 -0.0061723152025929739 0 0.00030971583587159732 -0.0059695595572497265 0 -0.00030969279448656039 -0.0055117566165484777 0 -0.00035033015479301352 -0.0056002074898547785 0 -0.00028023780499735216 -0.0057134120687116546 0 0.00010927623295585104 -0.0067567281904421742 0 0.00012870142204213583 -0.0051323898686066382 0 0.00012870142204213583 -0.0051323898686066382 0 0.00050801975224216988 -0.0055928200387799411 0 0.00021185735312389639 -0.0042029944991031206 0 -0.00010342191728042279 -0.0034243402905207517 0 -0.00017748630357313882 -0.0041820013000287799 0 -0.0001705070324607891 -0.0041926132685358563 0 -0.00013097276022808063 -0.0041608331890744532 0 -4.9810716263767935e-05 -0.0026909675867111088 0 -2.5327123653838738e-05 -0.0027038031684586523 0 -6.6175315649198886e-05 -0.0027219099190655743 0 -0.00016737292920417953 -0.0041109791078242771 0 -0.00017748630357313882 -0.0041820013000287799 0 -0.00013097276022808063 -0.0041608331890744532 0 0.00012870142204213583 -0.0051323898686066382 0 0.00021185735312389639 -0.0042029944991031206 0 -4.9810716263767935e-05 -0.0026909675867111088 0 -2.5327123653838738e-05 -0.0027038031684586523 0 -4.814263998736947e-05 -0.0026668576615034552 0 0.00021185735312389639 -0.0042029944991031206 0 -1.3576208330656308e-05 -0.0028253972974176629 0 0.0004208179598255916 -0.0048434157375392591 0 0.00046905748378578015 -0.0049251863225435377 0 0.00039584594829065821 -0.0049707723717046237 0 0.00021185735312389639 -0.0042029944991031206 0 0.00050801975224216988 -0.0055928200387799411 0 0.00016193303928782295 -0.0032053527789632835 0 0.00068078859189359153 -0.0034005173721224926 0 0.00038274818823211645 -0.0030862578367921306 0 0.00047137047435000506 -0.0037657087649204577 0 0.00016193303928782295 -0.0032053527789632835 0 0.00068078859189359153 -0.0034005173721224926 0 -4.9810716263767935e-05 -0.0026909675867111088 0 -4.814263998736947e-05 -0.0026668576615034552 0 -6.7418391641178849e-05 -0.0026788944784690186 0 0.00080637238080728964 -0.0087510661337317202 0 0.0001876952083853673 -0.0091417785839372212 0 0.00051711006390217195 -0.0098083718576668245 0 0.00080637238080728964 -0.0087510661337317202 0 0.00086473201142970115 -0.0090976686505100223 0 0.00051711006390217195 -0.0098083718576668245 0 5.5322823446657788e-05 -0.0084287712652870474 0 0.00064356863689244456 -0.0088341579512075889 0 0.0001876952083853673 -0.0091417785839372212 0 0.00036968584921169881 -0.0070408643248608344 0 -5.0696940519531157e-05 -0.0086488534526413165 0 0.00047137047435000506 -0.0037657087649204577 0 0.00062418526193228562 -0.0036741311280824832 0 0.00068078859189359153 -0.0034005173721224926 0 0.00021912379444842802 -0.0061723152025929739 0 0.00025141970169268829 -0.0060042692966981292 0 0.00030971583587159732 -0.0059695595572497265 0 0.00050801975224216988 -0.0055928200387799411 0 0.00036968584921169881 -0.0070408643248608344 0 0.00036968584921169881 -0.0070408643248608344 0 0.00056141357875766926 -0.0061083473079051901 0 0.00050801975224216988 -0.0055928200387799411 0 0.00056141357875766926 -0.0061083473079051901 0 0.00024661170446134027 -0.0064239004035603923 0 0.0003229734887609944 -0.0063774922156379799 0 0.00029302246900956793 -0.006196644986221439 0 0.0001876952083853673 -0.0091417785839372212 0 0.00051711006390217195 -0.0098083718576668245 0 -0.00013038147001875631 -0.010020270958950877 0 0.00086473201142970115 -0.0090976686505100223 0 0.00051711006390217195 -0.0098083718576668245 0 0.0010935209516715963 -0.010437692664390779 0 0.00056141357875766926 -0.0061083473079051901 0 0.00068972923285542487 -0.0069022594019910394 0 0.00051711006390217195 -0.0098083718576668245 0 0.00076935015002642609 -0.010326643322950232 0 0.0010935209516715963 -0.010437692664390779 0 0.0012686188525133733 -0.0079537381474592828 0 0.00068972923285542487 -0.0069022594019910394 0 0.00051711006390217195 -0.0098083718576668245 0 0.00076935015002642609 -0.010326643322950232 0 0.00035490611126779011 -0.010190868898773209 0 0.00076935015002642609 -0.010326643322950232 0 0.00035490611126779011 -0.010190868898773209 0 0.00026311912602640256 -0.010612988392296591 0 0.00051711006390217195 -0.0098083718576668245 0 0.00035490611126779011 -0.010190868898773209 0 -0.00013038147001875631 -0.010020270958950877 0 0.00035490611126779011 -0.010190868898773209 0 0.00026311912602640256 -0.010612988392296591 0 -0.00013038147001875631 -0.010020270958950877 0 0.00068078859189359153 -0.0034005173721224926 0 0.00043541003929298342 -0.002905804984498155 0 0.00054372521275872828 -0.0026184502123871019 0 0.00016193303928782295 -0.0032053527789632835 0 0.00022302458597895657 -0.0028858428389522241 0 0.00038274818823211645 -0.0030862578367921306 0 0.00016193303928782295 -0.0032053527789632835 0 0.00022302458597895657 -0.0028858428389522241 0 -3.1508205023340228e-05 -0.0026693894888227508 0 -1.3576208330656308e-05 -0.0028253972974176629 0 -7.3945251343316973e-06 -0.0027537882236326303 0 0.00068078859189359153 -0.0034005173721224926 0 0.00038274818823211645 -0.0030862578367921306 0 0.00043541003929298342 -0.002905804984498155 0 0.00022302458597895657 -0.0028858428389522241 0 0.00038274818823211645 -0.0030862578367921306 0 0.00043541003929298342 -0.002905804984498155 0 0.00043541003929298342 -0.002905804984498155 0 0.00054372521275872828 -0.0026184502123871019 0 0.00036494279325532638 -0.0025554442811337873 0 0.00022302458597895657 -0.0028858428389522241 0 0.00043541003929298342 -0.002905804984498155 0 0.00036494279325532638 -0.0025554442811337873 0 0.00062818227081065442 -0.0027682369133052017 0 0.00062491611628488286 -0.004423292610511418 0 0.00022302458597895657 -0.0028858428389522241 0 7.0242625705922455e-05 -0.0026412396281537622 0 -3.1508205023340228e-05 -0.0026693894888227508 0 0.00022302458597895657 -0.0028858428389522241 0 7.0242625705922455e-05 -0.0026412396281537622 0 0.0002480725699718945 -0.0026076004215306228 0 0.00084727049322635051 -0.0035496777604792492 0 0.0010019513135275534 -0.0038921235196192803 0 0.00058293102079903932 -0.0037112868442721169 0 0.00062491611628488286 -0.004423292610511418 0 0.00021018248130862363 -0.0030412269353597538 0 7.0242625705922455e-05 -0.0026412396281537622 0 0.0002480725699718945 -0.0026076004215306228 0 -8.551002712664632e-05 -0.0025423192753583164 0 0.00068972923285542487 -0.0069022594019910394 0 0.00052481153708407288 -0.0074482828057407186 0 0.00062491611628488286 -0.004423292610511418 0 0.00052481153708407288 -0.0074482828057407186 0 0.00018427784513246905 -0.0057946823243558441 0 0.00066651260177432012 -0.0059679287590127528 0 0.00033945824919109929 -0.0068058160656781401 0 0.00068972923285542487 -0.0069022594019910394 0 0.00062491611628488286 -0.004423292610511418 0 0.00084727049322635051 -0.0035496777604792492 0 0.0010019513135275534 -0.0038921235196192803 0 0.0010747786684484465 -0.0037095549427630498 0 0.00026311912602640256 -0.010612988392296591 0 0.00080932546879026264 -0.010761003858624234 0 0.00050350232609804773 -0.011100682452212688 0 0.00076935015002642609 -0.010326643322950232 0 0.00026311912602640256 -0.010612988392296591 0 0.00080932546879026264 -0.010761003858624234 0 0.0011191920383024749 -0.010444344901291789 0 0.0012271691576720694 -0.011145267488308916 0 0.00080932546879026264 -0.010761003858624234 0 0.00076935015002642609 -0.010326643322950232 0 0.0011191920383024749 -0.010444344901291789 0 0.00080932546879026264 -0.010761003858624234 0 0.0002572446507002399 -0.011780529946340447 0 0.0012271691576720694 -0.011145267488308916 0 0.00050350232609804773 -0.011100682452212688 0 0.0012271691576720694 -0.011145267488308916 0 0.00080932546879026264 -0.010761003858624234 0 0.00050350232609804773 -0.011100682452212688 0 0.00026311912602640256 -0.010612988392296591 0 0.00050350232609804773 -0.011100682452212688 0 -0.00012732394145788711 -0.011295418143250663 0 0.0002572446507002399 -0.011780529946340447 0 0.00050350232609804773 -0.011100682452212688 0 -0.00012732394145788711 -0.011295418143250663 0 0.00026311912602640256 -0.010612988392296591 0 -0.00072154376679524595 -0.010801140184557141 0 -0.00013038147001875631 -0.010020270958950877 0 0.00026311912602640256 -0.010612988392296591 0 -0.00012732394145788711 -0.011295418143250663 0 -0.00072154376679524595 -0.010801140184557141 0 -0.0011209804614620181 -0.01224554552052441 0 -0.0007326720064740153 -0.011943858916316386 0 -0.00094290937009686702 -0.011564475983284771 0 -0.0011209804614620181 -0.01224554552052441 0 -0.001360689959317155 -0.011598063144945188 0 -0.00094290937009686702 -0.011564475983284771 0 -0.001360689959317155 -0.011598063144945188 0 -0.0010745297026613788 -0.011157807206922435 0 -0.00094290937009686702 -0.011564475983284771 0 -0.00062265382638513158 -0.010188263188664982 0 -0.0007157695303627433 -0.011387803181270674 0 -0.00058563070192063388 -0.0091738216137607839 0 -0.00072154376679524595 -0.010801140184557141 0 -0.00013038147001875631 -0.010020270958950877 0 -0.00065736772843441767 -0.011198857297274279 0 -0.0007326720064740153 -0.011943858916316386 0 -0.00094290937009686702 -0.011564475983284771 0 -0.00017327712017463441 -0.0025824682573731242 0 -0.00021234315544369073 -0.0026088666825703319 0 -0.0001494304679742095 -0.0026328973132505179 0 -0.00017327712017463441 -0.0025824682573731242 0 -0.00021234315544369073 -0.0026088666825703319 0 -0.00022628467221716305 -0.0025413551045104991 0 -0.00021234315544369073 -0.0026088666825703319 0 -0.00022628467221716305 -0.0025413551045104991 0 -0.00028878167623198702 -0.0025565732295986078 0 -0.00021234315544369073 -0.0026088666825703319 0 -0.00026663863676437639 -0.002622311184399435 0 -0.00028878167623198702 -0.0025565732295986078 0 -0.00027080426809337067 -0.0025127818871798478 0 -0.00022628467221716305 -0.0025413551045104991 0 -0.00028878167623198702 -0.0025565732295986078 0 -0.00022555068026375777 -0.002472046705446812 0 -0.00027080426809337067 -0.0025127818871798478 0 -0.00022628467221716305 -0.0025413551045104991 0 -0.00015664806295805585 -0.0025093803302285783 0 -0.00017327712017463441 -0.0025824682573731242 0 -0.00022628467221716305 -0.0025413551045104991 0 -0.00015664806295805585 -0.0025093803302285783 0 -0.00022555068026375777 -0.002472046705446812 0 -0.00022628467221716305 -0.0025413551045104991 0 -0.00015664806295805585 -0.0025093803302285783 0 -0.00017327712017463441 -0.0025824682573731242 0 -0.00011562413278795341 -0.0026112109977419486 0 9.274779072546299e-06 -0.0030108109384153797 0 0.00021018248130862363 -0.0030412269353597538 0 -0.00015664806295805585 -0.0025093803302285783 0 -8.551002712664632e-05 -0.0025423192753583164 0 -0.00011562413278795341 -0.0026112109977419486 0 -8.551002712664632e-05 -0.0025423192753583164 0 -3.1508205023340228e-05 -0.0026693894888227508 0 -0.00011562413278795341 -0.0026112109977419486 0 7.0242625705922455e-05 -0.0026412396281537622 0 -8.551002712664632e-05 -0.0025423192753583164 0 -3.1508205023340228e-05 -0.0026693894888227508 0 -5.8275964923805842e-05 -0.0026627286547553234 0 -0.00011562413278795341 -0.0026112109977419486 0 -0.00010065714690060322 -0.0026619683294944992 0 -3.1508205023340228e-05 -0.0026693894888227508 0 -5.8275964923805842e-05 -0.0026627286547553234 0 -0.00011562413278795341 -0.0026112109977419486 0 -4.814263998736947e-05 -0.0026668576615034552 0 -3.1508205023340228e-05 -0.0026693894888227508 0 -5.8275964923805842e-05 -0.0026627286547553234 0 -0.00011562413278795341 -0.0026112109977419486 0 -0.0001494304679742095 -0.0026328973132505179 0 -0.00010065714690060322 -0.0026619683294944992 0 -0.00017327712017463441 -0.0025824682573731242 0 -0.00011562413278795341 -0.0026112109977419486 0 -0.0001494304679742095 -0.0026328973132505179 0 -0.0001494304679742095 -0.0026328973132505179 0 -0.0001364942359307457 -0.0026758130328992085 0 -0.00010065714690060322 -0.0026619683294944992 0 -0.0001364942359307457 -0.0026758130328992085 0 -0.00010065714690060322 -0.0026619683294944992 0 -0.00010053191421591788 -0.0026866675886046457 0 -0.0001494304679742095 -0.0026328973132505179 0 -0.0001364942359307457 -0.0026758130328992085 0 -0.00017503447683336315 -0.0026600028268921275 0 -4.9810716263767935e-05 -0.0026909675867111088 0 -6.7418391641178849e-05 -0.0026788944784690186 0 -6.6175315649198886e-05 -0.0027219099190655743 0 -4.814263998736947e-05 -0.0026668576615034552 0 -5.8275964923805842e-05 -0.0026627286547553234 0 -6.7418391641178849e-05 -0.0026788944784690186 0 -5.8275964923805842e-05 -0.0026627286547553234 0 -0.00010065714690060322 -0.0026619683294944992 0 -6.7418391641178849e-05 -0.0026788944784690186 0 -0.00010065714690060322 -0.0026619683294944992 0 -0.00010053191421591788 -0.0026866675886046457 0 -6.7418391641178849e-05 -0.0026788944784690186 0 -6.6175315649198886e-05 -0.0027219099190655743 0 -0.00012366760608297571 -0.0027079223711062913 0 -0.000122826728637593 -0.002753688633327798 0 -0.00010053191421591788 -0.0026866675886046457 0 -6.7418391641178849e-05 -0.0026788944784690186 0 -6.6175315649198886e-05 -0.0027219099190655743 0 -0.00010342191728042279 -0.0034243402905207517 0 -0.00016005020710048898 -0.0031686730641340365 0 -0.00010053191421591788 -0.0026866675886046457 0 -6.6175315649198886e-05 -0.0027219099190655743 0 -0.00012366760608297571 -0.0027079223711062913 0 -0.0001364942359307457 -0.0026758130328992085 0 -0.00017054132671204749 -0.002704273956465139 0 -0.00017503447683336315 -0.0026600028268921275 0 -0.0001364942359307457 -0.0026758130328992085 0 -0.00012366760608297571 -0.0027079223711062913 0 -0.00017054132671204749 -0.002704273956465139 0 -0.0001364942359307457 -0.0026758130328992085 0 -0.00010053191421591788 -0.0026866675886046457 0 -0.00012366760608297571 -0.0027079223711062913 0 -0.00014254070446639933 -0.0026455805706446438 0 -0.00016005020710048898 -0.0031686730641340365 0 -0.00012366760608297571 -0.0027079223711062913 0 -0.00017054132671204749 -0.002704273956465139 0 -0.00012406195427118097 -0.0027353972411361311 0 -0.00017054132671204749 -0.002704273956465139 0 -0.00022540250326095158 -0.0026662264525602599 0 -0.0002520754212247082 -0.0027160975377692144 0 -0.00017054132671204749 -0.002704273956465139 0 -0.00017503447683336315 -0.0026600028268921275 0 -0.00022540250326095158 -0.0026662264525602599 0 -0.00021234315544369073 -0.0026088666825703319 0 -0.0001494304679742095 -0.0026328973132505179 0 -0.00017503447683336315 -0.0026600028268921275 0 -0.00021234315544369073 -0.0026088666825703319 0 -0.00017503447683336315 -0.0026600028268921275 0 -0.00022540250326095158 -0.0026662264525602599 0 -0.00021234315544369073 -0.0026088666825703319 0 -0.00026663863676437639 -0.002622311184399435 0 -0.00022540250326095158 -0.0026662264525602599 0 -0.00026663863676437639 -0.002622311184399435 0 -0.00022540250326095158 -0.0026662264525602599 0 -0.00028397316587662426 -0.0026708348827021431 0 -0.00022540250326095158 -0.0026662264525602599 0 -0.0002520754212247082 -0.0027160975377692144 0 -0.00028397316587662426 -0.0026708348827021431 0 -0.0002520754212247082 -0.0027160975377692144 0 -0.00018367647021149715 -0.0027655788511639482 0 -0.00031470361633844008 -0.0027695818306340964 0 -0.00017054132671204749 -0.002704273956465139 0 -0.0002520754212247082 -0.0027160975377692144 0 -0.00018367647021149715 -0.0027655788511639482 0 -0.00018367647021149715 -0.0027655788511639482 0 -0.00018359534798974471 -0.002860947598450268 0 -5.9560030789565395e-05 -0.0028544273556372493 0 -0.00018367647021149715 -0.0027655788511639482 0 -0.00018359534798974471 -0.002860947598450268 0 -0.00031470361633844008 -0.0027695818306340964 0 -0.00018359534798974471 -0.002860947598450268 0 -0.00025670537735561174 -0.0029345874158022505 0 -0.00031470361633844008 -0.0027695818306340964 0 -0.00012401117254689633 -0.0041186183465263069 0 -9.2899723802918445e-05 -0.0041298005849465013 0 -9.7194365002710624e-05 -0.0040711631130967369 0 -0.00013097276022808063 -0.0041608331890744532 0 -0.00012401117254689633 -0.0041186183465263069 0 -9.2899723802918445e-05 -0.0041298005849465013 0 -0.00017054132671204749 -0.002704273956465139 0 -0.00018367647021149715 -0.0027655788511639482 0 -0.00012406195427118097 -0.0027353972411361311 0 -0.00010635001056582126 -0.0026635476832636467 0 -0.00016005020710048898 -0.0031686730641340365 0 -0.00018367647021149715 -0.0027655788511639482 0 -6.9747184364831488e-05 -0.002703446262100596 0 -5.9560030789565395e-05 -0.0028544273556372493 0 -0.00016005020710048898 -0.0031686730641340365 0 -5.9241567909384196e-05 -0.0034758965499702811 0 -0.00015804929385333769 -0.004043336726559885 0 -0.00016737292920417953 -0.0041109791078242771 0 -9.7194365002710624e-05 -0.0040711631130967369 0 -0.00016737292920417953 -0.0041109791078242771 0 -0.00012401117254689633 -0.0041186183465263069 0 -9.7194365002710624e-05 -0.0040711631130967369 0 -0.00015804929385333769 -0.004043336726559885 0 -9.7194365002710624e-05 -0.0040711631130967369 0 -0.00010125147020729837 -0.0040090719233629498 0 -0.00018359534798974471 -0.002860947598450268 0 -5.9560030789565395e-05 -0.0028544273556372493 0 -0.00012783653841736263 -0.0029769885873417736 0 -5.9241567909384196e-05 -0.0034758965499702811 0 -0.00017338226351020663 -0.0037088044972799473 0 -5.9560030789565395e-05 -0.0028544273556372493 0 -0.00012783653841736263 -0.0029769885873417736 0 -4.8421060429612482e-05 -0.0030255022629771546 0 -0.00011612016584562291 -0.0030434461917670207 0 -4.7266193609867556e-05 -0.0030722806338008969 0 -0.00017750818768246364 -0.0030925104277714248 0 -0.00032258681597051601 -0.0042366981687046428 0 -0.00035990246618605894 -0.0033823912679508605 0 -0.00012783653841736263 -0.0029769885873417736 0 -0.00011612016584562291 -0.0030434461917670207 0 -6.2148624286263393e-05 -0.0030326083095625449 0 -0.00011612016584562291 -0.0030434461917670207 0 -6.2148624286263393e-05 -0.0030326083095625449 0 -4.7266193609867556e-05 -0.0030722806338008969 0 -0.00032258681597051601 -0.0042366981687046428 0 -0.00017338226351020663 -0.0037088044972799473 0 -6.2148624286263393e-05 -0.0030326083095625449 0 -4.7266193609867556e-05 -0.0030722806338008969 0 -4.8824996065773453e-05 -0.0030266253091033486 0 -0.00012783653841736263 -0.0029769885873417736 0 -6.2148624286263393e-05 -0.0030326083095625449 0 -4.8421060429612482e-05 -0.0030255022629771546 0 -0.00012037651906836163 -0.0036516435991493304 0 -0.00017338226351020663 -0.0037088044972799473 0 -0.00098547554523900128 -0.0046307218428582146 0 -0.00032258681597051601 -0.0042366981687046428 0 -0.001164072945372422 -0.0048458437371344315 0 -0.00069501880936800149 -0.0047631057266952605 0 -0.00088983754201868122 -0.0045735666998351883 0 -0.00065176777626855197 -0.0042630015593933699 0 -0.00025643132796592064 -0.004185850536922317 0 -0.00025104852680974646 -0.0043156109142563001 0 -0.00050071424377165377 -0.0046720108257090791 0 -0.00017338226351020663 -0.0037088044972799473 0 -0.00065176777626855197 -0.0042630015593933699 0 -0.00070573272851769228 -0.0045469262560294968 0 -0.00025104852680974646 -0.0043156109142563001 0 -0.00037537715082056451 -0.0027427179454559102 0 -0.00031470361633844008 -0.0027695818306340964 0 -0.00034016590221831917 -0.0027507542968093 0 -0.00032426073587880108 -0.0027507992880907721 0 -0.00030905236813829522 -0.0028084631267467422 0 -0.00037537715082056451 -0.0027427179454559102 0 -0.00038189159044533323 -0.0027348696614916262 0 -0.00034016590221831917 -0.0027507542968093 0 -0.00018359534798974471 -0.002860947598450268 0 -0.00012783653841736263 -0.0029769885873417736 0 -0.00025670537735561174 -0.0029345874158022505 0 -0.00012783653841736263 -0.0029769885873417736 0 -0.00011612016584562291 -0.0030434461917670207 0 -0.00017750818768246364 -0.0030925104277714248 0 -0.00032426073587880108 -0.0027507992880907721 0 -0.00035990246618605894 -0.0033823912679508605 0 -0.00012783653841736263 -0.0029769885873417736 0 -0.00025670537735561174 -0.0029345874158022505 0 -0.00017750818768246364 -0.0030925104277714248 0 -0.00037537715082056451 -0.0027427179454559102 0 -0.00038189159044533323 -0.0027348696614916262 0 -0.00036963750543720861 -0.0027467659833708799 0 -0.00038189159044533323 -0.0027348696614916262 0 -0.00036963750543720861 -0.0027467659833708799 0 -0.0004033307693110635 -0.0027420659474895219 0 -0.0005235640774762972 -0.0030053799093621258 0 -0.00049794054478862252 -0.0029387295863041256 0 -0.0004033307693110635 -0.0027420659474895219 0 -0.00035990246618605894 -0.0033823912679508605 0 -0.00043907032459599988 -0.00262067074122775 0 -0.0005235640774762972 -0.0030053799093621258 0 -0.00053333417254927316 -0.0030326104480430248 0 -0.00052595251853113881 -0.0030933800686428607 0 -0.00035990246618605894 -0.0033823912679508605 0 -0.00041674341477269874 -0.0037614910921299014 0 -0.0005235640774762972 -0.0030053799093621258 0 -0.00053333417254927316 -0.0030326104480430248 0 -0.00049794054478862252 -0.0029387295863041256 0 -0.00056768042119667139 -0.0031687418653464287 0 -0.00049794054478862252 -0.0029387295863041256 0 -0.00048977600694513537 -0.0029620902884479735 0 -0.00053333417254927316 -0.0030326104480430248 0 -0.00056768042119667139 -0.0031687418653464287 0 -0.00052595251853113881 -0.0030933800686428607 0 -0.00053333417254927316 -0.0030326104480430248 0 -0.00056768042119667139 -0.0031687418653464287 0 -0.00049794054478862252 -0.0029387295863041256 0 -0.00043861524807109557 -0.0028130227211499094 0 -0.00049794054478862252 -0.0029387295863041256 0 -0.00048977600694513537 -0.0029620902884479735 0 -0.00043861524807109557 -0.0028130227211499094 0 -0.00049794054478862252 -0.0029387295863041256 0 -0.0004033307693110635 -0.0027420659474895219 0 -0.00048977600694513537 -0.0029620902884479735 0 -0.00046631018109108852 -0.0028629528387330893 0 -0.000389344455887969 -0.0027330106364599704 0 -0.00043861524807109557 -0.0028130227211499094 0 -0.00048977600694513537 -0.0029620902884479735 0 -0.000389344455887969 -0.0027330106364599704 0 -0.00056768042119667139 -0.0031687418653464287 0 -0.00048977600694513537 -0.0029620902884479735 0 -0.00058349222332272329 -0.0031602976810359861 0 -0.00058349222332272329 -0.0031602976810359861 0 -0.00046631018109108852 -0.0028629528387330893 0 -0.00053695361388018167 -0.0028869128908609845 0 -0.00058349222332272329 -0.0031602976810359861 0 -0.00053695361388018167 -0.0028869128908609845 0 -0.00069758830301180907 -0.0030015468775256857 0 -0.00048977600694513537 -0.0029620902884479735 0 -0.00058349222332272329 -0.0031602976810359861 0 -0.00046631018109108852 -0.0028629528387330893 0 -0.00046631018109108852 -0.0028629528387330893 0 -0.00041795423416459565 -0.0026947372867590692 0 -0.000389344455887969 -0.0027330106364599704 0 -0.00046631018109108852 -0.0028629528387330893 0 -0.00041795423416459565 -0.0026947372867590692 0 -0.00053695361388018167 -0.0028869128908609845 0 -0.00089593297432166577 -0.0034620033223220366 0 -0.0013354565075471443 -0.0039009437466327075 0 -0.0010825550045835651 -0.0032943746399598886 0 -0.00058349222332272329 -0.0031602976810359861 0 -0.00089593297432166577 -0.0034620033223220366 0 -0.00069758830301180907 -0.0030015468775256857 0 -0.00056768042119667139 -0.0031687418653464287 0 -0.00058349222332272329 -0.0031602976810359861 0 -0.00067490679616974988 -0.003612158106260051 0 -0.00058349222332272329 -0.0031602976810359861 0 -0.00089593297432166577 -0.0034620033223220366 0 -0.00067490679616974988 -0.003612158106260051 0 -0.00089593297432166577 -0.0034620033223220366 0 -0.00067490679616974988 -0.003612158106260051 0 -0.0010959189263212402 -0.0039141756967735562 0 -0.00089593297432166577 -0.0034620033223220366 0 -0.0010959189263212402 -0.0039141756967735562 0 -0.0013354565075471443 -0.0039009437466327075 0 -0.0010959189263212402 -0.0039141756967735562 0 -0.00083352681928044276 -0.0040824385951790812 0 -0.0010538892333863713 -0.0042714924609608684 0 -0.00067490679616974988 -0.003612158106260051 0 -0.0010959189263212402 -0.0039141756967735562 0 -0.00083352681928044276 -0.0040824385951790812 0 -0.00083352681928044276 -0.0040824385951790812 0 -0.0010538892333863713 -0.0042714924609608684 0 -0.00092345189900735905 -0.0043884580966833111 0 -0.00083352681928044276 -0.0040824385951790812 0 -0.00068978973148975322 -0.0043731568013456327 0 -0.00092345189900735905 -0.0043884580966833111 0 -0.00067490679616974988 -0.003612158106260051 0 -0.00083352681928044276 -0.0040824385951790812 0 -0.0003303514761767212 -0.0042786455899232693 0 -0.00065299331192670066 -0.0035443499556287402 0 -0.00041674341477269874 -0.0037614910921299014 0 -0.00056768042119667139 -0.0031687418653464287 0 -0.00067490679616974988 -0.003612158106260051 0 -0.00052595251853113881 -0.0030933800686428607 0 -0.00083352681928044276 -0.0040824385951790812 0 -0.0003303514761767212 -0.0042786455899232693 0 -0.00068978973148975322 -0.0043731568013456327 0 -0.00032258681597051601 -0.0042366981687046428 0 -0.00066809326693669728 -0.0046060251004034153 0 -5.0376493678609603e-05 -0.0047668244859925659 0 -0.0003303514761767212 -0.0042786455899232693 0 -0.0004215838852623825 -0.0046070532137838368 0 -0.0006467324518641003 -0.0048880090671812376 0 -0.00068978973148975322 -0.0043731568013456327 0 -0.0004215838852623825 -0.0046070532137838368 0 -0.0006467324518641003 -0.0048880090671812376 0 -5.0376493678609603e-05 -0.0047668244859925659 0 -0.0004215838852623825 -0.0046070532137838368 0 -0.0003303514761767212 -0.0042786455899232693 0 -0.00068978973148975322 -0.0043731568013456327 0 -0.0004215838852623825 -0.0046070532137838368 0 -0.00069501880936800149 -0.0047631057266952605 0 -0.00068978973148975322 -0.0043731568013456327 0 -0.00088983754201868122 -0.0045735666998351883 0 -0.0010960452509595063 -0.0044884949449404028 0 -0.00092345189900735905 -0.0043884580966833111 0 -0.00088983754201868122 -0.0045735666998351883 0 -0.0010538892333863713 -0.0042714924609608684 0 -0.0010960452509595063 -0.0044884949449404028 0 -0.00092345189900735905 -0.0043884580966833111 0 -0.00068978973148975322 -0.0043731568013456327 0 -0.00092345189900735905 -0.0043884580966833111 0 -0.00088983754201868122 -0.0045735666998351883 0 -0.001164072945372422 -0.0048458437371344315 0 -0.0010960452509595063 -0.0044884949449404028 0 -0.00088983754201868122 -0.0045735666998351883 0 -0.0010960452509595063 -0.0044884949449404028 0 -0.0013165085394487325 -0.0045879944576024696 0 -0.0014621958186275055 -0.0043015513591768894 0 -0.0011366367834654094 -0.0047334206836694252 0 -0.0010960452509595063 -0.0044884949449404028 0 -0.0013165085394487325 -0.0045879944576024696 0 -0.00098547554523900128 -0.0046307218428582146 0 -0.0011014719384192975 -0.0045869846198289838 0 -0.0013165085394487325 -0.0045879944576024696 0 -0.0015406030557628711 -0.0046356830601928384 0 -0.0014621958186275055 -0.0043015513591768894 0 -0.0015406030557628711 -0.0046356830601928384 0 -0.0014621958186275055 -0.0043015513591768894 0 -0.0017156964952615606 -0.0044932676694995942 0 -0.0010959189263212402 -0.0039141756967735562 0 -0.0010538892333863713 -0.0042714924609608684 0 -0.0016489110631485071 -0.0045995264720232153 0 -0.0010538892333863713 -0.0042714924609608684 0 -0.0010960452509595063 -0.0044884949449404028 0 -0.0014621958186275055 -0.0043015513591768894 0 -0.0011014211330237665 -0.0043080467768406901 0 -0.0015604963410928204 -0.0044448774077650074 0 -0.001909155085436699 -0.004535484338766234 0 -0.0018647066950287596 -0.0043031716839139087 0 -0.0021407291618911542 -0.0045037901190272799 0 -0.0020172749515376559 -0.0047156567070228469 0 -0.001909155085436699 -0.004535484338766234 0 -0.0021407291618911542 -0.0045037901190272799 0 -0.0019849977644978587 -0.0052727594484537838 0 -0.0022791935376592449 -0.0047702520587822898 0 -0.0020172749515376559 -0.0047156567070228469 0 -0.0017996289569662529 -0.0046943063551980538 0 -0.001909155085436699 -0.004535484338766234 0 -0.0017996289569662529 -0.0046943063551980538 0 -0.0015406030557628711 -0.0046356830601928384 0 -0.0017156964952615606 -0.0044932676694995942 0 -0.001909155085436699 -0.004535484338766234 0 -0.0017156964952615606 -0.0044932676694995942 0 -0.0018647066950287596 -0.0043031716839139087 0 -0.0017996289569662529 -0.0046943063551980538 0 -0.001909155085436699 -0.004535484338766234 0 -0.0017156964952615606 -0.0044932676694995942 0 -0.0014621958186275055 -0.0043015513591768894 0 -0.0017156964952615606 -0.0044932676694995942 0 -0.0018647066950287596 -0.0043031716839139087 0 -0.0015604963410928204 -0.0044448774077650074 0 -0.0019960946497029602 -0.0045622492868134471 0 -0.0016489110631485071 -0.0045995264720232153 0 -0.0020975083861502698 -0.0048735820451866613 0 -0.0019681652199311653 -0.004577423752894022 0 -0.0019960946497029602 -0.0045622492868134471 0 -0.0022847638739748118 -0.0048807329478108962 0 -0.0018647066950287596 -0.0043031716839139087 0 -0.0021407291618911542 -0.0045037901190272799 0 -0.0022640878841994486 -0.0042981070363642838 0 -0.0020975083861502698 -0.0048735820451866613 0 -0.0022599259111366634 -0.0049150841578225347 0 -0.0023278602907543791 -0.0050644191038146016 0 -0.0022599259111366634 -0.0049150841578225347 0 -0.0019681652199311653 -0.004577423752894022 0 -0.0021586115300827689 -0.0046677501777611227 0 -0.0020975083861502698 -0.0048735820451866613 0 -0.0022599259111366634 -0.0049150841578225347 0 -0.0019681652199311653 -0.004577423752894022 0 -0.0019681652199311653 -0.004577423752894022 0 -0.0021586115300827689 -0.0046677501777611227 0 -0.0018117754224211342 -0.0041992381196628813 0 -0.0021586115300827689 -0.0046677501777611227 0 -0.0018117754224211342 -0.0041992381196628813 0 -0.0020624906142682176 -0.0043354180851725883 0 -0.0021586115300827689 -0.0046677501777611227 0 -0.0020624906142682176 -0.0043354180851725883 0 -0.0022838915898000692 -0.0048231150631655529 0 -0.0010959189263212402 -0.0039141756967735562 0 -0.0016489110631485071 -0.0045995264720232153 0 -0.0015843484187707602 -0.0042364195094177319 0 -0.0010959189263212402 -0.0039141756967735562 0 -0.0015843484187707602 -0.0042364195094177319 0 -0.0013354565075471443 -0.0039009437466327075 0 -0.0019681652199311653 -0.004577423752894022 0 -0.0015843484187707602 -0.0042364195094177319 0 -0.0018117754224211342 -0.0041992381196628813 0 -0.0016489110631485071 -0.0045995264720232153 0 -0.0019681652199311653 -0.004577423752894022 0 -0.0015843484187707602 -0.0042364195094177319 0 -0.0015843484187707602 -0.0042364195094177319 0 -0.0018117754224211342 -0.0041992381196628813 0 -0.0013354565075471443 -0.0039009437466327075 0 -0.0018117754224211342 -0.0041992381196628813 0 -0.0013354565075471443 -0.0039009437466327075 0 -0.0014777277228411405 -0.003718552924230309 0 -0.0013354565075471443 -0.0039009437466327075 0 -0.0014777277228411405 -0.003718552924230309 0 -0.0010825550045835651 -0.0032943746399598886 0 -0.0014777277228411405 -0.003718552924230309 0 -0.0013582485733049964 -0.0032703452812699297 0 -0.0010825550045835651 -0.0032943746399598886 0 -0.0018117754224211342 -0.0041992381196628813 0 -0.0014777277228411405 -0.003718552924230309 0 -0.0017752213721109779 -0.0037360510709029625 0 -0.0014777277228411405 -0.003718552924230309 0 -0.0017752213721109779 -0.0037360510709029625 0 -0.0013582485733049964 -0.0032703452812699297 0 -0.0017752213721109779 -0.0037360510709029625 0 -0.0015904617211438053 -0.0029852791189942597 0 -0.0013582485733049964 -0.0032703452812699297 0 -0.0017752213721109779 -0.0037360510709029625 0 -0.0015904617211438053 -0.0029852791189942597 0 -0.0025339043903667082 -0.0033183667449311212 0 -0.0013582485733049964 -0.0032703452812699297 0 -0.0010407645715772339 -0.0027004052642434556 0 -0.0010825550045835651 -0.0032943746399598886 0 -0.0015904617211438053 -0.0029852791189942597 0 -0.0013582485733049964 -0.0032703452812699297 0 -0.0010407645715772339 -0.0027004052642434556 0 -0.0020624906142682176 -0.0043354180851725883 0 -0.0022753206393749379 -0.0045953613771206403 0 -0.0022838915898000692 -0.0048231150631655529 0 -0.0020624906142682176 -0.0043354180851725883 0 -0.0020285578536734872 -0.0041098158665361026 0 -0.0022753206393749379 -0.0045953613771206403 0 -0.0018117754224211342 -0.0041992381196628813 0 -0.0017752213721109779 -0.0037360510709029625 0 -0.0020624906142682176 -0.0043354180851725883 0 -0.0017752213721109779 -0.0037360510709029625 0 -0.0020624906142682176 -0.0043354180851725883 0 -0.0020285578536734872 -0.0041098158665361026 0 -0.0015381882193886557 -0.0052733558202741563 0 -0.0026909940912837708 -0.0057378910636240116 0 -0.0017064843926535443 -0.0076790055633906406 0 -0.002127107494874588 -0.0075347391080430827 0 -0.0020358317130748254 -0.0074955417976585084 0 -0.0019013272236600611 -0.0034392753976149573 0 -0.0026909940912837708 -0.0057378910636240116 0 -0.0047897882215007575 -0.007653916754052352 0 -0.0039444332742092922 -0.0074100164038147639 0 -0.0038444544804321131 -0.0082719918449897338 0 -0.0026909940912837708 -0.0057378910636240116 0 -0.0032234297273807341 -0.0060431869822955581 0 -0.0026909940912837708 -0.0057378910636240116 0 -0.0029478137724574102 -0.0081540124193310286 0 -0.0020853853430133186 -0.0074776067698385691 0 -0.0019903663568954398 -0.0076875820144328118 0 -0.0019142462501872187 -0.0074924542950558426 0 -0.002127107494874588 -0.0075347391080430827 0 -0.0020853853430133186 -0.0074776067698385691 0 -0.0019142462501872187 -0.0074924542950558426 0 -0.002127107494874588 -0.0075347391080430827 0 -0.0020853853430133186 -0.0074776067698385691 0 -0.0020358317130748254 -0.0074955417976585084 0 -0.0020853853430133186 -0.0074776067698385691 0 -0.0020358317130748254 -0.0074955417976585084 0 -0.0021217892569582934 -0.007018407762289707 0 -0.0020853853430133186 -0.0074776067698385691 0 -0.0019903663568954398 -0.0076875820144328118 0 -0.0021217892569582934 -0.007018407762289707 0 -0.0015381882193886557 -0.0052733558202741563 0 -0.00085529963207960601 -0.0051007949464714902 0 -0.0017064843926535443 -0.0076790055633906406 0 -0.0014577678745377137 -0.0072287965520265582 0 -0.00059983020890349377 -0.0075373321540786464 0 -0.0014577678745377137 -0.0072287965520265582 0 -0.00082656293119022658 -0.0063155641696018353 0 -0.00059983020890349377 -0.0075373321540786464 0 -0.0017064843926535443 -0.0076790055633906406 0 -0.0020358317130748254 -0.0074955417976585084 0 -0.0014577678745377137 -0.0072287965520265582 0 -0.0020358317130748254 -0.0074955417976585084 0 -0.0014577678745377137 -0.0072287965520265582 0 -0.0021217892569582934 -0.007018407762289707 0 -0.0014577678745377137 -0.0072287965520265582 0 -0.0021217892569582934 -0.007018407762289707 0 -0.00082656293119022658 -0.0063155641696018353 0 -0.00082656293119022658 -0.0063155641696018353 0 1.3841585914536227e-05 -0.0064429585600194574 0 -0.00059983020890349377 -0.0075373321540786464 0 -0.00085529963207960601 -0.0051007949464714902 0 0.00013917871966564712 -0.0049179771286332261 0 -0.0010407645715772339 -0.0027004052642434556 0 -0.00067102260996341405 -0.0024719787204009291 0 -0.00080276844815554754 -0.0028115537508551177 0 1.3841585914536227e-05 -0.0064429585600194574 0 -0.00059983020890349377 -0.0075373321540786464 0 0.00070774854921425113 -0.0070804742482765597 0 1.3841585914536227e-05 -0.0064429585600194574 0 0.00070774854921425113 -0.0070804742482765597 0 0.00085970187303049278 -0.0059632438592123766 0 0.00070774854921425113 -0.0070804742482765597 0 0.0019701371714648543 -0.006644394351294429 0 0.00085970187303049278 -0.0059632438592123766 0 0.0019701371714648543 -0.006644394351294429 0 0.0017688613639540672 -0.0054612616481474153 0 0.00085970187303049278 -0.0059632438592123766 0 -9.3691603052691152e-05 -0.0015330516655115149 0 -0.00010850172122255802 -0.0013312712991175458 0 -2.3773288774637108e-05 -0.0014043263481982697 0 -3.67916502535644e-05 -0.0031998571318943318 0 0.00092873430819011868 -0.0035993655164401777 0 -3.67916502535644e-05 -0.0031998571318943318 0 -0.00062582323304009207 -0.0019222669280854054 0 -0.00066195308036180289 -0.0018595732323472077 0 -0.00053543219157756411 -0.0023375225182732861 0 -0.00045966854841005195 -0.0020530275356120259 0 -0.00052802220888349455 -0.0024055018537062888 0 -0.00053543219157756411 -0.0023375225182732861 0 -0.00056130167583495045 -0.002462311789136033 0 -0.00066195308036180289 -0.0018595732323472077 0 -0.00045966854841005195 -0.0020530275356120259 0 -0.0004007634909471563 -0.0019034343521373025 0 -0.00053543219157756411 -0.0023375225182732861 0 -0.00045966854841005195 -0.0020530275356120259 0 -0.00040900655639445753 -0.0021285589115951492 0 0.00013917871966564712 -0.0049179771286332261 0 -3.67916502535644e-05 -0.0031998571318943318 0 -0.00067102260996341405 -0.0024719787204009291 0 -0.00052802220888349455 -0.0024055018537062888 0 -0.00056130167583495045 -0.002462311789136033 0 -0.00067102260996341405 -0.0024719787204009291 0 -0.00056130167583495045 -0.002462311789136033 0 -0.00063176660615660242 -0.0026531214851919899 0 -0.00056130167583495045 -0.002462311789136033 0 -0.00063176660615660242 -0.0026531214851919899 0 -0.00054840322300490419 -0.0025273643120739516 0 -0.00063176660615660242 -0.0026531214851919899 0 -0.00054840322300490419 -0.0025273643120739516 0 -0.00054399338682807683 -0.0027066985255078291 0 -0.00053543219157756411 -0.0023375225182732861 0 -0.00046594345011131028 -0.0025172250957455513 0 -0.00036860882183187895 -0.0021891789444320924 0 -0.00053543219157756411 -0.0023375225182732861 0 -0.00056130167583495045 -0.002462311789136033 0 -0.00054840322300490419 -0.0025273643120739516 0 -0.00053543219157756411 -0.0023375225182732861 0 -0.00054840322300490419 -0.0025273643120739516 0 -0.00046594345011131028 -0.0025172250957455513 0 -0.00054840322300490419 -0.0025273643120739516 0 -0.00046594345011131028 -0.0025172250957455513 0 -0.00054399338682807683 -0.0027066985255078291 0 -0.00041795423416459565 -0.0026947372867590692 0 -0.00053695361388018167 -0.0028869128908609845 0 -0.00054399338682807683 -0.0027066985255078291 0 -0.00046594345011131028 -0.0025172250957455513 0 -0.00041795423416459565 -0.0026947372867590692 0 -0.00054399338682807683 -0.0027066985255078291 0 -0.00063176660615660242 -0.0026531214851919899 0 -0.00054399338682807683 -0.0027066985255078291 0 -0.00069758830301180907 -0.0030015468775256857 0 -0.00053695361388018167 -0.0028869128908609845 0 -0.00054399338682807683 -0.0027066985255078291 0 -0.00069758830301180907 -0.0030015468775256857 0 -0.00069758830301180907 -0.0030015468775256857 0 -0.0010825550045835651 -0.0032943746399598886 0 -0.00080276844815554754 -0.0028115537508551177 0 -0.00089593297432166577 -0.0034620033223220366 0 -0.00069758830301180907 -0.0030015468775256857 0 -0.0010825550045835651 -0.0032943746399598886 0 -0.0010407645715772339 -0.0027004052642434556 0 -0.0010825550045835651 -0.0032943746399598886 0 -0.00080276844815554754 -0.0028115537508551177 0 -0.00067102260996341405 -0.0024719787204009291 0 -0.00063176660615660242 -0.0026531214851919899 0 -0.00080276844815554754 -0.0028115537508551177 0 -0.00063176660615660242 -0.0026531214851919899 0 -0.00069758830301180907 -0.0030015468775256857 0 -0.00080276844815554754 -0.0028115537508551177 0 -0.0022126231975938158 -0.0060301857957554827 0 -0.0032795820111654935 -0.0068998738561732416 0 -0.003168814455513422 -0.0056956974829121482 0 -0.0013969458403863353 -0.0062595487505561547 0 -0.00052665836459958029 -0.0099036114023092914 0 -0.0022126231975938158 -0.0060301857957554827 0 -0.0022835556503929644 -0.0069402708646834534 0 -0.0032795820111654935 -0.0068998738561732416 0 -0.0020047287558036249 -0.0096754579568971363 0 -0.00052665836459958029 -0.0099036114023092914 0 -0.0013969458403863353 -0.0062595487505561547 0 -0.0009853220036492188 -0.0064977271755594732 0 -0.0022126231975938158 -0.0060301857957554827 0 -0.0017189631993302318 -0.0066887355186131849 0 -0.0010882082834374046 -0.0064627071510785896 0 -0.0022126231975938158 -0.0060301857957554827 0 -0.0017189631993302318 -0.0066887355186131849 0 -0.0022835556503929644 -0.0069402708646834534 0 -0.0017189631993302318 -0.0066887355186131849 0 -0.0022835556503929644 -0.0069402708646834534 0 -0.0014245910599618313 -0.007029104711543068 0 -0.0022835556503929644 -0.0069402708646834534 0 -0.0019688706873418928 -0.0076930113785349296 0 -0.0014245910599618313 -0.007029104711543068 0 -0.0022835556503929644 -0.0069402708646834534 0 -0.0026694180094068189 -0.0075946236023484636 0 -0.0019688706873418928 -0.0076930113785349296 0 -0.0022835556503929644 -0.0069402708646834534 0 -0.0026694180094068189 -0.0075946236023484636 0 -0.0032795820111654935 -0.0068998738561732416 0 -0.0026694180094068189 -0.0075946236023484636 0 -0.0032795820111654935 -0.0068998738561732416 0 -0.0034108427037686665 -0.0081658832134722144 0 -0.0020047287558036249 -0.0096754579568971363 0 -0.0019615593761944661 -0.010512081207537567 0 -0.0026694180094068189 -0.0075946236023484636 0 -0.0034108427037686665 -0.0081658832134722144 0 -0.002423958608638933 -0.0082845686846812726 0 -0.0034108427037686665 -0.0081658832134722144 0 -0.002672728829096126 -0.0090414660787437873 0 -0.002423958608638933 -0.0082845686846812726 0 -0.0034984012681650079 -0.0094541467384451627 0 -0.0034108427037686665 -0.0081658832134722144 0 -0.002672728829096126 -0.0090414660787437873 0 -0.0023333426524077437 -0.011044981974780193 0 -0.0019615593761944661 -0.010512081207537567 0 -0.0023333426524077437 -0.011044981974780193 0 -0.0028358856739040374 -0.0092538721486242238 0 -0.0035334945581156096 -0.0094718996440797364 0 -0.0032758791379466782 -0.0097754873626577157 0 -0.002672728829096126 -0.0090414660787437873 0 -0.0018885745977429774 -0.0097414503785650201 0 -0.0017828640361200166 -0.0087064458268843407 0 -0.0015189053058989595 -0.0092676893147607825 0 -0.0018885745977429774 -0.0097414503785650201 0 -0.002672728829096126 -0.0090414660787437873 0 -0.0017828640361200166 -0.0087064458268843407 0 -0.002672728829096126 -0.0090414660787437873 0 -0.0017828640361200166 -0.0087064458268843407 0 -0.002423958608638933 -0.0082845686846812726 0 -0.0017828640361200166 -0.0087064458268843407 0 -0.002423958608638933 -0.0082845686846812726 0 -0.0019688706873418928 -0.0076930113785349296 0 -0.0026694180094068189 -0.0075946236023484636 0 -0.002423958608638933 -0.0082845686846812726 0 -0.0019688706873418928 -0.0076930113785349296 0 -0.0017828640361200166 -0.0087064458268843407 0 -0.0019688706873418928 -0.0076930113785349296 0 -0.0013168787430355362 -0.0076752109625192778 0 -0.0017828640361200166 -0.0087064458268843407 0 -0.0013168787430355362 -0.0076752109625192778 0 -0.0010468638805775463 -0.0082695246390415787 0 -0.0013168787430355362 -0.0076752109625192778 0 -0.0010468638805775463 -0.0082695246390415787 0 -0.00026086128390038712 -0.007821966930895435 0 -0.0013168787430355362 -0.0076752109625192778 0 -0.00026086128390038712 -0.007821966930895435 0 -0.0010432554724521606 -0.0072313238418231871 0 -0.0017828640361200166 -0.0087064458268843407 0 -0.0010468638805775463 -0.0082695246390415787 0 -0.0009527377078509075 -0.0091875460794055841 0 -0.0010468638805775463 -0.0082695246390415787 0 -0.0009527377078509075 -0.0091875460794055841 0 -0.00072571830660759682 -0.0087017616639487299 0 -0.001199419281805941 -0.010049495280140517 0 -0.0009527377078509075 -0.0091875460794055841 0 -0.0015189053058989595 -0.0092676893147607825 0 -0.0017828640361200166 -0.0087064458268843407 0 -0.0009527377078509075 -0.0091875460794055841 0 -0.0015189053058989595 -0.0092676893147607825 0 6.6212061032814676e-05 -0.009557398505862378 0 -7.4074154095702841e-05 -0.0092039652964432412 0 0.00021252904301229163 -0.0090448097822687524 0 -7.4074154095702841e-05 -0.0092039652964432412 0 -0.00044311276338058429 -0.0091157515480287006 0 -0.00016841162818173163 -0.0089408668467573001 0 -7.4074154095702841e-05 -0.0092039652964432412 0 -0.00016841162818173163 -0.0089408668467573001 0 0.00012470742248694159 -0.009008312519613931 0 -7.4074154095702841e-05 -0.0092039652964432412 0 0.00012470742248694159 -0.009008312519613931 0 0.00021252904301229163 -0.0090448097822687524 0 6.6212061032814676e-05 -0.009557398505862378 0 -7.4074154095702841e-05 -0.0092039652964432412 0 -0.00024587209268019507 -0.0094911344267969832 0 -7.4074154095702841e-05 -0.0092039652964432412 0 -0.00024587209268019507 -0.0094911344267969832 0 -0.00044311276338058429 -0.0091157515480287006 0 -0.00064092945440654997 -0.0096755969978117203 0 -0.00024587209268019507 -0.0094911344267969832 0 -0.00044311276338058429 -0.0091157515480287006 0 -0.00064092945440654997 -0.0096755969978117203 0 -0.0009527377078509075 -0.0091875460794055841 0 -0.00044311276338058429 -0.0091157515480287006 0 -0.0009527377078509075 -0.0091875460794055841 0 -0.00044311276338058429 -0.0091157515480287006 0 -0.00072571830660759682 -0.0087017616639487299 0 -0.00044311276338058429 -0.0091157515480287006 0 -0.00072571830660759682 -0.0087017616639487299 0 -0.0002240643576283873 -0.0086238265363923136 0 -0.00044311276338058429 -0.0091157515480287006 0 -0.0002240643576283873 -0.0086238265363923136 0 -0.00016841162818173163 -0.0089408668467573001 0 -0.0002240643576283873 -0.0086238265363923136 0 -0.00016841162818173163 -0.0089408668467573001 0 0.00012470742248694159 -0.009008312519613931 0 -0.0002240643576283873 -0.0086238265363923136 0 0.00012470742248694159 -0.009008312519613931 0 0.00022197207723597228 -0.0090416510658799885 0 -0.0014964108368306468 -0.0056980575885860751 0 -0.0017308076108375958 -0.0056551409847502669 0 -0.0017215802823007705 -0.0055729897053609749 0 -0.00092698387468320253 -0.0066861561607157935 0 -0.00061390729897719285 -0.0077884620740719026 0 -0.0002240643576283873 -0.0086238265363923136 0 -0.00026086128390038712 -0.007821966930895435 0 0.00022197207723597228 -0.0090416510658799885 0 -0.0010468638805775463 -0.0082695246390415787 0 -0.00072571830660759682 -0.0087017616639487299 0 -0.00026086128390038712 -0.007821966930895435 0 -0.00072571830660759682 -0.0087017616639487299 0 -0.0002240643576283873 -0.0086238265363923136 0 -0.00026086128390038712 -0.007821966930895435 0 -0.0016567749530364937 -0.0059928607847739342 0 -0.0010332063930842265 -0.0064705489345006978 0 -0.0016137161447975521 -0.0063836016191094382 0 -0.00092698387468320253 -0.0066861561607157935 0 -0.00099470278147729724 -0.0065388328654888616 0 -0.00026086128390038712 -0.007821966930895435 0 -0.0010432554724521606 -0.0072313238418231871 0 -0.0010332063930842265 -0.0064705489345006978 0 -0.0014964108368306468 -0.0056980575885860751 0 -0.0016567749530364937 -0.0059928607847739342 0 -0.0010332063930842265 -0.0064705489345006978 0 -0.0019688706873418928 -0.0076930113785349296 0 -0.0013168787430355362 -0.0076752109625192778 0 -0.0014245910599618313 -0.007029104711543068 0 -0.0013168787430355362 -0.0076752109625192778 0 -0.0010432554724521606 -0.0072313238418231871 0 -0.0014245910599618313 -0.007029104711543068 0 -0.0017189631993302318 -0.0066887355186131849 0 -0.0014245910599618313 -0.007029104711543068 0 -0.0010882082834374046 -0.0064627071510785896 0 -0.0014245910599618313 -0.007029104711543068 0 -0.0010332063930842265 -0.0064705489345006978 0 -0.0010882082834374046 -0.0064627071510785896 0 -0.0010432554724521606 -0.0072313238418231871 0 -0.0014245910599618313 -0.007029104711543068 0 -0.0010332063930842265 -0.0064705489345006978 0 -0.0010882082834374046 -0.0064627071510785896 0 -0.0012319070419681449 -0.0066941993979676324 0 -0.0010096446646680616 -0.0072759815145428727 0 -0.0010332063930842265 -0.0064705489345006978 0 -0.0010882082834374046 -0.0064627071510785896 0 -0.0012319070419681449 -0.0066941993979676324 0 -4.5401054259883256e-05 -0.0068138330752069319 0 -0.0010882082834374046 -0.0064627071510785896 0 -0.0010096446646680616 -0.0072759815145428727 0 -0.0012319070419681449 -0.0066941993979676324 0 -0.0016137161447975521 -0.0063836016191094382 0 -0.0015050027503904909 -0.0070583169753059222 0 -0.0010332063930842265 -0.0064705489345006978 0 -0.0012319070419681449 -0.0066941993979676324 0 -0.0016137161447975521 -0.0063836016191094382 0 -0.0016137161447975521 -0.0063836016191094382 0 -0.0021779841168673027 -0.0065464451458765267 0 -0.0015050027503904909 -0.0070583169753059222 0 -0.0016137161447975521 -0.0063836016191094382 0 -0.0019636942079781479 -0.0058471189512747518 0 -0.0021779841168673027 -0.0065464451458765267 0 -0.0023661841237651326 -0.0057144542103721389 0 -0.0019636942079781479 -0.0058471189512747518 0 -0.0021779841168673027 -0.0065464451458765267 0 -0.0023661841237651326 -0.0057144542103721389 0 -0.0019636942079781479 -0.0058471189512747518 0 -0.0023518732689452528 -0.0054302514675948861 0 -0.0019636942079781479 -0.0058471189512747518 0 -0.0018383082297106198 -0.0057396663670842667 0 -0.0019280666436326855 -0.0057201126522778535 0 -0.0019636942079781479 -0.0058471189512747518 0 -0.0022772913616697552 -0.0052213002806796496 0 -0.0023518732689452528 -0.0054302514675948861 0 -0.0019647611318757874 -0.0057798745849232808 0 -0.0021013239884206396 -0.005498644619988162 0 -0.0016567749530364937 -0.0059928607847739342 0 -0.0019636942079781479 -0.0058471189512747518 0 -0.0018383082297106198 -0.0057396663670842667 0 -0.0016567749530364937 -0.0059928607847739342 0 -0.0016137161447975521 -0.0063836016191094382 0 -0.0019636942079781479 -0.0058471189512747518 0 -0.0014964108368306468 -0.0056980575885860751 0 -0.0018383082297106198 -0.0057396663670842667 0 -0.0017308076108375958 -0.0056551409847502669 0 -0.0014964108368306468 -0.0056980575885860751 0 -0.0016567749530364937 -0.0059928607847739342 0 -0.0018383082297106198 -0.0057396663670842667 0 -0.0018383082297106198 -0.0057396663670842667 0 -0.0017308076108375958 -0.0056551409847502669 0 -0.001826244486340721 -0.005644673969062936 0 -0.0018383082297106198 -0.0057396663670842667 0 -0.001826244486340721 -0.005644673969062936 0 -0.0018881092257268558 -0.0056889692098225 0 -0.001826244486340721 -0.005644673969062936 0 -0.0017215802823007705 -0.0055729897053609749 0 -0.0019015587142994339 -0.0055853813137048394 0 -0.0017308076108375958 -0.0056551409847502669 0 -0.001826244486340721 -0.005644673969062936 0 -0.0017215802823007705 -0.0055729897053609749 0 -0.00061390729897719285 -0.0077884620740719026 0 -0.0011873795938827573 -0.0074427780705750464 0 -0.00050999962790377424 -0.0078496089315658202 0 -0.00061390729897719285 -0.0077884620740719026 0 -0.0019249135841633753 -0.0057439325234314989 0 -0.0019035765996915158 -0.0056632371265437709 0 -0.0018651971448883308 -0.0057240203734305979 0 -0.0011873795938827573 -0.0074427780705750464 0 -0.0016372345058454684 -0.0055356050503372438 0 -0.001826244486340721 -0.005644673969062936 0 -0.0019015587142994339 -0.0055853813137048394 0 -0.0019035765996915158 -0.0056632371265437709 0 -0.001826244486340721 -0.005644673969062936 0 -0.0019035765996915158 -0.0056632371265437709 0 -0.0018881092257268558 -0.0056889692098225 0 -0.0019035765996915158 -0.0056632371265437709 0 -0.001894469527300658 -0.0056814266199596373 0 -0.0018881092257268558 -0.0056889692098225 0 -0.0019035765996915158 -0.0056632371265437709 0 -0.001894469527300658 -0.0056814266199596373 0 -0.0018651971448883308 -0.0057240203734305979 0 -0.001894469527300658 -0.0056814266199596373 0 -0.0018881092257268558 -0.0056889692098225 0 -0.0019280666436326855 -0.0057201126522778535 0 -0.001894469527300658 -0.0056814266199596373 0 -0.0019280666436326855 -0.0057201126522778535 0 -0.001886080614780948 -0.0056846285377048942 0 -0.0018383082297106198 -0.0057396663670842667 0 -0.0018881092257268558 -0.0056889692098225 0 -0.0019280666436326855 -0.0057201126522778535 0 -0.0022772913616697552 -0.0052213002806796496 0 -0.0023511369011855882 -0.0051685463290086732 0 -0.0023727024223804509 -0.005192432964707179 0 -0.0023511369011855882 -0.0051685463290086732 0 -0.0023733099408161252 -0.0051663820189147168 0 -0.0023727024223804509 -0.005192432964707179 0 -0.0023511369011855882 -0.0051685463290086732 0 -0.0023448642747764831 -0.0051528149379937473 0 -0.0023512754142656581 -0.0051547468974756042 0 -0.0023511369011855882 -0.0051685463290086732 0 -0.0023512754142656581 -0.0051547468974756042 0 -0.0023518204013459024 -0.0051573715042416788 0 -0.0020970160966551103 -0.0054174215601062552 0 -0.0020939095673798698 -0.0054056877528681187 0 -0.0019280666436326855 -0.0057201126522778535 0 -0.0018549252436249664 -0.0056694460835323328 0 -0.001886080614780948 -0.0056846285377048942 0 -0.0021013239884206396 -0.005498644619988162 0 -0.0020970160966551103 -0.0054174215601062552 0 -0.0022772913616697552 -0.0052213002806796496 0 -0.0023511369011855882 -0.0051685463290086732 0 -0.0023448642747764831 -0.0051528149379937473 0 -0.0018549252436249664 -0.0056694460835323328 0 -0.001886080614780948 -0.0056846285377048942 0 -0.0018616102735995999 -0.0056953505294918801 0 -0.001894469527300658 -0.0056814266199596373 0 -0.001886080614780948 -0.0056846285377048942 0 -0.0018616102735995999 -0.0056953505294918801 0 -0.001894469527300658 -0.0056814266199596373 0 -0.0018616102735995999 -0.0056953505294918801 0 -0.0018651971448883308 -0.0057240203734305979 0 -0.0018549252436249664 -0.0056694460835323328 0 -0.0018616102735995999 -0.0056953505294918801 0 -0.0018203765781062691 -0.0056775596504341627 0 -0.0018616102735995999 -0.0056953505294918801 0 -0.0018203765781062691 -0.0056775596504341627 0 -0.0017971929120353756 -0.005756790190271973 0 -0.0017761367096384383 -0.0058559795336112332 0 -0.0017971929120353756 -0.005756790190271973 0 -0.0018651971448883308 -0.0057240203734305979 0 -0.0018616102735995999 -0.0056953505294918801 0 -0.0017971929120353756 -0.005756790190271973 0 -0.0018651971448883308 -0.0057240203734305979 0 -0.0017827872767826355 -0.0056311991629288327 0 -0.0019392162412373473 -0.005531480715552416 0 -0.0019700830954614969 -0.0054772742752672056 0 -0.0019849977644978587 -0.0052727594484537838 0 -0.002174471620655725 -0.0053015169319400261 0 -0.0023117941730567146 -0.0051938091331034698 0 -0.0023446342448387929 -0.0051684980190282413 0 -0.0023369901570652642 -0.005159936492593842 0 -0.0018203765781062691 -0.0056775596504341627 0 -0.0017971929120353756 -0.005756790190271973 0 -0.0016776553766745706 -0.00576256793884728 0 -0.0021556152080545016 -0.0053242716379168593 0 -0.0019392162412373473 -0.005531480715552416 0 -0.0019700830954614969 -0.0054772742752672056 0 -0.0020939095673798698 -0.0054056877528681187 0 -0.0018114765367541316 -0.0056454235894526838 0 -0.0020939095673798698 -0.0054056877528681187 0 -0.002174471620655725 -0.0053015169319400261 0 -0.0023512754142656581 -0.0051547468974756042 0 -0.0023446342448387929 -0.0051684980190282413 0 -0.0023468100624719243 -0.0051590528559826068 0 -0.0023468100624719243 -0.0051590528559826068 0 -0.0023369901570652642 -0.005159936492593842 0 -0.0023518204013459024 -0.0051573715042416788 0 -0.0023446342448387929 -0.0051684980190282413 0 -0.0023468100624719243 -0.0051590528559826068 0 -0.0023369901570652642 -0.005159936492593842 0 -0.0022791935376592449 -0.0047702520587822898 0 -0.0022847638739748118 -0.0048807329478108962 0 -0.0023546359965381305 -0.0050485417304784452 0 -0.0022847638739748118 -0.0048807329478108962 0 -0.0023512754142656581 -0.0051547468974756042 0 -0.0023468100624719243 -0.0051590528559826068 0 -0.0023518204013459024 -0.0051573715042416788 0 -0.0022847638739748118 -0.0048807329478108962 0 -0.00232255025774394 -0.0051989673004892035 0 -0.0022599259111366634 -0.0049150841578225347 0 -0.0023278602907543791 -0.0050644191038146016 0 -0.0023727024223804509 -0.005192432964707179 0 -0.0022599259111366634 -0.0049150841578225347 0 -0.0023727024223804509 -0.005192432964707179 0 -0.0023654504341136117 -0.0051567628171450899 0 -0.0022599259111366634 -0.0049150841578225347 0 -0.0021586115300827689 -0.0046677501777611227 0 -0.0023654504341136117 -0.0051567628171450899 0 -0.0022772913616697552 -0.0052213002806796496 0 -0.0023727024223804509 -0.005192432964707179 0 -0.0023518732689452528 -0.0054302514675948861 0 -0.0023727024223804509 -0.005192432964707179 0 -0.0023518732689452528 -0.0054302514675948861 0 -0.0023654504341136117 -0.0051567628171450899 0 -0.0023661841237651326 -0.0057144542103721389 0 -0.0023654504341136117 -0.0051567628171450899 0 -0.0024174633249451983 -0.0053921710982742059 0 -0.0023661841237651326 -0.0057144542103721389 0 -0.0023518732689452528 -0.0054302514675948861 0 -0.0023654504341136117 -0.0051567628171450899 0 -0.0021586115300827689 -0.0046677501777611227 0 -0.0023654504341136117 -0.0051567628171450899 0 -0.0022838915898000692 -0.0048231150631655529 0 -0.0023654504341136117 -0.0051567628171450899 0 -0.0022838915898000692 -0.0048231150631655529 0 -0.0024174633249451983 -0.0053921710982742059 0 -0.0032234297273807341 -0.0060431869822955581 0 -0.0026517680754550854 -0.0062300774722735706 0 -0.0022753206393749379 -0.0045953613771206403 0 -0.0022838915898000692 -0.0048231150631655529 0 -0.0024174633249451983 -0.0053921710982742059 0 -0.0039444332742092922 -0.0074100164038147639 0 -0.0031118552524195828 -0.0070847021416955668 0 -0.0032215034427099994 -0.0079276715211742572 0 -0.0031118552524195828 -0.0070847021416955668 0 -0.0032215034427099994 -0.0079276715211742572 0 -0.0024563282447429809 -0.0079589423749117493 0 -0.0039444332742092922 -0.0074100164038147639 0 -0.0032215034427099994 -0.0079276715211742572 0 -0.0038444544804321131 -0.0082719918449897338 0 -0.0019903663568954398 -0.0076875820144328118 0 -0.0019142462501872187 -0.0074924542950558426 0 -0.0017298209187521184 -0.0079389382492893457 0 -0.0019142462501872187 -0.0074924542950558426 0 -0.0017298209187521184 -0.0079389382492893457 0 -0.0014776698033087715 -0.0079285462939021022 0 -0.0017298209187521184 -0.0079389382492893457 0 -0.0014776698033087715 -0.0079285462939021022 0 -0.0014940893754634898 -0.008277477621269581 0 -0.0029478137724574102 -0.0081540124193310286 0 -0.0021290680119910336 -0.0083605410654105077 0 -0.0032215034427099994 -0.0079276715211742572 0 -0.0027154571626808576 -0.0088919411419052397 0 -0.0024563282447429809 -0.0079589423749117493 0 -0.0032215034427099994 -0.0079276715211742572 0 -0.0038444544804321131 -0.0082719918449897338 0 -0.0027154571626808576 -0.0088919411419052397 0 -0.0027154571626808576 -0.0088919411419052397 0 -0.0019849949532070132 -0.008753325284664798 0 -0.0024563282447429809 -0.0079589423749117493 0 -0.0027154571626808576 -0.0088919411419052397 0 -0.0019849949532070132 -0.008753325284664798 0 -0.0015619107653153004 -0.0088850135246333686 0 -0.0014776698033087715 -0.0079285462939021022 0 -0.0014939912960620231 -0.0085026084100192044 0 -0.0014940893754634898 -0.008277477621269581 0 -0.0014776698033087715 -0.0079285462939021022 0 -0.0015619107653153004 -0.0088850135246333686 0 -0.0014939912960620231 -0.0085026084100192044 0 -0.0021290680119910336 -0.0083605410654105077 0 -0.0016423745993421242 -0.0088197998459365861 0 -0.0019849949532070132 -0.008753325284664798 0 -0.0015468806000232722 -0.0091092243588945625 0 -0.0015619107653153004 -0.0088850135246333686 0 -0.0019849949532070132 -0.008753325284664798 0 -0.0018794639016577919 -0.0084184914752890583 0 -0.0024563282447429809 -0.0079589423749117493 0 -0.0019849949532070132 -0.008753325284664798 0 -0.0018794639016577919 -0.0084184914752890583 0 -0.0015468806000232722 -0.0091092243588945625 0 -0.0018794639016577919 -0.0084184914752890583 0 -0.001852736279161849 -0.0076369808238495934 0 -0.0024563282447429809 -0.0079589423749117493 0 -0.0018794639016577919 -0.0084184914752890583 0 -0.001852736279161849 -0.0076369808238495934 0 -0.0014194805221377706 -0.0081385374307905139 0 -0.0023661841237651326 -0.0057144542103721389 0 -0.0024174633249451983 -0.0053921710982742059 0 -0.0021779841168673027 -0.0065464451458765267 0 -0.0026517680754550854 -0.0062300774722735706 0 -0.0021757613975642172 -0.0064331360101307303 0 -0.0031118552524195828 -0.0070847021416955668 0 -0.0024563282447429809 -0.0079589423749117493 0 -0.0021779841168673027 -0.0065464451458765267 0 -0.001852736279161849 -0.0076369808238495934 0 -0.0024563282447429809 -0.0079589423749117493 0 -0.0021779841168673027 -0.0065464451458765267 0 -0.001852736279161849 -0.0076369808238495934 0 -0.0021779841168673027 -0.0065464451458765267 0 -0.0015050027503904909 -0.0070583169753059222 0 -0.0015050027503904909 -0.0070583169753059222 0 -0.0010096446646680616 -0.0072759815145428727 0 -0.0014194805221377706 -0.0081385374307905139 0 -0.001852736279161849 -0.0076369808238495934 0 -0.0015050027503904909 -0.0070583169753059222 0 -0.0014194805221377706 -0.0081385374307905139 0 -0.0012319070419681449 -0.0066941993979676324 0 -0.0015050027503904909 -0.0070583169753059222 0 -0.0010096446646680616 -0.0072759815145428727 0 -0.00077535099713430563 -0.0082519612720586902 0 -0.0014194805221377706 -0.0081385374307905139 0 -0.0012909234401755152 -0.0095160023439665852 0 -0.0010096446646680616 -0.0072759815145428727 0 -0.00077535099713430563 -0.0082519612720586902 0 -0.0014194805221377706 -0.0081385374307905139 0 -0.0014194805221377706 -0.0081385374307905139 0 -0.0015472280003284954 -0.008831794182544532 0 -0.0012909234401755152 -0.0095160023439665852 0 -0.0018794639016577919 -0.0084184914752890583 0 -0.0015472280003284954 -0.008831794182544532 0 -0.0015468806000232722 -0.0091092243588945625 0 -0.0018794639016577919 -0.0084184914752890583 0 -0.0014194805221377706 -0.0081385374307905139 0 -0.0015472280003284954 -0.008831794182544532 0 -0.0015472280003284954 -0.008831794182544532 0 -0.0015468806000232722 -0.0091092243588945625 0 -0.0012909234401755152 -0.0095160023439665852 0 -0.0015468806000232722 -0.0091092243588945625 0 -0.0015509523278423049 -0.0093030094140398138 0 -0.0015619107653153004 -0.0088850135246333686 0 -0.0015468806000232722 -0.0091092243588945625 0 -0.0013397640318278485 -0.009362193959445644 0 -0.0015509523278423049 -0.0093030094140398138 0 -0.0015468806000232722 -0.0091092243588945625 0 -0.0013397640318278485 -0.009362193959445644 0 -0.0012909234401755152 -0.0095160023439665852 0 -0.0012357708917092498 -0.009659725594065036 0 -0.00070985192511235104 -0.010392787052468735 0 -0.0013397640318278485 -0.009362193959445644 0 -0.0012909234401755152 -0.0095160023439665852 0 -0.0012897833401816312 -0.0093676714947494577 0 -0.00077535099713430563 -0.0082519612720586902 0 -0.0012909234401755152 -0.0095160023439665852 0 -0.0001053598467756423 -0.0096040825419693252 0 -0.0012909234401755152 -0.0095160023439665852 0 -0.0001053598467756423 -0.0096040825419693252 0 -0.00015508339930246331 -0.010636075140055355 0 -0.0001053598467756423 -0.0096040825419693252 0 -0.00015508339930246331 -0.010636075140055355 0 0.00035656064492288789 -0.011030420939678629 0 -0.0012909234401755152 -0.0095160023439665852 0 -0.00015508339930246331 -0.010636075140055355 0 -0.00012090561608186016 -0.011578232526600755 0 -0.00015508339930246331 -0.010636075140055355 0 0.00025321828511403144 -0.011358643082324841 0 -0.00012090561608186016 -0.011578232526600755 0 0.00034502501372429356 -0.011415645814671093 0 0.00031979589356291501 -0.011599073396258262 0 0.00036632847129264756 -0.011477821397509939 0 0.00034502501372429356 -0.011415645814671093 0 0.00031979589356291501 -0.011599073396258262 0 0.00030479986233635913 -0.011499182199731301 0 0.00030479986233635913 -0.011499182199731301 0 0.00025321828511403144 -0.011358643082324841 0 0.00028087004998052635 -0.011576017200097231 0 0.00034502501372429356 -0.011415645814671093 0 0.00030479986233635913 -0.011499182199731301 0 0.00025321828511403144 -0.011358643082324841 0 0.00034502501372429356 -0.011415645814671093 0 0.00025321828511403144 -0.011358643082324841 0 0.00035656064492288789 -0.011030420939678629 0 -0.00015508339930246331 -0.010636075140055355 0 0.00025321828511403144 -0.011358643082324841 0 0.00035656064492288789 -0.011030420939678629 0 0.00034502501372429356 -0.011415645814671093 0 0.00035656064492288789 -0.011030420939678629 0 0.00036632847129264756 -0.011477821397509939 0 0.00035656064492288789 -0.011030420939678629 0 0.00036632847129264756 -0.011477821397509939 0 0.0006673823605637027 -0.010984859126460795 0 0.00030573195923985541 -0.011508027273446591 0 0.00036632847129264756 -0.011477821397509939 0 0.0006673823605637027 -0.010984859126460795 0 0.00071891380118253541 -0.010919571571498395 0 0.00091029262341759298 -0.010603527181648848 0 -0.0001053598467756423 -0.0096040825419693252 0 0.0006673823605637027 -0.010984859126460795 0 0.0010679743520888108 -0.0086642717127953552 0 0.00024550046526534031 -0.011789345118276401 0 0.0006673823605637027 -0.010984859126460795 0 0.00069501268698227896 -0.012444327558070166 0 -0.0001053598467756423 -0.0096040825419693252 0 0.00035656064492288789 -0.011030420939678629 0 0.0006673823605637027 -0.010984859126460795 0 0.00018768730420986129 -0.012471581165873798 0 0.00069501268698227896 -0.012444327558070166 0 0.00059605162438749646 -0.013158393339095185 0 -0.0001053598467756423 -0.0096040825419693252 0 0.0010679743520888108 -0.0086642717127953552 0 0.00010914354803040343 -0.0078448310247425396 0 -0.00077535099713430563 -0.0082519612720586902 0 -0.0001053598467756423 -0.0096040825419693252 0 0.00010914354803040343 -0.0078448310247425396 0 -4.5401054259883256e-05 -0.0068138330752069319 0 -0.0010096446646680616 -0.0072759815145428727 0 0.00010914354803040343 -0.0078448310247425396 0 -0.0010096446646680616 -0.0072759815145428727 0 -0.00077535099713430563 -0.0082519612720586902 0 0.00010914354803040343 -0.0078448310247425396 0 -4.5401054259883256e-05 -0.0068138330752069319 0 0.00010914354803040343 -0.0078448310247425396 0 0.0010904140297120564 -0.0072136072323998454 0 0.0010679743520888108 -0.0086642717127953552 0 0.00010914354803040343 -0.0078448310247425396 0 0.0010904140297120564 -0.0072136072323998454 0 0.00091029262341759298 -0.010603527181648848 0 -0.00052665836459958029 -0.0099036114023092914 0 -0.00025023513211794334 -0.01310184315154907 0 -0.00029570577876753446 -0.013072045199934604 0 -0.00026077197358185991 -0.013114968121928887 0 -0.00027763740544577684 -0.012977620045679542 0 -0.00036304637097200426 -0.013060747884039122 0 -0.00033730477898112577 -0.012778151291952911 0 0.00048068088117968335 -0.009556021091398333 0 6.7497156911332988e-05 -0.0095791500391037687 0 0.0002787358162757195 -0.009319993760818308 0 -0.00040386223619952625 -0.012732558522845161 0 4.1894933092637013e-05 -0.012053600327776141 0 0.00048068088117968335 -0.009556021091398333 0 6.7497156911332988e-05 -0.0095791500391037687 0 0.00010348917790894098 -0.0098272422061139279 0 6.7497156911332988e-05 -0.0095791500391037687 0 -6.6338981248163738e-05 -0.0091699628810259434 0 0.0002787358162757195 -0.009319993760818308 0 -6.6338981248163738e-05 -0.0091699628810259434 0 0.00024662374369131151 -0.0090800902102997089 0 0.0002787358162757195 -0.009319993760818308 0 -6.6338981248163738e-05 -0.0091699628810259434 0 8.4271467374895032e-05 -0.0088124567845206617 0 -0.00059946508460940193 -0.008802709997796223 0 -6.6338981248163738e-05 -0.0091699628810259434 0 0.00024662374369131151 -0.0090800902102997089 0 8.4271467374895032e-05 -0.0088124567845206617 0 0.00024662374369131151 -0.0090800902102997089 0 0.00058756669309523093 -0.009149075736727779 0 0.00033472460918869423 -0.0089353909676005219 0 0.00024662374369131151 -0.0090800902102997089 0 0.00033472460918869423 -0.0089353909676005219 0 8.4271467374895032e-05 -0.0088124567845206617 0 4.1894933092637013e-05 -0.012053600327776141 0 0.00015708617861719736 -0.010711908389600582 0 0.00048068088117968335 -0.009556021091398333 0 0.0002787358162757195 -0.009319993760818308 0 0.00058756669309523093 -0.009149075736727779 0 0.00024662374369131151 -0.0090800902102997089 0 0.0002787358162757195 -0.009319993760818308 0 0.00058756669309523093 -0.009149075736727779 0 0.00058756669309523093 -0.009149075736727779 0 0.00046600689355085027 -0.0088119471270332178 0 0.00033472460918869423 -0.0089353909676005219 0 -0.00029590468784782182 -0.010691107639785246 0 -0.0007705177693703236 -0.0087227052183124817 0 0.00066811489329326676 -0.0086870337431918659 0 0.00058756669309523093 -0.009149075736727779 0 0.00046600689355085027 -0.0088119471270332178 0 0.00046600689355085027 -0.0088119471270332178 0 0.00058680342011429762 -0.0086085131945037464 0 8.4271467374895032e-05 -0.0088124567845206617 0 -3.6275124068017145e-05 -0.011379743951531435 0 0.00015708617861719736 -0.010711908389600582 0 0.00046600689355085027 -0.0088119471270332178 0 0.00033472460918869423 -0.0089353909676005219 0 8.4271467374895032e-05 -0.0088124567845206617 0 0.00066811489329326676 -0.0086870337431918659 0 0.00046600689355085027 -0.0088119471270332178 0 0.00058680342011429762 -0.0086085131945037464 0 0.00011497484292997863 -0.011278337845212014 0 0.00013633160799574162 -0.011119521485271512 0 -0.00012421168234600315 -0.011061945143543356 0 -3.6275124068017145e-05 -0.011379743951531435 0 -0.00029590468784782182 -0.010691107639785246 0 -3.409858059075959e-05 -0.011585581363986229 0 -0.00029590468784782182 -0.010691107639785246 0 0.00038867585408794024 -0.01158001525825476 0 0.00031979589356291501 -0.011599073396258262 0 0.00028087004998052635 -0.011576017200097231 0 0.00037727343379151043 -0.011610514722713058 0 0.00028087004998052635 -0.011576017200097231 0 -0.00012090561608186016 -0.011578232526600755 0 0.00038867585408794024 -0.01158001525825476 0 0.00037727343379151043 -0.011610514722713058 0 0.00028087004998052635 -0.011576017200097231 0 -0.00029590468784782182 -0.010691107639785246 0 -0.00070985192511235104 -0.010392787052468735 0 0.00025321828511403144 -0.011358643082324841 0 0.00028087004998052635 -0.011576017200097231 0 -0.00012090561608186016 -0.011578232526600755 0 0.00031979589356291501 -0.011599073396258262 0 0.00030479986233635913 -0.011499182199731301 0 0.00028087004998052635 -0.011576017200097231 0 -0.0013397640318278485 -0.009362193959445644 0 -0.0013059258601837392 -0.0094526639574445178 0 -0.0012897833401816312 -0.0093676714947494577 0 -0.0010964914907754147 -0.0095245943264418258 0 -0.0013059258601837392 -0.0094526639574445178 0 -0.0012897833401816312 -0.0093676714947494577 0 0.00058680342011429762 -0.0086085131945037464 0 -0.00017812612542815839 -0.0083988823860583969 0 8.4271467374895032e-05 -0.0088124567845206617 0 -0.00017812612542815839 -0.0083988823860583969 0 8.4271467374895032e-05 -0.0088124567845206617 0 -0.00059946508460940193 -0.008802709997796223 0 -0.00017812612542815839 -0.0083988823860583969 0 -0.00059946508460940193 -0.008802709997796223 0 -0.00091211097865590929 -0.0082856380186429601 0 -0.0007705177693703236 -0.0087227052183124817 0 -0.0011859414030767716 -0.0088051873740227563 0 -0.0013397640318278485 -0.009362193959445644 0 -0.0013059258601837392 -0.0094526639574445178 0 -0.0015509523278423049 -0.0093030094140398138 0 -0.00091211097865590929 -0.0082856380186429601 0 -0.0010145031050858989 -0.0086427327898591019 0 -0.0012279963803871444 -0.0084766157891430893 0 -0.00059946508460940193 -0.008802709997796223 0 -0.00091211097865590929 -0.0082856380186429601 0 -0.0010145031050858989 -0.0086427327898591019 0 -0.00059946508460940193 -0.008802709997796223 0 -0.0010145031050858989 -0.0086427327898591019 0 -0.0010277635230357992 -0.008937988935786248 0 -0.00059946508460940193 -0.008802709997796223 0 -0.00071497715016401446 -0.0091887126091868623 0 -0.0010277635230357992 -0.008937988935786248 0 -5.4149860263753854e-05 -0.0091676974406007788 0 -0.00038229670145829923 -0.0093948882943140442 0 -6.6338981248163738e-05 -0.0091699628810259434 0 -0.00059946508460940193 -0.008802709997796223 0 -0.00071497715016401446 -0.0091887126091868623 0 6.7497156911332988e-05 -0.0095791500391037687 0 -6.6338981248163738e-05 -0.0091699628810259434 0 -0.00010864956762884185 -0.0096369844610345451 0 6.7497156911332988e-05 -0.0095791500391037687 0 -0.00010864956762884185 -0.0096369844610345451 0 -3.2091847963896862e-05 -0.0098132287887432289 0 -0.00071497715016401446 -0.0091887126091868623 0 -0.0010277635230357992 -0.008937988935786248 0 -0.0010949110104693668 -0.009185570208348301 0 -0.00038229670145829923 -0.0093948882943140442 0 -0.00051171666064762391 -0.0094872715780582977 0 -0.0013042343889953386 -0.0089294796935624355 0 -0.0010277635230357992 -0.008937988935786248 0 -0.0010949110104693668 -0.009185570208348301 0 -0.0013042343889953386 -0.0089294796935624355 0 -0.0014848490291367222 -0.0088312838612588686 0 -0.0015283866534328422 -0.0090164338698303838 0 -0.0013042343889953386 -0.0089294796935624355 0 -0.0014102788294436529 -0.0086593660540120604 0 -0.0014848490291367222 -0.0088312838612588686 0 -0.0013042343889953386 -0.0089294796935624355 0 -0.0014102788294436529 -0.0086593660540120604 0 -0.0012513700050573516 -0.0086499367652631415 0 -0.0010145031050858989 -0.0086427327898591019 0 -0.0010277635230357992 -0.008937988935786248 0 -0.0012513700050573516 -0.0086499367652631415 0 -0.0013042343889953386 -0.0089294796935624355 0 -0.0010277635230357992 -0.008937988935786248 0 -0.0012513700050573516 -0.0086499367652631415 0 -0.0012513700050573516 -0.0086499367652631415 0 -0.0012279963803871444 -0.0084766157891430893 0 -0.001386237707146198 -0.0084455738224473113 0 -0.0010145031050858989 -0.0086427327898591019 0 -0.0012513700050573516 -0.0086499367652631415 0 -0.0012279963803871444 -0.0084766157891430893 0 -0.0011859414030767716 -0.0088051873740227563 0 -0.0014332167689518566 -0.0085559961278134766 0 -0.0015509523278423049 -0.0093030094140398138 0 -0.0015619107653153004 -0.0088850135246333686 0 -0.0014939912960620231 -0.0085026084100192044 0 -0.00091211097865590929 -0.0082856380186429601 0 -0.0012279963803871444 -0.0084766157891430893 0 -0.0014939912960620231 -0.0085026084100192044 0 -0.0012279963803871444 -0.0084766157891430893 0 -0.0014939912960620231 -0.0085026084100192044 0 -0.001386237707146198 -0.0084455738224473113 0 -0.0014939912960620231 -0.0085026084100192044 0 -0.001386237707146198 -0.0084455738224473113 0 -0.0014940893754634898 -0.008277477621269581 0 -0.001386237707146198 -0.0084455738224473113 0 -0.0014611806570885883 -0.0084357061079758707 0 -0.0014940893754634898 -0.008277477621269581 0 -0.0012513700050573516 -0.0086499367652631415 0 -0.001386237707146198 -0.0084455738224473113 0 -0.0014611806570885883 -0.0084357061079758707 0 -0.0014102788294436529 -0.0086593660540120604 0 -0.0012513700050573516 -0.0086499367652631415 0 -0.0014611806570885883 -0.0084357061079758707 0 -0.0014102788294436529 -0.0086593660540120604 0 -0.0014611806570885883 -0.0084357061079758707 0 -0.0016280464389576968 -0.0084360428832281984 0 -0.0014611806570885883 -0.0084357061079758707 0 -0.0016280464389576968 -0.0084360428832281984 0 -0.0016233301752971272 -0.0082346029439488207 0 -0.0014611806570885883 -0.0084357061079758707 0 -0.0016233301752971272 -0.0082346029439488207 0 -0.0014940893754634898 -0.008277477621269581 0 -0.0017298209187521184 -0.0079389382492893457 0 -0.0016233301752971272 -0.0082346029439488207 0 -0.0014940893754634898 -0.008277477621269581 0 -0.0019903663568954398 -0.0076875820144328118 0 -0.0017298209187521184 -0.0079389382492893457 0 -0.0018079320012375007 -0.0080945133400062864 0 -0.0017298209187521184 -0.0079389382492893457 0 -0.0016233301752971272 -0.0082346029439488207 0 -0.0018079320012375007 -0.0080945133400062864 0 -0.0016280464389576968 -0.0084360428832281984 0 -0.0017457752998253709 -0.0085935936252176034 0 -0.0018933533879586337 -0.0082852832532081203 0 -0.0016280464389576968 -0.0084360428832281984 0 -0.0018079320012375007 -0.0080945133400062864 0 -0.0018933533879586337 -0.0082852832532081203 0 -0.0016280464389576968 -0.0084360428832281984 0 -0.0016233301752971272 -0.0082346029439488207 0 -0.0018079320012375007 -0.0080945133400062864 0 -0.0017457752998253709 -0.0085935936252176034 0 -0.0018933533879586337 -0.0082852832532081203 0 -0.0019625347003788015 -0.0085713695757342473 0 -0.0017457752998253709 -0.0085935936252176034 0 -0.001844301168061185 -0.0087803750777827073 0 -0.0019625347003788015 -0.0085713695757342473 0 -0.0017457752998253709 -0.0085935936252176034 0 -0.0016529454936650692 -0.0088236845903680201 0 -0.001844301168061185 -0.0087803750777827073 0 -0.0014102788294436529 -0.0086593660540120604 0 -0.0016280464389576968 -0.0084360428832281984 0 -0.0015551610746702982 -0.0086660890536663059 0 -0.0016280464389576968 -0.0084360428832281984 0 -0.0017457752998253709 -0.0085935936252176034 0 -0.0015551610746702982 -0.0086660890536663059 0 -0.0014102788294436529 -0.0086593660540120604 0 -0.0015551610746702982 -0.0086660890536663059 0 -0.0014848490291367222 -0.0088312838612588686 0 -0.0015551610746702982 -0.0086660890536663059 0 -0.0016529454936650692 -0.0088236845903680201 0 -0.0014848490291367222 -0.0088312838612588686 0 -0.0017457752998253709 -0.0085935936252176034 0 -0.0015551610746702982 -0.0086660890536663059 0 -0.0016529454936650692 -0.0088236845903680201 0 -0.0016529454936650692 -0.0088236845903680201 0 -0.0015283866534328422 -0.0090164338698303838 0 -0.0017972229838885015 -0.0090228120388501018 0 -0.0016529454936650692 -0.0088236845903680201 0 -0.0014848490291367222 -0.0088312838612588686 0 -0.0015283866534328422 -0.0090164338698303838 0 -0.001844301168061185 -0.0087803750777827073 0 -0.0017972229838885015 -0.0090228120388501018 0 -0.0019324501628027264 -0.0089049399181695809 0 -0.0016529454936650692 -0.0088236845903680201 0 -0.001844301168061185 -0.0087803750777827073 0 -0.0017972229838885015 -0.0090228120388501018 0 -0.0017972229838885015 -0.0090228120388501018 0 -0.0016346487004266911 -0.0091959692412021486 0 -0.0018423932493732129 -0.0092528756389089091 0 -0.0017972229838885015 -0.0090228120388501018 0 -0.0018423932493732129 -0.0092528756389089091 0 -0.0020476634046250352 -0.0090713420529626252 0 -0.0015283866534328422 -0.0090164338698303838 0 -0.0017972229838885015 -0.0090228120388501018 0 -0.0016346487004266911 -0.0091959692412021486 0 -0.0015283866534328422 -0.0090164338698303838 0 -0.0016346487004266911 -0.0091959692412021486 0 -0.0013711672402987787 -0.0092664801094124779 0 -0.0016346487004266911 -0.0091959692412021486 0 -0.0016536468256048394 -0.00941285508019459 0 -0.0013711672402987787 -0.0092664801094124779 0 -0.00065265095606896115 -0.0079503670552691658 0 -0.00066719421665555674 -0.0098205571809336107 0 0.00040506275253070006 -0.0098737137712266929 0 0.00022115572672021564 -0.0098762555096404536 0 0.00019172381508736033 -0.0099489198180210698 0 -0.0016346487004266911 -0.0091959692412021486 0 -0.0016536468256048394 -0.00941285508019459 0 -0.0018423932493732129 -0.0092528756389089091 0 -0.00065265095606896115 -0.0079503670552691658 0 -0.0018148362583479878 -0.0067394945557488232 0 -0.0015312218874572302 -0.0044443458489140967 0 -0.001723368292331101 -0.0043239341250415862 0 -0.0017705827493856492 -0.0044587701469802465 0 0.00017851286600679468 -0.008009004279575925 0 0.00036565216164820459 -0.0078771110955720269 0 0.00023135898984465262 -0.0077103211204844974 0 -0.0015312218874572302 -0.0044443458489140967 0 -0.0017197873838310773 -0.0046092191071900402 0 -0.0017705827493856492 -0.0044587701469802465 0 -0.00065265095606896115 -0.0079503670552691658 0 -0.00030077457686653421 -0.0053480238917294519 0 -0.00030077457686653421 -0.0053480238917294519 0 0.00023306671983789877 -0.0071778365344005229 0 -1.1415290594630131e-05 -0.0059308157412750924 0 3.3578655909616615e-05 -0.0062823080186184743 0 -2.2921626875725994e-05 -0.0059427262110338429 0 3.3578655909616615e-05 -0.0062823080186184743 0 -2.5998327940297445e-07 -0.0060332469348050094 0 -2.2921626875725994e-05 -0.0059427262110338429 0 3.3578655909616615e-05 -0.0062823080186184743 0 6.4522949782610852e-07 -0.0073982515699471865 0 -2.5998327940297445e-07 -0.0060332469348050094 0 0.00023135898984465262 -0.0077103211204844974 0 -9.4603604983064954e-08 -0.0074024776901684686 0 -6.9192910592341938e-05 -0.0078414341399886886 0 0.00023306671983789877 -0.0071778365344005229 0 -9.6761931870641202e-08 -0.0073993637672380465 0 -0.00065265095606896115 -0.0079503670552691658 0 0.00031263409851348958 -0.0089658549212322681 0 0.00040506275253070006 -0.0098737137712266929 0 0.00037239020616965291 -0.0097080402175176127 0 0.00022115572672021564 -0.0098762555096404536 0 0.00017851286600679468 -0.008009004279575925 0 0.00023135898984465262 -0.0077103211204844974 0 -6.9192910592341938e-05 -0.0078414341399886886 0 0.00037239020616965291 -0.0097080402175176127 0 0.00011099879833867233 -0.0098831153775635668 0 0.00022115572672021564 -0.0098762555096404536 0 -9.4603604983064954e-08 -0.0074024776901684686 0 -6.9192910592341938e-05 -0.0078414341399886886 0 8.5618520611826509e-08 -0.0089112667903979894 0 0.00037239020616965291 -0.0097080402175176127 0 1.4844272100822632e-06 -0.0089181331015678617 0 0.00011099879833867233 -0.0098831153775635668 0 0.00031263409851348958 -0.0089658549212322681 0 -3.999738025831693e-07 -0.0089134423110692525 0 1.4844272100822632e-06 -0.0089181331015678617 0 0.00011099879833867233 -0.0098831153775635668 0 4.3069878996017293e-05 -0.009975148246944357 0 0.00011099879833867233 -0.0098831153775635668 0 3.7297978052088041e-05 -0.0098921522134920604 0 4.3069878996017293e-05 -0.009975148246944357 0 0.00011099879833867233 -0.0098831153775635668 0 3.7297978052088041e-05 -0.0098921522134920604 0 0.00022115572672021564 -0.0098762555096404536 0 3.7297978052088041e-05 -0.0098921522134920604 0 0.00022115572672021564 -0.0098762555096404536 0 0.00019172381508736033 -0.0099489198180210698 0 -0.0013042343889953386 -0.0089294796935624355 0 -0.0015283866534328422 -0.0090164338698303838 0 -0.0013711672402987787 -0.0092664801094124779 0 -0.0013042343889953386 -0.0089294796935624355 0 -0.0013711672402987787 -0.0092664801094124779 0 -0.0010949110104693668 -0.009185570208348301 0 3.7297978052088041e-05 -0.0098921522134920604 0 0.00019172381508736033 -0.0099489198180210698 0 -1.6254249224040792e-05 -0.0098692118945269049 0 -0.00066719421665555674 -0.0098205571809336107 0 -0.00051171666064762391 -0.0094872715780582977 0 -9.7724375400921788e-07 -0.01267321474723951 0 1.4844272100822632e-06 -0.0089181331015678617 0 4.3069878996017293e-05 -0.009975148246944357 0 -9.7724375400921788e-07 -0.01267321474723951 0 4.3069878996017293e-05 -0.009975148246944357 0 -8.8529063620526672e-05 -0.012360605761236682 0 -0.00010864956762884185 -0.0096369844610345451 0 -1.6254249224040792e-05 -0.0098692118945269049 0 -3.2091847963896862e-05 -0.0098132287887432289 0 3.7297978052088041e-05 -0.0098921522134920604 0 -1.6254249224040792e-05 -0.0098692118945269049 0 -3.2091847963896862e-05 -0.0098132287887432289 0 -3.2091847963896862e-05 -0.0098132287887432289 0 1.6715574058361992e-05 -0.0098988656555442107 0 0.00010348917790894098 -0.0098272422061139279 0 1.7517638549815521e-05 -0.010888874909372919 0 7.2992384997732122e-05 -0.011274148698101965 0 3.7297978052088041e-05 -0.0098921522134920604 0 -3.2091847963896862e-05 -0.0098132287887432289 0 1.6715574058361992e-05 -0.0098988656555442107 0 3.7297978052088041e-05 -0.0098921522134920604 0 1.6715574058361992e-05 -0.0098988656555442107 0 4.3069878996017293e-05 -0.009975148246944357 0 0.00016308181390159161 -0.011839616667054489 0 4.3069878996017293e-05 -0.009975148246944357 0 -8.8529063620526672e-05 -0.012360605761236682 0 1.7517638549815521e-05 -0.010888874909372919 0 5.7502385011647448e-05 -0.010135536910934339 0 -0.00014401576765833246 -0.013273232204882102 0 -9.7724375400921788e-07 -0.01267321474723951 0 -8.8529063620526672e-05 -0.012360605761236682 0 -8.8529063620526672e-05 -0.012360605761236682 0 -3.2694672769713919e-06 -0.012944171290181444 0 -0.00026077197358185991 -0.013114968121928887 0 -0.00014401576765833246 -0.013273232204882102 0 -8.8529063620526672e-05 -0.012360605761236682 0 -0.00026077197358185991 -0.013114968121928887 0 0.00016308181390159161 -0.011839616667054489 0 -8.8529063620526672e-05 -0.012360605761236682 0 -3.2694672769713919e-06 -0.012944171290181444 0 6.7497156911332988e-05 -0.0095791500391037687 0 -3.2091847963896862e-05 -0.0098132287887432289 0 0.00010348917790894098 -0.0098272422061139279 0 4.1894933092637013e-05 -0.012053600327776141 0 7.2992384997732122e-05 -0.011274148698101965 0 4.1894933092637013e-05 -0.012053600327776141 0 -0.00034188492352074494 -0.013559888278545011 0 -0.00029353876907906924 -0.01337573556982403 0 -3.2694672769713919e-06 -0.012944171290181444 0 -0.00026077197358185991 -0.013114968121928887 0 -0.00016971660404642238 -0.0036324618769068857 0 0.00070463231304635128 -0.003712606928221895 0 -1.9471948949070114e-05 -0.0050931706614623 0 -0.00016971660404642238 -0.0036324618769068857 0 -1.9471948949070114e-05 -0.0050931706614623 0 -0.0011320110969564243 -0.0040129998916911564 0 -0.00016971660404642238 -0.0036324618769068857 0 0.00013262649635865513 -0.0028154692854017696 0 -0.00045966080245078862 -0.0028370869177195644 0 -0.00016971660404642238 -0.0036324618769068857 0 0.00013262649635865513 -0.0028154692854017696 0 0.00070463231304635128 -0.003712606928221895 0 0.00013262649635865513 -0.0028154692854017696 0 0.0010583996313011717 -0.0030020631934742264 0 0.00070463231304635128 -0.003712606928221895 0 -4.4056533115651367e-06 -0.0010148525234740238 0 -4.4671512656459147e-05 -0.0010432136584240224 0 -0.00013992461452487257 -0.00093178807573095007 0 -4.4056533115651367e-06 -0.0010148525234740238 0 -4.4671512656459147e-05 -0.0010432136584240224 0 -0.00011053096423476728 -0.0011330892589818909 0 -4.4671512656459147e-05 -0.0010432136584240224 0 -0.00011053096423476728 -0.0011330892589818909 0 7.8952574676594451e-05 -0.0012060300158301981 0 0.0010583996313011717 -0.0030020631934742264 0 0.00070463231304635128 -0.003712606928221895 0 0.0014944988732708217 -0.0042186242798537251 0 0.00070463231304635128 -0.003712606928221895 0 0.0014944988732708217 -0.0042186242798537251 0 0.00095164234625203827 -0.004893081545168129 0 0.00050639130223546498 -0.0020542067318653438 0 0.00067988606491943245 -0.0026450152476947754 0 0.0014944988732708217 -0.0042186242798537251 0 0.00095164234625203827 -0.004893081545168129 0 0.0017688613639540672 -0.0054612616481474153 0 -0.00011053096423476728 -0.0011330892589818909 0 -0.00010850172122255802 -0.0013312712991175458 0 7.8952574676594451e-05 -0.0012060300158301981 0 0.00067988606491943245 -0.0026450152476947754 0 0.00092873430819011868 -0.0035993655164401777 0 0.00095164234625203827 -0.004893081545168129 0 0.0017688613639540672 -0.0054612616481474153 0 0.00085970187303049278 -0.0059632438592123766 0 0.00095164234625203827 -0.004893081545168129 0 0.00085970187303049278 -0.0059632438592123766 0 -1.9471948949070114e-05 -0.0050931706614623 0 1.3841585914536227e-05 -0.0064429585600194574 0 0.00085970187303049278 -0.0059632438592123766 0 -1.9471948949070114e-05 -0.0050931706614623 0 0.00070463231304635128 -0.003712606928221895 0 0.00095164234625203827 -0.004893081545168129 0 -1.9471948949070114e-05 -0.0050931706614623 0 -0.00082656293119022658 -0.0063155641696018353 0 1.3841585914536227e-05 -0.0064429585600194574 0 -1.9471948949070114e-05 -0.0050931706614623 0 -0.0021217892569582934 -0.007018407762289707 0 -0.00082656293119022658 -0.0063155641696018353 0 -0.0013245902368061058 -0.0054258851914923889 0 -0.00082656293119022658 -0.0063155641696018353 0 -1.9471948949070114e-05 -0.0050931706614623 0 -0.0013245902368061058 -0.0054258851914923889 0 -0.0021217892569582934 -0.007018407762289707 0 -0.0013245902368061058 -0.0054258851914923889 0 -0.0025894528506497433 -0.0050780862386925908 0 -0.0013245902368061058 -0.0054258851914923889 0 -0.0025894528506497433 -0.0050780862386925908 0 -0.0011320110969564243 -0.0040129998916911564 0 -1.9471948949070114e-05 -0.0050931706614623 0 -0.0013245902368061058 -0.0054258851914923889 0 -0.0011320110969564243 -0.0040129998916911564 0 -0.0019903663568954398 -0.0076875820144328118 0 -0.0018079320012375007 -0.0080945133400062864 0 -0.0020301864041666574 -0.0079098299899485695 0 -0.0019903663568954398 -0.0076875820144328118 0 -0.0021217892569582934 -0.007018407762289707 0 -0.0020301864041666574 -0.0079098299899485695 0 -0.0021217892569582934 -0.007018407762289707 0 -0.0020301864041666574 -0.0079098299899485695 0 -0.0023173083347748902 -0.0080418129383555432 0 -0.0021507557047288216 -0.0070519585077172316 0 -0.0024132990381068209 -0.0065448752771312194 0 -0.0024132990381068209 -0.0065448752771312194 0 -0.0024002621909304579 -0.0064615534625856799 0 -0.0018079320012375007 -0.0080945133400062864 0 -0.0020301864041666574 -0.0079098299899485695 0 -0.0018933533879586337 -0.0082852832532081203 0 -0.0023173083347748902 -0.0080418129383555432 0 -0.0018933533879586337 -0.0082852832532081203 0 -0.0019625347003788015 -0.0085713695757342473 0 -0.0020301864041666574 -0.0079098299899485695 0 -0.0023173083347748902 -0.0080418129383555432 0 -0.0018933533879586337 -0.0082852832532081203 0 -0.001844301168061185 -0.0087803750777827073 0 -0.0019625347003788015 -0.0085713695757342473 0 -0.0020123443439821749 -0.008781493855651459 0 -0.0019625347003788015 -0.0085713695757342473 0 -0.002211116132473225 -0.0086386762837901542 0 -0.0020123443439821749 -0.008781493855651459 0 -0.0023173083347748902 -0.0080418129383555432 0 -0.0019625347003788015 -0.0085713695757342473 0 -0.002211116132473225 -0.0086386762837901542 0 -0.0025894528506497433 -0.0050780862386925908 0 -0.0025804169603902485 -0.0038243938684968163 0 -0.0020834298793615826 -0.0039338936365949937 0 -0.0025804169603902485 -0.0038243938684968163 0 -0.002312828665612904 -0.0036655919450456391 0 -0.0020834298793615826 -0.0039338936365949937 0 -0.002312828665612904 -0.0036655919450456391 0 -0.0020834298793615826 -0.0039338936365949937 0 -0.0022509335398394133 -0.0034448944800157008 0 -0.002312828665612904 -0.0036655919450456391 0 -0.0023310132937149519 -0.0035263429625723803 0 -0.0022509335398394133 -0.0034448944800157008 0 -0.0025804169603902485 -0.0038243938684968163 0 -0.002312828665612904 -0.0036655919450456391 0 -0.0023310132937149519 -0.0035263429625723803 0 -0.0019324501628027264 -0.0089049399181695809 0 -0.0020123443439821749 -0.008781493855651459 0 -0.0020476634046250352 -0.0090713420529626252 0 -0.002211116132473225 -0.0086386762837901542 0 -0.0020123443439821749 -0.008781493855651459 0 -0.0020476634046250352 -0.0090713420529626252 0 -0.0025804169603902485 -0.0038243938684968163 0 -0.0023310132937149519 -0.0035263429625723803 0 -0.0024877290784118006 -0.0033167348858988222 0 -0.0024002621909304579 -0.0064615534625856799 0 -0.0019554749051246818 -0.0051730778452790584 0 -0.001844301168061185 -0.0087803750777827073 0 -0.0019324501628027264 -0.0089049399181695809 0 -0.0020123443439821749 -0.008781493855651459 0 -0.0011320110969564243 -0.0040129998916911564 0 -0.0020834298793615826 -0.0039338936365949937 0 -0.0022509335398394133 -0.0034448944800157008 0 -0.0025894528506497433 -0.0050780862386925908 0 -0.0011320110969564243 -0.0040129998916911564 0 -0.0020834298793615826 -0.0039338936365949937 0 -0.0011045199883310667 -0.003977261998498423 0 -0.0014070915791313243 -0.0033306837173750618 0 -0.0011320110969564243 -0.0040129998916911564 0 -0.00069868285740825849 -0.0029568378861795303 0 -0.00072991166481291097 -0.0029513081482211694 0 -0.0011320110969564243 -0.0040129998916911564 0 -0.00069868285740825849 -0.0029568378861795303 0 -0.00045966080245078862 -0.0028370869177195644 0 -0.00016971660404642238 -0.0036324618769068857 0 -0.0011320110969564243 -0.0040129998916911564 0 -0.00045966080245078862 -0.0028370869177195644 0 -0.00069868285740825849 -0.0029568378861795303 0 -0.00049648565673483726 -0.0028310941439036517 0 -0.00045966080245078862 -0.0028370869177195644 0 -0.00049648565673483726 -0.0028310941439036517 0 -0.00033890656196653817 -0.0025540710766401896 0 -0.00045966080245078862 -0.0028370869177195644 0 -0.00069868285740825849 -0.0029568378861795303 0 -0.00049648565673483726 -0.0028310941439036517 0 -0.00041282715832326969 -0.0029316918300663808 0 -0.00069868285740825849 -0.0029568378861795303 0 -0.00072991166481291097 -0.0029513081482211694 0 -0.00041282715832326969 -0.0029316918300663808 0 -0.00049648565673483726 -0.0028310941439036517 0 -0.00031189797982266083 -0.0030715992572642099 0 -0.0003526688148705122 -0.0029844031023118483 0 -0.00049648565673483726 -0.0028310941439036517 0 -0.00041282715832326969 -0.0029316918300663808 0 -0.00031189797982266083 -0.0030715992572642099 0 -0.00041282715832326969 -0.0029316918300663808 0 -0.00031189797982266083 -0.0030715992572642099 0 -9.6175385135041866e-05 -0.0031257561153750185 0 -0.00031189797982266083 -0.0030715992572642099 0 -7.3152771505739157e-05 -0.003370147316167171 0 -0.000243834267392107 -0.0033593013595501608 0 -0.00031189797982266083 -0.0030715992572642099 0 -0.0003526688148705122 -0.0029844031023118483 0 -0.000243834267392107 -0.0033593013595501608 0 -0.00049648565673483726 -0.0028310941439036517 0 -0.0003526688148705122 -0.0029844031023118483 0 -0.00033890656196653817 -0.0025540710766401896 0 -0.0023310132937149519 -0.0035263429625723803 0 -0.0021067366901041211 -0.0036861164316678509 0 -0.0022697793653664315 -0.0039184916108387091 0 -0.0018148362583479878 -0.0067394945557488232 0 -0.0019554749051246818 -0.0051730778452790584 0 -0.0017972229838885015 -0.0090228120388501018 0 -0.0019324501628027264 -0.0089049399181695809 0 -0.0020476634046250352 -0.0090713420529626252 0 -0.0026724640743139801 -0.0032716444602330138 0 -0.0019554749051246818 -0.0051730778452790584 0 -0.0023310132937149519 -0.0035263429625723803 0 -0.0022509335398394133 -0.0034448944800157008 0 -0.0022697793653664315 -0.0039184916108387091 0 -0.0014070915791313243 -0.0033306837173750618 0 -0.0011035646000338338 -0.0032074629088945034 0 -0.00072991166481291097 -0.0029513081482211694 0 -0.00041282715832326969 -0.0029316918300663808 0 0.00016391525803280283 -0.002898874044713741 0 -0.00041282715832326969 -0.0029316918300663808 0 -9.6175385135041866e-05 -0.0031257561153750185 0 0.00016391525803280283 -0.002898874044713741 0 -9.6175385135041866e-05 -0.0031257561153750185 0 0.00016391525803280283 -0.002898874044713741 0 0.00028690990773334022 -0.0034425130577823418 0 -0.00031189797982266083 -0.0030715992572642099 0 -9.6175385135041866e-05 -0.0031257561153750185 0 -7.3152771505739157e-05 -0.003370147316167171 0 -9.6175385135041866e-05 -0.0031257561153750185 0 0.00028690990773334022 -0.0034425130577823418 0 -7.3152771505739157e-05 -0.003370147316167171 0 -0.0018489094438029197 -0.0039415868965326896 0 -0.0019554749051246818 -0.0051730778452790584 0 -0.00030077457686653421 -0.0053480238917294519 0 -0.0011035646000338338 -0.0032074629088945034 0 -0.001723368292331101 -0.0043239341250415862 0 -0.0017705827493856492 -0.0044587701469802465 0 -0.0018249679643136537 -0.00423346341066761 0 -0.0017705827493856492 -0.0044587701469802465 0 -0.0021067366901041211 -0.0036861164316678509 0 -0.0022697793653664315 -0.0039184916108387091 0 0.0010432972704671416 -0.0036343429465714523 0 0.00016391525803280283 -0.002898874044713741 0 0.00028690990773334022 -0.0034425130577823418 0 -0.0017197873838310773 -0.0046092191071900402 0 -0.0017705827493856492 -0.0044587701469802465 0 -0.0022697793653664315 -0.0039184916108387091 0 0.0010432972704671416 -0.0036343429465714523 0 0.00060639228008471245 -0.0039837419120008037 0 0.00028690990773334022 -0.0034425130577823418 0 -0.00030077457686653421 -0.0053480238917294519 0 0.00038280457032317068 -0.0047923358276627595 0 -1.1415290594630131e-05 -0.0059308157412750924 0 2.7522912797406967e-05 -0.0057862503159797265 0 -2.2921626875725994e-05 -0.0059427262110338429 0 0.00060639228008471245 -0.0039837419120008037 0 0.00016029747939883378 -0.003845331761955618 0 0.00028690990773334022 -0.0034425130577823418 0 0.00016029747939883378 -0.003845331761955618 0 0.00028690990773334022 -0.0034425130577823418 0 -7.3152771505739157e-05 -0.003370147316167171 0 0.00016029747939883378 -0.003845331761955618 0 -7.3152771505739157e-05 -0.003370147316167171 0 -0.00010658734876403031 -0.0039379514141679416 0 7.4668138815656057e-05 -0.0047113756700836867 0 -0.00010658734876403031 -0.0039379514141679416 0 1.2731460035019974e-07 -0.0046660443516249846 0 7.4668138815656057e-05 -0.0047113756700836867 0 4.1258674535732165e-05 -0.0053718688727927219 0 1.2731460035019974e-07 -0.0046660443516249846 0 4.1258674535732165e-05 -0.0053718688727927219 0 -2.5998327940297445e-07 -0.0060332469348050094 0 1.2731460035019974e-07 -0.0046660443516249846 0 0.00016029747939883378 -0.003845331761955618 0 7.4668138815656057e-05 -0.0047113756700836867 0 -0.00010658734876403031 -0.0039379514141679416 0 2.7522912797406967e-05 -0.0057862503159797265 0 7.4668138815656057e-05 -0.0047113756700836867 0 4.1258674535732165e-05 -0.0053718688727927219 0 0.00060639228008471245 -0.0039837419120008037 0 0.00016029747939883378 -0.003845331761955618 0 7.4668138815656057e-05 -0.0047113756700836867 0 0.00038280457032317068 -0.0047923358276627595 0 7.0505736748661732e-06 -0.0048740534786949697 0 2.7522912797406967e-05 -0.0057862503159797265 0 4.1258674535732165e-05 -0.0053718688727927219 0 -2.2921626875725994e-05 -0.0059427262110338429 0 4.1258674535732165e-05 -0.0053718688727927219 0 -2.5998327940297445e-07 -0.0060332469348050094 0 -2.2921626875725994e-05 -0.0059427262110338429 0 -0.0003526688148705122 -0.0029844031023118483 0 -0.00020646523772779415 -0.0034825828795143126 0 -0.0002181661397630496 -0.0027250726822268178 0 -0.0003526688148705122 -0.0029844031023118483 0 -0.0002181661397630496 -0.0027250726822268178 0 -0.00033890656196653817 -0.0025540710766401896 0 -0.0003526688148705122 -0.0029844031023118483 0 -0.000243834267392107 -0.0033593013595501608 0 -0.00020646523772779415 -0.0034825828795143126 0 -7.3152771505739157e-05 -0.003370147316167171 0 -0.000243834267392107 -0.0033593013595501608 0 -0.00010658734876403031 -0.0039379514141679416 0 -0.000243834267392107 -0.0033593013595501608 0 -0.00010658734876403031 -0.0039379514141679416 0 -0.00020646523772779415 -0.0034825828795143126 0 -0.00020646523772779415 -0.0034825828795143126 0 1.2731460035019974e-07 -0.0046660443516249846 0 -5.6240236155447496e-07 -0.0032996031574300129 0 -0.00010658734876403031 -0.0039379514141679416 0 -0.00020646523772779415 -0.0034825828795143126 0 1.2731460035019974e-07 -0.0046660443516249846 0 -0.00020646523772779415 -0.0034825828795143126 0 -5.6240236155447496e-07 -0.0032996031574300129 0 -0.0002181661397630496 -0.0027250726822268178 0 -5.6240236155447496e-07 -0.0032996031574300129 0 -1.8161999142950788e-07 -0.001933284913509309 0 -0.0002181661397630496 -0.0027250726822268178 0 -1.8161999142950788e-07 -0.001933284913509309 0 -0.00012902774253136307 -0.0020256720707890002 0 -3.9526227244798398e-05 -0.0013297352480025773 0 -1.8161999142950788e-07 -0.001933284913509309 0 -0.00012902774253136307 -0.0020256720707890002 0 -0.0002181661397630496 -0.0027250726822268178 0 -0.00012902774253136307 -0.0020256720707890002 0 -0.0002181661397630496 -0.0027250726822268178 0 -0.00033890656196653817 -0.0025540710766401896 0 -0.00012902774253136307 -0.0020256720707890002 0 -0.00033890656196653817 -0.0025540710766401896 0 -0.00013849940130162647 -0.0023317036034811427 0 -0.00012902774253136307 -0.0020256720707890002 0 -0.00013849940130162647 -0.0023317036034811427 0 0.00019566102021282325 -0.0016007139444276077 0 0.00013262649635865513 -0.0028154692854017696 0 -0.00013849940130162647 -0.0023317036034811427 0 0.00019566102021282325 -0.0016007139444276077 0 -0.00033890656196653817 -0.0025540710766401896 0 -0.00013849940130162647 -0.0023317036034811427 0 -0.00045966080245078862 -0.0028370869177195644 0 0.00013262649635865513 -0.0028154692854017696 0 -0.00013849940130162647 -0.0023317036034811427 0 -0.00045966080245078862 -0.0028370869177195644 0 -4.4056533115651367e-06 -0.0010148525234740238 0 -0.00013992461452487257 -0.00093178807573095007 0 0.00019566102021282325 -0.0016007139444276077 0 0.00050639130223546498 -0.0020542067318653438 0 0.00026932814264900577 -0.0016593566836797481 0 0.00013262649635865513 -0.0028154692854017696 0 0.0010583996313011717 -0.0030020631934742264 0 0.00019566102021282325 -0.0016007139444276077 0 0.00019566102021282325 -0.0016007139444276077 0 -3.9526227244798398e-05 -0.0013297352480025773 0 -0.00013121138073729811 -0.00059981853771354254 0 -0.00012902774253136307 -0.0020256720707890002 0 0.00019566102021282325 -0.0016007139444276077 0 -3.9526227244798398e-05 -0.0013297352480025773 0 -0.00013992461452487257 -0.00093178807573095007 0 0.00019566102021282325 -0.0016007139444276077 0 -0.00013121138073729811 -0.00059981853771354254 0 -3.9526227244798398e-05 -0.0013297352480025773 0 -1.7765531918088667e-07 -0.00056686800671421186 0 -0.00013121138073729811 -0.00059981853771354254 0 -1.8161999142950788e-07 -0.001933284913509309 0 -3.9526227244798398e-05 -0.0013297352480025773 0 -1.7765531918088667e-07 -0.00056686800671421186 0 -1.8324350279071795e-07 0.0007993093048226503 0 -0.00010178225715485695 0.0005104595555424907 0 -0.00013121138073729811 -0.00059981853771354254 0 -1.7765531918088667e-07 -0.00056686800671421186 0 -1.8324350279071795e-07 0.0007993093048226503 0 -0.00013121138073729811 -0.00059981853771354254 0 -1.8324350279071795e-07 0.0007993093048226503 0 -0.00010178225715485695 0.0005104595555424907 0 -5.4742042393641569e-07 0.0021660546614748412 0 -0.00010178225715485695 0.0005104595555424907 0 -2.3447842225286858e-05 0.00046108684759774702 0 -0.00014245406698500641 -0.0003033531288176541 0 -0.00010178225715485695 0.0005104595555424907 0 -0.00013121138073729811 -0.00059981853771354254 0 -0.00014245406698500641 -0.0003033531288176541 0 0.00015624920040360323 0.0019185622032879969 0 -5.4742042393641569e-07 0.0021660546614748412 0 3.996219654979999e-05 0.0011157060108685961 0 0.00015624920040360323 0.0019185622032879969 0 -5.4742042393641569e-07 0.0021660546614748412 0 2.3017775200396995e-06 0.0035310198849552543 0 -0.00010178225715485695 0.0005104595555424907 0 -5.4742042393641569e-07 0.0021660546614748412 0 3.996219654979999e-05 0.0011157060108685961 0 -0.00010178225715485695 0.0005104595555424907 0 -2.3447842225286858e-05 0.00046108684759774702 0 3.996219654979999e-05 0.0011157060108685961 0 -2.3447842225286858e-05 0.00046108684759774702 0 3.996219654979999e-05 0.0011157060108685961 0 0.00016781736905706983 0.00045637539644250607 0 0.00037233675300631309 0.00091671855280939935 0 0.00073797738587331064 0.00038004831544375371 0 0.00077540642134065689 0.0016203608861135369 0 0.00015624920040360323 0.0019185622032879969 0 3.996219654979999e-05 0.0011157060108685961 0 0.00037233675300631309 0.00091671855280939935 0 3.996219654979999e-05 0.0011157060108685961 0 0.00037233675300631309 0.00091671855280939935 0 0.00016781736905706983 0.00045637539644250607 0 0.00037233675300631309 0.00091671855280939935 0 0.00035172769177399169 0.00042222534328916552 0 0.00016781736905706983 0.00045637539644250607 0 0.00015624920040360323 0.0019185622032879969 0 0.00037233675300631309 0.00091671855280939935 0 0.00077540642134065689 0.0016203608861135369 0 0.00035172769177399169 0.00042222534328916552 0 0.0006150484613482223 0.00036141385443139531 0 0.00029170200049220574 7.0629535134887945e-05 0 0.00037233675300631309 0.00091671855280939935 0 0.0006150484613482223 0.00036141385443139531 0 0.00073797738587331064 0.00038004831544375371 0 0.0006150484613482223 0.00036141385443139531 0 0.00029170200049220574 7.0629535134887945e-05 0 0.00068124159969166131 0.00035706885931711707 0 0.00037233675300631309 0.00091671855280939935 0 0.00035172769177399169 0.00042222534328916552 0 0.0006150484613482223 0.00036141385443139531 0 8.2707465570701213e-06 0.001281869357926969 0 -8.1247018205007044e-05 0.0013110439736648187 0 0.00035172769177399169 0.00042222534328916552 0 0.00016781736905706983 0.00045637539644250607 0 0.00029170200049220574 7.0629535134887945e-05 0 -2.3447842225286858e-05 0.00046108684759774702 0 1.2498007260879924e-05 1.8274913025846725e-05 0 -0.00014245406698500641 -0.0003033531288176541 0 0.00016781736905706983 0.00045637539644250607 0 0.00029170200049220574 7.0629535134887945e-05 0 1.2498007260879924e-05 1.8274913025846725e-05 0 -2.3447842225286858e-05 0.00046108684759774702 0 0.00016781736905706983 0.00045637539644250607 0 1.2498007260879924e-05 1.8274913025846725e-05 0 1.2498007260879924e-05 1.8274913025846725e-05 0 -0.00014245406698500641 -0.0003033531288176541 0 -9.4358773732402415e-05 -0.00044279647762072972 0 0.00029170200049220574 7.0629535134887945e-05 0 1.2498007260879924e-05 1.8274913025846725e-05 0 -9.4358773732402415e-05 -0.00044279647762072972 0 0.00029170200049220574 7.0629535134887945e-05 0 -9.4358773732402415e-05 -0.00044279647762072972 0 0.00028752334448756774 -0.00045612760413628485 0 0.00010532000356671284 -0.00076239704098361141 0 -8.1247018205007044e-05 0.0013110439736648187 0 0.00029170200049220574 7.0629535134887945e-05 0 0.00028752334448756774 -0.00045612760413628485 0 0.00068124159969166131 0.00035706885931711707 0 -0.00013992461452487257 -0.00093178807573095007 0 -0.00013121138073729811 -0.00059981853771354254 0 -0.00014245406698500641 -0.0003033531288176541 0 -0.00014245406698500641 -0.0003033531288176541 0 -0.00037924692034847551 -0.00058810969880764463 0 -9.4358773732402415e-05 -0.00044279647762072972 0 -0.00014191918407936913 -0.00034909633080561919 0 -0.00017405871492087412 -0.00080633859978626425 0 -0.00013992461452487257 -0.00093178807573095007 0 -0.00014245406698500641 -0.0003033531288176541 0 4.2610413060703629e-05 -0.0010139201044052568 0 -4.4671512656459147e-05 -0.0010432136584240224 0 -0.00013992461452487257 -0.00093178807573095007 0 4.2610413060703629e-05 -0.0010139201044052568 0 -4.4671512656459147e-05 -0.0010432136584240224 0 4.2610413060703629e-05 -0.0010139201044052568 0 7.8952574676594451e-05 -0.0012060300158301981 0 -0.00037924692034847551 -0.00058810969880764463 0 -0.00026055237757960365 -0.00081368595146978585 0 -0.00050631662409216503 -0.0010312625948793374 0 -0.00017405871492087412 -0.00080633859978626425 0 -0.00020196302097533816 -0.0011135973961141161 0 -0.00037924692034847551 -0.00058810969880764463 0 -9.4358773732402415e-05 -0.00044279647762072972 0 -0.00026055237757960365 -0.00081368595146978585 0 0.00010532000356671284 -0.00076239704098361141 0 -6.5065894047048012e-05 -0.00074358124013446266 0 -9.4358773732402415e-05 -0.00044279647762072972 0 0.00028752334448756774 -0.00045612760413628485 0 -8.2687380011620387e-05 -0.00090251271207390652 0 -9.4358773732402415e-05 -0.00044279647762072972 0 -8.2687380011620387e-05 -0.00090251271207390652 0 -0.00026055237757960365 -0.00081368595146978585 0 -8.2687380011620387e-05 -0.00090251271207390652 0 -0.00026055237757960365 -0.00081368595146978585 0 -0.00025476303706448692 -0.0010826727006712762 0 -8.2687380011620387e-05 -0.00090251271207390652 0 -0.00013382858231716712 -0.0013051533884622282 0 9.6870574767077492e-05 -0.00106815496239708 0 -8.2687380011620387e-05 -0.00090251271207390652 0 -0.00025476303706448692 -0.0010826727006712762 0 -0.00013382858231716712 -0.0013051533884622282 0 -0.00025476303706448692 -0.0010826727006712762 0 -0.00013382858231716712 -0.0013051533884622282 0 -0.00030949144059427976 -0.0013198073310148504 0 -0.00011284520297588872 -0.001327154405281071 0 -0.0003327232171208128 -0.0014779720679404256 0 -0.00050631662409216503 -0.0010312625948793374 0 -0.00054976274871217003 -0.0013895908081966656 0 -0.00030949144059427976 -0.0013198073310148504 0 -0.00025476303706448692 -0.0010826727006712762 0 -0.00050631662409216503 -0.0010312625948793374 0 -0.00030949144059427976 -0.0013198073310148504 0 -2.3773288774637108e-05 -0.0014043263481982697 0 7.8952574676594451e-05 -0.0012060300158301981 0 7.9114180534139289e-05 -0.0014699065971684189 0 -0.00020196302097533816 -0.0011135973961141161 0 -0.00030119434406340051 -0.0014678171734025616 0 -0.00010850172122255802 -0.0013312712991175458 0 -2.3773288774637108e-05 -0.0014043263481982697 0 7.8952574676594451e-05 -0.0012060300158301981 0 -0.00026055237757960365 -0.00081368595146978585 0 -0.00025476303706448692 -0.0010826727006712762 0 -0.00050631662409216503 -0.0010312625948793374 0 0.00048228983064579694 -0.0010717941212280157 0 0.00027407569313851391 -0.0011796210288156376 0 0.00026869651992697259 -0.00098229542783154883 0 0.00048228983064579694 -0.0010717941212280157 0 0.00026869651992697259 -0.00098229542783154883 0 0.00041034701930230951 -0.00080836375784860222 0 -0.00074603938700560203 -0.000668954645323915 0 -0.00017510740003759431 -0.00018688830568395931 0 -0.00097936962082075473 0.00020601811266496425 0 -0.00085274504814375116 0.00040475234022679593 0 -0.0010130123892613837 0.00015626110510714316 0 -0.00074603938700560203 -0.000668954645323915 0 -0.0010769428958205122 3.4241726322925022e-05 0 -0.0016001003555633528 -0.00014825033534636751 0 -0.0010130123892613837 0.00015626110510714316 0 -0.00093204426915927346 -0.00064214931793952189 0 -0.00074603938700560203 -0.000668954645323915 0 -0.0012798480737120587 -0.0013347861890588729 0 -0.0010331456423479759 -0.0018045610013388673 0 -0.00085744381945119055 -0.0014636105544184085 0 -0.0011340748184724739 -0.0012572480352584731 0 -0.0016001003555633528 -0.00014825033534636751 0 -0.00093204426915927346 -0.00064214931793952189 0 -0.0011340748184724739 -0.0012572480352584731 0 -0.0010331456423479759 -0.0018045610013388673 0 -0.00069941525598826574 -0.0017041799385133435 0 -0.00085744381945119055 -0.0014636105544184085 0 -0.00074603938700560203 -0.000668954645323915 0 -0.00015475209326366383 -0.0015000155005708558 0 0.00027407569313851391 -0.0011796210288156376 0 9.3218983947920985e-05 -0.0013403801249466342 0 9.6870574767077492e-05 -0.00106815496239708 0 -0.00015475209326366383 -0.0015000155005708558 0 -0.00018291471418317997 -0.0015162475220081963 0 -0.00013382858231716712 -0.0013051533884622282 0 9.3218983947920985e-05 -0.0013403801249466342 0 9.6870574767077492e-05 -0.00106815496239708 0 0.00027407569313851391 -0.0011796210288156376 0 9.6870574767077492e-05 -0.00106815496239708 0 0.00026869651992697259 -0.00098229542783154883 0 9.6870574767077492e-05 -0.00106815496239708 0 0.00026869651992697259 -0.00098229542783154883 0 8.48813338699331e-05 -0.00075786711713147408 0 0.00026869651992697259 -0.00098229542783154883 0 8.48813338699331e-05 -0.00075786711713147408 0 0.00041034701930230951 -0.00080836375784860222 0 -0.00014811029289187424 -0.00051557689266375499 0 -8.2687380011620387e-05 -0.00090251271207390652 0 8.48813338699331e-05 -0.00075786711713147408 0 -8.2687380011620387e-05 -0.00090251271207390652 0 9.6870574767077492e-05 -0.00106815496239708 0 8.48813338699331e-05 -0.00075786711713147408 0 -0.00014811029289187424 -0.00051557689266375499 0 8.48813338699331e-05 -0.00075786711713147408 0 3.388945708197302e-05 -0.00052528325421168976 0 8.48813338699331e-05 -0.00075786711713147408 0 3.388945708197302e-05 -0.00052528325421168976 0 0.00027934260467749793 -0.00050610122808208123 0 -0.00011967270108335953 -0.00013250392504422564 0 -0.00017510740003759431 -0.00018688830568395931 0 8.48813338699331e-05 -0.00075786711713147408 0 0.00027934260467749793 -0.00050610122808208123 0 0.00041034701930230951 -0.00080836375784860222 0 -0.00085274504814375116 0.00040475234022679593 0 -0.00079661277246689366 0.00035504376203066587 0 -0.00090480714113368437 0.0004682091326441786 0 -0.00085274504814375116 0.00040475234022679593 0 -0.00090480714113368437 0.0004682091326441786 0 -0.0010130123892613837 0.00015626110510714316 0 -0.0005066453472005345 0.00032670910891470262 0 -0.00085274504814375116 0.00040475234022679593 0 -0.00079661277246689366 0.00035504376203066587 0 -0.0005066453472005345 0.00032670910891470262 0 -0.00079661277246689366 0.00035504376203066587 0 -0.00054016078984159429 7.0852111158393395e-05 0 -0.00079661277246689366 0.00035504376203066587 0 -0.00054016078984159429 7.0852111158393395e-05 0 -0.00087678742585229231 5.2994206780902833e-05 0 -0.00011967270108335953 -0.00013250392504422564 0 -6.2141544837372091e-05 -0.00021706729014152895 0 -0.0005066453472005345 0.00032670910891470262 0 -0.00054016078984159429 7.0852111158393395e-05 0 -6.4468034012280832e-05 -0.00019716109121136461 0 0.00027934260467749793 -0.00050610122808208123 0 -6.4468034012280832e-05 -0.00019716109121136461 0 6.4374398758862319e-05 -0.00037251915120321935 0 -6.4468034012280832e-05 -0.00019716109121136461 0 -0.00033818697028342222 -0.00031002371012958256 0 2.7678424455603093e-05 -0.00030866805328033387 0 -0.00033818697028342222 -0.00031002371012958256 0 2.7678424455603093e-05 -0.00030866805328033387 0 -0.00043163429175883559 -0.00040811351396677554 0 -0.00054016078984159429 7.0852111158393395e-05 0 -6.4468034012280832e-05 -0.00019716109121136461 0 -0.00033818697028342222 -0.00031002371012958256 0 0.00011633311173049097 0.0019019697174665435 0 -0.00078485414957126583 0.0042174089169458653 0 -0.0016417913530142679 0.0011739493331840421 0 -0.00078485414957126583 0.0042174089169458653 0 -0.00078485414957126583 0.0042174089169458653 0 -0.0025538645625393132 0.0022437828112301782 0 -0.0051764119639438081 0.0062935178182507417 0 -0.003864943787236052 0.0046397972997777133 0 -0.0037958633543688997 0.0057374425344117906 0 -0.00054016078984159429 7.0852111158393395e-05 0 -0.00033818697028342222 -0.00031002371012958256 0 -0.00087678742585229231 5.2994206780902833e-05 0 -0.00033818697028342222 -0.00031002371012958256 0 -0.00047513822892472429 -0.00044674430344612348 0 -0.00087678742585229231 5.2994206780902833e-05 0 -0.0051764119639438081 0.0062935178182507417 0 -0.0031697036481233799 0.0065504434029465012 0 -0.0037958633543688997 0.0057374425344117906 0 -0.00014811029289187424 -0.00051557689266375499 0 -1.4846034425208738e-05 -0.00038786832820678801 0 -8.5008104020532378e-05 -0.00024665169255617335 0 -0.00014811029289187424 -0.00051557689266375499 0 3.388945708197302e-05 -0.00052528325421168976 0 -1.4846034425208738e-05 -0.00038786832820678801 0 3.388945708197302e-05 -0.00052528325421168976 0 0.00027934260467749793 -0.00050610122808208123 0 6.4374398758862319e-05 -0.00037251915120321935 0 -1.4846034425208738e-05 -0.00038786832820678801 0 6.4374398758862319e-05 -0.00037251915120321935 0 1.6680335496067677e-05 -0.00029979684368514064 0 3.388945708197302e-05 -0.00052528325421168976 0 -1.4846034425208738e-05 -0.00038786832820678801 0 6.4374398758862319e-05 -0.00037251915120321935 0 -6.4468034012280832e-05 -0.00019716109121136461 0 6.4374398758862319e-05 -0.00037251915120321935 0 1.6680335496067677e-05 -0.00029979684368514064 0 -6.4468034012280832e-05 -0.00019716109121136461 0 2.7678424455603093e-05 -0.00030866805328033387 0 1.6680335496067677e-05 -0.00029979684368514064 0 2.7678424455603093e-05 -0.00030866805328033387 0 1.6680335496067677e-05 -0.00029979684368514064 0 -8.5008104020532378e-05 -0.00024665169255617335 0 -1.4846034425208738e-05 -0.00038786832820678801 0 1.6680335496067677e-05 -0.00029979684368514064 0 -8.5008104020532378e-05 -0.00024665169255617335 0 0.00011633311173049097 0.0019019697174665435 0 -8.1247018205007044e-05 0.0013110439736648187 0 -7.5853405976544368e-05 0.0044051901110307564 0 0.00010699085551896747 0.0044204808676415281 0 0.00010228563024775518 0.0043444896483287648 0 -8.1247018205007044e-05 0.0013110439736648187 0 0.0003999334201795751 0.0031201698862154755 0 -7.5853405976544368e-05 0.0044051901110307564 0 0.00010228563024775518 0.0043444896483287648 0 -8.7700652737875622e-05 0.0044190902901744674 0 -8.7700652737875622e-05 0.0044190902901744674 0 4.0091622972466324e-05 0.0044422918392447658 0 -7.9165738958274025e-06 0.0047791388965629025 0 -7.5853405976544368e-05 0.0044051901110307564 0 -8.7700652737875622e-05 0.0044190902901744674 0 4.0091622972466324e-05 0.0044422918392447658 0 -1.9540727169628514e-07 0.0046633984129764118 0 -8.4268997809463012e-05 0.0042545200354722965 0 4.2626935653678792e-07 0.0035349234836679986 0 0.00010228563024775518 0.0043444896483287648 0 -8.7700652737875622e-05 0.0044190902901744674 0 -8.4268997809463012e-05 0.0042545200354722965 0 -8.7700652737875622e-05 0.0044190902901744674 0 -8.4268997809463012e-05 0.0042545200354722965 0 -7.9165738958274025e-06 0.0047791388965629025 0 -1.9540727169628514e-07 0.0046633984129764118 0 -8.4268997809463012e-05 0.0042545200354722965 0 -7.9165738958274025e-06 0.0047791388965629025 0 0.00010228563024775518 0.0043444896483287648 0 -8.4268997809463012e-05 0.0042545200354722965 0 4.2626935653678792e-07 0.0035349234836679986 0 0.00015624920040360323 0.0019185622032879969 0 0.00077540642134065689 0.0016203608861135369 0 2.3017775200396995e-06 0.0035310198849552543 0 0.0003999334201795751 0.0031201698862154755 0 1.8759571321857275e-07 0.0035325539119516677 0 -6.0457161569833444e-06 0.0056332448818786707 0 -3.0140331227573207e-05 0.0054102718376907496 0 4.391833386018953e-06 0.0056392522286540401 0 0.00030737737503774317 0.0075580903295408208 0 0.00017744337880500104 0.0073984765397069859 0 1.34708898546261e-05 0.0075706310925009544 0 -0.00078485414957126583 0.0042174089169458653 0 -0.001888439656636871 0.0072510926223031532 0 -0.00078485414957126583 0.0042174089169458653 0 0.00030682094149752731 0.0069066186794276901 0 -7.5853405976544368e-05 0.0044051901110307564 0 0.00021946019174502021 0.0043086252470452826 0 4.0091622972466324e-05 0.0044422918392447658 0 0.00021946019174502021 0.0043086252470452826 0 4.0091622972466324e-05 0.0044422918392447658 0 -7.9165738958274025e-06 0.0047791388965629025 0 -0.00078485414957126583 0.0042174089169458653 0 0.0002246922808240363 0.0050445931591591529 0 -6.0457161569833444e-06 0.0056332448818786707 0 -7.9165738958274025e-06 0.0047791388965629025 0 -3.0140331227573207e-05 0.0054102718376907496 0 -1.9540727169628514e-07 0.0046633984129764118 0 -7.9165738958274025e-06 0.0047791388965629025 0 -3.5731110992845988e-07 0.0057942807421756783 0 -7.9165738958274025e-06 0.0047791388965629025 0 -3.5731110992845988e-07 0.0057942807421756783 0 -3.0140331227573207e-05 0.0054102718376907496 0 -3.5731110992845988e-07 0.0057942807421756783 0 -3.0140331227573207e-05 0.0054102718376907496 0 4.391833386018953e-06 0.0056392522286540401 0 -3.7636722988317058e-07 0.0069240265135305712 0 0.00030682094149752731 0.0069066186794276901 0 -3.5731110992845988e-07 0.0057942807421756783 0 6.5888625371628659e-07 0.0069232859324716766 0 4.391833386018953e-06 0.0056392522286540401 0 3.414868615839763e-07 0.0069264076658645465 0 0.00017744337880500104 0.0073984765397069859 0 -0.00012261591012971318 0.0074296368473998394 0 0.00017744337880500104 0.0073984765397069859 0 1.34708898546261e-05 0.0075706310925009544 0 -0.00012261591012971318 0.0074296368473998394 0 1.34708898546261e-05 0.0075706310925009544 0 -0.00019515789091945228 0.0074947255351029488 0 -0.00012261591012971318 0.0074296368473998394 0 -0.001888439656636871 0.0072510926223031532 0 -0.00057001959369447081 0.007163944273722773 0 -0.00019515789091945228 0.0074947255351029488 0 -0.00012261591012971318 0.0074296368473998394 0 -8.6251132703416286e-07 0.0079926202737493103 0 3.414868615839763e-07 0.0069264076658645465 0 -0.00012261591012971318 0.0074296368473998394 0 -8.6251132703416286e-07 0.0079926202737493103 0 -0.00019515789091945228 0.0074947255351029488 0 -8.6251132703416286e-07 0.0079926202737493103 0 6.3314141094854737e-05 0.0081146066105284732 0 -8.6251132703416286e-07 0.0079926202737493103 0 6.3314141094854737e-05 0.0081146066105284732 0 1.7839609120332078e-06 0.0090595150280983663 0 2.6283901739923206e-06 0.0090636610221405036 0 0.00099159885233447796 0.011491433175610546 0 9.9697837391505656e-05 0.010770621539642993 0 4.013855454530665e-07 0.0090610858112976887 0 0.0008921962620538472 0.009189467848717766 0 6.3314141094854737e-05 0.0081146066105284732 0 1.7839609120332078e-06 0.0090595150280983663 0 0.00061062332451595428 0.0072862750767029331 0 1.7839609120332078e-06 0.0090595150280983663 0 0.00061062332451595428 0.0072862750767029331 0 0.00095611969034749983 0.0069819036811260213 0 0.00061062332451595428 0.0072862750767029331 0 0.00095611969034749983 0.0069819036811260213 0 -0.00013441081384285043 0.0060980635445665498 0 -0.00019515789091945228 0.0074947255351029488 0 6.3314141094854737e-05 0.0081146066105284732 0 0.00061062332451595428 0.0072862750767029331 0 -0.00057001959369447081 0.007163944273722773 0 0.00050891429029486536 0.0072825820277273561 0 -0.0011859666386871213 0.0068467615942192413 0 0.00061062332451595428 0.0072862750767029331 0 -0.00013441081384285043 0.0060980635445665498 0 -0.00013441081384285043 0.0060980635445665498 0 -0.00054717181900735829 0.0031719535894241275 0 -0.0020073821703539591 0.0050812325385020838 0 0.00095611969034749983 0.0069819036811260213 0 -0.00013441081384285043 0.0060980635445665498 0 0.0010811061775832342 0.0040040627605615895 0 0.0008921962620538472 0.009189467848717766 0 0.00091248355123081713 0.0081857906688186464 0 0.00099159885233447796 0.011491433175610546 0 0.0007618974809267524 0.012438523922865857 0 0.00057558139666765383 0.012207603941579661 0 0.0007618974809267524 0.012438523922865857 0 0.00057558139666765383 0.012207603941579661 0 0.00063862604110896323 0.012507908514402562 0 -0.00013441081384285043 0.0060980635445665498 0 0.0010811061775832342 0.0040040627605615895 0 -0.00054717181900735829 0.0031719535894241275 0 -0.00054717181900735829 0.0031719535894241275 0 -0.0020073821703539591 0.0050812325385020838 0 -0.002517458971393913 0.0027757121987098845 0 -0.00079661277246689366 0.00035504376203066587 0 -0.00087678742585229231 5.2994206780902833e-05 0 -0.00093949846142268867 0.00043603115043178229 0 -0.0025538645625393132 0.0022437828112301782 0 -0.0016628107138040463 0.0015947828731482706 0 -0.003864943787236052 0.0046397972997777133 0 -0.0020073821703539591 0.0050812325385020838 0 -0.002517458971393913 0.0027757121987098845 0 -0.0031697036481233799 0.0065504434029465012 0 -0.0030574453447441657 0.0054430725665277945 0 -0.0020073821703539591 0.0050812325385020838 0 -0.003864943787236052 0.0046397972997777133 0 -0.0030574453447441657 0.0054430725665277945 0 -0.0020073821703539591 0.0050812325385020838 0 -0.003864943787236052 0.0046397972997777133 0 -0.0030574453447441657 0.0054430725665277945 0 -0.0037958633543688997 0.0057374425344117906 0 -0.0031697036481233799 0.0065504434029465012 0 -0.0030574453447441657 0.0054430725665277945 0 -0.0037958633543688997 0.0057374425344117906 0 -0.0011859666386871213 0.0068467615942192413 0 -0.00013441081384285043 0.0060980635445665498 0 -0.0020073821703539591 0.0050812325385020838 0 -0.0031697036481233799 0.0065504434029465012 0 -0.0011859666386871213 0.0068467615942192413 0 -0.0020073821703539591 0.0050812325385020838 0 -8.5989150155074551e-05 0.011604950260039144 0 -8.429106859674147e-05 0.012477406058544136 0 -0.00040185116087655372 0.012421500164192764 0 -7.0717777751491254e-07 0.011860551708986438 0 -8.5989150155074551e-05 0.011604950260039144 0 -0.00040185116087655372 0.012421500164192764 0 -1.0575434198853512e-07 0.011862517454318761 0 -0.00015465178839102665 0.01318640412588065 0 -7.0717777751491254e-07 0.011860551708986438 0 -8.5989150155074551e-05 0.011604950260039144 0 -6.1642952982772367e-07 0.010462098492085776 0 -8.5989150155074551e-05 0.011604950260039144 0 0.00016854080261852311 0.011845451697295239 0 -8.429106859674147e-05 0.012477406058544136 0 -8.5989150155074551e-05 0.011604950260039144 0 9.9697837391505656e-05 0.010770621539642993 0 0.00016854080261852311 0.011845451697295239 0 -8.5989150155074551e-05 0.011604950260039144 0 -6.1642952982772367e-07 0.010462098492085776 0 9.9697837391505656e-05 0.010770621539642993 0 2.6283901739923206e-06 0.0090636610221405036 0 -6.1642952982772367e-07 0.010462098492085776 0 9.9697837391505656e-05 0.010770621539642993 0 0.00099159885233447796 0.011491433175610546 0 9.9697837391505656e-05 0.010770621539642993 0 0.00016854080261852311 0.011845451697295239 0 0.00057558139666765383 0.012207603941579661 0 0.00017877437892214847 0.012506178397783028 0 0.00016854080261852311 0.011845451697295239 0 0.00099159885233447796 0.011491433175610546 0 0.00057558139666765383 0.012207603941579661 0 0.00016854080261852311 0.011845451697295239 0 0.00057558139666765383 0.012207603941579661 0 0.00063862604110896323 0.012507908514402562 0 0.00017877437892214847 0.012506178397783028 0 0.00052249235708150428 0.012623426853303723 0 0.00070128499433317129 0.012461114635701147 0 0.00063862604110896323 0.012507908514402562 0 0.00017877437892214847 0.012506178397783028 0 4.5297174102855746e-05 0.013005425166138507 0 0.00017877437892214847 0.012506178397783028 0 0.00016854080261852311 0.011845451697295239 0 -8.429106859674147e-05 0.012477406058544136 0 0.00017877437892214847 0.012506178397783028 0 -8.429106859674147e-05 0.012477406058544136 0 -0.00015596808747293339 0.013079053610884283 0 -0.00015596808747293339 0.013079053610884283 0 -0.00020791346052675608 0.013373838094187135 0 4.5297174102855746e-05 0.013005425166138507 0 0.00017877437892214847 0.012506178397783028 0 -0.00015596808747293339 0.013079053610884283 0 4.5297174102855746e-05 0.013005425166138507 0 -0.00015596808747293339 0.013079053610884283 0 -0.00020963940970099954 0.013516107103663466 0 -0.00026341083623164486 0.013459519950550706 0 -0.00015596808747293339 0.013079053610884283 0 -0.00020963940970099954 0.013516107103663466 0 -0.00020791346052675608 0.013373838094187135 0 -8.429106859674147e-05 0.012477406058544136 0 -0.00023176587093325378 0.013073786645093888 0 -0.00040185116087655372 0.012421500164192764 0 -0.00015596808747293339 0.013079053610884283 0 -0.00023176587093325378 0.013073786645093888 0 -0.00026341083623164486 0.013459519950550706 0 -8.429106859674147e-05 0.012477406058544136 0 -0.00015596808747293339 0.013079053610884283 0 -0.00023176587093325378 0.013073786645093888 0 -0.00016908061435092622 0.015036091139760692 0 -0.00081111045814751871 0.017505190221924767 0 -0.0027680102196920792 0.022090635806138476 0 -0.002731774810106731 0.021964328950177584 0 -0.0027413544589903636 0.022100631528284613 0 -0.0027680102196920792 0.022090635806138476 0 -0.002731774810106731 0.021964328950177584 0 -0.0027735538046287926 0.022036103169535783 0 -0.0004405745654736339 0.013338766877909547 0 -0.00016908061435092622 0.015036091139760692 0 -0.00020963940970099954 0.013516107103663466 0 3.8803552004889919e-05 0.013961160854172032 0 -0.00034877937580593484 0.01384270514350471 0 -0.00016908061435092622 0.015036091139760692 0 0.00070128499433317129 0.012461114635701147 0 0.0012366033248980416 0.012431370716187978 0 0.00106302852786626 0.012337378070659681 0 0.00095371852599552491 0.012470735642645234 0 0.00106302852786626 0.012337378070659681 0 0.0011023022870345252 0.012151565844666201 0 0.0008211266407393131 0.012277965366853561 0 0.0012366033248980416 0.012431370716187978 0 0.00106302852786626 0.012337378070659681 0 0.0011023022870345252 0.012151565844666201 0 0.0011023022870345252 0.012151565844666201 0 0.0008211266407393131 0.012277965366853561 0 0.00073357429113399329 0.012006383839602685 0 0.00106302852786626 0.012337378070659681 0 0.0008211266407393131 0.012277965366853561 0 0.00095371852599552491 0.012470735642645234 0 0.00063862604110896323 0.012507908514402562 0 0.0008211266407393131 0.012277965366853561 0 0.00095371852599552491 0.012470735642645234 0 0.00063862604110896323 0.012507908514402562 0 0.0008211266407393131 0.012277965366853561 0 0.00049496938170776007 0.012230572602426755 0 0.0008211266407393131 0.012277965366853561 0 0.00073357429113399329 0.012006383839602685 0 0.00049496938170776007 0.012230572602426755 0 0.00059254996784809642 0.011654860901394566 0 0.00096405226739766658 0.011823425627289471 0 0.0007788354839106575 0.011421345729263283 0 0.00073357429113399329 0.012006383839602685 0 0.00059254996784809642 0.011654860901394566 0 0.00096405226739766658 0.011823425627289471 0 -0.00097500034588899134 0.016948865509038818 0 -0.0012446375596946934 0.016692005538978504 0 0.0011023022870345252 0.012151565844666201 0 0.00073357429113399329 0.012006383839602685 0 0.00096405226739766658 0.011823425627289471 0 -0.00081111045814751871 0.017505190221924767 0 -0.00097500034588899134 0.016948865509038818 0 -0.0027413544589903636 0.022100631528284613 0 -0.0028651239655612015 0.022212133956318571 0 -0.0027779146851689487 0.022163872218060231 0 -0.0028651239655612015 0.022212133956318571 0 -0.0027810992218043878 0.022200438884081748 0 -0.0028256213637843164 0.022169546564359332 0 -0.0028651239655612015 0.022212133956318571 0 -0.0027810992218043878 0.022200438884081748 0 -0.0027779146851689487 0.022163872218060231 0 -0.0027680102196920792 0.022090635806138476 0 -0.0027413544589903636 0.022100631528284613 0 -0.0027779146851689487 0.022163872218060231 0 -0.0027680102196920792 0.022090635806138476 0 -0.0027779146851689487 0.022163872218060231 0 -0.0027842995525274696 0.022164773927278263 0 -0.0027810992218043878 0.022200438884081748 0 -0.0027779146851689487 0.022163872218060231 0 -0.0027842995525274696 0.022164773927278263 0 -0.00078732428657819059 0.00081365236639487483 0 -0.0003202111775936577 0.00022233751005903537 0 -0.0007855256389063069 0.00022134027744928153 0 -0.00078732428657819059 0.00081365236639487483 0 -0.00090480714113368437 0.0004682091326441786 0 -0.0007855256389063069 0.00022134027744928153 0 -0.00079661277246689366 0.00035504376203066587 0 -0.00090480714113368437 0.0004682091326441786 0 -0.00093949846142268867 0.00043603115043178229 0 -0.00054717181900735829 0.0031719535894241275 0 -0.00078732428657819059 0.00081365236639487483 0 -0.002517458971393913 0.0027757121987098845 0 -0.00078732428657819059 0.00081365236639487483 0 -0.00090480714113368437 0.0004682091326441786 0 -0.00093949846142268867 0.00043603115043178229 0 -0.00089133376807972928 0.00084183090345326956 0 -0.0016628107138040463 0.0015947828731482706 0 -0.00054717181900735829 0.0031719535894241275 0 -0.00078732428657819059 0.00081365236639487483 0 0.00076993131382848887 0.0011762421944388902 0 0.0010811061775832342 0.0040040627605615895 0 -0.00054717181900735829 0.0031719535894241275 0 0.00076993131382848887 0.0011762421944388902 0 0.0007618974809267524 0.012438523922865857 0 0.00063862604110896323 0.012507908514402562 0 0.00049496938170776007 0.012230572602426755 0 0.00091248355123081713 0.0081857906688186464 0 0.0006288846927173838 0.006747307826172385 0 -0.00078732428657819059 0.00081365236639487483 0 0.00076993131382848887 0.0011762421944388902 0 -0.0003202111775936577 0.00022233751005903537 0 0.00076993131382848887 0.0011762421944388902 0 -0.0003202111775936577 0.00022233751005903537 0 0.00025204029001968338 -0.00021060433266331083 0 -0.0003202111775936577 0.00022233751005903537 0 0.00025204029001968338 -0.00021060433266331083 0 -0.00054235145909191753 -0.00038010934636432638 0 0.00073357429113399329 0.012006383839602685 0 0.00049496938170776007 0.012230572602426755 0 0.00037258147174732553 0.011810134051052849 0 0.0006288846927173838 0.006747307826172385 0 0.00031667540470223173 0.0057287329409200739 0 0.00073357429113399329 0.012006383839602685 0 0.00059254996784809642 0.011654860901394566 0 0.00037258147174732553 0.011810134051052849 0 0.00059254996784809642 0.011654860901394566 0 0.00037258147174732553 0.011810134051052849 0 0.00028403258137183927 0.01135614805078666 0 0.00031667540470223173 0.0057287329409200739 0 0.00017490464884987591 0.0055705388156425013 0 0.00025204029001968338 -0.00021060433266331083 0 -1.6596970350962581e-05 -0.00099823387377392654 0 -0.00029547443228943217 -0.00076073144078677107 0 0.00025204029001968338 -0.00021060433266331083 0 -0.00054235145909191753 -0.00038010934636432638 0 -0.00029547443228943217 -0.00076073144078677107 0 -0.00054235145909191753 -0.00038010934636432638 0 -0.00093204426915927346 -0.00064214931793952189 0 -0.00063925440159704014 -0.00093487057360393125 0 -0.00054235145909191753 -0.00038010934636432638 0 -0.00063925440159704014 -0.00093487057360393125 0 -0.00029547443228943217 -0.00076073144078677107 0 -0.00054235145909191753 -0.00038010934636432638 0 -0.0007855256389063069 0.00022134027744928153 0 -0.00081530855613479722 -0.00014670386301976883 0 -0.0003202111775936577 0.00022233751005903537 0 -0.00054235145909191753 -0.00038010934636432638 0 -0.0007855256389063069 0.00022134027744928153 0 -0.00090480714113368437 0.0004682091326441786 0 -0.0007855256389063069 0.00022134027744928153 0 -0.0010130123892613837 0.00015626110510714316 0 -0.0007855256389063069 0.00022134027744928153 0 -0.00081530855613479722 -0.00014670386301976883 0 -0.0010130123892613837 0.00015626110510714316 0 -0.00081530855613479722 -0.00014670386301976883 0 -0.0010130123892613837 0.00015626110510714316 0 -0.00093204426915927346 -0.00064214931793952189 0 -0.00054235145909191753 -0.00038010934636432638 0 -0.00081530855613479722 -0.00014670386301976883 0 -0.00093204426915927346 -0.00064214931793952189 0 -0.00093204426915927346 -0.00064214931793952189 0 -0.000957107885222098 -0.0012779908904461061 0 -0.00063925440159704014 -0.00093487057360393125 0 -0.00093204426915927346 -0.00064214931793952189 0 -0.000957107885222098 -0.0012779908904461061 0 -0.0011340748184724739 -0.0012572480352584731 0 -0.000957107885222098 -0.0012779908904461061 0 -0.00071391803817175581 -0.0012929680272367084 0 -0.00063925440159704014 -0.00093487057360393125 0 -0.000957107885222098 -0.0012779908904461061 0 -0.00083106619781254097 -0.0014830671308633163 0 -0.00094771121520226514 -0.0016422995624996448 0 -0.000957107885222098 -0.0012779908904461061 0 -0.00083106619781254097 -0.0014830671308633163 0 -0.00071391803817175581 -0.0012929680272367084 0 -0.00083106619781254097 -0.0014830671308633163 0 -0.00068909693420732005 -0.0014952777132972697 0 -0.00083577589508028211 -0.0016392014486031269 0 -0.00083106619781254097 -0.0014830671308633163 0 -0.00094771121520226514 -0.0016422995624996448 0 -0.00083577589508028211 -0.0016392014486031269 0 -0.00068909693420732005 -0.0014952777132972697 0 -0.00044896499213528337 -0.0011948952702809203 0 -0.00051528858772735401 -0.0015077446794769366 0 -0.00083106619781254097 -0.0014830671308633163 0 -0.00068909693420732005 -0.0014952777132972697 0 -0.00071391803817175581 -0.0012929680272367084 0 -0.00068909693420732005 -0.0014952777132972697 0 -0.00071391803817175581 -0.0012929680272367084 0 -0.00044896499213528337 -0.0011948952702809203 0 -0.00071391803817175581 -0.0012929680272367084 0 -0.00044896499213528337 -0.0011948952702809203 0 -0.00063925440159704014 -0.00093487057360393125 0 -0.00044896499213528337 -0.0011948952702809203 0 -0.00063925440159704014 -0.00093487057360393125 0 -0.00029547443228943217 -0.00076073144078677107 0 -0.00044896499213528337 -0.0011948952702809203 0 -1.6596970350962581e-05 -0.00099823387377392654 0 -0.00029547443228943217 -0.00076073144078677107 0 0.00059254996784809642 0.011654860901394566 0 0.00028403258137183927 0.01135614805078666 0 0.0007788354839106575 0.011421345729263283 0 0.00028403258137183927 0.01135614805078666 0 0.00053407183586745013 0.010997558881871492 0 0.0007788354839106575 0.011421345729263283 0 0.00028403258137183927 0.01135614805078666 0 0.00022366822602494588 0.010884215682763052 0 0.00053407183586745013 0.010997558881871492 0 -0.00044896499213528337 -0.0011948952702809203 0 -1.6596970350962581e-05 -0.00099823387377392654 0 -0.00027195444391092037 -0.0013545730565595567 0 0.00017490464884987591 0.0055705388156425013 0 -0.00027370483294469276 0.0029469801977099171 0 -1.6596970350962581e-05 -0.00099823387377392654 0 -0.00027195444391092037 -0.0013545730565595567 0 -0.0002987172983712699 -0.0016052900502864511 0 -0.00044896499213528337 -0.0011948952702809203 0 -0.00027195444391092037 -0.0013545730565595567 0 -0.00051528858772735401 -0.0015077446794769366 0 -0.00051528858772735401 -0.0015077446794769366 0 -0.00038954518655816322 -0.0015674228606611348 0 -0.00066323321239044318 -0.0016662347797723317 0 -0.00038954518655816322 -0.0015674228606611348 0 -0.00063685048468778112 -0.0017182599684952013 0 -0.00066323321239044318 -0.0016662347797723317 0 -0.00027370483294469276 0.0029469801977099171 0 -0.0015543216510258829 0.013337307228646589 0 -0.00027195444391092037 -0.0013545730565595567 0 -0.00051528858772735401 -0.0015077446794769366 0 -0.00038954518655816322 -0.0015674228606611348 0 0.00014828853890756086 -0.002171039022479229 0 -0.00027370483294469276 0.0029469801977099171 0 -0.0015292501166057921 0.016739302185586155 0 -0.0015543216510258829 0.013337307228646589 0 0.00022366822602494588 0.010884215682763052 0 0.00053407183586745013 0.010997558881871492 0 0.00027091171232371746 0.010614497044254229 0 -0.0037190979821922075 0.021591812619987754 0 -0.0041128835613754005 0.020914493904230492 0 -0.0035599194234366099 0.020889093556368542 0 -0.00063685048468778112 -0.0017182599684952013 0 -0.00081473744129027261 -0.0018066096045055247 0 -0.00066364273487995484 -0.0018154207240700358 0 -0.00084317635601691967 0.0049157533919744157 0 -0.0012928537503134503 0.006704732778355405 0 -0.00069548276581244913 0.0077103367294397091 0 -0.00038954518655816322 -0.0015674228606611348 0 -0.00063685048468778112 -0.0017182599684952013 0 -0.00066364273487995484 -0.0018154207240700358 0 -0.00027370483294469276 0.0029469801977099171 0 -0.0013765015219386657 0.0044451973090055821 0 -0.0015543216510258829 0.013337307228646589 0 -0.0013765015219386657 0.0044451973090055821 0 -0.00063685048468778112 -0.0017182599684952013 0 -0.00081473744129027261 -0.0018066096045055247 0 -0.00066323321239044318 -0.0016662347797723317 0 -0.00081473744129027261 -0.0018066096045055247 0 -0.00085384586081951744 -0.0017548333088450161 0 -0.00066323321239044318 -0.0016662347797723317 0 -0.00081473744129027261 -0.0018066096045055247 0 -0.00090711127206776463 -0.0018321425968423923 0 -0.00085384586081951744 -0.0017548333088450161 0 -0.00081473744129027261 -0.0018066096045055247 0 -0.00090711127206776463 -0.0018321425968423923 0 -0.00095369914488197286 -0.0018699651975811809 0 -0.00090711127206776463 -0.0018321425968423923 0 -0.00095369914488197286 -0.0018699651975811809 0 -0.00096968568520880568 -0.0018879776314872296 0 -0.00090711127206776463 -0.0018321425968423923 0 -0.00092779669751086552 -0.0017917204428818747 0 -0.00096968568520880568 -0.0018879776314872296 0 -0.00090711127206776463 -0.0018321425968423923 0 -0.00085384586081951744 -0.0017548333088450161 0 -0.00092779669751086552 -0.0017917204428818747 0 -0.00085384586081951744 -0.0017548333088450161 0 -0.00092779669751086552 -0.0017917204428818747 0 -0.00083577589508028211 -0.0016392014486031269 0 -0.00094771121520226514 -0.0016422995624996448 0 -0.00092779669751086552 -0.0017917204428818747 0 -0.00083577589508028211 -0.0016392014486031269 0 -0.00068909693420732005 -0.0014952777132972697 0 -0.00083577589508028211 -0.0016392014486031269 0 -0.00066323321239044318 -0.0016662347797723317 0 -0.00068909693420732005 -0.0014952777132972697 0 -0.00051528858772735401 -0.0015077446794769366 0 -0.00066323321239044318 -0.0016662347797723317 0 -0.00085384586081951744 -0.0017548333088450161 0 -0.00083577589508028211 -0.0016392014486031269 0 -0.00066323321239044318 -0.0016662347797723317 0 -0.0027937654391080036 0.021972175614070045 0 -0.002826101685893138 0.022192845951107796 0 -0.0027865472700497286 0.02223795674428675 0 -0.0027810992218043878 0.022200438884081748 0 -0.0028256213637843164 0.022169546564359332 0 -0.0027865472700497286 0.02223795674428675 0 -0.0028256213637843164 0.022169546564359332 0 -0.0027937654391080036 0.021972175614070045 0 -0.0027865472700497286 0.02223795674428675 0 -0.0027937654391080036 0.021972175614070045 0 -0.0032062104081685538 0.022147830541608935 0 -0.0032096543413296505 0.021450389607581707 0 -0.0028651239655612015 0.022212133956318571 0 -0.0028256213637843164 0.022169546564359332 0 -0.0032062104081685538 0.022147830541608935 0 -0.0028256213637843164 0.022169546564359332 0 -0.0027937654391080036 0.021972175614070045 0 -0.0032062104081685538 0.022147830541608935 0 -0.0037190979821922075 0.021591812619987754 0 -0.0032062104081685538 0.022147830541608935 0 -0.0032096543413296505 0.021450389607581707 0 -0.0015292501166057921 0.016739302185586155 0 -0.0012446375596946934 0.016692005538978504 0 -0.0037190979821922075 0.021591812619987754 0 -0.0035599194234366099 0.020889093556368542 0 -0.0032096543413296505 0.021450389607581707 0 -0.0035599194234366099 0.020889093556368542 0 -0.0032096543413296505 0.021450389607581707 0 -0.0031803294341933557 0.020779371504433475 0 -0.0032096543413296505 0.021450389607581707 0 -0.0026905631305258891 0.020993533107619304 0 -0.0031803294341933557 0.020779371504433475 0 -0.0027937654391080036 0.021972175614070045 0 -0.0032096543413296505 0.021450389607581707 0 -0.0026905631305258891 0.020993533107619304 0 -0.0027944694837140683 0.021943235781498444 0 -0.0026992033783680347 0.021710927127600123 0 -0.0027937654391080036 0.021972175614070045 0 -0.0027543271993025042 0.022312903011393031 0 -0.002826101685893138 0.022192845951107796 0 -0.0027543271993025042 0.022312903011393031 0 -0.0028433359281846678 0.02232703698249755 0 -0.002826101685893138 0.022192845951107796 0 -0.0027543271993025042 0.022312903011393031 0 -0.0028433359281846678 0.02232703698249755 0 -0.0028140000730324248 0.022373479818717953 0 -0.0028433359281846678 0.02232703698249755 0 -0.002826101685893138 0.022192845951107796 0 -0.002830781495826828 0.022300281118592662 0 -0.0028030754071335828 0.022404587219778647 0 -0.0028140000730324248 0.022373479818717953 0 -0.0028518657495272218 0.022376970674701156 0 -0.0033426233985410325 0.022162753843855486 0 -0.003294973464493259 0.022110988405248732 0 -0.0032280314563334139 0.0222955506433535 0 -0.0033426233985410325 0.022162753843855486 0 -0.0033926874273574872 0.022162550375989867 0 -0.0032280314563334139 0.0222955506433535 0 -0.0030976984546567631 0.021494102065080307 0 -0.0029916696848495262 0.022436149636161459 0 -0.0032048458219285378 0.021535428872244952 0 -0.0030976984546567631 0.021494102065080307 0 -0.0033426233985410325 0.022162753843855486 0 -0.0032915281548896 0.022101179720573062 0 -0.0033926874273574872 0.022162550375989867 0 -0.0032471604346662984 0.020567219719568441 0 -0.0034606358956227128 0.020688838277151456 0 -0.0034043482298157231 0.020495769050883336 0 -0.0034360744576663964 0.021999143095472351 0 -0.0032048458219285378 0.021535428872244952 0 -0.0034606358956227128 0.020688838277151456 0 -0.0035483850180949663 0.02062290236470379 0 -0.0034043482298157231 0.020495769050883336 0 -0.0030970952774852685 0.021154993089336837 0 -0.0030571849835987351 0.021132553522878027 0 -0.0030652015705254407 0.021178030784690181 0 -0.0030976984546567631 0.021494102065080307 0 -0.0032159625175341385 0.020614025971943478 0 -0.0028030754071335828 0.022404587219778647 0 -0.0028140000730324248 0.022373479818717953 0 -0.0027877684199949155 0.022398142681211503 0 -0.0030976984546567631 0.021494102065080307 0 -0.0029823582092843286 0.021033074788685355 0 -0.0028433359281846678 0.02232703698249755 0 -0.0028140000730324248 0.022373479818717953 0 -0.0028518657495272218 0.022376970674701156 0 -0.0026992033783680347 0.021710927127600123 0 -0.0029823582092843286 0.021033074788685355 0 -0.0026905631305258891 0.020993533107619304 0 -0.0030225948230380713 0.020330147378295416 0 -0.0026643687573553567 0.020133106154098086 0 -0.0027543271993025042 0.022312903011393031 0 -0.0028140000730324248 0.022373479818717953 0 -0.0027877684199949155 0.022398142681211503 0 -0.0026905631305258891 0.020993533107619304 0 -0.0030225948230380713 0.020330147378295416 0 -0.0031803294341933557 0.020779371504433475 0 -0.0030225948230380713 0.020330147378295416 0 -0.0030095985988344573 0.020167673908908203 0 -0.0030784646032572102 0.020152254630610655 0 -0.0030225948230380713 0.020330147378295416 0 -0.0030784646032572102 0.020152254630610655 0 -0.0031849524775012465 0.020166433417051127 0 -0.0028335338787206332 0.020343377044077786 0 -0.0029823582092843286 0.021033074788685355 0 -0.0030095985988344573 0.020167673908908203 0 -0.0030643232765944803 0.020102859663421766 0 -0.0030784646032572102 0.020152254630610655 0 -0.0030095985988344573 0.020167673908908203 0 -0.0030643232765944803 0.020102859663421766 0 -0.0030081322369645753 0.020085050741154686 0 -0.0029823582092843286 0.021033074788685355 0 -0.0032159625175341385 0.020614025971943478 0 -0.0030643232765944803 0.020102859663421766 0 -0.0030081322369645753 0.020085050741154686 0 -0.0030838712877543323 0.020034200069645128 0 -0.0032159625175341385 0.020614025971943478 0 -0.0032475831427651505 0.020494993589891992 0 -0.0030643232765944803 0.020102859663421766 0 -0.0030838712877543323 0.020034200069645128 0 -0.0031196876197125594 0.020056290846692502 0 -0.0031727055936505723 0.020051382387669806 0 -0.0030784646032572102 0.020152254630610655 0 -0.0031849524775012465 0.020166433417051127 0 -0.0031196876197125594 0.020056290846692502 0 -0.0031727055936505723 0.020051382387669806 0 -0.0030784646032572102 0.020152254630610655 0 -0.0030643232765944803 0.020102859663421766 0 -0.0031196876197125594 0.020056290846692502 0 -0.0030784646032572102 0.020152254630610655 0 -0.0030225948230380713 0.020330147378295416 0 -0.0033810236913770857 0.020335331861220194 0 -0.0031849524775012465 0.020166433417051127 0 -0.0033810236913770857 0.020335331861220194 0 -0.0031849524775012465 0.020166433417051127 0 -0.0033181829548073402 0.020016686874487738 0 -0.0031727055936505723 0.020051382387669806 0 -0.0031849524775012465 0.020166433417051127 0 -0.0033181829548073402 0.020016686874487738 0 -0.0030225948230380713 0.020330147378295416 0 -0.0033810236913770857 0.020335331861220194 0 -0.0031803294341933557 0.020779371504433475 0 -0.0035599194234366099 0.020889093556368542 0 -0.0033810236913770857 0.020335331861220194 0 -0.0031803294341933557 0.020779371504433475 0 -0.0035599194234366099 0.020889093556368542 0 -0.0033810236913770857 0.020335331861220194 0 -0.0039559774482052163 0.020354391802649856 0 -0.0033810236913770857 0.020335331861220194 0 -0.003570176170303219 0.020075245562610301 0 -0.0039559774482052163 0.020354391802649856 0 -0.0033810236913770857 0.020335331861220194 0 -0.003570176170303219 0.020075245562610301 0 -0.0033181829548073402 0.020016686874487738 0 -0.0034529992028478297 0.019822078099321284 0 -0.003608104369245497 0.019569767531100565 0 -0.0037862972804665169 0.019916308813664376 0 -0.003570176170303219 0.020075245562610301 0 -0.0034529992028478297 0.019822078099321284 0 -0.0037862972804665169 0.019916308813664376 0 -0.003570176170303219 0.020075245562610301 0 -0.0034529992028478297 0.019822078099321284 0 -0.0033181829548073402 0.020016686874487738 0 -0.003608104369245497 0.019569767531100565 0 -0.0036892088721521216 0.019509641121948775 0 -0.0037862972804665169 0.019916308813664376 0 -0.0033057322703932013 0.01774847748777305 0 -0.0039740264531250473 0.016729669871822294 0 -0.003608104369245497 0.019569767531100565 0 -0.0037629754660755375 0.019249693000474178 0 -0.003809325853354968 0.019416655180464558 0 -0.0040894637190813385 0.017580592966991215 0 -0.0039740264531250473 0.016729669871822294 0 -0.003608104369245497 0.019569767531100565 0 -0.0037629754660755375 0.019249693000474178 0 -0.0032627874026608969 0.01963170367631244 0 -0.003608104369245497 0.019569767531100565 0 -0.003403785634746513 0.019705275620739374 0 -0.0032627874026608969 0.01963170367631244 0 -0.0034529992028478297 0.019822078099321284 0 -0.003608104369245497 0.019569767531100565 0 -0.003403785634746513 0.019705275620739374 0 -0.0034529992028478297 0.019822078099321284 0 -0.003403785634746513 0.019705275620739374 0 -0.0033326915149036137 0.019758392384594078 0 -0.0033326915149036137 0.019758392384594078 0 -0.0032627874026608969 0.01963170367631244 0 -0.0032991810532875853 0.019774529843476538 0 -0.0033326915149036137 0.019758392384594078 0 -0.0032991810532875853 0.019774529843476538 0 -0.0032840703006819525 0.019877253581202042 0 -0.003403785634746513 0.019705275620739374 0 -0.0033326915149036137 0.019758392384594078 0 -0.0032627874026608969 0.01963170367631244 0 -0.0032627874026608969 0.01963170367631244 0 -0.003339793729341344 0.019814142981061229 0 -0.0032991810532875853 0.019774529843476538 0 -0.003339793729341344 0.019814142981061229 0 -0.0032991810532875853 0.019774529843476538 0 -0.0033287043065475174 0.019854268273292966 0 -0.0032991810532875853 0.019774529843476538 0 -0.0032710259880015836 0.019837670096426473 0 -0.0033287043065475174 0.019854268273292966 0 -0.0032991810532875853 0.019774529843476538 0 -0.0032840703006819525 0.019877253581202042 0 -0.0032710259880015836 0.019837670096426473 0 -0.0032840703006819525 0.019877253581202042 0 -0.0032275706255449634 0.01995710889594338 0 -0.0032291966926929847 0.019897168425803365 0 -0.0032840703006819525 0.019877253581202042 0 -0.0032291966926929847 0.019897168425803365 0 -0.0032710259880015836 0.019837670096426473 0 -0.0034529992028478297 0.019822078099321284 0 -0.0032840703006819525 0.019877253581202042 0 -0.0033181829548073402 0.020016686874487738 0 -0.0034529992028478297 0.019822078099321284 0 -0.0033326915149036137 0.019758392384594078 0 -0.0032840703006819525 0.019877253581202042 0 -0.0031727055936505723 0.020051382387669806 0 -0.0033181829548073402 0.020016686874487738 0 -0.0032275706255449634 0.01995710889594338 0 -0.0032840703006819525 0.019877253581202042 0 -0.0033181829548073402 0.020016686874487738 0 -0.0032275706255449634 0.01995710889594338 0 -0.0030838712877543323 0.020034200069645128 0 -0.003193966180199256 0.019924691733321561 0 -0.0032208655497069885 0.019883642472970826 0 -0.0030562633947844157 0.02005194984612917 0 -0.0030838712877543323 0.020034200069645128 0 -0.0032208655497069885 0.019883642472970826 0 -0.0032275706255449634 0.01995710889594338 0 -0.0031685524230025473 0.019978454606953387 0 -0.0032291966926929847 0.019897168425803365 0 -0.0031727055936505723 0.020051382387669806 0 -0.0032275706255449634 0.01995710889594338 0 -0.0031685524230025473 0.019978454606953387 0 -0.0031196876197125594 0.020056290846692502 0 -0.0031727055936505723 0.020051382387669806 0 -0.0031685524230025473 0.019978454606953387 0 -0.0030838712877543323 0.020034200069645128 0 -0.0031196876197125594 0.020056290846692502 0 -0.0031685524230025473 0.019978454606953387 0 -0.0030838712877543323 0.020034200069645128 0 -0.0031685524230025473 0.019978454606953387 0 -0.003193966180199256 0.019924691733321561 0 -0.003193966180199256 0.019924691733321561 0 -0.0032649341430376539 0.019865038742320356 0 -0.0032208655497069885 0.019883642472970826 0 -0.003193966180199256 0.019924691733321561 0 -0.0032291966926929847 0.019897168425803365 0 -0.0032649341430376539 0.019865038742320356 0 -0.0031685524230025473 0.019978454606953387 0 -0.003193966180199256 0.019924691733321561 0 -0.0032291966926929847 0.019897168425803365 0 -0.0032291966926929847 0.019897168425803365 0 -0.0032710259880015836 0.019837670096426473 0 -0.0032649341430376539 0.019865038742320356 0 -0.0032710259880015836 0.019837670096426473 0 -0.0032649341430376539 0.019865038742320356 0 -0.0033287043065475174 0.019854268273292966 0 -0.003339793729341344 0.019814142981061229 0 -0.0033287043065475174 0.019854268273292966 0 -0.0033865569283615142 0.019912919801617867 0 -0.0033287043065475174 0.019854268273292966 0 -0.0033151603891173253 0.019887158760475414 0 -0.0033672029489621993 0.019905698071195965 0 -0.0033287043065475174 0.019854268273292966 0 -0.0033672029489621993 0.019905698071195965 0 -0.0033988437912137672 0.019932699884266766 0 -0.0032649341430376539 0.019865038742320356 0 -0.0033287043065475174 0.019854268273292966 0 -0.0033151603891173253 0.019887158760475414 0 -0.0032649341430376539 0.019865038742320356 0 -0.0033151603891173253 0.019887158760475414 0 -0.0032208655497069885 0.019883642472970826 0 -0.00324091188056595 0.020182727084356547 0 -0.0034848583447763004 0.020245295318371031 0 -0.0033628433263761135 0.01990296531242184 0 -0.0033461240930107929 0.02003651689892437 0 -0.003378734555975876 0.019960100253546699 0 -0.0034848583447763004 0.020245295318371031 0 -0.0033628433263761135 0.01990296531242184 0 -0.0033903355485226778 0.019914723440469101 0 -0.0033151603891173253 0.019887158760475414 0 -0.0032208655497069885 0.019883642472970826 0 -0.0033903355485226778 0.019914723440469101 0 -0.0033151603891173253 0.019887158760475414 0 -0.0033672029489621993 0.019905698071195965 0 -0.0033903355485226778 0.019914723440469101 0 -0.00324091188056595 0.020182727084356547 0 -0.0033020311412909767 0.020355562325824618 0 -0.0031902384134674042 0.020341313288951321 0 -0.0032159625175341385 0.020614025971943478 0 -0.0033461240930107929 0.02003651689892437 0 -0.0035483850180949663 0.02062290236470379 0 -0.0034848583447763004 0.020245295318371031 0 -0.0034043482298157231 0.020495769050883336 0 -0.00324091188056595 0.020182727084356547 0 -0.0033020311412909767 0.020355562325824618 0 -0.0034848583447763004 0.020245295318371031 0 -0.0033020311412909767 0.020355562325824618 0 -0.0034848583447763004 0.020245295318371031 0 -0.0034043482298157231 0.020495769050883336 0 -0.0032471604346662984 0.020567219719568441 0 -0.0033020311412909767 0.020355562325824618 0 -0.0031902384134674042 0.020341313288951321 0 -0.0032471604346662984 0.020567219719568441 0 -0.0033020311412909767 0.020355562325824618 0 -0.0034043482298157231 0.020495769050883336 0 -0.0010098267897052596 -0.0018811403385826809 0 -0.0010837763799796747 -0.0018766997904231073 0 -0.0009117089224882298 -0.0018582992449480823 0 -0.0010837763799796747 -0.0018766997904231073 0 -0.001194462351696315 -0.001761375506775781 0 -0.0010888834481137754 -0.0018772337142255666 0 -0.0010837763799796747 -0.0018766997904231073 0 -0.0010888834481137754 -0.0018772337142255666 0 -0.0010235594444170698 -0.001909715332680913 0 -0.0010837763799796747 -0.0018766997904231073 0 -0.00095369914488197286 -0.0018699651975811809 0 -0.0010235594444170698 -0.001909715332680913 0 -0.00095369914488197286 -0.0018699651975811809 0 -0.0010235594444170698 -0.001909715332680913 0 -0.00096968568520880568 -0.0018879776314872296 0 -0.0010837763799796747 -0.0018766997904231073 0 -0.00095369914488197286 -0.0018699651975811809 0 -0.0009117089224882298 -0.0018582992449480823 0 -0.00081473744129027261 -0.0018066096045055247 0 -0.0009117089224882298 -0.0018582992449480823 0 -0.00066364273487995484 -0.0018154207240700358 0 -0.00081473744129027261 -0.0018066096045055247 0 -0.00095369914488197286 -0.0018699651975811809 0 -0.0009117089224882298 -0.0018582992449480823 0 -0.00086070583584711756 0.00038675937114577733 0 -0.0013765015219386657 0.0044451973090055821 0 -0.0027357114988142898 0.01091513903803658 0 -0.0030743571434504067 0.011273524315402118 0 -0.002701721871708244 0.011614512413237701 0 -0.0013765015219386657 0.0044451973090055821 0 -0.0014996211486636099 0.0086144342168157067 0 -0.0010098267897052596 -0.0018811403385826809 0 -0.0009117089224882298 -0.0018582992449480823 0 -0.00066364273487995484 -0.0018154207240700358 0 -0.0041128835613754005 0.020914493904230492 0 -0.0035599194234366099 0.020889093556368542 0 -0.0039559774482052163 0.020354391802649856 0 -0.0028993578894456486 0.010641197827467627 0 -0.0027357114988142898 0.01091513903803658 0 -0.0030743571434504067 0.011273524315402118 0 -0.0015543216510258829 0.013337307228646589 0 -0.0037599554933300211 0.016395384737295425 0 -0.0037599554933300211 0.016395384737295425 0 -0.003420068415688482 0.01564904344897998 0 -0.003570176170303219 0.020075245562610301 0 -0.0039559774482052163 0.020354391802649856 0 -0.0037862972804665169 0.019916308813664376 0 -0.0030743571434504067 0.011273524315402118 0 -0.002701721871708244 0.011614512413237701 0 -0.0032317608594505769 0.011907641927116207 0 -0.00076559998461435386 0.0037707970452784375 0 -0.00026453307279770911 0.0046254910255669147 0 -0.00031238282797063486 0.0037807662347614001 0 -0.002701721871708244 0.011614512413237701 0 -0.0030634878979881584 0.012265877908084274 0 -0.002663630863190158 0.01230251298499976 0 -0.00076559998461435386 0.0037707970452784375 0 -0.00031238282797063486 0.0037807662347614001 0 -0.0003543064612416913 0.002907713024833869 0 -0.0014996211486636099 0.0086144342168157067 0 -0.0013667402265729719 0.0064444131425497181 0 -0.002701721871708244 0.011614512413237701 0 -0.0032317608594505769 0.011907641927116207 0 -0.0030634878979881584 0.012265877908084274 0 -0.0033788933881619713 0.012538635756313575 0 -0.0032317608594505769 0.011907641927116207 0 -0.0030634878979881584 0.012265877908084274 0 -0.0030634878979881584 0.012265877908084274 0 -0.002663630863190158 0.01230251298499976 0 -0.0029986610608374572 0.012764269398101401 0 -0.0033788933881619713 0.012538635756313575 0 -0.0030634878979881584 0.012265877908084274 0 -0.0029986610608374572 0.012764269398101401 0 -0.0039740264531250473 0.016729669871822294 0 -0.003420068415688482 0.01564904344897998 0 -0.0003543064612416913 0.002907713024833869 0 -0.0012666481215913633 0.0028776347996946352 0 -0.0010231400395462626 0.002165909688200704 0 -0.0010098267897052596 -0.0018811403385826809 0 -0.0010837763799796747 -0.0018766997904231073 0 -0.0013759877032719218 -0.0016726860250868109 0 -0.00086070583584711756 0.00038675937114577733 0 -0.0012950836966703471 0.00073926732917731295 0 -0.00076559998461435386 0.0037707970452784375 0 -0.0003543064612416913 0.002907713024833869 0 -0.0012666481215913633 0.0028776347996946352 0 -0.0010837763799796747 -0.0018766997904231073 0 -0.0013759877032719218 -0.0016726860250868109 0 -0.001194462351696315 -0.001761375506775781 0 -0.0013759877032719218 -0.0016726860250868109 0 -0.0012469572713966696 -0.0015061316556312309 0 -0.0017056323017613337 -0.0009986441211152549 0 -0.0013759877032719218 -0.0016726860250868109 0 -0.0012469572713966696 -0.0015061316556312309 0 -0.001194462351696315 -0.001761375506775781 0 -0.00093116528955371799 -0.0014717726840126389 0 -0.0010239108563494667 -0.0018030082981550727 0 -0.00075649267684354507 -0.0016498705410818095 0 -0.0012469572713966696 -0.0015061316556312309 0 -0.00093116528955371799 -0.0014717726840126389 0 -0.0010239108563494667 -0.0018030082981550727 0 -0.0010239108563494667 -0.0018030082981550727 0 -0.00090694381242357796 -0.0019596800636333196 0 -0.00078686852254445077 -0.0019074709366234488 0 -0.0012469572713966696 -0.0015061316556312309 0 -0.0010239108563494667 -0.0018030082981550727 0 -0.001194462351696315 -0.001761375506775781 0 -0.0010239108563494667 -0.0018030082981550727 0 -0.001194462351696315 -0.001761375506775781 0 -0.0010888834481137754 -0.0018772337142255666 0 -0.0010239108563494667 -0.0018030082981550727 0 -0.0010888834481137754 -0.0018772337142255666 0 -0.00099584222236743332 -0.0019361297569074455 0 -0.0010888834481137754 -0.0018772337142255666 0 -0.00099584222236743332 -0.0019361297569074455 0 -0.0010235594444170698 -0.001909715332680913 0 -0.00099584222236743332 -0.0019361297569074455 0 -0.00090694381242357796 -0.0019596800636333196 0 -0.00089800711109116874 -0.0020202417900717072 0 -0.0010239108563494667 -0.0018030082981550727 0 -0.00099584222236743332 -0.0019361297569074455 0 -0.00090694381242357796 -0.0019596800636333196 0 -0.00089800711109116874 -0.0020202417900717072 0 -0.00098045322377754885 -0.0019466506184251762 0 -0.00095738104007925284 -0.0019501077977785691 0 -0.00099584222236743332 -0.0019361297569074455 0 -0.00089800711109116874 -0.0020202417900717072 0 -0.00098045322377754885 -0.0019466506184251762 0 -0.00098045322377754885 -0.0019466506184251762 0 -0.0010235594444170698 -0.001909715332680913 0 -0.00096968568520880568 -0.0018879776314872296 0 -0.00099584222236743332 -0.0019361297569074455 0 -0.00098045322377754885 -0.0019466506184251762 0 -0.0010235594444170698 -0.001909715332680913 0 -0.00073575433893855217 -0.0021249444272549364 0 -0.00056784080621189597 -0.0022378337067398011 0 -0.00071637190764135849 -0.0021713384164692572 0 -0.00073575433893855217 -0.0021249444272549364 0 -0.00077751486432208405 -0.0020363788045047048 0 -0.00058020792267090659 -0.002150095270402106 0 -0.00073575433893855217 -0.0021249444272549364 0 -0.00058020792267090659 -0.002150095270402106 0 -0.00056784080621189597 -0.0022378337067398011 0 -0.00089800711109116874 -0.0020202417900717072 0 -0.00073575433893855217 -0.0021249444272549364 0 -0.00077751486432208405 -0.0020363788045047048 0 -0.00089800711109116874 -0.0020202417900717072 0 -0.00073575433893855217 -0.0021249444272549364 0 -0.00082297091985602069 -0.0020940617659050546 0 -0.00090694381242357796 -0.0019596800636333196 0 -0.00089800711109116874 -0.0020202417900717072 0 -0.00077751486432208405 -0.0020363788045047048 0 -0.00090694381242357796 -0.0019596800636333196 0 -0.00077751486432208405 -0.0020363788045047048 0 -0.00078686852254445077 -0.0019074709366234488 0 -0.00077751486432208405 -0.0020363788045047048 0 -0.0006435673786060295 -0.0020187682898753908 0 -0.00078686852254445077 -0.0019074709366234488 0 -0.0006435673786060295 -0.0020187682898753908 0 -0.00058020792267090659 -0.002150095270402106 0 -0.00044269595641977059 -0.0021120843529148811 0 -0.00077751486432208405 -0.0020363788045047048 0 -0.0006435673786060295 -0.0020187682898753908 0 -0.00058020792267090659 -0.002150095270402106 0 -0.0006435673786060295 -0.0020187682898753908 0 -0.00059153093808005271 -0.0018588775918268446 0 -0.00044269595641977059 -0.0021120843529148811 0 -0.0006435673786060295 -0.0020187682898753908 0 -0.00059153093808005271 -0.0018588775918268446 0 -0.00078686852254445077 -0.0019074709366234488 0 -0.00059153093808005271 -0.0018588775918268446 0 -0.00078686852254445077 -0.0019074709366234488 0 -0.00075649267684354507 -0.0016498705410818095 0 -0.0010239108563494667 -0.0018030082981550727 0 -0.00078686852254445077 -0.0019074709366234488 0 -0.00075649267684354507 -0.0016498705410818095 0 -0.00093116528955371799 -0.0014717726840126389 0 -0.00075649267684354507 -0.0016498705410818095 0 -0.00077825806976187769 -0.0012420248731470724 0 -0.00059153093808005271 -0.0018588775918268446 0 -0.00075649267684354507 -0.0016498705410818095 0 -0.00047127840998519304 -0.0014353126459742431 0 -0.00059153093808005271 -0.0018588775918268446 0 -0.00040496349973611246 -0.0018268114170336735 0 -0.00047127840998519304 -0.0014353126459742431 0 -0.00040496349973611246 -0.0018268114170336735 0 -0.0002384951618058356 -0.0016161448884973301 0 -0.00047127840998519304 -0.0014353126459742431 0 -0.00040496349973611246 -0.0018268114170336735 0 -0.00027812396592191295 -0.0020232636398672364 0 -0.0002384951618058356 -0.0016161448884973301 0 -0.00013844059904095037 -0.0022843792503310211 0 -8.6505291317934036e-05 -0.0020614282721692066 0 -0.00027812396592191295 -0.0020232636398672364 0 -0.00016780465427228446 -0.0023203401662982657 0 4.5934666241135297e-05 -0.0015223010969321348 0 -0.00027812396592191295 -0.0020232636398672364 0 4.5934666241135297e-05 -0.0015223010969321348 0 -0.0002384951618058356 -0.0016161448884973301 0 -0.00027812396592191295 -0.0020232636398672364 0 -0.00016780465427228446 -0.0023203401662982657 0 -0.0003285859052979649 -0.0022573931619533686 0 -0.00016780465427228446 -0.0023203401662982657 0 -0.0003285859052979649 -0.0022573931619533686 0 -0.00028504092718930664 -0.002396242235389636 0 -0.00040496349973611246 -0.0018268114170336735 0 -0.00027812396592191295 -0.0020232636398672364 0 -0.00044269595641977059 -0.0021120843529148811 0 -0.00059153093808005271 -0.0018588775918268446 0 -0.00040496349973611246 -0.0018268114170336735 0 -0.00044269595641977059 -0.0021120843529148811 0 -0.00027812396592191295 -0.0020232636398672364 0 -0.0003285859052979649 -0.0022573931619533686 0 -0.00044269595641977059 -0.0021120843529148811 0 -0.0004033307693110635 -0.0027420659474895219 0 -0.00031675674933227094 -0.0025443789316512296 0 -0.0003082524319713714 -0.0026906585480828199 0 -0.00016780465427228446 -0.0023203401662982657 0 -0.0003082524319713714 -0.0026906585480828199 0 -0.00016762768482013208 -0.0026926861591898567 0 -0.00016780465427228446 -0.0023203401662982657 0 -0.00031675674933227094 -0.0025443789316512296 0 -0.0003082524319713714 -0.0026906585480828199 0 -0.00031675674933227094 -0.0025443789316512296 0 -0.00035445810937995538 -0.0026046024954845134 0 -0.00028504092718930664 -0.002396242235389636 0 -0.00016780465427228446 -0.0023203401662982657 0 -0.00031675674933227094 -0.0025443789316512296 0 -0.00028504092718930664 -0.002396242235389636 0 -0.00043861524807109557 -0.0028130227211499094 0 -0.0004033307693110635 -0.0027420659474895219 0 -0.00035445810937995538 -0.0026046024954845134 0 -0.0004033307693110635 -0.0027420659474895219 0 -0.00031675674933227094 -0.0025443789316512296 0 -0.00035445810937995538 -0.0026046024954845134 0 -0.00035445810937995538 -0.0026046024954845134 0 -0.00034561187516017719 -0.0024812334443719245 0 -0.000389344455887969 -0.0027330106364599704 0 -0.00043861524807109557 -0.0028130227211499094 0 -0.00035445810937995538 -0.0026046024954845134 0 -0.000389344455887969 -0.0027330106364599704 0 -0.00035445810937995538 -0.0026046024954845134 0 -0.00028504092718930664 -0.002396242235389636 0 -0.00034561187516017719 -0.0024812334443719245 0 -0.00034561187516017719 -0.0024812334443719245 0 -0.00035680701352622962 -0.0026309649328248698 0 -0.00038589352385500359 -0.0024377619682677521 0 -0.00041795423416459565 -0.0026947372867590692 0 -0.000389344455887969 -0.0027330106364599704 0 -0.00035680701352622962 -0.0026309649328248698 0 -0.00034561187516017719 -0.0024812334443719245 0 -0.000389344455887969 -0.0027330106364599704 0 -0.00035680701352622962 -0.0026309649328248698 0 -0.00058020792267090659 -0.002150095270402106 0 -0.00044269595641977059 -0.0021120843529148811 0 -0.00040033424117123936 -0.0022930674030423198 0 -0.0003285859052979649 -0.0022573931619533686 0 -0.00044269595641977059 -0.0021120843529148811 0 -0.00040033424117123936 -0.0022930674030423198 0 -0.00028504092718930664 -0.002396242235389636 0 -0.00034561187516017719 -0.0024812334443719245 0 -0.00040033424117123936 -0.0022930674030423198 0 -0.0003285859052979649 -0.0022573931619533686 0 -0.00028504092718930664 -0.002396242235389636 0 -0.00040033424117123936 -0.0022930674030423198 0 -0.00034561187516017719 -0.0024812334443719245 0 -0.00040033424117123936 -0.0022930674030423198 0 -0.00043335779863341807 -0.0023501625831985808 0 -0.00034561187516017719 -0.0024812334443719245 0 -0.00043335779863341807 -0.0023501625831985808 0 -0.00038589352385500359 -0.0024377619682677521 0 -0.00058020792267090659 -0.002150095270402106 0 -0.00040033424117123936 -0.0022930674030423198 0 -0.00056784080621189597 -0.0022378337067398011 0 -0.00040033424117123936 -0.0022930674030423198 0 -0.00043335779863341807 -0.0023501625831985808 0 -0.00056784080621189597 -0.0022378337067398011 0 -0.00056784080621189597 -0.0022378337067398011 0 -0.000544898278081349 -0.002359069000593606 0 -0.00071637190764135849 -0.0021713384164692572 0 -0.00043335779863341807 -0.0023501625831985808 0 -0.00056784080621189597 -0.0022378337067398011 0 -0.000544898278081349 -0.002359069000593606 0 -0.00023824277976075277 -0.0025892730584740728 0 -0.00015689712884745267 -0.0025490817044062099 0 -0.00027311960485292095 -0.0025444612760447544 0 -0.00043335779863341807 -0.0023501625831985808 0 -0.00038589352385500359 -0.0024377619682677521 0 -0.000544898278081349 -0.002359069000593606 0 -0.00030383114679936716 -0.0025385388241385984 0 -0.00042418492504359416 -0.0021870727898613816 0 -0.00026767018520465621 -0.0018166800517094748 0 -0.00027871237017980112 -0.001641899203921583 0 -0.00026427930437144777 -0.0017048016866188188 0 -0.00042418492504359416 -0.0021870727898613816 0 -0.00024992469480213548 -0.0022583192162163234 0 -0.00026767018520465621 -0.0018166800517094748 0 -0.00027871237017980112 -0.001641899203921583 0 -0.00027060153352189624 -0.0019722504622639624 0 -0.00027871237017980112 -0.001641899203921583 0 -0.00032922667227663568 -0.0015933948968518321 0 -0.00026427930437144777 -0.0017048016866188188 0 -0.00041795423416459565 -0.0026947372867590692 0 -0.00035680701352622962 -0.0026309649328248698 0 -0.00027311960485292095 -0.0025444612760447544 0 -0.00046594345011131028 -0.0025172250957455513 0 -0.00041795423416459565 -0.0026947372867590692 0 -0.00027311960485292095 -0.0025444612760447544 0 -0.00034610562422596116 -0.0025995147548106769 0 -0.00030383114679936716 -0.0025385388241385984 0 -0.00035680701352622962 -0.0026309649328248698 0 -0.00023824277976075277 -0.0025892730584740728 0 -0.00027311960485292095 -0.0025444612760447544 0 -0.00027060153352189624 -0.0019722504622639624 0 -0.00031082781220818543 -0.0020367975450662863 0 -0.00036860882183187895 -0.0021891789444320924 0 -0.00026767018520465621 -0.0018166800517094748 0 -0.00027060153352189624 -0.0019722504622639624 0 -0.00028670194695909799 -0.0019298468066902118 0 -0.00027060153352189624 -0.0019722504622639624 0 -0.00031082781220818543 -0.0020367975450662863 0 -0.00028670194695909799 -0.0019298468066902118 0 -0.00050050097793966693 -0.0024756940231282208 0 -0.00024992469480213548 -0.0022583192162163234 0 -0.00046594345011131028 -0.0025172250957455513 0 -0.00027060153352189624 -0.0019722504622639624 0 -0.00036860882183187895 -0.0021891789444320924 0 -0.00031082781220818543 -0.0020367975450662863 0 -0.00036860882183187895 -0.0021891789444320924 0 -0.00033658817327516144 -0.0020424627329835511 0 -0.00038605291817920038 -0.0020135817320914785 0 -0.00045966854841005195 -0.0020530275356120259 0 -0.0004007634909471563 -0.0019034343521373025 0 -0.00053543219157756411 -0.0023375225182732861 0 -0.00036860882183187895 -0.0021891789444320924 0 -0.00040900655639445753 -0.0021285589115951492 0 -0.00038605291817920038 -0.0020135817320914785 0 -0.00045966854841005195 -0.0020530275356120259 0 -0.00040900655639445753 -0.0021285589115951492 0 -0.00038605291817920038 -0.0020135817320914785 0 -0.00033658817327516144 -0.0020424627329835511 0 -0.00034935634215891654 -0.0019264716898951056 0 -0.00038605291817920038 -0.0020135817320914785 0 -0.00040900655639445753 -0.0021285589115951492 0 -0.00033658817327516144 -0.0020424627329835511 0 -0.00036860882183187895 -0.0021891789444320924 0 -0.00040900655639445753 -0.0021285589115951492 0 -0.00033658817327516144 -0.0020424627329835511 0 -0.00033658817327516144 -0.0020424627329835511 0 -0.00034935634215891654 -0.0019264716898951056 0 -0.00031603598900312358 -0.0019329465740252122 0 -0.00034935634215891654 -0.0019264716898951056 0 -0.00031603598900312358 -0.0019329465740252122 0 -0.0003346132533425565 -0.0018388293608920365 0 -0.00038605291817920038 -0.0020135817320914785 0 -0.00034935634215891654 -0.0019264716898951056 0 -0.0004007634909471563 -0.0019034343521373025 0 -0.00034935634215891654 -0.0019264716898951056 0 -0.00035660021516082567 -0.0018678343803368732 0 -0.0004007634909471563 -0.0019034343521373025 0 -0.00034935634215891654 -0.0019264716898951056 0 -0.0003346132533425565 -0.0018388293608920365 0 -0.00035660021516082567 -0.0018678343803368732 0 -0.00030258444938119334 -0.0018395410315655064 0 -0.00031603598900312358 -0.0019329465740252122 0 -0.0003346132533425565 -0.0018388293608920365 0 -0.00030258444938119334 -0.0018395410315655064 0 -0.00031603598900312358 -0.0019329465740252122 0 -0.00028670194695909799 -0.0019298468066902118 0 -0.00031082781220818543 -0.0020367975450662863 0 -0.00033658817327516144 -0.0020424627329835511 0 -0.00028670194695909799 -0.0019298468066902118 0 -0.00033658817327516144 -0.0020424627329835511 0 -0.00031603598900312358 -0.0019329465740252122 0 -0.00028670194695909799 -0.0019298468066902118 0 -0.00030258444938119334 -0.0018395410315655064 0 -0.00028670194695909799 -0.0019298468066902118 0 -0.00026903319516880268 -0.0017997033381469769 0 -0.00030258444938119334 -0.0018395410315655064 0 -0.00026903319516880268 -0.0017997033381469769 0 -0.0002805685214376162 -0.0017317496512551582 0 -0.00030119434406340051 -0.0014678171734025616 0 -0.0003327232171208128 -0.0014779720679404256 0 -0.00033066622226719718 -0.0017668347274992944 0 -0.00035389030681545823 -0.0017938623060249153 0 -0.00032131696156653087 -0.0016280479594642354 0 -0.00030258444938119334 -0.0018395410315655064 0 -0.00033066622226719718 -0.0017668347274992944 0 -0.0002805685214376162 -0.0017317496512551582 0 -0.00033066622226719718 -0.0017668347274992944 0 -0.0002805685214376162 -0.0017317496512551582 0 -0.00032131696156653087 -0.0016280479594642354 0 -0.00030258444938119334 -0.0018395410315655064 0 -0.00033066622226719718 -0.0017668347274992944 0 -0.0003346132533425565 -0.0018388293608920365 0 -0.00033066622226719718 -0.0017668347274992944 0 -0.0003346132533425565 -0.0018388293608920365 0 -0.00034341888408242875 -0.0018006575641725702 0 -0.00066195308036180289 -0.0018595732323472077 0 -0.0003389301003645804 -0.001758692514499661 0 -0.0004007634909471563 -0.0019034343521373025 0 -3.67916502535644e-05 -0.0031998571318943318 0 -0.00030119434406340051 -0.0014678171734025616 0 -9.3691603052691152e-05 -0.0015330516655115149 0 -2.3773288774637108e-05 -0.0014043263481982697 0 7.9114180534139289e-05 -0.0014699065971684189 0 -0.000351343086125241 -0.0018102143583099016 0 -0.0003389301003645804 -0.001758692514499661 0 -0.0004007634909471563 -0.0019034343521373025 0 -0.00033066622226719718 -0.0017668347274992944 0 -0.00034341888408242875 -0.0018006575641725702 0 -0.00035389030681545823 -0.0017938623060249153 0 -0.0003346132533425565 -0.0018388293608920365 0 -0.00035660021516082567 -0.0018678343803368732 0 -0.000351343086125241 -0.0018102143583099016 0 -0.00035660021516082567 -0.0018678343803368732 0 -0.000351343086125241 -0.0018102143583099016 0 -0.0004007634909471563 -0.0019034343521373025 0 -0.00031532222473389278 -0.0015857065654410541 0 -0.00030119434406340051 -0.0014678171734025616 0 -0.000351343086125241 -0.0018102143583099016 0 -0.00034341888408242875 -0.0018006575641725702 0 -0.00035389030681545823 -0.0017938623060249153 0 -0.0003346132533425565 -0.0018388293608920365 0 -0.000351343086125241 -0.0018102143583099016 0 -0.00034341888408242875 -0.0018006575641725702 0 -0.00024265305959127452 -0.0016780103603498391 0 -0.00032922667227663568 -0.0015933948968518321 0 -0.00033827065005498976 -0.0016063886998783266 0 -0.00024265305959127452 -0.0016780103603498391 0 -0.00032922667227663568 -0.0015933948968518321 0 -0.00026427930437144777 -0.0017048016866188188 0 -0.00026767018520465621 -0.0018166800517094748 0 -0.00026427930437144777 -0.0017048016866188188 0 -0.00026903319516880268 -0.0017997033381469769 0 -0.00024265305959127452 -0.0016780103603498391 0 -0.00026427930437144777 -0.0017048016866188188 0 -0.00026903319516880268 -0.0017997033381469769 0 -0.00026767018520465621 -0.0018166800517094748 0 -0.00028670194695909799 -0.0019298468066902118 0 -0.00026903319516880268 -0.0017997033381469769 0 -0.00024265305959127452 -0.0016780103603498391 0 -0.00026903319516880268 -0.0017997033381469769 0 -0.0002805685214376162 -0.0017317496512551582 0 -0.00024265305959127452 -0.0016780103603498391 0 -0.0002805685214376162 -0.0017317496512551582 0 -0.00020436269543763029 -0.0016229019984119735 0 -0.00013382858231716712 -0.0013051533884622282 0 -0.00032131696156653087 -0.0016280479594642354 0 -0.00020436269543763029 -0.0016229019984119735 0 -0.0002805685214376162 -0.0017317496512551582 0 -0.00032131696156653087 -0.0016280479594642354 0 -0.00020436269543763029 -0.0016229019984119735 0 -0.00018291471418317997 -0.0015162475220081963 0 -0.00021093962948503294 -0.0016044246921580873 0 -0.00013382858231716712 -0.0013051533884622282 0 9.3218983947920985e-05 -0.0013403801249466342 0 -0.00020436269543763029 -0.0016229019984119735 0 -0.00042860304417451393 -0.0016884621011644054 0 -0.00020436269543763029 -0.0016229019984119735 0 -0.00033827065005498976 -0.0016063886998783266 0 -0.00024265305959127452 -0.0016780103603498391 0 -0.00020436269543763029 -0.0016229019984119735 0 -0.00033827065005498976 -0.0016063886998783266 0 -0.00042860304417451393 -0.0016884621011644054 0 -0.00045538709738335731 -0.0015106290332562568 0 -0.00063483625763124637 -0.0014981465575997965 0 -0.00042860304417451393 -0.0016884621011644054 0 -0.00033827065005498976 -0.0016063886998783266 0 -0.00045538709738335731 -0.0015106290332562568 0 -0.00032922667227663568 -0.0015933948968518321 0 -0.00033827065005498976 -0.0016063886998783266 0 -0.00045538709738335731 -0.0015106290332562568 0 -0.00032922667227663568 -0.0015933948968518321 0 -0.00045538709738335731 -0.0015106290332562568 0 -0.00049454517429621623 -0.0014019062707247927 0 -0.00045538709738335731 -0.0015106290332562568 0 -0.00063483625763124637 -0.0014981465575997965 0 -0.00049454517429621623 -0.0014019062707247927 0 -0.00096391667398642742 -0.0015420874918553212 0 -0.00069146815209045827 -0.0017039515699459056 0 -0.00063483625763124637 -0.0014981465575997965 0 -0.00096429510503894813 -0.0013054543437357729 0 -0.00049454517429621623 -0.0014019062707247927 0 -0.00069941525598826574 -0.0017041799385133435 0 -0.00042860304417451393 -0.0016884621011644054 0 -0.00063483625763124637 -0.0014981465575997965 0 -0.00063483625763124637 -0.0014981465575997965 0 -0.00085744381945119055 -0.0014636105544184085 0 -0.00096429510503894813 -0.0013054543437357729 0 -0.00069941525598826574 -0.0017041799385133435 0 -0.00063483625763124637 -0.0014981465575997965 0 -0.00085744381945119055 -0.0014636105544184085 0 -0.00085744381945119055 -0.0014636105544184085 0 -0.0011340748184724739 -0.0012572480352584731 0 -0.00096429510503894813 -0.0013054543437357729 0 -0.000957107885222098 -0.0012779908904461061 0 -0.0011340748184724739 -0.0012572480352584731 0 -0.00096429510503894813 -0.0013054543437357729 0 -0.000957107885222098 -0.0012779908904461061 0 -0.00094771121520226514 -0.0016422995624996448 0 -0.0010150105343179284 -0.001783380535933458 0 -0.00093448464472342891 -0.0013063624405157933 0 -0.00096391667398642742 -0.0015420874918553212 0 -0.00094771121520226514 -0.0016422995624996448 0 -0.0010150105343179284 -0.001783380535933458 0 -0.00097209403800416151 -0.0017952525685402737 0 -0.0010150105343179284 -0.001783380535933458 0 -0.00095952747987783739 -0.0019029766472685187 0 -0.00091915680488232406 -0.0019680123603615617 0 -0.00095952747987783739 -0.0019029766472685187 0 -0.00091915680488232406 -0.0019680123603615617 0 -0.00091083432680560397 -0.0020031139363122564 0 -0.0010150105343179284 -0.001783380535933458 0 -0.00095952747987783739 -0.0019029766472685187 0 -0.00097209403800416151 -0.0017952525685402737 0 -0.00094771121520226514 -0.0016422995624996448 0 -0.00092779669751086552 -0.0017917204428818747 0 -0.00097209403800416151 -0.0017952525685402737 0 -0.00095952747987783739 -0.0019029766472685187 0 -0.00097209403800416151 -0.0017952525685402737 0 -0.0009631647839775262 -0.0018707268658651258 0 -0.00092779669751086552 -0.0017917204428818747 0 -0.00097209403800416151 -0.0017952525685402737 0 -0.0009631647839775262 -0.0018707268658651258 0 -0.0009631647839775262 -0.0018707268658651258 0 -0.00096968568520880568 -0.0018879776314872296 0 -0.00095738104007925284 -0.0019501077977785691 0 -0.00098045322377754885 -0.0019466506184251762 0 -0.00096968568520880568 -0.0018879776314872296 0 -0.00095738104007925284 -0.0019501077977785691 0 -0.00092779669751086552 -0.0017917204428818747 0 -0.0009631647839775262 -0.0018707268658651258 0 -0.00096968568520880568 -0.0018879776314872296 0 -0.00095952747987783739 -0.0019029766472685187 0 -0.0009631647839775262 -0.0018707268658651258 0 -0.00095738104007925284 -0.0019501077977785691 0 -0.00089800711109116874 -0.0020202417900717072 0 -0.00091083432680560397 -0.0020031139363122564 0 -0.00095738104007925284 -0.0019501077977785691 0 -0.00095952747987783739 -0.0019029766472685187 0 -0.00091083432680560397 -0.0020031139363122564 0 -0.00095738104007925284 -0.0019501077977785691 0 -0.00089800711109116874 -0.0020202417900717072 0 -0.00091083432680560397 -0.0020031139363122564 0 -0.00082297091985602069 -0.0020940617659050546 0 -0.00091083432680560397 -0.0020031139363122564 0 -0.00082297091985602069 -0.0020940617659050546 0 -0.00085311902649565046 -0.0020632037712089517 0 -0.00082297091985602069 -0.0020940617659050546 0 -0.00078091774125374025 -0.0021669957602361615 0 -0.00085311902649565046 -0.0020632037712089517 0 -0.00073575433893855217 -0.0021249444272549364 0 -0.00082297091985602069 -0.0020940617659050546 0 -0.00071637190764135849 -0.0021713384164692572 0 -0.000544898278081349 -0.002359069000593606 0 -0.00071637190764135849 -0.0021713384164692572 0 -0.00078091774125374025 -0.0021669957602361615 0 -0.00082297091985602069 -0.0020940617659050546 0 -0.00071637190764135849 -0.0021713384164692572 0 -0.00078091774125374025 -0.0021669957602361615 0 -0.00027871237017980112 -0.001641899203921583 0 -0.00032922667227663568 -0.0015933948968518321 0 -0.00049454517429621623 -0.0014019062707247927 0 -0.00042418492504359416 -0.0021870727898613816 0 -0.0008475228271893503 -0.0021989673723824769 0 -0.00079681575643227899 -0.0021882288649692854 0 -0.00078091774125374025 -0.0021669957602361615 0 -0.00082718547942482702 -0.0020847571545800779 0 -0.00042418492504359416 -0.0021870727898613816 0 -0.00069146815209045827 -0.0017039515699459056 0 -0.0010150105343179284 -0.001783380535933458 0 -0.00091915680488232406 -0.0019680123603615617 0 -0.00082718547942482702 -0.0020847571545800779 0 -0.00091915680488232406 -0.0019680123603615617 0 -0.00082718547942482702 -0.0020847571545800779 0 -0.00085311902649565046 -0.0020632037712089517 0 -0.00091915680488232406 -0.0019680123603615617 0 -0.00091083432680560397 -0.0020031139363122564 0 -0.00085311902649565046 -0.0020632037712089517 0 -0.00078091774125374025 -0.0021669957602361615 0 -0.00082718547942482702 -0.0020847571545800779 0 -0.00085311902649565046 -0.0020632037712089517 0 -0.00032782521772691279 0.024476839978432217 0 -0.00033079755821624002 0.023993394922170619 0 -0.00080013963254231318 0.023889366675222755 0 -0.00032782521772691279 0.024476839978432217 0 -0.00080013963254231318 0.023889366675222755 0 -0.00061403019282450051 0.024329390136407572 0 -0.00032782521772691279 0.024476839978432217 0 9.0940328686707164e-08 0.024997782786149447 0 -0.00033079755821624002 0.023993394922170619 0 -0.00032782521772691279 0.024476839978432217 0 9.0940328686707164e-08 0.024997782786149447 0 -2.9355341119055098e-07 0.025000387174827495 0 -2.077121925839352e-08 0.025000075926420846 0 -6.3764135709922502e-05 0.025031476094778533 0 -7.3162794930235854e-08 0.025000051345411046 0 -1.185418380255162e-07 0.024999727146756329 0 -0.00025086805296865866 0.024503377890036277 0 -0.00025086805296865866 0.024503377890036277 0 -0.00050806765338429628 0.0246360545549105 0 -0.00033079755821624002 0.023993394922170619 0 -0.00080013963254231318 0.023889366675222755 0 -0.00065889351660590933 0.023533741928833125 0 -0.0011081097298427372 0.023325805861751404 0 -0.00080013963254231318 0.023889366675222755 0 -0.00065889351660590933 0.023533741928833125 0 -0.00096779884372200228 0.023931113447919955 0 -0.00050806765338429628 0.0246360545549105 0 -0.0011081097298427372 0.023325805861751404 0 -0.00080013963254231318 0.023889366675222755 0 -0.001240197859097334 0.023346345113298916 0 -0.00080013963254231318 0.023889366675222755 0 -0.0011066015338570456 0.023716903535694788 0 -0.00061403019282450051 0.024329390136407572 0 -0.00080013963254231318 0.023889366675222755 0 -0.0011066015338570456 0.023716903535694788 0 -0.001240197859097334 0.023346345113298916 0 5.3728298050686724e-06 0.025323286876758385 0 4.198122281324867e-05 0.023296420919106435 0 8.6706198095587873e-05 0.024848114921399791 0 7.4292845921213922e-05 0.024846999951561987 0 8.6880154679542158e-07 0.024936625914424554 0 8.6706198095587873e-05 0.024848114921399791 0 7.4292845921213922e-05 0.024846999951561987 0 0.0001415717207213396 0.024757690916444194 0 7.4292845921213922e-05 0.024846999951561987 0 4.5881260681389394e-05 0.024845459480129423 0 9.6242002568650456e-05 0.024804250340112716 0 8.6880154679542158e-07 0.024936625914424554 0 -3.0147147819800096e-05 0.024851261599659526 0 4.5881260681389394e-05 0.024845459480129423 0 -0.00056120814131742738 0.024555845978589813 0 -0.00024766962870787358 0.024584854575874844 0 7.4292845921213922e-05 0.024846999951561987 0 8.6880154679542158e-07 0.024936625914424554 0 4.5881260681389394e-05 0.024845459480129423 0 -3.3106855186804603e-08 0.025000039758486314 0 -2.1298658551949117e-05 0.024933192639224274 0 -9.8046820251124358e-08 0.024999330717155155 0 8.6880154679542158e-07 0.024936625914424554 0 -2.1298658551949117e-05 0.024933192639224274 0 -3.0147147819800096e-05 0.024851261599659526 0 -0.00024766962870787358 0.024584854575874844 0 -6.787548493588596e-09 0.024999876690130773 0 -0.00032782521772691279 0.024476839978432217 0 -0.00061403019282450051 0.024329390136407572 0 -2.9355341119055098e-07 0.025000387174827495 0 8.6880154679542158e-07 0.024936625914424554 0 -3.3106855186804603e-08 0.025000039758486314 0 -2.1298658551949117e-05 0.024933192639224274 0 -2.1298658551949117e-05 0.024933192639224274 0 -3.0147147819800096e-05 0.024851261599659526 0 -9.8046820251124358e-08 0.024999330717155155 0 -7.8600210384909788e-07 0.024998384177185213 0 -0.00010263528164458837 0.024344628836672481 0 1.7574154554916052e-06 0.021752790238939165 0 -3.0147147819800096e-05 0.024851261599659526 0 -5.2055202605536652e-05 0.024664993603756714 0 5.7018461511516329e-05 0.024769159296302239 0 -3.0147147819800096e-05 0.024851261599659526 0 -5.2055202605536652e-05 0.024664993603756714 0 -9.8046820251124358e-08 0.024999330717155155 0 -5.2055202605536652e-05 0.024664993603756714 0 -9.8046820251124358e-08 0.024999330717155155 0 -0.00010263528164458837 0.024344628836672481 0 -9.8046820251124358e-08 0.024999330717155155 0 -7.8600210384909788e-07 0.024998384177185213 0 -0.00010263528164458837 0.024344628836672481 0 -5.2055202605536652e-05 0.024664993603756714 0 -0.00010263528164458837 0.024344628836672481 0 2.4249145199963504e-05 0.023998937807012035 0 -0.00010263528164458837 0.024344628836672481 0 2.4249145199963504e-05 0.023998937807012035 0 1.7574154554916052e-06 0.021752790238939165 0 2.4249145199963504e-05 0.023998937807012035 0 0.00059591008448589967 0.023830187617155388 0 1.7574154554916052e-06 0.021752790238939165 0 0.00046774191302332679 0.021872411326762202 0 4.198122281324867e-05 0.023296420919106435 0 2.4249145199963504e-05 0.023998937807012035 0 0.00059591008448589967 0.023830187617155388 0 4.7162026062583237e-05 0.024545470848219057 0 0.00059591008448589967 0.023830187617155388 0 4.7162026062583237e-05 0.024545470848219057 0 0.00053124062687505186 0.024722415557475248 0 -0.00010360549385051042 0.02462545354432627 0 0.00018184580531210807 0.024745117092459232 0 -5.2055202605536652e-05 0.024664993603756714 0 2.4249145199963504e-05 0.023998937807012035 0 4.7162026062583237e-05 0.024545470848219057 0 -3.0147147819800096e-05 0.024851261599659526 0 5.7018461511516329e-05 0.024769159296302239 0 4.5881260681389394e-05 0.024845459480129423 0 5.7018461511516329e-05 0.024769159296302239 0 4.5881260681389394e-05 0.024845459480129423 0 9.6242002568650456e-05 0.024804250340112716 0 7.4292845921213922e-05 0.024846999951561987 0 7.2599388980950329e-05 0.024727279225564891 0 0.0001415717207213396 0.024757690916444194 0 0.00018184580531210807 0.024745117092459232 0 4.198122281324867e-05 0.023296420919106435 0 0.00022343706530141295 0.020026892513595115 0 7.9327015408150716e-05 0.020013261673177712 0 6.8625935338403885e-05 0.020078388162419965 0 7.9327015408150716e-05 0.020013261673177712 0 8.135799718412351e-06 0.020057470565820041 0 6.8625935338403885e-05 0.020078388162419965 0 4.198122281324867e-05 0.023296420919106435 0 0.00015678947178049507 0.022423515963615661 0 8.135799718412351e-06 0.020057470565820041 0 -1.2473945044592325e-05 0.020078932074029086 0 -3.0850636224458344e-06 0.020046122339166028 0 7.9327015408150716e-05 0.020013261673177712 0 8.135799718412351e-06 0.020057470565820041 0 -3.0850636224458344e-06 0.020046122339166028 0 8.135799718412351e-06 0.020057470565820041 0 -5.8963882538727127e-05 0.020088088584790515 0 -1.2473945044592325e-05 0.020078932074029086 0 8.135799718412351e-06 0.020057470565820041 0 -5.8963882538727127e-05 0.020088088584790515 0 6.8625935338403885e-05 0.020078388162419965 0 -5.8963882538727127e-05 0.020088088584790515 0 6.8625935338403885e-05 0.020078388162419965 0 -4.3285519053923265e-05 0.020170027917262797 0 0.00032900436782146039 0.020256825778985001 0 6.8625935338403885e-05 0.020078388162419965 0 -4.3285519053923265e-05 0.020170027917262797 0 0.00032900436782146039 0.020256825778985001 0 0.00022343706530141295 0.020026892513595115 0 6.8625935338403885e-05 0.020078388162419965 0 0.00032900436782146039 0.020256825778985001 0 -4.3285519053923265e-05 0.020170027917262797 0 -9.9037402049149243e-05 0.020657883837385066 0 -5.8963882538727127e-05 0.020088088584790515 0 -4.3285519053923265e-05 0.020170027917262797 0 -0.00013553752218032936 0.019985866291019207 0 -4.3285519053923265e-05 0.020170027917262797 0 -9.9037402049149243e-05 0.020657883837385066 0 -0.00013553752218032936 0.019985866291019207 0 -9.9037402049149243e-05 0.020657883837385066 0 -6.0520450833948063e-07 0.020336144784474416 0 1.1526180604510654e-06 0.021745967467021395 0 -9.9037402049149243e-05 0.020657883837385066 0 -6.0520450833948063e-07 0.020336144784474416 0 -0.00013553752218032936 0.019985866291019207 0 0.00032900436782146039 0.020256825778985001 0 -9.9037402049149243e-05 0.020657883837385066 0 1.1526180604510654e-06 0.021745967467021395 0 0.00046774191302332679 0.021872411326762202 0 1.1632966374936381e-07 0.021748943900800816 0 0.0001291286314922811 0.019101371576990565 0 3.456017148370748e-07 0.018923393057567052 0 -0.00015366433311423549 0.018039891053866587 0 -6.0520450833948063e-07 0.020336144784474416 0 0.0001291286314922811 0.019101371576990565 0 3.456017148370748e-07 0.018923393057567052 0 -6.0520450833948063e-07 0.020336144784474416 0 0.0001291286314922811 0.019101371576990565 0 -0.00013553752218032936 0.019985866291019207 0 0.0001291286314922811 0.019101371576990565 0 -0.00013553752218032936 0.019985866291019207 0 0.00011679548643962766 0.020018085851151782 0 0.0001291286314922811 0.019101371576990565 0 -0.00024275266808901019 0.017561735157062813 0 -0.00015366433311423549 0.018039891053866587 0 0.0001291286314922811 0.019101371576990565 0 6.6092456640807446e-05 0.017363868741171264 0 -0.00024275266808901019 0.017561735157062813 0 0.00013164573429629416 0.019040909354264501 0 3.5756887128315768e-05 0.018756629671412815 0 6.6092456640807446e-05 0.017363868741171264 0 -0.00034001939096553485 0.017220020225328501 0 -0.00024275266808901019 0.017561735157062813 0 0.00011679548643962766 0.020018085851151782 0 2.2387491130161233e-05 0.020080354760969636 0 5.0280253891797431e-05 0.020098279646351459 0 6.6092456640807446e-05 0.017363868741171264 0 -0.00034001939096553485 0.017220020225328501 0 -0.000882189534843313 0.017305792532651354 0 3.5756887128315768e-05 0.018756629671412815 0 -0.0003850308864369595 0.018666494397622385 0 -5.8963882538727127e-05 0.020088088584790515 0 0.00011679548643962766 0.020018085851151782 0 2.2387491130161233e-05 0.020080354760969636 0 -5.8963882538727127e-05 0.020088088584790515 0 -0.00013553752218032936 0.019985866291019207 0 0.00011679548643962766 0.020018085851151782 0 -1.2473945044592325e-05 0.020078932074029086 0 5.3114199331551975e-06 0.020113932753497588 0 -3.0850636224458344e-06 0.020046122339166028 0 -5.8963882538727127e-05 0.020088088584790515 0 -1.2473945044592325e-05 0.020078932074029086 0 2.2387491130161233e-05 0.020080354760969636 0 -1.2473945044592325e-05 0.020078932074029086 0 2.2387491130161233e-05 0.020080354760969636 0 5.3114199331551975e-06 0.020113932753497588 0 -0.00034001939096553485 0.017220020225328501 0 -0.000882189534843313 0.017305792532651354 0 -0.0004802595402215587 0.017345931585342863 0 2.2387491130161233e-05 0.020080354760969636 0 5.3114199331551975e-06 0.020113932753497588 0 5.0280253891797431e-05 0.020098279646351459 0 -0.000882189534843313 0.017305792532651354 0 -0.00078656604777534275 0.01791979183939332 0 -0.0004802595402215587 0.017345931585342863 0 -0.0003850308864369595 0.018666494397622385 0 -0.0011399843334669838 0.020310050265414489 0 5.0280253891797431e-05 0.020098279646351459 0 2.0600368008345374e-05 0.020170391969596444 0 5.3413748371863664e-05 0.020239410536844853 0 -0.000882189534843313 0.017305792532651354 0 -0.00078656604777534275 0.01791979183939332 0 -0.001753677449944673 0.019085213732026977 0 5.3114199331551975e-06 0.020113932753497588 0 5.0280253891797431e-05 0.020098279646351459 0 2.0600368008345374e-05 0.020170391969596444 0 -0.0011399843334669838 0.020310050265414489 0 -0.00085951186677745101 0.021581393882776273 0 2.0600368008345374e-05 0.020170391969596444 0 5.3413748371863664e-05 0.020239410536844853 0 -4.7344904387587083e-05 0.020213145108344845 0 -0.00078656604777534275 0.01791979183939332 0 -0.001753677449944673 0.019085213732026977 0 -0.0009502376589708688 0.018637777477292363 0 -0.0011690055864096863 0.019799059528368163 0 -0.0024238115831895315 0.019334917674602735 0 -0.0019811715780238387 0.021616362734659739 0 -0.0011399843334669838 0.020310050265414489 0 -0.0016881633551901268 0.021444360947819926 0 -0.0011690055864096863 0.019799059528368163 0 -0.001753677449944673 0.019085213732026977 0 -0.0009502376589708688 0.018637777477292363 0 -0.001489232279440077 0.01991083906402134 0 -0.0011399843334669838 0.020310050265414489 0 -0.0021081055770370439 0.022488009821888498 0 -0.0019811715780238387 0.021616362734659739 0 -0.0017735761420363857 0.022443752936351709 0 -0.0019811715780238387 0.021616362734659739 0 -0.0017735761420363857 0.022443752936351709 0 -0.0018844326064124555 0.022200225361773945 0 -0.0019811715780238387 0.021616362734659739 0 -0.0015409679616297731 0.021939833974596635 0 -0.00092238488513813135 0.020758007170263583 0 -0.0011690055864096863 0.019799059528368163 0 -0.0019811715780238387 0.021616362734659739 0 -0.00092238488513813135 0.020758007170263583 0 -0.0017735761420363857 0.022443752936351709 0 -0.001584075837436935 0.022930184824827372 0 -0.001735472519951882 0.022666050269987782 0 -0.0017735761420363857 0.022443752936351709 0 -0.0018844326064124555 0.022200225361773945 0 -0.001735472519951882 0.022666050269987782 0 -0.0021081055770370439 0.022488009821888498 0 -0.0017735761420363857 0.022443752936351709 0 -0.0017100522274869101 0.022976978844842767 0 -0.0017735761420363857 0.022443752936351709 0 -0.0017100522274869101 0.022976978844842767 0 -0.001584075837436935 0.022930184824827372 0 -0.0017100522274869101 0.022976978844842767 0 -0.0014859391199972993 0.023289275766887045 0 -0.001584075837436935 0.022930184824827372 0 5.3114199331551975e-06 0.020113932753497588 0 -4.7344904387587083e-05 0.020213145108344845 0 -0.00017782727087179199 0.020176485132824697 0 0.00026466946654905176 0.019782593237648003 0 -0.00045885103566146475 0.022224414756890146 0 5.3114199331551975e-06 0.020113932753497588 0 2.0600368008345374e-05 0.020170391969596444 0 -4.7344904387587083e-05 0.020213145108344845 0 -0.00085951186677745101 0.021581393882776273 0 -0.00045885103566146475 0.022224414756890146 0 -0.0014859391199972993 0.023289275766887045 0 -0.001373748242501434 0.023251888976484645 0 -0.001584075837436935 0.022930184824827372 0 0.00015678947178049507 0.022423515963615661 0 -0.00045885103566146475 0.022224414756890146 0 8.6706198095587873e-05 0.024848114921399791 0 0.0001415717207213396 0.024757690916444194 0 0.00019457879237440507 0.024756158988087362 0 -0.00056120814131742738 0.024555845978589813 0 -0.00045885103566146475 0.022224414756890146 0 -0.0011066015338570456 0.023716903535694788 0 -0.0014859391199972993 0.023289275766887045 0 -0.001373748242501434 0.023251888976484645 0 -0.0011066015338570456 0.023716903535694788 0 -0.001373748242501434 0.023251888976484645 0 -0.001240197859097334 0.023346345113298916 0 -0.001373748242501434 0.023251888976484645 0 -0.0014854944829403348 0.023006676699208115 0 -0.001240197859097334 0.023346345113298916 0 -0.001373748242501434 0.023251888976484645 0 -0.001584075837436935 0.022930184824827372 0 -0.0014854944829403348 0.023006676699208115 0 -0.001584075837436935 0.022930184824827372 0 -0.0014854944829403348 0.023006676699208115 0 -0.001735472519951882 0.022666050269987782 0 -0.0014854944829403348 0.023006676699208115 0 -0.0014689434075486291 0.022920341183857888 0 -0.001735472519951882 0.022666050269987782 0 -0.0014854944829403348 0.023006676699208115 0 -0.001240197859097334 0.023346345113298916 0 -0.0014689434075486291 0.022920341183857888 0 -0.00071120773135210425 0.024666634001059316 0 -0.00078343151853697466 0.024550558358773691 0 -0.00077914172233606424 0.024623693866368097 0 -0.00096779884372200228 0.023931113447919955 0 -0.0011377532285239108 0.023750562745009546 0 -0.0011081097298427372 0.023325805861751404 0 -0.001240197859097334 0.023346345113298916 0 -0.0014689434075486291 0.022920341183857888 0 -0.0011377532285239108 0.023750562745009546 0 -0.0014635766788901677 0.023535637240059692 0 -0.00078343151853697466 0.024550558358773691 0 -0.00092592187059215101 0.024520150125471211 0 -0.00089203368570412757 0.024252960099416056 0 -0.00092592187059215101 0.024520150125471211 0 -0.0013532933080558547 0.024201183254155153 0 -0.00089203368570412757 0.024252960099416056 0 -0.00092592187059215101 0.024520150125471211 0 -0.0014757614410242986 0.024628331228187916 0 -0.0013532933080558547 0.024201183254155153 0 -0.0015409679616297731 0.021939833974596635 0 -0.0019464020711122134 0.022540192249502218 0 -0.00077450466830117511 0.022112028109990967 0 -0.0014635766788901677 0.023535637240059692 0 -0.00095045671429509738 0.023492574990521112 0 -0.0015409679616297731 0.021939833974596635 0 -0.0018844326064124555 0.022200225361773945 0 -0.0019464020711122134 0.022540192249502218 0 -0.0019811715780238387 0.021616362734659739 0 -0.0015409679616297731 0.021939833974596635 0 -0.0018844326064124555 0.022200225361773945 0 -0.0014689434075486291 0.022920341183857888 0 -0.001735472519951882 0.022666050269987782 0 -0.0019464020711122134 0.022540192249502218 0 -0.0018844326064124555 0.022200225361773945 0 -0.001735472519951882 0.022666050269987782 0 -0.0019464020711122134 0.022540192249502218 0 -0.0014757614410242986 0.024628331228187916 0 -0.0018933926188311574 0.02421069174804685 0 -0.0021208461641806929 0.024760819595670971 0 -0.00095045671429509738 0.023492574990521112 0 -0.0012882953998941825 0.021938917655790355 0 -0.00069144631990262627 0.021445104002901168 0 -0.00077450466830117511 0.022112028109990967 0 0.0013811295489884919 0.0215213090951193 0 -0.0015409679616297731 0.021939833974596635 0 -0.00069144631990262627 0.021445104002901168 0 -0.00077450466830117511 0.022112028109990967 0 -0.0014757614410242986 0.024628331228187916 0 -0.0013532933080558547 0.024201183254155153 0 -0.0018933926188311574 0.02421069174804685 0 -0.0018933926188311574 0.02421069174804685 0 -0.0024430899291352343 0.024247432257541664 0 -0.0022312136320693774 0.023753626385168772 0 -0.0028701233604345451 0.023445969704493481 0 -0.0029003147238305872 0.023007087847710932 0 -0.0031645796470402372 0.022281269446797244 0 -0.0030046262928415568 0.022196565001791298 0 -0.003005400380202096 0.022330517781593562 0 -0.0031645796470402372 0.022281269446797244 0 -0.003005400380202096 0.022330517781593562 0 -0.0031042506156742163 0.022460949608196463 0 -0.0031645796470402372 0.022281269446797244 0 -0.0030878029353918995 0.022102691020758954 0 -0.0030046262928415568 0.022196565001791298 0 -0.0031645796470402372 0.022281269446797244 0 -0.0032206492205627815 0.022145616085141491 0 -0.0030878029353918995 0.022102691020758954 0 -0.0018933926188311574 0.02421069174804685 0 -0.0024430899291352343 0.024247432257541664 0 -0.0021208461641806929 0.024760819595670971 0 -0.0028701233604345451 0.023445969704493481 0 -0.0012882953998941825 0.021938917655790355 0 -0.0011833124740124078 0.019294715221429278 0 -0.0013938523997517496 0.019687322450077521 0 -0.0018302761798766293 0.019446792421732442 0 -0.0012882953998941825 0.021938917655790355 0 -0.0027044230412564913 0.020810344187566894 0 -0.0011833124740124078 0.019294715221429278 0 -0.0013938523997517496 0.019687322450077521 0 -0.0010188394619375365 0.019551517614425751 0 -0.0010052191467057779 0.017264889111264111 0 0.00026976926905671544 0.019678264521675416 0 -0.0010052191467057779 0.017264889111264111 0 -0.0019256872866407458 0.017075411994055101 0 -0.002136892500422313 0.014567029834832919 0 -0.0017332578990821746 0.014550771724829038 0 -0.0015531970473710872 0.0142551328497749 0 -0.0013938523997517496 0.019687322450077521 0 -0.0018302761798766293 0.019446792421732442 0 -0.0019338146546055135 0.019642339780164827 0 -0.0018302761798766293 0.019446792421732442 0 -0.0019338146546055135 0.019642339780164827 0 -0.0024608484692599636 0.019600602771316786 0 7.2021463194275491e-05 0.017273079265328162 0 1.8631996491036224e-05 0.016721568979330897 0 4.2228247764174075e-05 0.016408326201505938 0 -0.0010052191467057779 0.017264889111264111 0 -0.00075870079432222124 0.015155286570223489 0 1.8631996491036224e-05 0.016721568979330897 0 8.0507633048319887e-06 0.016284543837937683 0 4.2228247764174075e-05 0.016408326201505938 0 7.2021463194275491e-05 0.017273079265328162 0 1.8631996491036224e-05 0.016721568979330897 0 8.8294555041716478e-05 0.017240300877747423 0 7.2021463194275491e-05 0.017273079265328162 0 8.8294555041716478e-05 0.017240300877747423 0 0.00016800776736440725 0.01761825920257043 0 1.8631996491036224e-05 0.016721568979330897 0 8.8294555041716478e-05 0.017240300877747423 0 3.6096879892049895e-05 0.017046766855509654 0 8.8294555041716478e-05 0.017240300877747423 0 0.00013866421084474069 0.017485316341829711 0 3.6096879892049895e-05 0.017046766855509654 0 0.00013866421084474069 0.017485316341829711 0 9.4913850157790897e-06 0.017297455726581805 0 3.6096879892049895e-05 0.017046766855509654 0 0.00010527131761061438 0.017774745215384972 0 -0.00012101507749984283 0.017583715334916598 0 9.4913850157790897e-06 0.017297455726581805 0 0.00013866421084474069 0.017485316341829711 0 0.00010527131761061438 0.017774745215384972 0 9.4913850157790897e-06 0.017297455726581805 0 0.00013866421084474069 0.017485316341829711 0 0.00010527131761061438 0.017774745215384972 0 0.00023005004100250058 0.017800224982302437 0 0.00010527131761061438 0.017774745215384972 0 0.00023005004100250058 0.017800224982302437 0 0.00023408586561704051 0.018050583575540097 0 0.00010527131761061438 0.017774745215384972 0 0.00023408586561704051 0.018050583575540097 0 9.5899262741856793e-05 0.018299475762038019 0 0.00023005004100250058 0.017800224982302437 0 0.00029773175583408111 0.018018018238840659 0 0.00023408586561704051 0.018050583575540097 0 0.00023005004100250058 0.017800224982302437 0 0.00029773175583408111 0.018018018238840659 0 0.00030994805844434067 0.017976205214618683 0 0.00029773175583408111 0.018018018238840659 0 0.00036403107300283263 0.018245284284744548 0 0.00030994805844434067 0.017976205214618683 0 0.00023408586561704051 0.018050583575540097 0 0.00036403107300283263 0.018245284284744548 0 9.5899262741856793e-05 0.018299475762038019 0 0.00036403107300283263 0.018245284284744548 0 0.00047482653799303529 0.018689595408821407 0 9.5899262741856793e-05 0.018299475762038019 0 0.00029773175583408111 0.018018018238840659 0 0.00023408586561704051 0.018050583575540097 0 0.00036403107300283263 0.018245284284744548 0 8.8294555041716478e-05 0.017240300877747423 0 0.00013866421084474069 0.017485316341829711 0 0.00016800776736440725 0.01761825920257043 0 0.00013866421084474069 0.017485316341829711 0 0.00023005004100250058 0.017800224982302437 0 0.00016800776736440725 0.01761825920257043 0 0.00023005004100250058 0.017800224982302437 0 0.00016800776736440725 0.01761825920257043 0 0.00030994805844434067 0.017976205214618683 0 -0.00069144631990262627 0.021445104002901168 0 0.0013811295489884919 0.0215213090951193 0 0.00094511433912588063 0.020809711467329777 0 7.2021463194275491e-05 0.017273079265328162 0 0.00016800776736440725 0.01761825920257043 0 0.00024363258706861345 0.017800736434943069 0 -0.0010052191467057779 0.017264889111264111 0 0.00053498430006911849 0.018568199830671133 0 -0.0006988455989505965 0.018331016964567095 0 0.00044978689112233871 0.018418841495520859 0 0.00018844004037587119 0.017994849652086184 0 -0.00011975407837353815 0.021335957653573472 0 0.00026976926905671544 0.019678264521675416 0 -0.00069144631990262627 0.021445104002901168 0 0.0023644577919098853 0.019885025950511344 0 0.00042894763152762289 0.019849912958297675 0 0.00053498430006911849 0.018568199830671133 0 0.00026976926905671544 0.019678264521675416 0 0.00016800776736440725 0.01761825920257043 0 0.00030994805844434067 0.017976205214618683 0 0.00024363258706861345 0.017800736434943069 0 0.00030994805844434067 0.017976205214618683 0 0.00029134719989471939 0.017895121076822475 0 0.00047482653799303529 0.018689595408821407 0 0.001840522812399779 0.01889910134820294 0 0.00047482653799303529 0.018689595408821407 0 0.0013063936584081384 0.019371609909876516 0 0.00053498430006911849 0.018568199830671133 0 0.0005140025727376254 0.018571799123164701 0 0.0013063936584081384 0.019371609909876516 0 0.0023644577919098853 0.019885025950511344 0 0.00042894763152762289 0.019849912958297675 0 0.00048353785556170002 0.018473795659161213 0 0.00053498430006911849 0.018568199830671133 0 0.00036403107300283263 0.018245284284744548 0 0.00030994805844434067 0.017976205214618683 0 0.00047482653799303529 0.018689595408821407 0 0.00047482653799303529 0.018689595408821407 0 0.0013063936584081384 0.019371609909876516 0 0.00042894763152762289 0.019849912958297675 0 0.001840522812399779 0.01889910134820294 0 0.0013063936584081384 0.019371609909876516 0 0.0023644577919098853 0.019885025950511344 0 -0.0012882953998941825 0.021938917655790355 0 0.00026976926905671544 0.019678264521675416 0 -0.0015409679616297731 0.021939833974596635 0 -0.00069144631990262627 0.021445104002901168 0 -0.00092238488513813135 0.020758007170263583 0 -0.00069144631990262627 0.021445104002901168 0 -0.00092238488513813135 0.020758007170263583 0 -0.00038078519142741279 0.020131729493402601 0 -0.00069144631990262627 0.021445104002901168 0 -0.00038078519142741279 0.020131729493402601 0 0.00042894763152762289 0.019849912958297675 0 -0.00038078519142741279 0.020131729493402601 0 0.00042894763152762289 0.019849912958297675 0 -9.357897501821019e-05 0.019080287419773707 0 0.00047482653799303529 0.018689595408821407 0 0.00042894763152762289 0.019849912958297675 0 -9.357897501821019e-05 0.019080287419773707 0 0.00047482653799303529 0.018689595408821407 0 -9.357897501821019e-05 0.019080287419773707 0 9.5899262741856793e-05 0.018299475762038019 0 -9.357897501821019e-05 0.019080287419773707 0 -0.00064427341533453706 0.019427741662362514 0 -0.00041310656791207511 0.018529643296109889 0 -0.00038078519142741279 0.020131729493402601 0 -9.357897501821019e-05 0.019080287419773707 0 -0.00064427341533453706 0.019427741662362514 0 -0.00092238488513813135 0.020758007170263583 0 -0.00038078519142741279 0.020131729493402601 0 -0.00064427341533453706 0.019427741662362514 0 -0.0011690055864096863 0.019799059528368163 0 -0.00092238488513813135 0.020758007170263583 0 -0.00064427341533453706 0.019427741662362514 0 -0.0011690055864096863 0.019799059528368163 0 -0.00064427341533453706 0.019427741662362514 0 -0.0009502376589708688 0.018637777477292363 0 -0.00078656604777534275 0.01791979183939332 0 -0.0009502376589708688 0.018637777477292363 0 -0.00057650654733266309 0.018037814187265442 0 -0.00064427341533453706 0.019427741662362514 0 -0.0009502376589708688 0.018637777477292363 0 -0.00041310656791207511 0.018529643296109889 0 -0.00041310656791207511 0.018529643296109889 0 -0.00021044484646939415 0.017943231855496313 0 -0.00057650654733266309 0.018037814187265442 0 -0.0009502376589708688 0.018637777477292363 0 -0.00041310656791207511 0.018529643296109889 0 -0.00057650654733266309 0.018037814187265442 0 -9.357897501821019e-05 0.019080287419773707 0 -0.00041310656791207511 0.018529643296109889 0 9.5899262741856793e-05 0.018299475762038019 0 -0.00041310656791207511 0.018529643296109889 0 9.5899262741856793e-05 0.018299475762038019 0 -0.00021044484646939415 0.017943231855496313 0 0.00010527131761061438 0.017774745215384972 0 9.5899262741856793e-05 0.018299475762038019 0 -0.00021044484646939415 0.017943231855496313 0 0.00010527131761061438 0.017774745215384972 0 -0.00021044484646939415 0.017943231855496313 0 -0.00012101507749984283 0.017583715334916598 0 -0.00021044484646939415 0.017943231855496313 0 -0.00012101507749984283 0.017583715334916598 0 -0.0003952013186038593 0.017611625424793251 0 -0.00021044484646939415 0.017943231855496313 0 -0.00057650654733266309 0.018037814187265442 0 -0.0003952013186038593 0.017611625424793251 0 -0.00078656604777534275 0.01791979183939332 0 -0.00057650654733266309 0.018037814187265442 0 -0.0003952013186038593 0.017611625424793251 0 -0.0003952013186038593 0.017611625424793251 0 -0.0004802595402215587 0.017345931585342863 0 -0.00015734394844229703 0.017333192071602947 0 -0.00078656604777534275 0.01791979183939332 0 -0.0003952013186038593 0.017611625424793251 0 -0.0004802595402215587 0.017345931585342863 0 -0.00012101507749984283 0.017583715334916598 0 -0.0003952013186038593 0.017611625424793251 0 -0.00015734394844229703 0.017333192071602947 0 -0.0004802595402215587 0.017345931585342863 0 -0.00015734394844229703 0.017333192071602947 0 -0.00029409303426812267 0.017212149275315204 0 -0.00015734394844229703 0.017333192071602947 0 -0.00029409303426812267 0.017212149275315204 0 -0.00016021968952958108 0.017108021082030304 0 -0.00034001939096553485 0.017220020225328501 0 -0.0004802595402215587 0.017345931585342863 0 -0.00029409303426812267 0.017212149275315204 0 9.4913850157790897e-06 0.017297455726581805 0 -9.5428587174014727e-05 0.016868750265430121 0 3.6096879892049895e-05 0.017046766855509654 0 -0.00015734394844229703 0.017333192071602947 0 9.4913850157790897e-06 0.017297455726581805 0 -0.00016021968952958108 0.017108021082030304 0 -0.00012101507749984283 0.017583715334916598 0 -0.00015734394844229703 0.017333192071602947 0 9.4913850157790897e-06 0.017297455726581805 0 9.4913850157790897e-06 0.017297455726581805 0 -0.00016021968952958108 0.017108021082030304 0 -9.5428587174014727e-05 0.016868750265430121 0 -0.00016021968952958108 0.017108021082030304 0 -9.5428587174014727e-05 0.016868750265430121 0 -0.00022317537940244066 0.017201086401310694 0 -9.5428587174014727e-05 0.016868750265430121 0 -0.00022317537940244066 0.017201086401310694 0 -0.0001232933411591392 0.016790699795659808 0 -0.00034001939096553485 0.017220020225328501 0 -0.0002820911347896908 0.017237695499821914 0 -0.00024275266808901019 0.017561735157062813 0 -0.00016021968952958108 0.017108021082030304 0 -0.0002820911347896908 0.017237695499821914 0 -0.00022317537940244066 0.017201086401310694 0 -0.0002820911347896908 0.017237695499821914 0 -0.00024275266808901019 0.017561735157062813 0 -0.00022317537940244066 0.017201086401310694 0 -0.00034001939096553485 0.017220020225328501 0 -0.00029409303426812267 0.017212149275315204 0 -0.0002820911347896908 0.017237695499821914 0 -0.00029409303426812267 0.017212149275315204 0 -0.00016021968952958108 0.017108021082030304 0 -0.0002820911347896908 0.017237695499821914 0 -0.00024275266808901019 0.017561735157062813 0 -0.00022317537940244066 0.017201086401310694 0 -0.00015366433311423549 0.018039891053866587 0 -0.00022317537940244066 0.017201086401310694 0 -0.00011441643059026902 0.016685226084399513 0 -0.0001232933411591392 0.016790699795659808 0 -0.00022317537940244066 0.017201086401310694 0 -4.9400350192494881e-07 0.017511116030241223 0 -0.00011441643059026902 0.016685226084399513 0 -0.00022317537940244066 0.017201086401310694 0 -4.9400350192494881e-07 0.017511116030241223 0 -0.00015366433311423549 0.018039891053866587 0 3.456017148370748e-07 0.018923393057567052 0 -4.9400350192494881e-07 0.017511116030241223 0 -0.00015366433311423549 0.018039891053866587 0 -1.4236283005404704e-07 0.016098929957266084 0 -0.00011441643059026902 0.016685226084399513 0 -8.0607890415369389e-05 0.015830276698872801 0 -4.9400350192494881e-07 0.017511116030241223 0 -1.4236283005404704e-07 0.016098929957266084 0 -0.00011441643059026902 0.016685226084399513 0 -0.00011441643059026902 0.016685226084399513 0 -0.0001232933411591392 0.016790699795659808 0 -9.1402865279315839e-05 0.016390841911788519 0 -0.00011441643059026902 0.016685226084399513 0 -8.0607890415369389e-05 0.015830276698872801 0 -9.1402865279315839e-05 0.016390841911788519 0 -8.0607890415369389e-05 0.015830276698872801 0 -5.7657687015074184e-05 0.015898260310735057 0 -9.1402865279315839e-05 0.016390841911788519 0 -9.1402865279315839e-05 0.016390841911788519 0 -2.735072035136184e-05 0.016659011187010971 0 -2.3810403606214677e-05 0.016075518096527464 0 -5.7657687015074184e-05 0.015898260310735057 0 -9.1402865279315839e-05 0.016390841911788519 0 -2.3810403606214677e-05 0.016075518096527464 0 -9.5428587174014727e-05 0.016868750265430121 0 -9.1402865279315839e-05 0.016390841911788519 0 -2.735072035136184e-05 0.016659011187010971 0 -9.5428587174014727e-05 0.016868750265430121 0 -0.0001232933411591392 0.016790699795659808 0 -9.1402865279315839e-05 0.016390841911788519 0 -9.5428587174014727e-05 0.016868750265430121 0 -2.735072035136184e-05 0.016659011187010971 0 3.6096879892049895e-05 0.017046766855509654 0 1.8631996491036224e-05 0.016721568979330897 0 -2.735072035136184e-05 0.016659011187010971 0 3.6096879892049895e-05 0.017046766855509654 0 1.8631996491036224e-05 0.016721568979330897 0 -2.735072035136184e-05 0.016659011187010971 0 -2.3810403606214677e-05 0.016075518096527464 0 1.8631996491036224e-05 0.016721568979330897 0 -2.3810403606214677e-05 0.016075518096527464 0 8.0507633048319887e-06 0.016284543837937683 0 -2.3810403606214677e-05 0.016075518096527464 0 8.0507633048319887e-06 0.016284543837937683 0 5.3005549659076988e-06 0.015899594870113894 0 -2.3810403606214677e-05 0.016075518096527464 0 5.3005549659076988e-06 0.015899594870113894 0 -2.813640181729505e-05 0.015493936462146085 0 -2.813640181729505e-05 0.015493936462146085 0 1.5146595762812186e-05 0.015262850163361055 0 -5.5697206779691174e-05 0.014985167262743187 0 5.3005549659076988e-06 0.015899594870113894 0 -2.813640181729505e-05 0.015493936462146085 0 1.5146595762812186e-05 0.015262850163361055 0 -5.5697206779691174e-05 0.014985167262743187 0 -5.0930880347570919e-05 0.015346369033304417 0 -8.5906377602921994e-05 0.014635855074391071 0 -2.813640181729505e-05 0.015493936462146085 0 -5.5697206779691174e-05 0.014985167262743187 0 -5.0930880347570919e-05 0.015346369033304417 0 -5.7657687015074184e-05 0.015898260310735057 0 -2.3810403606214677e-05 0.016075518096527464 0 -2.813640181729505e-05 0.015493936462146085 0 -5.7657687015074184e-05 0.015898260310735057 0 -2.813640181729505e-05 0.015493936462146085 0 -5.0930880347570919e-05 0.015346369033304417 0 -8.0607890415369389e-05 0.015830276698872801 0 -5.7657687015074184e-05 0.015898260310735057 0 -5.0930880347570919e-05 0.015346369033304417 0 -8.0607890415369389e-05 0.015830276698872801 0 -5.0930880347570919e-05 0.015346369033304417 0 -5.3522791236941764e-05 0.015020358356359072 0 -5.3522791236941764e-05 0.015020358356359072 0 -8.5325142959936709e-05 0.014313345565477345 0 -8.5906377602921994e-05 0.014635855074391071 0 -5.0930880347570919e-05 0.015346369033304417 0 -5.3522791236941764e-05 0.015020358356359072 0 -8.5906377602921994e-05 0.014635855074391071 0 -5.3522791236941764e-05 0.015020358356359072 0 -1.4962623576429667e-07 0.014687056110461475 0 -8.5325142959936709e-05 0.014313345565477345 0 -1.4236283005404704e-07 0.016098929957266084 0 -8.0607890415369389e-05 0.015830276698872801 0 -1.4962623576429667e-07 0.014687056110461475 0 -8.0607890415369389e-05 0.015830276698872801 0 -5.3522791236941764e-05 0.015020358356359072 0 -1.4962623576429667e-07 0.014687056110461475 0 1.2399134140108038e-06 0.011863979507649357 0 -4.6927222360661851e-07 0.013274480461442011 0 0.00011263805364176167 0.013903527345262469 0 -1.4962623576429667e-07 0.014687056110461475 0 -4.6927222360661851e-07 0.013274480461442011 0 -8.5325142959936709e-05 0.014313345565477345 0 -4.6927222360661851e-07 0.013274480461442011 0 -8.5325142959936709e-05 0.014313345565477345 0 0.00011263805364176167 0.013903527345262469 0 -8.5325142959936709e-05 0.014313345565477345 0 -8.5906377602921994e-05 0.014635855074391071 0 0.00011263805364176167 0.013903527345262469 0 -8.5906377602921994e-05 0.014635855074391071 0 0.00011263805364176167 0.013903527345262469 0 -0.00021741092044241399 0.014252976892042914 0 -0.00040185116087655372 0.012421500164192764 0 -0.00029878968426949115 0.01349281208821494 0 -0.00021741092044241399 0.014252976892042914 0 -0.00023176587093325378 0.013073786645093888 0 -0.00040185116087655372 0.012421500164192764 0 -0.00029878968426949115 0.01349281208821494 0 -0.00015465178839102665 0.01318640412588065 0 -0.00021432381433421932 0.014074140068110743 0 -0.00029878968426949115 0.01349281208821494 0 -0.00021741092044241399 0.014252976892042914 0 -0.00032220568152210513 0.013806331296850322 0 -0.00023176587093325378 0.013073786645093888 0 -0.00029878968426949115 0.01349281208821494 0 -0.00026341083623164486 0.013459519950550706 0 -5.5697206779691174e-05 0.014985167262743187 0 -8.5906377602921994e-05 0.014635855074391071 0 -0.00021741092044241399 0.014252976892042914 0 1.5146595762812186e-05 0.015262850163361055 0 -0.00021741092044241399 0.014252976892042914 0 -0.00032220568152210513 0.013806331296850322 0 1.5146595762812186e-05 0.015262850163361055 0 -5.5697206779691174e-05 0.014985167262743187 0 -0.00021741092044241399 0.014252976892042914 0 -0.00090739548988658916 0.013934667858066451 0 -0.00032220568152210513 0.013806331296850322 0 -0.00056474650434406573 0.013996365464520388 0 -0.00052503810292301866 0.014624564384807692 0 -0.00036072930924415986 0.013948214527890222 0 -0.00020963940970099954 0.013516107103663466 0 -0.00026341083623164486 0.013459519950550706 0 -0.00032220568152210513 0.013806331296850322 0 -0.00029878968426949115 0.01349281208821494 0 -0.00026341083623164486 0.013459519950550706 0 -0.00032220568152210513 0.013806331296850322 0 -0.00032220568152210513 0.013806331296850322 0 -0.00034877937580593484 0.01384270514350471 0 -0.00056474650434406573 0.013996365464520388 0 -0.00020963940970099954 0.013516107103663466 0 -0.00032220568152210513 0.013806331296850322 0 -0.00034877937580593484 0.01384270514350471 0 3.8803552004889919e-05 0.013961160854172032 0 -0.00034877937580593484 0.01384270514350471 0 -0.00042996673772888655 0.014142215121772947 0 -0.002731774810106731 0.021964328950177584 0 -0.0027899152825427106 0.022019697484412487 0 -0.0027735538046287926 0.022036103169535783 0 -0.00016908061435092622 0.015036091139760692 0 -0.0019540897251561187 0.018310832773289543 0 -0.00034877937580593484 0.01384270514350471 0 -0.00042996673772888655 0.014142215121772947 0 -0.00056474650434406573 0.013996365464520388 0 -0.0027899152825427106 0.022019697484412487 0 -0.0027735538046287926 0.022036103169535783 0 -0.002791105524338919 0.022063365508780929 0 -0.0027680102196920792 0.022090635806138476 0 -0.0027735538046287926 0.022036103169535783 0 -0.002791105524338919 0.022063365508780929 0 -0.002791105524338919 0.022063365508780929 0 -0.0028053932764585043 0.022134919826878284 0 -0.0028295249785552992 0.022128158154900424 0 -0.002791105524338919 0.022063365508780929 0 -0.0028566461869390988 0.022095542135064979 0 -0.0028295249785552992 0.022128158154900424 0 -0.0027565460041202253 0.022040068989461124 0 -0.0028712853172382763 0.022176881395840956 0 -0.0027899152825427106 0.022019697484412487 0 -0.002791105524338919 0.022063365508780929 0 -0.0027452792986114591 0.021972964621373638 0 -0.0027899152825427106 0.022019697484412487 0 -0.0027452792986114591 0.021972964621373638 0 -0.002734515940849122 0.021991900504926783 0 -0.0028566461869390988 0.022095542135064979 0 -0.0028666869654183878 0.02215965700921298 0 -0.0028295249785552992 0.022128158154900424 0 -0.0019540897251561187 0.018310832773289543 0 -0.0016073844320762594 0.018049305573458182 0 -0.00042996673772888655 0.014142215121772947 0 -0.00056474650434406573 0.013996365464520388 0 -0.00081268322885054542 0.014359837855491541 0 -0.00090739548988658916 0.013934667858066451 0 -0.00056474650434406573 0.013996365464520388 0 -0.00081268322885054542 0.014359837855491541 0 -0.00090739548988658916 0.013934667858066451 0 -0.001143985616260513 0.014277312709707779 0 -0.00081268322885054542 0.014359837855491541 0 -0.00090739548988658916 0.013934667858066451 0 -0.001143985616260513 0.014277312709707779 0 -0.0015531970473710872 0.0142551328497749 0 5.3005549659076988e-06 0.015899594870113894 0 1.5146595762812186e-05 0.015262850163361055 0 4.2228247764174075e-05 0.016408326201505938 0 -0.001143985616260513 0.014277312709707779 0 -0.0015531970473710872 0.0142551328497749 0 -0.0013087147372050387 0.014558898717289692 0 -0.00052503810292301866 0.014624564384807692 0 -0.00075870079432222124 0.015155286570223489 0 8.0507633048319887e-06 0.016284543837937683 0 5.3005549659076988e-06 0.015899594870113894 0 4.2228247764174075e-05 0.016408326201505938 0 -0.0030878029353918995 0.022102691020758954 0 -0.0029509281964716365 0.022071469785551513 0 -0.0030046262928415568 0.022196565001791298 0 -0.0027044230412564913 0.020810344187566894 0 -0.0022959646819256281 0.019693051500202959 0 -0.0017332578990821746 0.014550771724829038 0 -0.0015531970473710872 0.0142551328497749 0 -0.0013087147372050387 0.014558898717289692 0 -0.0019256872866407458 0.017075411994055101 0 -0.0022959646819256281 0.019693051500202959 0 -0.0022959646819256281 0.019693051500202959 0 -0.0016073844320762594 0.018049305573458182 0 -0.0027452792986114591 0.021972964621373638 0 -0.002612607722667287 0.021916495961802389 0 -0.002734515940849122 0.021991900504926783 0 -0.0028566461869390988 0.022095542135064979 0 -0.0029509281964716365 0.022071469785551513 0 -0.0028992004421031217 0.022120666215396156 0 -0.001143985616260513 0.014277312709707779 0 -0.0013087147372050387 0.014558898717289692 0 -0.00081268322885054542 0.014359837855491541 0 -0.0028712853172382763 0.022176881395840956 0 -0.0022959646819256281 0.019693051500202959 0 -0.0029509281964716365 0.022071469785551513 0 -0.0028992004421031217 0.022120666215396156 0 -0.0029273401202890991 0.022153557017213766 0 -0.0028566461869390988 0.022095542135064979 0 -0.0028992004421031217 0.022120666215396156 0 -0.0028666869654183878 0.02215965700921298 0 -0.0028992004421031217 0.022120666215396156 0 -0.0028666869654183878 0.02215965700921298 0 -0.0029273401202890991 0.022153557017213766 0 -0.0028666869654183878 0.02215965700921298 0 -0.0029273401202890991 0.022153557017213766 0 -0.0029169134165962815 0.022253000859706894 0 -0.0029509281964716365 0.022071469785551513 0 -0.0029273401202890991 0.022153557017213766 0 -0.0030046262928415568 0.022196565001791298 0 -0.0029273401202890991 0.022153557017213766 0 -0.0030046262928415568 0.022196565001791298 0 -0.0029169134165962815 0.022253000859706894 0 -0.0030046262928415568 0.022196565001791298 0 -0.003005400380202096 0.022330517781593562 0 -0.0029169134165962815 0.022253000859706894 0 -0.003005400380202096 0.022330517781593562 0 -0.0029169134165962815 0.022253000859706894 0 -0.0028774405312544603 0.022422954015393109 0 -0.0029169134165962815 0.022253000859706894 0 -0.0028432573592546695 0.02225763396120118 0 -0.0028774405312544603 0.022422954015393109 0 -0.0028666869654183878 0.02215965700921298 0 -0.0029169134165962815 0.022253000859706894 0 -0.0028432573592546695 0.02225763396120118 0 -0.0028432573592546695 0.02225763396120118 0 -0.0027961671842935253 0.022227128383267417 0 -0.0028221334328955758 0.02230546236028827 0 -0.0028432573592546695 0.02225763396120118 0 -0.0027961671842935253 0.022227128383267417 0 -0.0028212600052100151 0.022183517657247326 0 -0.0027810992218043878 0.022200438884081748 0 -0.0027961671842935253 0.022227128383267417 0 -0.0027842995525274696 0.022164773927278263 0 -0.0027961671842935253 0.022227128383267417 0 -0.0027842995525274696 0.022164773927278263 0 -0.0028212600052100151 0.022183517657247326 0 -0.0027842995525274696 0.022164773927278263 0 -0.0028053932764585043 0.022134919826878284 0 -0.0028212600052100151 0.022183517657247326 0 -0.0027680102196920792 0.022090635806138476 0 -0.002791105524338919 0.022063365508780929 0 -0.0027842995525274696 0.022164773927278263 0 -0.002791105524338919 0.022063365508780929 0 -0.0027842995525274696 0.022164773927278263 0 -0.0028053932764585043 0.022134919826878284 0 -0.0028053932764585043 0.022134919826878284 0 -0.0028295249785552992 0.022128158154900424 0 -0.0028212600052100151 0.022183517657247326 0 -0.0028666869654183878 0.02215965700921298 0 -0.0028432573592546695 0.02225763396120118 0 -0.0028212600052100151 0.022183517657247326 0 -0.0028666869654183878 0.02215965700921298 0 -0.0028295249785552992 0.022128158154900424 0 -0.0028212600052100151 0.022183517657247326 0 -0.0028201890573308266 0.022334269866952243 0 -0.002855045342215251 0.022464570214153341 0 -0.002830781495826828 0.022300281118592662 0 -0.0028201890573308266 0.022334269866952243 0 -0.002855045342215251 0.022464570214153341 0 -0.0028221334328955758 0.02230546236028827 0 -0.0028201890573308266 0.022334269866952243 0 -0.0027865472700497286 0.02223795674428675 0 -0.002830781495826828 0.022300281118592662 0 -0.002826101685893138 0.022192845951107796 0 -0.0027865472700497286 0.02223795674428675 0 -0.002830781495826828 0.022300281118592662 0 -0.0027961671842935253 0.022227128383267417 0 -0.0027865472700497286 0.02223795674428675 0 -0.0028221334328955758 0.02230546236028827 0 -0.0028201890573308266 0.022334269866952243 0 -0.0027865472700497286 0.02223795674428675 0 -0.0028221334328955758 0.02230546236028827 0 -0.0027810992218043878 0.022200438884081748 0 -0.0027961671842935253 0.022227128383267417 0 -0.0027865472700497286 0.02223795674428675 0 -0.0028432573592546695 0.02225763396120118 0 -0.0028221334328955758 0.02230546236028827 0 -0.0028774405312544603 0.022422954015393109 0 -0.002855045342215251 0.022464570214153341 0 -0.0028221334328955758 0.02230546236028827 0 -0.0028774405312544603 0.022422954015393109 0 -0.003005400380202096 0.022330517781593562 0 -0.0028774405312544603 0.022422954015393109 0 -0.0031042506156742163 0.022460949608196463 0 -0.0028774405312544603 0.022422954015393109 0 -0.0029049061029804537 0.022795990765384865 0 -0.0031042506156742163 0.022460949608196463 0 -0.002855045342215251 0.022464570214153341 0 -0.0028774405312544603 0.022422954015393109 0 -0.0029049061029804537 0.022795990765384865 0 -0.0029122647719834853 0.02255485602124491 0 -0.0030670747710579054 0.022429489419001154 0 -0.002764423994783488 0.022361409625803488 0 -0.0029122647719834853 0.02255485602124491 0 -0.002764423994783488 0.022361409625803488 0 -0.0025327534216621735 0.022644649174987035 0 -0.0029049061029804537 0.022795990765384865 0 -0.0029122647719834853 0.02255485602124491 0 -0.0025327534216621735 0.022644649174987035 0 -0.002855045342215251 0.022464570214153341 0 -0.0029049061029804537 0.022795990765384865 0 -0.0029122647719834853 0.02255485602124491 0 -0.002909778345219936 0.022534137867073208 0 -0.0029890753508072191 0.022406202442863826 0 -0.0029122647719834853 0.02255485602124491 0 -0.0028699507010419658 0.022404582889613174 0 -0.0028640547486776706 0.022410810478580772 0 -0.002855045342215251 0.022464570214153341 0 -0.0028640547486776706 0.022410810478580772 0 -0.002830781495826828 0.022300281118592662 0 -0.002855045342215251 0.022464570214153341 0 -0.0029122647719834853 0.02255485602124491 0 -0.0028640547486776706 0.022410810478580772 0 -0.0028433359281846678 0.02232703698249755 0 -0.0028640547486776706 0.022410810478580772 0 -0.002830781495826828 0.022300281118592662 0 -0.0028433359281846678 0.02232703698249755 0 -0.0028699507010419658 0.022404582889613174 0 -0.0028640547486776706 0.022410810478580772 0 -0.0029890753508072191 0.022406202442863826 0 -0.0029916696848495262 0.022436149636161459 0 -0.0028433359281846678 0.02232703698249755 0 -0.0028699507010419658 0.022404582889613174 0 -0.0028518657495272218 0.022376970674701156 0 -0.0030670747710579054 0.022429489419001154 0 -0.0030981809559923702 0.022269562600965537 0 -0.0029447828908613391 0.022184319401515083 0 -0.0030670747710579054 0.022429489419001154 0 -0.0032280314563334139 0.0222955506433535 0 -0.0030981809559923702 0.022269562600965537 0 -0.0030981809559923702 0.022269562600965537 0 -0.00315032731659701 0.022168213543238783 0 -0.0029447828908613391 0.022184319401515083 0 -0.00315032731659701 0.022168213543238783 0 -0.0031211102287101657 0.022016191689203896 0 -0.0029447828908613391 0.022184319401515083 0 -0.003294973464493259 0.022110988405248732 0 -0.0032280314563334139 0.0222955506433535 0 -0.00315032731659701 0.022168213543238783 0 -0.0032280314563334139 0.0222955506433535 0 -0.0030981809559923702 0.022269562600965537 0 -0.00315032731659701 0.022168213543238783 0 -0.003294973464493259 0.022110988405248732 0 -0.00315032731659701 0.022168213543238783 0 -0.0031211102287101657 0.022016191689203896 0 -0.0031546026111735795 0.021589910936340991 0 -0.0031638122874414103 0.021600407282157699 0 -0.0031672618259408146 0.021597929103103486 0 -0.0032048458219285378 0.021535428872244952 0 -0.0031481165943713385 0.021912042045490503 0 -0.0032048458219285378 0.021535428872244952 0 -0.0031348411476288191 0.021235481379424659 0 -0.00324091188056595 0.020182727084356547 0 -0.0031902384134674042 0.020341313288951321 0 -0.0029700444273933787 0.020260898742386506 0 -0.0032471604346662984 0.020567219719568441 0 -0.0031902384134674042 0.020341313288951321 0 -0.0029700444273933787 0.020260898742386506 0 -0.0031348411476288191 0.021235481379424659 0 -0.0031481165943713385 0.021912042045490503 0 -0.0031770894696301478 0.022101195253519758 0 -0.0029171784641208284 0.022132468900799875 0 -0.002923359357165391 0.022325419915224295 0 -0.0031481165943713385 0.021912042045490503 0 -0.0029270082873537801 0.02227645514049718 0 -0.0032916849106790292 0.022132085994615396 0 -0.0028754480368924371 0.021917042912308591 0 -0.0030784821648706428 0.021723696158997535 0 -0.003374107502806538 0.022053292326068133 0 -0.0032916849106790292 0.022132085994615396 0 -0.0030784821648706428 0.021723696158997535 0 -0.0031481165943713385 0.021912042045490503 0 -0.0029385856324675294 0.021993309124332387 0 -0.0031348411476288191 0.021235481379424659 0 -0.0030025571733624931 0.021585559149813499 0 -0.0029940683493831178 0.021389822961337911 0 -0.002985124210625115 0.021303688095885981 0 -0.0028734692666822076 0.021260561788331779 0 -0.002985124210625115 0.021303688095885981 0 -0.0030574234115888664 0.021280321115971317 0 -0.0029928740254245695 0.02125335593965982 0 -0.0031348411476288191 0.021235481379424659 0 -0.0032505138524035683 0.020534966933374872 0 -0.00324091188056595 0.020182727084356547 0 -0.0029700444273933787 0.020260898742386506 0 -0.0033628433263761135 0.01990296531242184 0 -0.0029940683493831178 0.021389822961337911 0 -0.0030574234115888664 0.021280321115971317 0 -0.0031516320119408074 0.021258051232176802 0 -0.0029940683493831178 0.021389822961337911 0 -0.002985124210625115 0.021303688095885981 0 -0.0030574234115888664 0.021280321115971317 0 -0.0026400516308165817 0.021959369340898257 0 -0.0024979453331380815 0.021789342879235458 0 -0.0027590118300583966 0.02175045591587145 0 -0.0026400516308165817 0.021959369340898257 0 -0.0028754480368924371 0.021917042912308591 0 -0.0027590118300583966 0.02175045591587145 0 -0.0026400516308165817 0.021959369340898257 0 -0.0028754480368924371 0.021917042912308591 0 -0.0026824821355947597 0.022184710589222625 0 -0.0028754480368924371 0.021917042912308591 0 -0.0027590118300583966 0.02175045591587145 0 -0.0030784821648706428 0.021723696158997535 0 -0.0029171784641208284 0.022132468900799875 0 -0.0026824821355947597 0.022184710589222625 0 -0.002923359357165391 0.022325419915224295 0 -0.0031770894696301478 0.022101195253519758 0 -0.0028754480368924371 0.021917042912308591 0 -0.0029171784641208284 0.022132468900799875 0 -0.0028754480368924371 0.021917042912308591 0 -0.0029171784641208284 0.022132468900799875 0 -0.0026824821355947597 0.022184710589222625 0 -0.0026824821355947597 0.022184710589222625 0 -0.0026680904394233177 0.0225203096493218 0 -0.002411003744047287 0.022406202735429519 0 -0.0030670747710579054 0.022429489419001154 0 -0.0029447828908613391 0.022184319401515083 0 -0.002764423994783488 0.022361409625803488 0 -0.0026824821355947597 0.022184710589222625 0 -0.002923359357165391 0.022325419915224295 0 -0.0026680904394233177 0.0225203096493218 0 -0.0029270082873537801 0.02227645514049718 0 -0.0027211163770743036 0.022439989069783471 0 -0.0026680904394233177 0.0225203096493218 0 -0.002411003744047287 0.022406202735429519 0 -0.0025327534216621735 0.022644649174987035 0 -0.0022209200287248839 0.022557911739956617 0 -0.002411003744047287 0.022406202735429519 0 -0.0025327534216621735 0.022644649174987035 0 -0.0022209200287248839 0.022557911739956617 0 -0.002411003744047287 0.022406202735429519 0 -0.0021217165136266686 0.022411154332224195 0 -0.002411003744047287 0.022406202735429519 0 -0.0021743666127385774 0.022210418224387418 0 -0.0021217165136266686 0.022411154332224195 0 -0.0026400516308165817 0.021959369340898257 0 -0.0026824821355947597 0.022184710589222625 0 -0.0024210608602708295 0.022123681151224761 0 -0.0026824821355947597 0.022184710589222625 0 -0.002411003744047287 0.022406202735429519 0 -0.0024210608602708295 0.022123681151224761 0 -0.0024210608602708295 0.022123681151224761 0 -0.0022274369494394977 0.021946200147805343 0 -0.0021743666127385774 0.022210418224387418 0 -0.002411003744047287 0.022406202735429519 0 -0.0024210608602708295 0.022123681151224761 0 -0.0021743666127385774 0.022210418224387418 0 -0.0026400516308165817 0.021959369340898257 0 -0.0024210608602708295 0.022123681151224761 0 -0.0024979453331380815 0.021789342879235458 0 -0.0024210608602708295 0.022123681151224761 0 -0.0022274369494394977 0.021946200147805343 0 -0.0024979453331380815 0.021789342879235458 0 -0.0018452649420441865 0.022105219273467935 0 -0.0019971709162528886 0.022161726914667803 0 -0.0020148108506287147 0.021937372000784165 0 -0.0022274369494394977 0.021946200147805343 0 -0.0019971709162528886 0.022161726914667803 0 -0.0020148108506287147 0.021937372000784165 0 -0.0022274369494394977 0.021946200147805343 0 -0.0021743666127385774 0.022210418224387418 0 -0.0019971709162528886 0.022161726914667803 0 -0.0021743666127385774 0.022210418224387418 0 -0.0019971709162528886 0.022161726914667803 0 -0.0019673241165299891 0.022337565914211776 0 -0.0019971709162528886 0.022161726914667803 0 -0.0019673241165299891 0.022337565914211776 0 -0.0017797588498460594 0.022315703777949381 0 -0.0018452649420441865 0.022105219273467935 0 -0.0019971709162528886 0.022161726914667803 0 -0.0017797588498460594 0.022315703777949381 0 -0.0019673241165299891 0.022337565914211776 0 -0.0018265672774736201 0.022566199616906476 0 -0.0017797588498460594 0.022315703777949381 0 -0.0022209200287248839 0.022557911739956617 0 -0.0021217165136266686 0.022411154332224195 0 -0.0018265672774736201 0.022566199616906476 0 -0.0019673241165299891 0.022337565914211776 0 -0.0021217165136266686 0.022411154332224195 0 -0.0018265672774736201 0.022566199616906476 0 -0.0021743666127385774 0.022210418224387418 0 -0.0019673241165299891 0.022337565914211776 0 -0.0021217165136266686 0.022411154332224195 0 -0.0016340954808099957 0.022481162877112534 0 -0.0019943146733632663 0.022767394925667758 0 -0.0013985723554734311 0.022338032229718575 0 -0.002017859376063965 0.022785113903472116 0 -0.0011202250674929024 0.022764512038956682 0 -0.0014202326556795276 0.02323473337187865 0 -0.002017859376063965 0.022785113903472116 0 -0.0011202250674929024 0.022764512038956682 0 -0.0022209200287248839 0.022557911739956617 0 -0.0018265672774736201 0.022566199616906476 0 -0.002017859376063965 0.022785113903472116 0 -0.0022209200287248839 0.022557911739956617 0 -0.002017859376063965 0.022785113903472116 0 -0.0025327534216621735 0.022644649174987035 0 -0.0027211163770743036 0.022439989069783471 0 -0.0025412032682806352 0.022629854275044187 0 -0.0029049061029804537 0.022795990765384865 0 -0.0025327534216621735 0.022644649174987035 0 -0.002323162018818754 0.023160497868444506 0 -0.002017859376063965 0.022785113903472116 0 -0.0025327534216621735 0.022644649174987035 0 -0.002323162018818754 0.023160497868444506 0 -0.002913327936030545 0.022848771476433757 0 -0.0029003147238305872 0.023007087847710932 0 -0.0029049061029804537 0.022795990765384865 0 -0.002323162018818754 0.023160497868444506 0 -0.002728006659264569 0.023604672883615608 0 -0.002323162018818754 0.023160497868444506 0 -0.002728006659264569 0.023604672883615608 0 -0.0022312136320693774 0.023753626385168772 0 -0.0024430899291352343 0.024247432257541664 0 -0.002728006659264569 0.023604672883615608 0 -0.0022312136320693774 0.023753626385168772 0 -0.002323162018818754 0.023160497868444506 0 -0.0022312136320693774 0.023753626385168772 0 -0.0017847566758342379 0.023657446303234634 0 -0.0014202326556795276 0.02323473337187865 0 -0.002017859376063965 0.022785113903472116 0 -0.0017847566758342379 0.023657446303234634 0 -0.0018933926188311574 0.02421069174804685 0 -0.0022312136320693774 0.023753626385168772 0 -0.0017847566758342379 0.023657446303234634 0 -0.002017859376063965 0.022785113903472116 0 -0.002323162018818754 0.023160497868444506 0 -0.0017847566758342379 0.023657446303234634 0 -0.0013532933080558547 0.024201183254155153 0 -0.0017847566758342379 0.023657446303234634 0 -0.0012941303296333724 0.023750623613759559 0 -0.0013532933080558547 0.024201183254155153 0 -0.0018933926188311574 0.02421069174804685 0 -0.0017847566758342379 0.023657446303234634 0 -0.0014202326556795276 0.02323473337187865 0 -0.0017847566758342379 0.023657446303234634 0 -0.0012941303296333724 0.023750623613759559 0 -0.00089244735034585377 0.024578143558511567 0 -0.00089203368570412757 0.024252960099416056 0 -0.00087269049608065515 0.024491253729631776 0 -0.00082243691812669475 0.02393817785275312 0 -0.00088556788625223184 0.024244652026356228 0 -0.0014202326556795276 0.02323473337187865 0 -0.00072511966029738272 0.023294123505585553 0 -0.0012941303296333724 0.023750623613759559 0 -0.00072511966029738272 0.023294123505585553 0 -0.0012941303296333724 0.023750623613759559 0 -0.00089203368570412757 0.024252960099416056 0 -0.0013532933080558547 0.024201183254155153 0 -0.0012941303296333724 0.023750623613759559 0 -0.00089203368570412757 0.024252960099416056 0 -0.00078343151853697466 0.024550558358773691 0 -0.00089203368570412757 0.024252960099416056 0 -0.00087269049608065515 0.024491253729631776 0 -0.00078343151853697466 0.024550558358773691 0 -0.00087269049608065515 0.024491253729631776 0 -0.00077914172233606424 0.024623693866368097 0 -0.00077914172233606424 0.024623693866368097 0 -0.00084759333492563519 0.024641074635490413 0 -0.00066964106509015354 0.024799835726449154 0 -0.00089244735034585377 0.024578143558511567 0 -0.00087269049608065515 0.024491253729631776 0 -0.00084759333492563519 0.024641074635490413 0 -0.00087269049608065515 0.024491253729631776 0 -0.00077914172233606424 0.024623693866368097 0 -0.00084759333492563519 0.024641074635490413 0 -0.00084759333492563519 0.024641074635490413 0 -0.00081981512418003008 0.024585434003803058 0 -0.0010698107199011173 0.024517277909363533 0 -0.00089244735034585377 0.024578143558511567 0 -0.00084759333492563519 0.024641074635490413 0 -0.0010698107199011173 0.024517277909363533 0 -0.00084759333492563519 0.024641074635490413 0 -0.00081981512418003008 0.024585434003803058 0 -0.00063000925871627557 0.024723243472616018 0 -0.00081981512418003008 0.024585434003803058 0 -0.00091683710143017903 0.024409789529906648 0 -0.00056772304400061306 0.024615009690328864 0 -0.00081981512418003008 0.024585434003803058 0 -0.0010698107199011173 0.024517277909363533 0 -0.00091683710143017903 0.024409789529906648 0 -0.00065976778506927111 0.022620917776178761 0 -0.0011202250674929024 0.022764512038956682 0 -0.0009199438279258275 0.022340772140930002 0 -0.00082243691812669475 0.02393817785275312 0 -0.00086674885711400529 0.023558145921143074 0 -0.00072511966029738272 0.023294123505585553 0 -0.00065976778506927111 0.022620917776178761 0 -0.0011202250674929024 0.022764512038956682 0 -0.0014202326556795276 0.02323473337187865 0 -0.00072511966029738272 0.023294123505585553 0 -0.0011202250674929024 0.022764512038956682 0 -0.0013985723554734311 0.022338032229718575 0 -0.0011202250674929024 0.022764512038956682 0 -0.0009199438279258275 0.022340772140930002 0 -0.0018265672774736201 0.022566199616906476 0 -0.0016128143198903277 0.02243170301415609 0 -0.0017797588498460594 0.022315703777949381 0 -0.0016340954808099957 0.022481162877112534 0 -0.0011954728184950325 0.022104806616329447 0 -0.0013985723554734311 0.022338032229718575 0 -0.0009199438279258275 0.022340772140930002 0 -0.00088279769214063717 0.021966924938251045 0 -0.00065976778506927111 0.022620917776178761 0 -0.0009199438279258275 0.022340772140930002 0 -0.00059924017715489537 0.022076173477258074 0 -0.0009199438279258275 0.022340772140930002 0 -0.00088279769214063717 0.021966924938251045 0 -0.00059924017715489537 0.022076173477258074 0 -0.0017797588498460594 0.022315703777949381 0 -0.0016171544771380946 0.02234679596632036 0 -0.0016589191895758056 0.022227177695168826 0 -0.0016128143198903277 0.02243170301415609 0 -0.0017797588498460594 0.022315703777949381 0 -0.0016171544771380946 0.02234679596632036 0 -0.0011954728184950325 0.022104806616329447 0 -0.0011128538165501658 0.022496657465231731 0 -0.0016128143198903277 0.02243170301415609 0 -0.0016171544771380946 0.02234679596632036 0 -0.0014808941679301962 0.022374963063923187 0 -0.0016171544771380946 0.02234679596632036 0 -0.00154895907334497 0.022311291634359597 0 -0.0014808941679301962 0.022374963063923187 0 -0.0016171544771380946 0.02234679596632036 0 -0.00154895907334497 0.022311291634359597 0 -0.0016589191895758056 0.022227177695168826 0 -0.00154895907334497 0.022311291634359597 0 -0.0015565912110923866 0.022255808380279705 0 -0.0016589191895758056 0.022227177695168826 0 -0.00154895907334497 0.022311291634359597 0 -0.0014664703267382553 0.022343593103889309 0 -0.0014808941679301962 0.022374963063923187 0 -0.00154895907334497 0.022311291634359597 0 -0.0015565912110923866 0.022255808380279705 0 -0.0014664703267382553 0.022343593103889309 0 -0.0015565912110923866 0.022255808380279705 0 -0.0016099574769336158 0.022142468115249964 0 -0.0015062460320614864 0.022247431656503697 0 -0.0015565912110923866 0.022255808380279705 0 -0.0014664703267382553 0.022343593103889309 0 -0.0015062460320614864 0.022247431656503697 0 -0.0015565912110923866 0.022255808380279705 0 -0.0016589191895758056 0.022227177695168826 0 -0.0016099574769336158 0.022142468115249964 0 -0.0016589191895758056 0.022227177695168826 0 -0.0017355015574552124 0.022065819374206253 0 -0.0016099574769336158 0.022142468115249964 0 -0.0018452649420441865 0.022105219273467935 0 -0.0016589191895758056 0.022227177695168826 0 -0.0017355015574552124 0.022065819374206253 0 -0.0018452649420441865 0.022105219273467935 0 -0.0017797588498460594 0.022315703777949381 0 -0.0016589191895758056 0.022227177695168826 0 -0.001101981957311707 0.02270132925267539 0 -0.0014003163566988575 0.02241748620705843 0 -0.0014189715971217834 0.022400010633855029 0 -0.001232171530390714 0.022813065169745437 0 -0.0011128538165501658 0.022496657465231731 0 -0.001101981957311707 0.02270132925267539 0 -0.0014454504721994573 0.023398574017605627 0 -0.00097971275929251362 0.023433946326455585 0 -0.001101981957311707 0.02270132925267539 0 -0.0013067850496443979 0.022492994793356376 0 -0.0014003163566988575 0.02241748620705843 0 -0.001101981957311707 0.02270132925267539 0 -0.0013067850496443979 0.022492994793356376 0 -0.0012874367007735042 0.022431334392160017 0 -0.0013067850496443979 0.022492994793356376 0 -0.0013976694827273182 0.022347793285438487 0 -0.0012874367007735042 0.022431334392160017 0 -0.0013936507991225209 0.0224087743865241 0 -0.0013067850496443979 0.022492994793356376 0 -0.0013976694827273182 0.022347793285438487 0 -0.0013936507991225209 0.0224087743865241 0 -0.0013976694827273182 0.022347793285438487 0 -0.0014664703267382553 0.022343593103889309 0 -0.0013976694827273182 0.022347793285438487 0 -0.0014664703267382553 0.022343593103889309 0 -0.0015062460320614864 0.022247431656503697 0 -0.0014664703267382553 0.022343593103889309 0 -0.0014281869537032886 0.02238895137200168 0 -0.0014808941679301962 0.022374963063923187 0 -0.0013936507991225209 0.0224087743865241 0 -0.0014281869537032886 0.02238895137200168 0 -0.0013880233917698075 0.022423313092065616 0 -0.0013936507991225209 0.0224087743865241 0 -0.0014664703267382553 0.022343593103889309 0 -0.0014281869537032886 0.02238895137200168 0 -0.0014281869537032886 0.02238895137200168 0 -0.0014167187171687517 0.02240075821729132 0 -0.0014808941679301962 0.022374963063923187 0 -0.0014281869537032886 0.02238895137200168 0 -0.0014167187171687517 0.02240075821729132 0 -0.0013880233917698075 0.022423313092065616 0 -0.0013067850496443979 0.022492994793356376 0 -0.0013880233917698075 0.022423313092065616 0 -0.0014003163566988575 0.02241748620705843 0 -0.0013936507991225209 0.0224087743865241 0 -0.0013067850496443979 0.022492994793356376 0 -0.0013880233917698075 0.022423313092065616 0 -0.0014167187171687517 0.02240075821729132 0 -0.0013880233917698075 0.022423313092065616 0 -0.0014003163566988575 0.02241748620705843 0 -0.0014167187171687517 0.02240075821729132 0 -0.0014003163566988575 0.02241748620705843 0 -0.001399991065051753 0.022406904268236338 0 -0.0016128143198903277 0.02243170301415609 0 -0.001399991065051753 0.022406904268236338 0 -0.0014808941679301962 0.022374963063923187 0 -0.0014454504721994573 0.023398574017605627 0 -0.0011624195880634352 0.023838909504624087 0 -0.0012843194894469074 0.024125497738944283 0 -0.0011128538165501658 0.022496657465231731 0 -0.00091973441532591999 0.023086078985307595 0 -0.0011215335586238339 0.022494618908543183 0 -0.0011128538165501658 0.022496657465231731 0 -0.0014167187171687517 0.02240075821729132 0 -0.001399991065051753 0.022406904268236338 0 -0.0014808941679301962 0.022374963063923187 0 -0.0014454504721994573 0.023398574017605627 0 -0.0011456293156469283 0.023605871212568245 0 -0.0011624195880634352 0.023838909504624087 0 -0.0014454504721994573 0.023398574017605627 0 -0.00097971275929251362 0.023433946326455585 0 -0.0011456293156469283 0.023605871212568245 0 -0.0011456293156469283 0.023605871212568245 0 -0.00083793625068015053 0.023944117430731382 0 -0.0011624195880634352 0.023838909504624087 0 -0.00097971275929251362 0.023433946326455585 0 -0.0011456293156469283 0.023605871212568245 0 -0.00083793625068015053 0.023944117430731382 0 -0.00083793625068015053 0.023944117430731382 0 -0.00098195699075218773 0.024142287765209724 0 -0.00070347870924774799 0.024339043739732488 0 -0.00083793625068015053 0.023944117430731382 0 -0.0011624195880634352 0.023838909504624087 0 -0.00098195699075218773 0.024142287765209724 0 -0.0011624195880634352 0.023838909504624087 0 -0.00098195699075218773 0.024142287765209724 0 -0.0012843194894469074 0.024125497738944283 0 -0.00088279769214063717 0.021966924938251045 0 -0.00051295948233650549 0.021652141938389186 0 -0.00059924017715489537 0.022076173477258074 0 -0.0010698107199011173 0.024517277909363533 0 -0.0012843194894469074 0.024125497738944283 0 -0.00091683710143017903 0.024409789529906648 0 -0.00086674885711400529 0.023558145921143074 0 -0.00091973441532591999 0.023086078985307595 0 -0.00098195699075218773 0.024142287765209724 0 -0.0012843194894469074 0.024125497738944283 0 -0.00091683710143017903 0.024409789529906648 0 -0.00098195699075218773 0.024142287765209724 0 -0.00091683710143017903 0.024409789529906648 0 -0.00070347870924774799 0.024339043739732488 0 -0.00070347870924774799 0.024339043739732488 0 -0.00040065507123510351 0.024393507720154559 0 -0.00056772304400061306 0.024615009690328864 0 -0.00091683710143017903 0.024409789529906648 0 -0.00070347870924774799 0.024339043739732488 0 -0.00056772304400061306 0.024615009690328864 0 -0.00040065507123510351 0.024393507720154559 0 -0.00010789620383766067 0.023928781943179094 0 -0.00058151200340875306 0.023620729608187445 0 -0.00083793625068015053 0.023944117430731382 0 -0.00040065507123510351 0.024393507720154559 0 -0.00058151200340875306 0.023620729608187445 0 -0.00083793625068015053 0.023944117430731382 0 -0.00070347870924774799 0.024339043739732488 0 -0.00040065507123510351 0.024393507720154559 0 -0.00097971275929251362 0.023433946326455585 0 -0.00083793625068015053 0.023944117430731382 0 -0.00058151200340875306 0.023620729608187445 0 -0.00097971275929251362 0.023433946326455585 0 -0.00058151200340875306 0.023620729608187445 0 -0.00041149452451883683 0.023106226250471863 0 -0.00032033110823353789 0.024745060745298201 0 -0.0008405471568523399 0.023719558241921228 0 -6.4459130275196054e-05 0.024161668147087968 0 -0.00010789620383766067 0.023928781943179094 0 -0.00058151200340875306 0.023620729608187445 0 -0.00041149452451883683 0.023106226250471863 0 -0.00022418994810356665 0.024310083004982407 0 -0.00061640730203220005 0.023414092881210283 0 -0.0008405471568523399 0.023719558241921228 0 -6.4459130275196054e-05 0.024161668147087968 0 -0.00046562562437036715 0.023269048438617917 0 -0.001101981957311707 0.02270132925267539 0 -0.00097971275929251362 0.023433946326455585 0 -0.00041149452451883683 0.023106226250471863 0 -6.4459130275196054e-05 0.024161668147087968 0 0.00014070644386486627 0.024844285594793351 0 0.00046571336377469464 0.023374855796659436 0 2.9142373522943922e-05 0.02497275211078628 0 0.00014070644386486627 0.024844285594793351 0 1.5031061468902921e-05 0.025025915174317171 0 0.00016518483187740856 0.024729666275949302 0 0.00021937384799478965 0.024273775810007885 0 2.9142373522943922e-05 0.02497275211078628 0 2.3651188967900765e-07 0.024999404562486283 0 -1.7011416999047306e-08 0.025000151198812558 0 2.9142373522943922e-05 0.02497275211078628 0 1.5031061468902921e-05 0.025025915174317171 0 -1.7011416999047306e-08 0.025000151198812558 0 -6.4459130275196054e-05 0.024161668147087968 0 -2.484176412605843e-05 0.023469065369979693 0 -0.00046562562437036715 0.023269048438617917 0 -6.4459130275196054e-05 0.024161668147087968 0 -2.484176412605843e-05 0.023469065369979693 0 0.00046571336377469464 0.023374855796659436 0 -6.4459130275196054e-05 0.024161668147087968 0 0.00014070644386486627 0.024844285594793351 0 -3.7235344522495024e-05 0.024810141982980427 0 -0.00032033110823353789 0.024745060745298201 0 -6.4459130275196054e-05 0.024161668147087968 0 -3.7235344522495024e-05 0.024810141982980427 0 2.9142373522943922e-05 0.02497275211078628 0 0.00014070644386486627 0.024844285594793351 0 2.3651188967900765e-07 0.024999404562486283 0 1.4784213399467147e-05 0.024893825108257127 0 -3.7235344522495024e-05 0.024810141982980427 0 -1.9556103763060522e-05 0.024760655790068732 0 2.3651188967900765e-07 0.024999404562486283 0 1.4784213399467147e-05 0.024893825108257127 0 -6.8100755537139478e-08 0.024999693144680649 0 0.00014070644386486627 0.024844285594793351 0 2.3651188967900765e-07 0.024999404562486283 0 1.4784213399467147e-05 0.024893825108257127 0 0.00014070644386486627 0.024844285594793351 0 1.4784213399467147e-05 0.024893825108257127 0 -3.7235344522495024e-05 0.024810141982980427 0 -0.00040065507123510351 0.024393507720154559 0 -0.00010789620383766067 0.023928781943179094 0 -1.9556103763060522e-05 0.024760655790068732 0 -0.00022418994810356665 0.024310083004982407 0 -4.0753472172295011e-05 0.024707945380795036 0 -0.00032033110823353789 0.024745060745298201 0 -3.7235344522495024e-05 0.024810141982980427 0 -1.9556103763060522e-05 0.024760655790068732 0 -0.00040065507123510351 0.024393507720154559 0 -1.9556103763060522e-05 0.024760655790068732 0 -0.00018563546683000181 0.024825409390811706 0 1.4784213399467147e-05 0.024893825108257127 0 -1.9556103763060522e-05 0.024760655790068732 0 -6.8100755537139478e-08 0.024999693144680649 0 -1.9556103763060522e-05 0.024760655790068732 0 -6.8100755537139478e-08 0.024999693144680649 0 -4.5060798548969617e-05 0.024891713442505934 0 -6.8100755537139478e-08 0.024999693144680649 0 -4.5060798548969617e-05 0.024891713442505934 0 -3.1853014758813088e-08 0.024999806132280991 0 -4.5060798548969617e-05 0.024891713442505934 0 -3.1853014758813088e-08 0.024999806132280991 0 -0.00018563546683000181 0.024825409390811706 0 -3.1853014758813088e-08 0.024999806132280991 0 -0.00018563546683000181 0.024825409390811706 0 -9.7903241556573315e-05 0.024953006677413136 0 -0.00018563546683000181 0.024825409390811706 0 -0.00033619418126538557 0.02484796487976788 0 -9.7903241556573315e-05 0.024953006677413136 0 -1.9556103763060522e-05 0.024760655790068732 0 -4.5060798548969617e-05 0.024891713442505934 0 -0.00018563546683000181 0.024825409390811706 0 -0.00040065507123510351 0.024393507720154559 0 -0.00018563546683000181 0.024825409390811706 0 -0.00056772304400061306 0.024615009690328864 0 -0.00018563546683000181 0.024825409390811706 0 -0.00056772304400061306 0.024615009690328864 0 -0.00041543605142019984 0.024766069574425092 0 -0.00081981512418003008 0.024585434003803058 0 -0.00056772304400061306 0.024615009690328864 0 -0.00063000925871627557 0.024723243472616018 0 -0.00056772304400061306 0.024615009690328864 0 -0.00063000925871627557 0.024723243472616018 0 -0.00041543605142019984 0.024766069574425092 0 -0.00063000925871627557 0.024723243472616018 0 -0.00041543605142019984 0.024766069574425092 0 -0.00033619418126538557 0.02484796487976788 0 -0.00018563546683000181 0.024825409390811706 0 -0.00041543605142019984 0.024766069574425092 0 -0.00033619418126538557 0.02484796487976788 0 -0.00033619418126538557 0.02484796487976788 0 -0.00066964106509015354 0.024799835726449154 0 -0.00027423176040713439 0.024953336666023781 0 -0.00063000925871627557 0.024723243472616018 0 -0.00033619418126538557 0.02484796487976788 0 -0.00066964106509015354 0.024799835726449154 0 -0.00084759333492563519 0.024641074635490413 0 -0.00063000925871627557 0.024723243472616018 0 -0.00066964106509015354 0.024799835726449154 0 -0.00071120773135210425 0.024666634001059316 0 -0.00077914172233606424 0.024623693866368097 0 -0.00066964106509015354 0.024799835726449154 0 -0.00071120773135210425 0.024666634001059316 0 -0.00066964106509015354 0.024799835726449154 0 -0.00082404483236988549 0.024708205292507196 0 -0.00066964106509015354 0.024799835726449154 0 -0.00028695372418691893 0.025140805791648669 0 -0.00027423176040713439 0.024953336666023781 0 -0.0006550350172844975 0.024892606290568595 0 -0.00050806765338429628 0.0246360545549105 0 -0.00050806765338429628 0.0246360545549105 0 -7.8943916913598561e-05 0.024964993761562471 0 -8.83364087474488e-05 0.025035723531573396 0 -9.7903241556573315e-05 0.024953006677413136 0 -0.00027423176040713439 0.024953336666023781 0 -0.00028695372418691893 0.025140805791648669 0 -8.83364087474488e-05 0.025035723531573396 0 -0.00027423176040713439 0.024953336666023781 0 -6.3764135709922502e-05 0.025031476094778533 0 -9.2625615077240281e-05 0.025032486605853849 0 -8.83364087474488e-05 0.025035723531573396 0 -8.83364087474488e-05 0.025035723531573396 0 -7.3162794930235854e-08 0.025000051345411046 0 -9.7903241556573315e-05 0.024953006677413136 0 -6.3764135709922502e-05 0.025031476094778533 0 -8.83364087474488e-05 0.025035723531573396 0 -7.3162794930235854e-08 0.025000051345411046 0 -3.1853014758813088e-08 0.024999806132280991 0 -7.3162794930235854e-08 0.025000051345411046 0 -9.7903241556573315e-05 0.024953006677413136 0 -0.00033619418126538557 0.02484796487976788 0 -9.7903241556573315e-05 0.024953006677413136 0 -0.00027423176040713439 0.024953336666023781 0 -0.00047805998636276151 0.023188322898826573 0 -0.00033716204682412011 0.02323877655889248 0 -0.00043890016526120342 0.023442833399156669 0 -0.00047805998636276151 0.023188322898826573 0 -0.00033716204682412011 0.02323877655889248 0 -0.00026443317976200916 0.023104201478612526 0 3.4112865292958231e-05 0.024995801477807247 0 5.7182976856451043e-08 0.025000122842891669 0 -6.6236829368497212e-08 0.024999796992509607 0 3.4112865292958231e-05 0.024995801477807247 0 5.7182976856451043e-08 0.025000122842891669 0 1.2900680015713319e-05 0.025005522495512841 0 -0.00026138608335699666 0.02426321637039457 0 -0.00018692977342937503 0.02452383056105039 0 1.999525711950701e-07 0.024999931734606386 0 -0.00018692977342937503 0.02452383056105039 0 -0.00063843154476082983 0.023537997549982034 0 -0.00043890016526120342 0.023442833399156669 0 -0.0003819288078638674 0.02366043635209009 0 -0.00047805998636276151 0.023188322898826573 0 -0.00063843154476082983 0.023537997549982034 0 -0.00043890016526120342 0.023442833399156669 0 -0.00033716204682412011 0.02323877655889248 0 -0.00043890016526120342 0.023442833399156669 0 -0.00029137771805247463 0.023403290641340592 0 -0.00043890016526120342 0.023442833399156669 0 -0.00029137771805247463 0.023403290641340592 0 -0.0003819288078638674 0.02366043635209009 0 -6.5260009321829518e-05 0.023533254581107239 0 -0.00029137771805247463 0.023403290641340592 0 -0.00021783789310555096 0.023099683786291614 0 -0.00038065287991827311 0.022589453840607083 0 -0.00044473491362299352 0.022145190893114598 0 -6.5260009321829518e-05 0.023533254581107239 0 -0.00029137771805247463 0.023403290641340592 0 -0.0003819288078638674 0.02366043635209009 0 -0.00077921597820396855 0.021601570554800786 0 -0.00075472629483289253 0.021576620986093885 0 -0.00075297305239694007 0.021606839877089515 0 -0.00077921597820396855 0.021601570554800786 0 -0.00077187276026088555 0.021551723286682974 0 -0.00075472629483289253 0.021576620986093885 0 -0.00077187276026088555 0.021551723286682974 0 -0.00074587898990577698 0.021547794831517007 0 -0.00075472629483289253 0.021576620986093885 0 -0.00064678569223150842 0.021177013489716075 0 -0.00088645223154689042 0.021139959060023816 0 -0.00038065287991827311 0.022589453840607083 0 -0.00064678569223150842 0.021177013489716075 0 -0.00047540733694861594 0.022418281820125896 0 -0.00031480848412278355 0.021759111206785548 0 -0.00069859770071014802 0.021791671943460041 0 -0.00064678569223150842 0.021177013489716075 0 -0.00044473491362299352 0.022145190893114598 0 -0.00033716204682412011 0.02323877655889248 0 -0.00029137771805247463 0.023403290641340592 0 -0.00021783789310555096 0.023099683786291614 0 -0.00033716204682412011 0.02323877655889248 0 -0.00021783789310555096 0.023099683786291614 0 -0.00026443317976200916 0.023104201478612526 0 -0.00044473491362299352 0.022145190893114598 0 -0.0004077615810005474 0.022215041562154834 0 -0.000693452127641138 0.020689505731498761 0 -0.00039818657841187327 0.020673971069045453 0 -0.00053652769901512863 0.02099486512982068 0 -0.00044473491362299352 0.022145190893114598 0 -0.00027331596702517906 0.02263612591996628 0 -0.00039818657841187327 0.020673971069045453 0 -0.00053652769901512863 0.02099486512982068 0 -0.00028919151822746745 0.020961104513531628 0 -0.00021656916567598945 0.023099541834036702 0 -0.00026443317976200916 0.023104201478612526 0 -0.00031101389975949088 0.02283225298977562 0 -0.000693452127641138 0.020689505731498761 0 -0.00053652769901512863 0.02099486512982068 0 -0.00083488219253370936 0.021146514334574013 0 -0.00064678569223150842 0.021177013489716075 0 -0.00082050190249545571 0.020931048872600139 0 -0.00072985029703692228 0.020700597942543274 0 -0.00083488219253370936 0.021146514334574013 0 -0.0010025091357015949 0.020930611996638582 0 -0.00053652769901512863 0.02099486512982068 0 -0.00083488219253370936 0.021146514334574013 0 -0.0006118601509734052 0.02131505827297462 0 -0.00083488219253370936 0.021146514334574013 0 -0.0006118601509734052 0.02131505827297462 0 -0.0010485811146585138 0.021421943998333817 0 -0.00053652769901512863 0.02099486512982068 0 -0.00038529580855564666 0.021185533042160466 0 -0.0006118601509734052 0.02131505827297462 0 -9.2521531414531809e-05 0.020867233101887889 0 -0.00027331596702517906 0.02263612591996628 0 -0.00053652769901512863 0.02099486512982068 0 -0.00038529580855564666 0.021185533042160466 0 -0.00028919151822746745 0.020961104513531628 0 -0.00038529580855564666 0.021185533042160466 0 -0.0006118601509734052 0.02131505827297462 0 -0.00030094354674058181 0.021347517527610702 0 9.0598069364379436e-05 0.024843484034163216 0 5.8836688752273697e-05 0.024895931049904726 0 9.7134565255790832e-05 0.024931221822555343 0 -0.00038529580855564666 0.021185533042160466 0 -0.00012643419603715101 0.021271653737551535 0 -0.00030094354674058181 0.021347517527610702 0 -0.00038529580855564666 0.021185533042160466 0 -0.00012643419603715101 0.021271653737551535 0 -0.00026328101430866051 0.0209509591185074 0 -4.6255503988475836e-06 0.02298556984316983 0 -0.00027331596702517906 0.02263612591996628 0 9.0598069364379436e-05 0.024843484034163216 0 5.8836688752273697e-05 0.024895931049904726 0 8.5099138248835427e-05 0.024812711379404048 0 5.8836688752273697e-05 0.024895931049904726 0 3.6945763729096925e-05 0.024848740071212811 0 8.5099138248835427e-05 0.024812711379404048 0 5.8836688752273697e-05 0.024895931049904726 0 4.132839174696847e-05 0.024950459516569899 0 2.1826519494490673e-05 0.024914748510440728 0 -0.00026138608335699666 0.02426321637039457 0 -0.00027331596702517906 0.02263612591996628 0 -0.00047805998636276151 0.023188322898826573 0 -0.00026443317976200916 0.023104201478612526 0 -0.00031101389975949088 0.02283225298977562 0 3.4112865292958231e-05 0.024995801477807247 0 9.7134565255790832e-05 0.024931221822555343 0 4.132839174696847e-05 0.024950459516569899 0 5.8836688752273697e-05 0.024895931049904726 0 9.7134565255790832e-05 0.024931221822555343 0 4.132839174696847e-05 0.024950459516569899 0 4.132839174696847e-05 0.024950459516569899 0 -6.6236829368497212e-08 0.024999796992509607 0 2.1826519494490673e-05 0.024914748510440728 0 3.4112865292958231e-05 0.024995801477807247 0 4.132839174696847e-05 0.024950459516569899 0 -6.6236829368497212e-08 0.024999796992509607 0 -6.8405867271850423e-09 0.024999973403463469 0 -2.6424812148263094e-06 0.02492970278188316 0 -6.6236829368497212e-08 0.024999796992509607 0 2.1826519494490673e-05 0.024914748510440728 0 -1.705480669658567e-05 0.02486512262910915 0 2.4876405128279029e-09 0.024999995959135556 0 1.0726010224472016e-07 0.024999956992261783 0 -4.858359414619471e-09 0.025000007424128404 0 5.8836688752273697e-05 0.024895931049904726 0 2.1826519494490673e-05 0.024914748510440728 0 3.6945763729096925e-05 0.024848740071212811 0 3.6945763729096925e-05 0.024848740071212811 0 -1.705480669658567e-05 0.02486512262910915 0 2.9988583174832835e-05 0.024803960481129411 0 2.1826519494490673e-05 0.024914748510440728 0 3.6945763729096925e-05 0.024848740071212811 0 -1.705480669658567e-05 0.02486512262910915 0 -2.6424812148263094e-06 0.02492970278188316 0 -3.2168910177336217e-05 0.024854531819247974 0 -1.705480669658567e-05 0.02486512262910915 0 2.9988583174832835e-05 0.024803960481129411 0 1.2351385221790824e-05 0.024720977763797274 0 1.0726010224472016e-07 0.024999956992261783 0 -4.858359414619471e-09 0.025000007424128404 0 -6.5633423184043948e-07 0.024997330401942443 0 -4.6255503988475836e-06 0.02298556984316983 0 1.2508324639777149e-05 0.022299580899530019 0 -0.00012643419603715101 0.021271653737551535 0 -0.00020310868592469743 0.02149813578721315 0 1.4776585013726837e-05 0.021679064834380035 0 3.1448641707225424e-05 0.023174824156275822 0 4.7055738830991602e-05 0.023212306603993458 0 6.3582105365744032e-05 0.023317858010992728 0 0.00012796596137040216 0.023798946189828654 0 -1.2594781607268584e-05 0.024305900982452104 0 1.2351385221790824e-05 0.024720977763797274 0 8.5099138248835427e-05 0.024812711379404048 0 3.1983900693953342e-05 0.02465639524572965 0 4.7055738830991602e-05 0.023212306603993458 0 6.3582105365744032e-05 0.023317858010992728 0 0.00011858475040820834 0.023376593471935509 0 -0.00012643419603715101 0.021271653737551535 0 -0.00020310868592469743 0.02149813578721315 0 -0.00030094354674058181 0.021347517527610702 0 -4.6255503988475836e-06 0.02298556984316983 0 0.00012796596137040216 0.023798946189828654 0 2.9988583174832835e-05 0.024803960481129411 0 1.2351385221790824e-05 0.024720977763797274 0 8.5099138248835427e-05 0.024812711379404048 0 3.6945763729096925e-05 0.024848740071212811 0 2.9988583174832835e-05 0.024803960481129411 0 8.5099138248835427e-05 0.024812711379404048 0 -0.00020310868592469743 0.02149813578721315 0 -0.00023556515010195446 0.021681493048442909 0 1.4776585013726837e-05 0.021679064834380035 0 1.2508324639777149e-05 0.022299580899530019 0 0.00015899896379872565 0.023253434600495396 0 1.4776585013726837e-05 0.021679064834380035 0 -0.00020184250505306318 0.021951936980787814 0 0.00020988892240262697 0.022215760933842397 0 6.3582105365744032e-05 0.023317858010992728 0 0.00011858475040820834 0.023376593471935509 0 9.6880209753457232e-05 0.023460785686070389 0 -0.00023556515010195446 0.021681493048442909 0 1.4776585013726837e-05 0.021679064834380035 0 -0.00020184250505306318 0.021951936980787814 0 -1.2594781607268584e-05 0.024305900982452104 0 0.00015899896379872565 0.023253434600495396 0 -6.5633423184043948e-07 0.024997330401942443 0 -8.5598058646446949e-07 0.024994560674344666 0 1.3114170000208194e-08 0.024999953588039622 0 -8.5598058646446949e-07 0.024994560674344666 0 1.3114170000208194e-08 0.024999953588039622 0 -2.8030533697547072e-06 0.02498844182220443 0 -4.858359414619471e-09 0.025000007424128404 0 -6.5633423184043948e-07 0.024997330401942443 0 1.3114170000208194e-08 0.024999953588039622 0 -3.2168910177336217e-05 0.024854531819247974 0 -1.2594781607268584e-05 0.024305900982452104 0 1.3114170000208194e-08 0.024999953588039622 0 -2.8030533697547072e-06 0.02498844182220443 0 6.6401535536434189e-06 0.025004060187005978 0 0.00015899896379872565 0.023253434600495396 0 0.00010556736764743715 0.022627398686684345 0 0.00020988892240262697 0.022215760933842397 0 -0.00020288305099308579 0.02242225138859047 0 1.0988886249659667e-05 0.0230810787200952 0 -0.00020184250505306318 0.021951936980787814 0 0.00020988892240262697 0.022215760933842397 0 -0.00020288305099308579 0.02242225138859047 0 0.00027036513659577143 0.022202774330258138 0 1.0988886249659667e-05 0.0230810787200952 0 0.00046571336377469464 0.023374855796659436 0 -0.00020288305099308579 0.02242225138859047 0 1.0988886249659667e-05 0.0230810787200952 0 -0.00029941019864010161 0.022845673542216217 0 1.0988886249659667e-05 0.0230810787200952 0 -0.00046562562437036715 0.023269048438617917 0 -0.00029941019864010161 0.022845673542216217 0 -2.484176412605843e-05 0.023469065369979693 0 1.0988886249659667e-05 0.0230810787200952 0 -0.00046562562437036715 0.023269048438617917 0 -2.484176412605843e-05 0.023469065369979693 0 1.0988886249659667e-05 0.0230810787200952 0 0.00046571336377469464 0.023374855796659436 0 0.00015899896379872565 0.023253434600495396 0 0.00021937384799478965 0.024273775810007885 0 -2.8030533697547072e-06 0.02498844182220443 0 1.5031061468902921e-05 0.025025915174317171 0 6.6401535536434189e-06 0.025004060187005978 0 1.3114170000208194e-08 0.024999953588039622 0 -1.7011416999047306e-08 0.025000151198812558 0 6.6401535536434189e-06 0.025004060187005978 0 1.5031061468902921e-05 0.025025915174317171 0 -1.7011416999047306e-08 0.025000151198812558 0 6.6401535536434189e-06 0.025004060187005978 0 -0.00061640730203220005 0.023414092881210283 0 -0.00098218388144862413 0.022564419117757403 0 -0.001101981957311707 0.02270132925267539 0 -0.00041149452451883683 0.023106226250471863 0 -0.0010043067566870129 0.022460433299998687 0 -0.0008405471568523399 0.023719558241921228 0 -0.0010043067566870129 0.022460433299998687 0 -0.00046562562437036715 0.023269048438617917 0 -0.0010043067566870129 0.022460433299998687 0 -0.00046562562437036715 0.023269048438617917 0 -0.00054381365398335779 0.022650442625971778 0 -0.00020288305099308579 0.02242225138859047 0 -0.00029941019864010161 0.022845673542216217 0 -0.00054381365398335779 0.022650442625971778 0 -0.00046562562437036715 0.023269048438617917 0 -0.00029941019864010161 0.022845673542216217 0 -0.00054381365398335779 0.022650442625971778 0 -0.00020288305099308579 0.02242225138859047 0 -0.00054381365398335779 0.022650442625971778 0 -0.00067295039105516325 0.022308208100272772 0 -0.00020288305099308579 0.02242225138859047 0 -0.00067295039105516325 0.022308208100272772 0 -0.00056614955057798213 0.022031494149717917 0 -0.00020184250505306318 0.021951936980787814 0 -0.00020288305099308579 0.02242225138859047 0 -0.00056614955057798213 0.022031494149717917 0 -0.0010043067566870129 0.022460433299998687 0 -0.00054381365398335779 0.022650442625971778 0 -0.00067295039105516325 0.022308208100272772 0 -0.00067295039105516325 0.022308208100272772 0 -0.00088457470156594754 0.022138085327621123 0 -0.00056614955057798213 0.022031494149717917 0 -0.0010043067566870129 0.022460433299998687 0 -0.00067295039105516325 0.022308208100272772 0 -0.00088457470156594754 0.022138085327621123 0 -0.0010043067566870129 0.022460433299998687 0 -0.00088457470156594754 0.022138085327621123 0 -0.0010965610137449828 0.022164324208421998 0 -0.00088457470156594754 0.022138085327621123 0 -0.00078904315557407545 0.021885622952816729 0 -0.0010615040406402108 0.021926253533189961 0 -0.00078904315557407545 0.021885622952816729 0 -0.0009883809786600565 0.021665719860931326 0 -0.0010615040406402108 0.021926253533189961 0 -0.00088457470156594754 0.022138085327621123 0 -0.00078904315557407545 0.021885622952816729 0 -0.00056614955057798213 0.022031494149717917 0 -0.00078904315557407545 0.021885622952816729 0 -0.00049217136222265065 0.021775477607820472 0 -0.00074699822008148853 0.021611830646435792 0 -0.00078904315557407545 0.021885622952816729 0 -0.00074699822008148853 0.021611830646435792 0 -0.0009883809786600565 0.021665719860931326 0 -0.00020184250505306318 0.021951936980787814 0 -0.00056614955057798213 0.022031494149717917 0 -0.00049217136222265065 0.021775477607820472 0 -0.00078904315557407545 0.021885622952816729 0 -0.00056614955057798213 0.022031494149717917 0 -0.00049217136222265065 0.021775477607820472 0 -0.00023556515010195446 0.021681493048442909 0 -0.00049217136222265065 0.021775477607820472 0 -0.00038099062767014844 0.021526531796790635 0 -0.00023556515010195446 0.021681493048442909 0 -0.00020184250505306318 0.021951936980787814 0 -0.00049217136222265065 0.021775477607820472 0 -0.00038099062767014844 0.021526531796790635 0 -0.0006118601509734052 0.02131505827297462 0 -0.00074699822008148853 0.021611830646435792 0 -0.00049217136222265065 0.021775477607820472 0 -0.00038099062767014844 0.021526531796790635 0 -0.00074699822008148853 0.021611830646435792 0 -0.00020310868592469743 0.02149813578721315 0 -0.00023556515010195446 0.021681493048442909 0 -0.00038099062767014844 0.021526531796790635 0 -0.00020310868592469743 0.02149813578721315 0 -0.00038099062767014844 0.021526531796790635 0 -0.00030094354674058181 0.021347517527610702 0 -0.00038099062767014844 0.021526531796790635 0 -0.0006118601509734052 0.02131505827297462 0 -0.00030094354674058181 0.021347517527610702 0 -0.0006118601509734052 0.02131505827297462 0 -0.00074699822008148853 0.021611830646435792 0 -0.0010485811146585138 0.021421943998333817 0 -0.00074699822008148853 0.021611830646435792 0 -0.0010485811146585138 0.021421943998333817 0 -0.0009883809786600565 0.021665719860931326 0 -0.0010485811146585138 0.021421943998333817 0 -0.0013640881501545007 0.02144126159450532 0 -0.0011996095986153788 0.021694946402616773 0 -0.0010485811146585138 0.021421943998333817 0 -0.0013640881501545007 0.02144126159450532 0 -0.0011976824176929922 0.021141469249807639 0 -0.0010485811146585138 0.021421943998333817 0 -0.0009883809786600565 0.021665719860931326 0 -0.0011996095986153788 0.021694946402616773 0 -0.0013640881501545007 0.02144126159450532 0 -0.001429268708028091 0.021754777937517185 0 -0.0011996095986153788 0.021694946402616773 0 -0.0013640881501545007 0.02144126159450532 0 -0.001429268708028091 0.021754777937517185 0 -0.0015306724838710371 0.021538471664046644 0 -0.001429268708028091 0.021754777937517185 0 -0.0011996095986153788 0.021694946402616773 0 -0.0012528063272867777 0.021976501472277244 0 -0.0009883809786600565 0.021665719860931326 0 -0.0011996095986153788 0.021694946402616773 0 -0.0010615040406402108 0.021926253533189961 0 -0.0011996095986153788 0.021694946402616773 0 -0.0010615040406402108 0.021926253533189961 0 -0.0012528063272867777 0.021976501472277244 0 -0.0010615040406402108 0.021926253533189961 0 -0.0010965610137449828 0.022164324208421998 0 -0.0012528063272867777 0.021976501472277244 0 -0.00088457470156594754 0.022138085327621123 0 -0.0010615040406402108 0.021926253533189961 0 -0.0010965610137449828 0.022164324208421998 0 -0.0010965610137449828 0.022164324208421998 0 -0.0012528063272867777 0.021976501472277244 0 -0.0012245700788039097 0.022284590478175461 0 -0.001429268708028091 0.021754777937517185 0 -0.0012528063272867777 0.021976501472277244 0 -0.001390700568593841 0.022042500906988057 0 -0.001429268708028091 0.021754777937517185 0 -0.001390700568593841 0.022042500906988057 0 -0.0015417953514396804 0.021889675540713971 0 -0.001390700568593841 0.022042500906988057 0 -0.0014748678848500922 0.022138783691717963 0 -0.0015417953514396804 0.021889675540713971 0 -0.0012528063272867777 0.021976501472277244 0 -0.001390700568593841 0.022042500906988057 0 -0.0012245700788039097 0.022284590478175461 0 -0.0013600453350966159 0.022265240992485894 0 -0.0012874367007735042 0.022431334392160017 0 -0.0012245700788039097 0.022284590478175461 0 -0.001390700568593841 0.022042500906988057 0 -0.0013600453350966159 0.022265240992485894 0 -0.0012245700788039097 0.022284590478175461 0 -0.001390700568593841 0.022042500906988057 0 -0.0013600453350966159 0.022265240992485894 0 -0.0014748678848500922 0.022138783691717963 0 -0.0013976694827273182 0.022347793285438487 0 -0.0013600453350966159 0.022265240992485894 0 -0.0014748678848500922 0.022138783691717963 0 -0.0013976694827273182 0.022347793285438487 0 -0.0014748678848500922 0.022138783691717963 0 -0.0015062460320614864 0.022247431656503697 0 -0.0013976694827273182 0.022347793285438487 0 -0.0013600453350966159 0.022265240992485894 0 -0.0012874367007735042 0.022431334392160017 0 -0.001101981957311707 0.02270132925267539 0 -0.0012874367007735042 0.022431334392160017 0 -0.0012245700788039097 0.022284590478175461 0 -0.001101981957311707 0.02270132925267539 0 -0.0010043067566870129 0.022460433299998687 0 -0.0012245700788039097 0.022284590478175461 0 -0.0010043067566870129 0.022460433299998687 0 -0.0010965610137449828 0.022164324208421998 0 -0.0012245700788039097 0.022284590478175461 0 -0.0016760523215075748 0.021952513152854323 0 -0.0017355015574552124 0.022065819374206253 0 -0.0018504272286044472 0.021920273328886124 0 -0.0018452649420441865 0.022105219273467935 0 -0.0017355015574552124 0.022065819374206253 0 -0.0018504272286044472 0.021920273328886124 0 -0.0016760523215075748 0.021952513152854323 0 -0.0017355015574552124 0.022065819374206253 0 -0.0016099574769336158 0.022142468115249964 0 -0.0014748678848500922 0.022138783691717963 0 -0.0016760523215075748 0.021952513152854323 0 -0.0016099574769336158 0.022142468115249964 0 -0.0014748678848500922 0.022138783691717963 0 -0.0016099574769336158 0.022142468115249964 0 -0.0015062460320614864 0.022247431656503697 0 -0.0014748678848500922 0.022138783691717963 0 -0.0016760523215075748 0.021952513152854323 0 -0.0015417953514396804 0.021889675540713971 0 -0.0016760523215075748 0.021952513152854323 0 -0.0015417953514396804 0.021889675540713971 0 -0.0016828861508902926 0.0217448091625249 0 -0.0015417953514396804 0.021889675540713971 0 -0.0016828861508902926 0.0217448091625249 0 -0.0015723596526092658 0.021691829703899282 0 -0.0016760523215075748 0.021952513152854323 0 -0.0018345129273103244 0.021756264650536507 0 -0.0018504272286044472 0.021920273328886124 0 -0.0016760523215075748 0.021952513152854323 0 -0.0016828861508902926 0.0217448091625249 0 -0.0018345129273103244 0.021756264650536507 0 -0.0016828861508902926 0.0217448091625249 0 -0.0018345129273103244 0.021756264650536507 0 -0.0018259089558408392 0.021552285570062456 0 -0.0016828861508902926 0.0217448091625249 0 -0.0018259089558408392 0.021552285570062456 0 -0.0016782249586356948 0.021497878813107781 0 -0.0018259089558408392 0.021552285570062456 0 -0.0016782249586356948 0.021497878813107781 0 -0.0018278442310785746 0.021347487988932001 0 -0.001429268708028091 0.021754777937517185 0 -0.0015417953514396804 0.021889675540713971 0 -0.0015723596526092658 0.021691829703899282 0 -0.001429268708028091 0.021754777937517185 0 -0.0015723596526092658 0.021691829703899282 0 -0.0015306724838710371 0.021538471664046644 0 -0.0016828861508902926 0.0217448091625249 0 -0.0016782249586356948 0.021497878813107781 0 -0.0015723596526092658 0.021691829703899282 0 -0.0016782249586356948 0.021497878813107781 0 -0.0015723596526092658 0.021691829703899282 0 -0.0015306724838710371 0.021538471664046644 0 -0.0015468267582028864 0.021345462756722947 0 -0.0017011251560741579 0.021199964650848408 0 -0.0014576205713989162 0.021162650708604694 0 -0.0016782249586356948 0.021497878813107781 0 -0.0015468267582028864 0.021345462756722947 0 -0.0017011251560741579 0.021199964650848408 0 -0.0013640881501545007 0.02144126159450532 0 -0.0015306724838710371 0.021538471664046644 0 -0.0015468267582028864 0.021345462756722947 0 -0.0016782249586356948 0.021497878813107781 0 -0.0015306724838710371 0.021538471664046644 0 -0.0015468267582028864 0.021345462756722947 0 -0.0013640881501545007 0.02144126159450532 0 -0.0015468267582028864 0.021345462756722947 0 -0.0014576205713989162 0.021162650708604694 0 -0.0018278442310785746 0.021347487988932001 0 -0.0017011251560741579 0.021199964650848408 0 -0.0019423481448769952 0.021078425509004149 0 -0.0016782249586356948 0.021497878813107781 0 -0.0018278442310785746 0.021347487988932001 0 -0.0017011251560741579 0.021199964650848408 0 -0.0017011251560741579 0.021199964650848408 0 -0.0017916103603468549 0.020957690135221016 0 -0.0019423481448769952 0.021078425509004149 0 -0.0017011251560741579 0.021199964650848408 0 -0.0017916103603468549 0.020957690135221016 0 -0.0016167569067736362 0.020998404605313402 0 -0.0019101845435642549 0.020661333530136109 0 -0.0020545223228864741 0.020675599473096343 0 -0.0017916103603468549 0.020957690135221016 0 -0.0017060271434460386 0.020780418914274717 0 -0.0019811625907480588 0.020744517811926506 0 -0.0017916103603468549 0.020957690135221016 0 -0.0017060271434460386 0.020780418914274717 0 -0.0016167569067736362 0.020998404605313402 0 -0.0019101845435642549 0.020661333530136109 0 -0.0012921103859650949 0.021010813504090516 0 -0.0017060271434460386 0.020780418914274717 0 -0.0016167569067736362 0.020998404605313402 0 -0.0014194066795202441 0.020898323748401511 0 -0.0017060271434460386 0.020780418914274717 0 -0.0014194066795202441 0.020898323748401511 0 -0.0013981982148179445 0.020775213924028632 0 -0.0017011251560741579 0.021199964650848408 0 -0.0016167569067736362 0.020998404605313402 0 -0.0014576205713989162 0.021162650708604694 0 -0.0016167569067736362 0.020998404605313402 0 -0.0014576205713989162 0.021162650708604694 0 -0.0014194066795202441 0.020898323748401511 0 -0.0014576205713989162 0.021162650708604694 0 -0.0013439379535505295 0.021051719473050803 0 -0.0011976824176929922 0.021141469249807639 0 -0.0014576205713989162 0.021162650708604694 0 -0.0013439379535505295 0.021051719473050803 0 -0.0014194066795202441 0.020898323748401511 0 -0.0013640881501545007 0.02144126159450532 0 -0.0014576205713989162 0.021162650708604694 0 -0.0011976824176929922 0.021141469249807639 0 -0.0013439379535505295 0.021051719473050803 0 -0.0011976824176929922 0.021141469249807639 0 -0.0012371767719022086 0.020919312970903273 0 -0.00083488219253370936 0.021146514334574013 0 -0.0011976824176929922 0.021141469249807639 0 -0.0010025091357015949 0.020930611996638582 0 -0.00083488219253370936 0.021146514334574013 0 -0.0010485811146585138 0.021421943998333817 0 -0.0011976824176929922 0.021141469249807639 0 -0.00072985029703692228 0.020700597942543274 0 -0.0010025091357015949 0.020930611996638582 0 -0.0010728219425256084 0.020728799876245221 0 -0.0011976824176929922 0.021141469249807639 0 -0.0010025091357015949 0.020930611996638582 0 -0.0012371767719022086 0.020919312970903273 0 -0.0010025091357015949 0.020930611996638582 0 -0.0012371767719022086 0.020919312970903273 0 -0.0010728219425256084 0.020728799876245221 0 -0.0012371767719022086 0.020919312970903273 0 -0.0013983680831383333 0.020758237741270842 0 -0.0010728219425256084 0.020728799876245221 0 -0.0012921103859650949 0.021010813504090516 0 -0.00088645223154689042 0.021139959060023816 0 -0.0013439379535505295 0.021051719473050803 0 -0.0014194066795202441 0.020898323748401511 0 -0.0012371767719022086 0.020919312970903273 0 -0.0014194066795202441 0.020898323748401511 0 -0.0012371767719022086 0.020919312970903273 0 -0.0013983680831383333 0.020758237741270842 0 -0.0013422515442525621 0.020864467221828824 0 -0.0012921103859650949 0.021010813504090516 0 -0.0018313117149328145 0.02058219045927703 0 -0.0018062700999776917 0.020412385896915276 0 -0.0019172752419482101 0.020492765269894238 0 -0.00072235936456845496 0.021541700147118953 0 -0.00074587898990577698 0.021547794831517007 0 -0.00072474849081383933 0.021580553529209248 0 -0.0012921103859650949 0.021010813504090516 0 -0.0012594511568034034 0.021011634516738251 0 -0.00074587898990577698 0.021547794831517007 0 -0.00075472629483289253 0.021576620986093885 0 -0.00072474849081383933 0.021580553529209248 0 -0.00075472629483289253 0.021576620986093885 0 -0.00072474849081383933 0.021580553529209248 0 -0.00075297305239694007 0.021606839877089515 0 -0.0018062700999776917 0.020412385896915276 0 -0.0019432149983056696 0.020392863743996428 0 -0.0019172752419482101 0.020492765269894238 0 -0.0018062700999776917 0.020412385896915276 0 -0.0019432149983056696 0.020392863743996428 0 -0.0019194788011897162 0.020313046352030704 0 -0.0019432149983056696 0.020392863743996428 0 -0.0020069012163008125 0.020460811858648936 0 -0.0019172752419482101 0.020492765269894238 0 -0.0020752454277848148 0.020348339819060601 0 -0.0020069012163008125 0.020460811858648936 0 -0.002111261452652407 0.020475069038511384 0 -0.0019432149983056696 0.020392863743996428 0 -0.0020752454277848148 0.020348339819060601 0 -0.0020069012163008125 0.020460811858648936 0 -0.0019883114886092399 0.020589881626333899 0 -0.0020069012163008125 0.020460811858648936 0 -0.002111261452652407 0.020475069038511384 0 -0.0019883114886092399 0.020589881626333899 0 -0.0020069012163008125 0.020460811858648936 0 -0.0019172752419482101 0.020492765269894238 0 -0.0019883114886092399 0.020589881626333899 0 -0.0018313117149328145 0.02058219045927703 0 -0.0019172752419482101 0.020492765269894238 0 -0.0022271633638100579 0.020489575799210707 0 -0.002111261452652407 0.020475069038511384 0 -0.0021343313961985689 0.020604050686616204 0 -0.0019883114886092399 0.020589881626333899 0 -0.002111261452652407 0.020475069038511384 0 -0.0021343313961985689 0.020604050686616204 0 -0.0022271633638100579 0.020489575799210707 0 -0.002111261452652407 0.020475069038511384 0 -0.0022091070536400833 0.02034566846735926 0 -0.0020752454277848148 0.020348339819060601 0 -0.002111261452652407 0.020475069038511384 0 -0.0022091070536400833 0.02034566846735926 0 -0.0022091070536400833 0.02034566846735926 0 -0.0023418774030414015 0.020362275845062391 0 -0.0023177853360469708 0.020262467649404765 0 -0.0022271633638100579 0.020489575799210707 0 -0.0022091070536400833 0.02034566846735926 0 -0.0023418774030414015 0.020362275845062391 0 -0.0023418774030414015 0.020362275845062391 0 -0.0024860030669587446 0.02033263509198082 0 -0.0023936296963326868 0.020492878739789007 0 -0.0023418774030414015 0.020362275845062391 0 -0.0024860030669587446 0.02033263509198082 0 -0.0024313681617452658 0.02024751017381226 0 -0.0024860030669587446 0.02033263509198082 0 -0.0025585004047303504 0.020452489437449321 0 -0.0026224136379290491 0.020259769773489315 0 -0.0024860030669587446 0.02033263509198082 0 -0.0026224136379290491 0.020259769773489315 0 -0.0025462239690683098 0.020204569699719854 0 -0.0024860030669587446 0.02033263509198082 0 -0.0025462239690683098 0.020204569699719854 0 -0.0024313681617452658 0.02024751017381226 0 -0.0025585004047303504 0.020452489437449321 0 -0.0023936296963326868 0.020492878739789007 0 -0.0024893688260223409 0.02070627458956226 0 -0.0024860030669587446 0.02033263509198082 0 -0.0025585004047303504 0.020452489437449321 0 -0.0023936296963326868 0.020492878739789007 0 -0.0022271633638100579 0.020489575799210707 0 -0.0023936296963326868 0.020492878739789007 0 -0.0022736148202324872 0.02066287654188062 0 -0.0022271633638100579 0.020489575799210707 0 -0.0023418774030414015 0.020362275845062391 0 -0.0023936296963326868 0.020492878739789007 0 -0.0023936296963326868 0.020492878739789007 0 -0.0022736148202324872 0.02066287654188062 0 -0.0024893688260223409 0.02070627458956226 0 -0.0024893688260223409 0.02070627458956226 0 -0.0023110842631394101 0.020954816140558968 0 -0.0024832531674032583 0.021012372288305825 0 -0.0024893688260223409 0.02070627458956226 0 -0.0024832531674032583 0.021012372288305825 0 -0.0026937097526792434 0.020837191204266633 0 -0.0022736148202324872 0.02066287654188062 0 -0.0024893688260223409 0.02070627458956226 0 -0.0023110842631394101 0.020954816140558968 0 -0.0022736148202324872 0.02066287654188062 0 -0.0023110842631394101 0.020954816140558968 0 -0.0021404142696968796 0.020909118626451752 0 -0.0021404142696968796 0.020909118626451752 0 -0.0019423481448769952 0.021078425509004149 0 -0.0021341365314295787 0.021187433189220523 0 -0.0023110842631394101 0.020954816140558968 0 -0.0021404142696968796 0.020909118626451752 0 -0.0021341365314295787 0.021187433189220523 0 -0.0022736148202324872 0.02066287654188062 0 -0.0021404142696968796 0.020909118626451752 0 -0.0019811625907480588 0.020744517811926506 0 -0.0022711284361885908 0.020669049776686089 0 -0.0020545223228864741 0.020675599473096343 0 -0.0022271633638100579 0.020489575799210707 0 -0.0022736148202324872 0.02066287654188062 0 -0.0021343313961985689 0.020604050686616204 0 -0.0021404142696968796 0.020909118626451752 0 -0.0019811625907480588 0.020744517811926506 0 -0.0019423481448769952 0.021078425509004149 0 -0.0017916103603468549 0.020957690135221016 0 -0.0019811625907480588 0.020744517811926506 0 -0.0019423481448769952 0.021078425509004149 0 -0.0019423481448769952 0.021078425509004149 0 -0.0021341365314295787 0.021187433189220523 0 -0.0019777040198622818 0.021370270015646956 0 -0.0018278442310785746 0.021347487988932001 0 -0.0019423481448769952 0.021078425509004149 0 -0.0019777040198622818 0.021370270015646956 0 -0.0021341365314295787 0.021187433189220523 0 -0.0021723461799895453 0.021460111564597841 0 -0.0023127849625086318 0.021178089408737256 0 -0.0021341365314295787 0.021187433189220523 0 -0.0021723461799895453 0.021460111564597841 0 -0.0019777040198622818 0.021370270015646956 0 -0.0021723461799895453 0.021460111564597841 0 -0.0019777040198622818 0.021370270015646956 0 -0.0019504956704137794 0.021586172396598467 0 -0.0018259089558408392 0.021552285570062456 0 -0.0018278442310785746 0.021347487988932001 0 -0.0019777040198622818 0.021370270015646956 0 -0.0018259089558408392 0.021552285570062456 0 -0.0019777040198622818 0.021370270015646956 0 -0.0019504956704137794 0.021586172396598467 0 -0.0018345129273103244 0.021756264650536507 0 -0.0018259089558408392 0.021552285570062456 0 -0.0019504956704137794 0.021586172396598467 0 -0.0018345129273103244 0.021756264650536507 0 -0.0020155401898113746 0.021722937974059421 0 -0.0018504272286044472 0.021920273328886124 0 -0.0018345129273103244 0.021756264650536507 0 -0.0020155401898113746 0.021722937974059421 0 -0.0019504956704137794 0.021586172396598467 0 -0.0021723461799895453 0.021460111564597841 0 -0.0020155401898113746 0.021722937974059421 0 -0.002157463571958583 0.021751965232770648 0 -0.0021723461799895453 0.021460111564597841 0 -0.0020155401898113746 0.021722937974059421 0 -0.0019504956704137794 0.021586172396598467 0 -0.0022274369494394977 0.021946200147805343 0 -0.0020148108506287147 0.021937372000784165 0 -0.002157463571958583 0.021751965232770648 0 -0.0020155401898113746 0.021722937974059421 0 -0.0020148108506287147 0.021937372000784165 0 -0.002157463571958583 0.021751965232770648 0 -0.0018452649420441865 0.022105219273467935 0 -0.0020148108506287147 0.021937372000784165 0 -0.0018504272286044472 0.021920273328886124 0 -0.0020155401898113746 0.021722937974059421 0 -0.0020148108506287147 0.021937372000784165 0 -0.0018504272286044472 0.021920273328886124 0 -0.0024979453331380815 0.021789342879235458 0 -0.0023699366444673393 0.021595228749210729 0 -0.0027505460822159953 0.021320527526865279 0 -0.0022274369494394977 0.021946200147805343 0 -0.002157463571958583 0.021751965232770648 0 -0.0023699366444673393 0.021595228749210729 0 -0.0022274369494394977 0.021946200147805343 0 -0.0024979453331380815 0.021789342879235458 0 -0.0023699366444673393 0.021595228749210729 0 -0.0021723461799895453 0.021460111564597841 0 -0.0023699366444673393 0.021595228749210729 0 -0.002463637975664281 0.02127483183044938 0 -0.0021723461799895453 0.021460111564597841 0 -0.002157463571958583 0.021751965232770648 0 -0.0023699366444673393 0.021595228749210729 0 -0.0023699366444673393 0.021595228749210729 0 -0.002463637975664281 0.02127483183044938 0 -0.0027505460822159953 0.021320527526865279 0 -0.002463637975664281 0.02127483183044938 0 -0.0024832531674032583 0.021012372288305825 0 -0.0026973226316205413 0.02106684996612548 0 -0.0021723461799895453 0.021460111564597841 0 -0.002463637975664281 0.02127483183044938 0 -0.0023127849625086318 0.021178089408737256 0 -0.0023110842631394101 0.020954816140558968 0 -0.0021341365314295787 0.021187433189220523 0 -0.0023127849625086318 0.021178089408737256 0 -0.0023110842631394101 0.020954816140558968 0 -0.0023127849625086318 0.021178089408737256 0 -0.0024832531674032583 0.021012372288305825 0 -0.002463637975664281 0.02127483183044938 0 -0.0023127849625086318 0.021178089408737256 0 -0.0024832531674032583 0.021012372288305825 0 -0.0024832531674032583 0.021012372288305825 0 -0.0026973226316205413 0.02106684996612548 0 -0.0026937097526792434 0.020837191204266633 0 -0.0026973226316205413 0.02106684996612548 0 -0.0028634885088800262 0.020884777909694136 0 -0.0026937097526792434 0.020837191204266633 0 -0.0028538659243794963 0.021084915225497648 0 -0.0026973226316205413 0.02106684996612548 0 -0.0028634885088800262 0.020884777909694136 0 -0.0028538659243794963 0.021084915225497648 0 -0.0026973226316205413 0.02106684996612548 0 -0.0027505460822159953 0.021320527526865279 0 -0.002463637975664281 0.02127483183044938 0 -0.0026973226316205413 0.02106684996612548 0 -0.0027505460822159953 0.021320527526865279 0 -0.0027505460822159953 0.021320527526865279 0 -0.0028734692666822076 0.021260561788331779 0 -0.002919458435991317 0.021166764365032741 0 -0.0028538659243794963 0.021084915225497648 0 -0.0027505460822159953 0.021320527526865279 0 -0.002919458435991317 0.021166764365032741 0 -0.0027417210775972705 0.02128196315000289 0 -0.0030025571733624931 0.021585559149813499 0 -0.0027505460822159953 0.021320527526865279 0 -0.0027590118300583966 0.02175045591587145 0 -0.0030784821648706428 0.021723696158997535 0 -0.0024979453331380815 0.021789342879235458 0 -0.0027505460822159953 0.021320527526865279 0 -0.0027590118300583966 0.02175045591587145 0 -0.0029914291836088294 0.021187447072177283 0 -0.0029928740254245695 0.02125335593965982 0 -0.002942486995261168 0.021215383669327206 0 -0.0029914291836088294 0.021187447072177283 0 -0.0030718558148908619 0.021197992997913133 0 -0.0030591318356287256 0.021095735597062973 0 -0.0030574234115888664 0.021280321115971317 0 -0.0030718558148908619 0.021197992997913133 0 -0.0029928740254245695 0.02125335593965982 0 -0.0030574234115888664 0.021280321115971317 0 -0.0030718558148908619 0.021197992997913133 0 -0.0031032753345236956 0.021232214490394585 0 -0.0029914291836088294 0.021187447072177283 0 -0.0030718558148908619 0.021197992997913133 0 -0.0029928740254245695 0.02125335593965982 0 -0.0028734692666822076 0.021260561788331779 0 -0.002942486995261168 0.021215383669327206 0 -0.002919458435991317 0.021166764365032741 0 -0.002985124210625115 0.021303688095885981 0 -0.0029928740254245695 0.02125335593965982 0 -0.0028734692666822076 0.021260561788331779 0 -0.0029928740254245695 0.02125335593965982 0 -0.0028734692666822076 0.021260561788331779 0 -0.002942486995261168 0.021215383669327206 0 -0.0029914291836088294 0.021187447072177283 0 -0.002942486995261168 0.021215383669327206 0 -0.002919458435991317 0.021166764365032741 0 -0.0030591318356287256 0.021095735597062973 0 -0.0030119111804870246 0.020952070717901044 0 -0.0031923536799001273 0.020952005557952048 0 -0.002919458435991317 0.021166764365032741 0 -0.0030591318356287256 0.021095735597062973 0 -0.0030119111804870246 0.020952070717901044 0 -0.0029914291836088294 0.021187447072177283 0 -0.002919458435991317 0.021166764365032741 0 -0.0030591318356287256 0.021095735597062973 0 -0.0028538659243794963 0.021084915225497648 0 -0.0030119111804870246 0.020952070717901044 0 -0.0028634885088800262 0.020884777909694136 0 -0.0028538659243794963 0.021084915225497648 0 -0.002919458435991317 0.021166764365032741 0 -0.0030119111804870246 0.020952070717901044 0 -0.0030119111804870246 0.020952070717901044 0 -0.0028634885088800262 0.020884777909694136 0 -0.0030419202120260985 0.020669409651045106 0 -0.0030119111804870246 0.020952070717901044 0 -0.0030419202120260985 0.020669409651045106 0 -0.0031476083506507329 0.020783856322622512 0 -0.0030838693472063227 0.020436044365295392 0 -0.0029158571378438782 0.020502566350868365 0 -0.0030252219514097785 0.020259517476637862 0 -0.0030419202120260985 0.020669409651045106 0 -0.0030838693472063227 0.020436044365295392 0 -0.0029158571378438782 0.020502566350868365 0 -0.0028634885088800262 0.020884777909694136 0 -0.0030419202120260985 0.020669409651045106 0 -0.0028406684677850461 0.02068535974535702 0 -0.0030419202120260985 0.020669409651045106 0 -0.0029158571378438782 0.020502566350868365 0 -0.0028406684677850461 0.02068535974535702 0 -0.0028406684677850461 0.02068535974535702 0 -0.0026937097526792434 0.020837191204266633 0 -0.0027034666267891001 0.020605239073200089 0 -0.0028634885088800262 0.020884777909694136 0 -0.0028406684677850461 0.02068535974535702 0 -0.0026937097526792434 0.020837191204266633 0 -0.0024893688260223409 0.02070627458956226 0 -0.0026937097526792434 0.020837191204266633 0 -0.0027034666267891001 0.020605239073200089 0 -0.0025585004047303504 0.020452489437449321 0 -0.0024893688260223409 0.02070627458956226 0 -0.0027034666267891001 0.020605239073200089 0 -0.0029158571378438782 0.020502566350868365 0 -0.0028406684677850461 0.02068535974535702 0 -0.0027034666267891001 0.020605239073200089 0 -0.0029158571378438782 0.020502566350868365 0 -0.0027034666267891001 0.020605239073200089 0 -0.0027326271174960572 0.020395038285387978 0 -0.0027326271174960572 0.020395038285387978 0 -0.0027686901304779196 0.020215742593545079 0 -0.0028656899874871049 0.020303412332303816 0 -0.0025585004047303504 0.020452489437449321 0 -0.0027034666267891001 0.020605239073200089 0 -0.0027326271174960572 0.020395038285387978 0 -0.0025585004047303504 0.020452489437449321 0 -0.0027326271174960572 0.020395038285387978 0 -0.0026224136379290491 0.020259769773489315 0 -0.0027326271174960572 0.020395038285387978 0 -0.0026224136379290491 0.020259769773489315 0 -0.0027686901304779196 0.020215742593545079 0 -0.0026224136379290491 0.020259769773489315 0 -0.0027686901304779196 0.020215742593545079 0 -0.0026982588963729718 0.020139733998520214 0 -0.0027686901304779196 0.020215742593545079 0 -0.0028933747432845552 0.020154238594339621 0 -0.002795493631036611 0.020017442121723125 0 -0.0027686901304779196 0.020215742593545079 0 -0.0028933747432845552 0.020154238594339621 0 -0.0028656899874871049 0.020303412332303816 0 -0.0028933747432845552 0.020154238594339621 0 -0.0030252219514097785 0.020259517476637862 0 -0.0030052608407761844 0.020009213296377053 0 -0.0029158571378438782 0.020502566350868365 0 -0.0027326271174960572 0.020395038285387978 0 -0.0028656899874871049 0.020303412332303816 0 -0.0029158571378438782 0.020502566350868365 0 -0.0030252219514097785 0.020259517476637862 0 -0.0028656899874871049 0.020303412332303816 0 -0.0028933747432845552 0.020154238594339621 0 -0.0030252219514097785 0.020259517476637862 0 -0.0028656899874871049 0.020303412332303816 0 -0.0027763685548108643 0.01985819693398504 0 -0.002795493631036611 0.020017442121723125 0 -0.0027307928551182597 0.019953945651324318 0 -0.0027763685548108643 0.01985819693398504 0 -0.0029741213465308801 0.019756984909408918 0 -0.002795493631036611 0.020017442121723125 0 -0.0029741213465308801 0.019756984909408918 0 -0.0030052608407761844 0.020009213296377053 0 -0.002795493631036611 0.020017442121723125 0 -0.0028933747432845552 0.020154238594339621 0 -0.0030052608407761844 0.020009213296377053 0 -0.002795493631036611 0.020017442121723125 0 -0.0027686901304779196 0.020215742593545079 0 -0.002795493631036611 0.020017442121723125 0 -0.0026982588963729718 0.020139733998520214 0 -0.002795493631036611 0.020017442121723125 0 -0.0026982588963729718 0.020139733998520214 0 -0.002685023531111037 0.020052055199467022 0 -0.0026224136379290491 0.020259769773489315 0 -0.0026270015887484895 0.020152437580997579 0 -0.0025462239690683098 0.020204569699719854 0 -0.0026224136379290491 0.020259769773489315 0 -0.0026982588963729718 0.020139733998520214 0 -0.0026270015887484895 0.020152437580997579 0 -0.0026982588963729718 0.020139733998520214 0 -0.0026270015887484895 0.020152437580997579 0 -0.002685023531111037 0.020052055199467022 0 -0.0026270015887484895 0.020152437580997579 0 -0.0026053282712690542 0.020096684877695958 0 -0.002685023531111037 0.020052055199467022 0 -0.0026270015887484895 0.020152437580997579 0 -0.0026053282712690542 0.020096684877695958 0 -0.0025462239690683098 0.020204569699719854 0 -0.0026053282712690542 0.020096684877695958 0 -0.0026741361508639235 0.020007968262011431 0 -0.002685023531111037 0.020052055199467022 0 -0.0026053282712690542 0.020096684877695958 0 -0.0026741361508639235 0.020007968262011431 0 -0.0026178232665352488 0.020042035222342183 0 -0.002795493631036611 0.020017442121723125 0 -0.002685023531111037 0.020052055199467022 0 -0.0027307928551182597 0.019953945651324318 0 -0.0026741361508639235 0.020007968262011431 0 -0.002685023531111037 0.020052055199467022 0 -0.0027307928551182597 0.019953945651324318 0 -0.0026741361508639235 0.020007968262011431 0 -0.0027307928551182597 0.019953945651324318 0 -0.0027235022988412699 0.019940379845299165 0 -0.0027763685548108643 0.01985819693398504 0 -0.0027307928551182597 0.019953945651324318 0 -0.0027235022988412699 0.019940379845299165 0 -0.002666872085852881 0.020000163603013411 0 -0.0025967473287007575 0.020128973648119778 0 -0.0024921585279510418 0.020157416671080411 0 -0.0027235022988412699 0.019940379845299165 0 -0.002666872085852881 0.020000163603013411 0 -0.0027564277677253838 0.019893610330806888 0 -0.0026931516546342916 0.019984733476954404 0 -0.0025869165652573291 0.020070883682226957 0 -0.0026741361508639235 0.020007968262011431 0 -0.0027235022988412699 0.019940379845299165 0 -0.002666872085852881 0.020000163603013411 0 -0.0026178232665352488 0.020042035222342183 0 -0.002666872085852881 0.020000163603013411 0 -0.0026624079867348079 0.020017178205522183 0 -0.0026741361508639235 0.020007968262011431 0 -0.0026178232665352488 0.020042035222342183 0 -0.002666872085852881 0.020000163603013411 0 -0.002666872085852881 0.020000163603013411 0 -0.0026832990453050831 0.020108108695561067 0 -0.002652488496912834 0.020113882634811554 0 -0.002666872085852881 0.020000163603013411 0 -0.002652488496912834 0.020113882634811554 0 -0.0025967473287007575 0.020128973648119778 0 -0.002666872085852881 0.020000163603013411 0 -0.0026624079867348079 0.020017178205522183 0 -0.0026832990453050831 0.020108108695561067 0 -0.0026624079867348079 0.020017178205522183 0 -0.0026832990453050831 0.020108108695561067 0 -0.0027424820175813189 0.020205486380045466 0 -0.0026832990453050831 0.020108108695561067 0 -0.002652488496912834 0.020113882634811554 0 -0.0026642620575501007 0.020218144557625675 0 -0.0026832990453050831 0.020108108695561067 0 -0.0026642620575501007 0.020218144557625675 0 -0.0027424820175813189 0.020205486380045466 0 -0.0025967473287007575 0.020128973648119778 0 -0.0025762777175558048 0.020247407530198939 0 -0.0024921585279510418 0.020157416671080411 0 -0.002652488496912834 0.020113882634811554 0 -0.0026642620575501007 0.020218144557625675 0 -0.0025967473287007575 0.020128973648119778 0 -0.0026642620575501007 0.020218144557625675 0 -0.0025967473287007575 0.020128973648119778 0 -0.0025762777175558048 0.020247407530198939 0 -0.0024921585279510418 0.020157416671080411 0 -0.0022525005379058012 0.020242102626857428 0 -0.0024971513230957819 0.020300888690626014 0 -0.0025762777175558048 0.020247407530198939 0 -0.0024921585279510418 0.020157416671080411 0 -0.0024971513230957819 0.020300888690626014 0 -0.0027763685548108643 0.01985819693398504 0 -0.0027564277677253838 0.019893610330806888 0 -0.0027423790813040044 0.019883620794481669 0 -0.0027763685548108643 0.01985819693398504 0 -0.0027235022988412699 0.019940379845299165 0 -0.0027564277677253838 0.019893610330806888 0 -0.0027615251658684057 0.019842636040431037 0 -0.0028552494720131168 0.019655471727318807 0 -0.0027763685548108643 0.01985819693398504 0 -0.0029741213465308801 0.019756984909408918 0 -0.0028797961552661741 0.019508754963141979 0 -0.0029741213465308801 0.019756984909408918 0 -0.0028797961552661741 0.019508754963141979 0 -0.0030318399638376726 0.019436595862151705 0 -0.0024484248295215975 0.020402871779331117 0 -0.0023549982207201809 0.019940717053470114 0 -0.0022525005379058012 0.020242102626857428 0 -0.0024971513230957819 0.020300888690626014 0 -0.0022236558582892901 0.02027953360218274 0 -0.0025869165652573291 0.020070883682226957 0 -0.0026190958315170992 0.019766818002469631 0 -0.0028552494720131168 0.019655471727318807 0 -0.0026190958315170992 0.019766818002469631 0 -0.0028797961552661741 0.019508754963141979 0 -0.0030318399638376726 0.019436595862151705 0 -0.0030182126363809511 0.019265076361037792 0 -0.0027564277677253838 0.019893610330806888 0 -0.0027423790813040044 0.019883620794481669 0 -0.0027297479273773462 0.019897614700718338 0 -0.0023957118592356015 0.020415124383873766 0 -0.0023081671714149593 0.02048561041983836 0 -0.0022845998271700369 0.020338086101978941 0 -0.0023957118592356015 0.020415124383873766 0 -0.0024971513230957819 0.020300888690626014 0 -0.0022845998271700369 0.020338086101978941 0 -0.0024854151363245649 0.020426414964185697 0 -0.0025530738673828057 0.020511970502014372 0 -0.0026137117415080866 0.02039793247029819 0 -0.0024971513230957819 0.020300888690626014 0 -0.0024854151363245649 0.020426414964185697 0 -0.0026137117415080866 0.02039793247029819 0 -0.0023957118592356015 0.020415124383873766 0 -0.0024971513230957819 0.020300888690626014 0 -0.0024854151363245649 0.020426414964185697 0 -0.0023957118592356015 0.020415124383873766 0 -0.0024854151363245649 0.020426414964185697 0 -0.0024303932148556015 0.02055594861356665 0 -0.0024854151363245649 0.020426414964185697 0 -0.0025530738673828057 0.020511970502014372 0 -0.0024303932148556015 0.02055594861356665 0 -0.0025530738673828057 0.020511970502014372 0 -0.0024303932148556015 0.02055594861356665 0 -0.0025419661986752461 0.020643564527537957 0 -0.0023081671714149593 0.02048561041983836 0 -0.0024303932148556015 0.02055594861356665 0 -0.0022858628705874724 0.020678627083231829 0 -0.0023957118592356015 0.020415124383873766 0 -0.0023081671714149593 0.02048561041983836 0 -0.0024303932148556015 0.02055594861356665 0 -0.0024760607833162647 0.020752766473424035 0 -0.0024016309198727219 0.020953325757947217 0 -0.0022858628705874724 0.020678627083231829 0 -0.0024303932148556015 0.02055594861356665 0 -0.0024760607833162647 0.020752766473424035 0 -0.0022858628705874724 0.020678627083231829 0 -0.0024760607833162647 0.020752766473424035 0 -0.0025419661986752461 0.020643564527537957 0 -0.0026301065995757286 0.020760260853963049 0 -0.0024303932148556015 0.02055594861356665 0 -0.0024760607833162647 0.020752766473424035 0 -0.0025419661986752461 0.020643564527537957 0 -0.0024760607833162647 0.020752766473424035 0 -0.0025714270627959605 0.020927552944643869 0 -0.0024016309198727219 0.020953325757947217 0 -0.0024760607833162647 0.020752766473424035 0 -0.0025714270627959605 0.020927552944643869 0 -0.0026301065995757286 0.020760260853963049 0 -0.0027554608328920925 0.02092581947615527 0 -0.002917565704000312 0.02095450576007387 0 -0.0028955018517183989 0.020839288665433314 0 -0.0027554608328920925 0.02092581947615527 0 -0.0027961309732920771 0.020692128011229501 0 -0.0028955018517183989 0.020839288665433314 0 -0.0025714270627959605 0.020927552944643869 0 -0.0027554608328920925 0.02092581947615527 0 -0.0026301065995757286 0.020760260853963049 0 -0.0025714270627959605 0.020927552944643869 0 -0.0027554608328920925 0.02092581947615527 0 -0.0026768949535542711 0.021055642864033202 0 -0.0026301065995757286 0.020760260853963049 0 -0.0027961309732920771 0.020692128011229501 0 -0.0026517921304282416 0.020596411207582307 0 -0.0027554608328920925 0.02092581947615527 0 -0.0026301065995757286 0.020760260853963049 0 -0.0027961309732920771 0.020692128011229501 0 -0.0025419661986752461 0.020643564527537957 0 -0.0026301065995757286 0.020760260853963049 0 -0.0026517921304282416 0.020596411207582307 0 -0.0027961309732920771 0.020692128011229501 0 -0.0027457264745404828 0.020516549212295166 0 -0.0028537206615509344 0.020519015439366638 0 -0.0027961309732920771 0.020692128011229501 0 -0.0027457264745404828 0.020516549212295166 0 -0.0026517921304282416 0.020596411207582307 0 -0.0027457264745404828 0.020516549212295166 0 -0.0028537206615509344 0.020519015439366638 0 -0.0027668713454948517 0.02037579752076733 0 -0.0025530738673828057 0.020511970502014372 0 -0.0026517921304282416 0.020596411207582307 0 -0.0026137117415080866 0.02039793247029819 0 -0.0027457264745404828 0.020516549212295166 0 -0.0026517921304282416 0.020596411207582307 0 -0.0026137117415080866 0.02039793247029819 0 -0.0025530738673828057 0.020511970502014372 0 -0.0025419661986752461 0.020643564527537957 0 -0.0026517921304282416 0.020596411207582307 0 -0.0026642620575501007 0.020218144557625675 0 -0.0025762777175558048 0.020247407530198939 0 -0.0026137117415080866 0.02039793247029819 0 -0.0025762777175558048 0.020247407530198939 0 -0.0024971513230957819 0.020300888690626014 0 -0.0026137117415080866 0.02039793247029819 0 -0.0026642620575501007 0.020218144557625675 0 -0.0026137117415080866 0.02039793247029819 0 -0.0027668713454948517 0.02037579752076733 0 -0.0027457264745404828 0.020516549212295166 0 -0.0026137117415080866 0.02039793247029819 0 -0.0027668713454948517 0.02037579752076733 0 -0.0026642620575501007 0.020218144557625675 0 -0.0027424820175813189 0.020205486380045466 0 -0.0027668713454948517 0.02037579752076733 0 -0.0027424820175813189 0.020205486380045466 0 -0.0027668713454948517 0.02037579752076733 0 -0.0029309005813970847 0.020337316662828932 0 -0.0024524236945882489 0.019931200139153671 0 -0.0024716628087973853 0.019930489089007037 0 -0.0024947747265480981 0.019955570656963059 0 -0.0028537206615509344 0.020519015439366638 0 -0.0027668713454948517 0.02037579752076733 0 -0.0029309005813970847 0.020337316662828932 0 -0.0024716628087973853 0.019930489089007037 0 -0.0023587581132395157 0.019886783905338816 0 -0.002361525228035261 0.019961244837024862 0 -0.0024417295852090779 0.019921542032768344 0 -0.002552907667862083 0.019944743613095384 0 -0.0024524236945882489 0.019931200139153671 0 -0.0024716628087973853 0.019930489089007037 0 -0.0025018201683181399 0.020034697454600972 0 -0.0024716628087973853 0.019930489089007037 0 -0.0025018201683181399 0.020034697454600972 0 -0.0025780981366108832 0.019960648409039404 0 -0.0025018201683181399 0.020034697454600972 0 -0.0024279855462469141 0.020150225917396604 0 -0.0026022593489674565 0.020171427396789642 0 -0.0024524236945882489 0.019931200139153671 0 -0.0025018201683181399 0.020034697454600972 0 -0.0024279855462469141 0.020150225917396604 0 -0.0026744191644938698 0.020173960108155236 0 -0.0028907846457060142 0.020266830399172868 0 -0.0028537206615509344 0.020519015439366638 0 -0.0029309005813970847 0.020337316662828932 0 -0.0030325577079516764 0.020657549607241137 0 -0.0027961309732920771 0.020692128011229501 0 -0.0028537206615509344 0.020519015439366638 0 -0.0030325577079516764 0.020657549607241137 0 -0.0030325577079516764 0.020657549607241137 0 -0.0030047221446155075 0.02090406250689401 0 -0.0028955018517183989 0.020839288665433314 0 -0.0027961309732920771 0.020692128011229501 0 -0.0030325577079516764 0.020657549607241137 0 -0.0028955018517183989 0.020839288665433314 0 -0.0024279855462469141 0.020150225917396604 0 -0.002475001916045153 0.020405615290901877 0 -0.0026022593489674565 0.020171427396789642 0 -0.0028907846457060142 0.020266830399172868 0 -0.0014566886419691511 0.021466507047734958 0 -0.0014566886419691511 0.021466507047734958 0 -0.0017134322485414179 0.02084520169804192 0 -0.0008035984123765784 0.021516351228716372 0 -0.00080150502062302671 0.021510430416509827 0 -0.00071691620279642847 0.02154589031678536 0 -0.0030325577079516764 0.020657549607241137 0 -0.0030962828479524345 0.020942624623971808 0 -0.0030047221446155075 0.02090406250689401 0 -0.0030962828479524345 0.020942624623971808 0 -0.003075032331299831 0.020974896614899801 0 -0.0030047221446155075 0.02090406250689401 0 -0.0014566886419691511 0.021466507047734958 0 -0.00085971400993329315 0.022480685456528936 0 -0.0014566886419691511 0.021466507047734958 0 -0.0011035589300728804 0.022353383944634809 0 -0.00085971400993329315 0.022480685456528936 0 -0.0011035589300728804 0.022353383944634809 0 -0.0012116971818136428 0.022513714949952152 0 -0.0011769593510466056 0.022396997789896216 0 -0.0013247150923893921 0.022321891075933062 0 -0.003075032331299831 0.020974896614899801 0 -0.0030047221446155075 0.02090406250689401 0 -0.002917565704000312 0.02095450576007387 0 -0.0030047221446155075 0.02090406250689401 0 -0.002917565704000312 0.02095450576007387 0 -0.0028955018517183989 0.020839288665433314 0 0.00073455783269785679 0.023635531614693846 0 0.00063566965919626555 0.02377474379170692 0 0.0007352792199248557 0.023807071735527662 0 0.00073455783269785679 0.023635531614693846 0 0.00063566965919626555 0.02377474379170692 0 0.00056212769983947147 0.02346254637458918 0 -0.0008035984123765784 0.021516351228716372 0 -0.00071691620279642847 0.02154589031678536 0 -0.00075337555697211267 0.021590311867463199 0 8.6835192733074269e-05 0.023626898615559423 0 0.00063566965919626555 0.02377474379170692 0 0.00056212769983947147 0.02346254637458918 0 -0.00085971400993329315 0.022480685456528936 0 5.1401830199566419e-05 0.02269173992658275 0 -0.00071691620279642847 0.02154589031678536 0 -0.00075337555697211267 0.021590311867463199 0 -0.00068840990779408108 0.021613648057542994 0 -0.00071691620279642847 0.02154589031678536 0 -0.00068840990779408108 0.021613648057542994 0 -0.00062710996458079473 0.021584184136492764 0 5.1401830199566419e-05 0.02269173992658275 0 2.4455351277944259e-05 0.022704754375060379 0 -0.00075337555697211267 0.021590311867463199 0 -0.00068840990779408108 0.021613648057542994 0 -0.00070609087726974603 0.021674540910058514 0 -0.00068840990779408108 0.021613648057542994 0 -0.00070609087726974603 0.021674540910058514 0 -0.00060472533839192079 0.021664985061018487 0 -0.0017134322485414179 0.02084520169804192 0 -0.001676235101810191 0.020476980506304601 0 -0.0026022593489674565 0.020171427396789642 0 -0.0025922643617151643 0.020037712062619294 0 -0.002687020737066761 0.01998857214101293 0 -0.0025018201683181399 0.020034697454600972 0 -0.0026022593489674565 0.020171427396789642 0 -0.0025922643617151643 0.020037712062619294 0 -0.002552907667862083 0.019944743613095384 0 -0.001676235101810191 0.020476980506304601 0 -0.0025922643617151643 0.020037712062619294 0 -0.0025780981366108832 0.019960648409039404 0 -0.002687020737066761 0.01998857214101293 0 -0.0022199203753753356 0.019987929718726857 0 -0.0023587581132395157 0.019886783905338816 0 -0.0020902122888627173 0.019759557150885915 0 -0.0025018201683181399 0.020034697454600972 0 -0.0025922643617151643 0.020037712062619294 0 -0.0025780981366108832 0.019960648409039404 0 -0.0022199203753753356 0.019987929718726857 0 -0.0023587581132395157 0.019886783905338816 0 -0.002361525228035261 0.019961244837024862 0 -0.0022199203753753356 0.019987929718726857 0 -0.0020902122888627173 0.019759557150885915 0 -0.0018009472128164019 0.020333225893251129 0 -0.0019781201537989244 0.020023845949463919 0 -0.0018009472128164019 0.020333225893251129 0 -0.0016708892997233922 0.020154677144679209 0 -0.001676235101810191 0.020476980506304601 0 -0.0019456463731995725 0.020074308137820688 0 -0.0022199203753753356 0.019987929718726857 0 -0.0018009472128164019 0.020333225893251129 0 -0.0016420605286080079 0.020508227146490216 0 -0.0022199203753753356 0.019987929718726857 0 -0.0021819353102657695 0.020009924452989662 0 -0.0020993080999550983 0.019984452575353858 0 -0.0021897835259980158 0.020022613390502732 0 -0.001855832026757402 0.020245666611772514 0 -0.0022199203753753356 0.019987929718726857 0 -0.0021819353102657695 0.020009924452989662 0 -0.0022451439001439973 0.020006714465054712 0 -0.0021819353102657695 0.020009924452989662 0 -0.0022251584862439545 0.020061529925460994 0 -0.0022451439001439973 0.020006714465054712 0 -0.0021819353102657695 0.020009924452989662 0 -0.0021331387614208046 0.020031721968647002 0 -0.0020993080999550983 0.019984452575353858 0 -0.0021819353102657695 0.020009924452989662 0 -0.0021331387614208046 0.020031721968647002 0 -0.0021693605586186487 0.020055484363934707 0 -0.0021331387614208046 0.020031721968647002 0 -0.0021693605586186487 0.020055484363934707 0 -0.0021172881744073585 0.020080394575871317 0 -0.0022251584862439545 0.020061529925460994 0 -0.0021666489055833277 0.020115646719516211 0 -0.0022262287055456217 0.020158868749918023 0 -0.0021819353102657695 0.020009924452989662 0 -0.0021693605586186487 0.020055484363934707 0 -0.0022251584862439545 0.020061529925460994 0 -0.0021693605586186487 0.020055484363934707 0 -0.0022251584862439545 0.020061529925460994 0 -0.0021666489055833277 0.020115646719516211 0 -0.0021666489055833277 0.020115646719516211 0 -0.0021172881744073585 0.020080394575871317 0 -0.0021007743763035796 0.02015448261251641 0 -0.0021693605586186487 0.020055484363934707 0 -0.0021666489055833277 0.020115646719516211 0 -0.0021172881744073585 0.020080394575871317 0 -0.0022251584862439545 0.020061529925460994 0 -0.0023094886840150093 0.020100033187618913 0 -0.0022262287055456217 0.020158868749918023 0 -0.0023094886840150093 0.020100033187618913 0 -0.0022954435006856022 0.020050104862645406 0 -0.0023886255632883709 0.020044721752225454 0 -0.0022251584862439545 0.020061529925460994 0 -0.0023094886840150093 0.020100033187618913 0 -0.0022954435006856022 0.020050104862645406 0 -0.0022251584862439545 0.020061529925460994 0 -0.0022954435006856022 0.020050104862645406 0 -0.0022451439001439973 0.020006714465054712 0 -0.0022954435006856022 0.020050104862645406 0 -0.0023249852136031008 0.020009368418090926 0 -0.0023886255632883709 0.020044721752225454 0 -0.0023249852136031008 0.020009368418090926 0 -0.0022451439001439973 0.020006714465054712 0 -0.002361525228035261 0.019961244837024862 0 -0.0022954435006856022 0.020050104862645406 0 -0.0023249852136031008 0.020009368418090926 0 -0.0022451439001439973 0.020006714465054712 0 -0.0022199203753753356 0.019987929718726857 0 -0.0022451439001439973 0.020006714465054712 0 -0.002361525228035261 0.019961244837024862 0 -0.0023249852136031008 0.020009368418090926 0 -0.002361525228035261 0.019961244837024862 0 -0.0024233366931560498 0.019979851475151092 0 -0.0024716628087973853 0.019930489089007037 0 -0.002361525228035261 0.019961244837024862 0 -0.0024233366931560498 0.019979851475151092 0 -0.0024716628087973853 0.019930489089007037 0 -0.0024233366931560498 0.019979851475151092 0 -0.0024947747265480981 0.019955570656963059 0 -0.0024233366931560498 0.019979851475151092 0 -0.0024947747265480981 0.019955570656963059 0 -0.0024924599457818064 0.019990148588956591 0 -0.0024233366931560498 0.019979851475151092 0 -0.0023886255632883709 0.020044721752225454 0 -0.0024525692121398495 0.020017365558542676 0 -0.0024233366931560498 0.019979851475151092 0 -0.0024924599457818064 0.019990148588956591 0 -0.0024525692121398495 0.020017365558542676 0 -0.0023249852136031008 0.020009368418090926 0 -0.0024233366931560498 0.019979851475151092 0 -0.0023886255632883709 0.020044721752225454 0 -0.0026624079867348079 0.020017178205522183 0 -0.0027424820175813189 0.020205486380045466 0 -0.0029309005813970847 0.020337316662828932 0 -0.0026722053698618213 0.020028749849784751 0 -0.0026744191644938698 0.020173960108155236 0 -0.0026624079867348079 0.020017178205522183 0 -0.0024524236945882489 0.019931200139153671 0 -0.0024947747265480981 0.019955570656963059 0 -0.0024947747265480981 0.019955570656963059 0 -0.0024924599457818064 0.019990148588956591 0 -0.0025537272023011827 0.02001013629182978 0 -0.0026624079867348079 0.020017178205522183 0 -0.0024947747265480981 0.019955570656963059 0 -0.0025537272023011827 0.02001013629182978 0 -0.0026624079867348079 0.020017178205522183 0 -0.0025537272023011827 0.02001013629182978 0 -0.0025851197878816439 0.02004472907913302 0 -0.0025141535942872703 0.020036287923824055 0 -0.0025537272023011827 0.02001013629182978 0 -0.0025851197878816439 0.02004472907913302 0 -0.0024924599457818064 0.019990148588956591 0 -0.0025141535942872703 0.020036287923824055 0 -0.0025537272023011827 0.02001013629182978 0 -0.0024924599457818064 0.019990148588956591 0 -0.0025141535942872703 0.020036287923824055 0 -0.0024525692121398495 0.020017365558542676 0 -0.0025141535942872703 0.020036287923824055 0 -0.0024569108637701349 0.020066555274068684 0 -0.0025233397301977663 0.020088018883241823 0 -0.0025141535942872703 0.020036287923824055 0 -0.0025851197878816439 0.02004472907913302 0 -0.0025233397301977663 0.020088018883241823 0 -0.0026178232665352488 0.020042035222342183 0 -0.0026624079867348079 0.020017178205522183 0 -0.0025851197878816439 0.02004472907913302 0 -0.0026178232665352488 0.020042035222342183 0 -0.0025851197878816439 0.02004472907913302 0 -0.0025233397301977663 0.020088018883241823 0 -0.0023886255632883709 0.020044721752225454 0 -0.0024525692121398495 0.020017365558542676 0 -0.0024569108637701349 0.020066555274068684 0 -0.0025141535942872703 0.020036287923824055 0 -0.0024525692121398495 0.020017365558542676 0 -0.0024569108637701349 0.020066555274068684 0 -0.0023886255632883709 0.020044721752225454 0 -0.0024569108637701349 0.020066555274068684 0 -0.0024082223518209636 0.02011251743327858 0 -0.0023094886840150093 0.020100033187618913 0 -0.0023886255632883709 0.020044721752225454 0 -0.0024082223518209636 0.02011251743327858 0 -0.0024569108637701349 0.020066555274068684 0 -0.0024082223518209636 0.02011251743327858 0 -0.0025233397301977663 0.020088018883241823 0 -0.0024082223518209636 0.02011251743327858 0 -0.0024876579834363049 0.020155143020194215 0 -0.0023960579220415452 0.020188676436152912 0 -0.0024082223518209636 0.02011251743327858 0 -0.0023960579220415452 0.020188676436152912 0 -0.0023165353501581115 0.020173535618839857 0 -0.0026053282712690542 0.020096684877695958 0 -0.0025233397301977663 0.020088018883241823 0 -0.0024876579834363049 0.020155143020194215 0 -0.0026053282712690542 0.020096684877695958 0 -0.0026178232665352488 0.020042035222342183 0 -0.0025233397301977663 0.020088018883241823 0 -0.0024082223518209636 0.02011251743327858 0 -0.0025233397301977663 0.020088018883241823 0 -0.0024876579834363049 0.020155143020194215 0 -0.0026053282712690542 0.020096684877695958 0 -0.0024876579834363049 0.020155143020194215 0 -0.0025462239690683098 0.020204569699719854 0 -0.0024876579834363049 0.020155143020194215 0 -0.0025462239690683098 0.020204569699719854 0 -0.0024313681617452658 0.02024751017381226 0 -0.0023960579220415452 0.020188676436152912 0 -0.0023177853360469708 0.020262467649404765 0 -0.0023165353501581115 0.020173535618839857 0 -0.0023960579220415452 0.020188676436152912 0 -0.0024313681617452658 0.02024751017381226 0 -0.0023177853360469708 0.020262467649404765 0 -0.0024876579834363049 0.020155143020194215 0 -0.0023960579220415452 0.020188676436152912 0 -0.0024313681617452658 0.02024751017381226 0 -0.0023418774030414015 0.020362275845062391 0 -0.0024313681617452658 0.02024751017381226 0 -0.0023177853360469708 0.020262467649404765 0 -0.0023177853360469708 0.020262467649404765 0 -0.0022473654060294582 0.02024054516023106 0 -0.0023165353501581115 0.020173535618839857 0 -0.0022091070536400833 0.02034566846735926 0 -0.0022473654060294582 0.02024054516023106 0 -0.002170626354233349 0.02024582770688212 0 -0.0022091070536400833 0.02034566846735926 0 -0.0023177853360469708 0.020262467649404765 0 -0.0022473654060294582 0.02024054516023106 0 -0.0020752454277848148 0.020348339819060601 0 -0.0022091070536400833 0.02034566846735926 0 -0.002170626354233349 0.02024582770688212 0 -0.0020752454277848148 0.020348339819060601 0 -0.002170626354233349 0.02024582770688212 0 -0.0020871600990657671 0.020241703001236667 0 -0.002170626354233349 0.02024582770688212 0 -0.0021510667775230577 0.020187014840453894 0 -0.0022262287055456217 0.020158868749918023 0 -0.0022473654060294582 0.02024054516023106 0 -0.002170626354233349 0.02024582770688212 0 -0.0022262287055456217 0.020158868749918023 0 -0.002170626354233349 0.02024582770688212 0 -0.0021510667775230577 0.020187014840453894 0 -0.0020871600990657671 0.020241703001236667 0 -0.0021510667775230577 0.020187014840453894 0 -0.0021007743763035796 0.02015448261251641 0 -0.0020871600990657671 0.020241703001236667 0 -0.0021666489055833277 0.020115646719516211 0 -0.0021510667775230577 0.020187014840453894 0 -0.0021007743763035796 0.02015448261251641 0 -0.0021666489055833277 0.020115646719516211 0 -0.0021510667775230577 0.020187014840453894 0 -0.0022262287055456217 0.020158868749918023 0 -0.0023094886840150093 0.020100033187618913 0 -0.0022262287055456217 0.020158868749918023 0 -0.0023165353501581115 0.020173535618839857 0 -0.0023094886840150093 0.020100033187618913 0 -0.0024082223518209636 0.02011251743327858 0 -0.0023165353501581115 0.020173535618839857 0 -0.0022473654060294582 0.02024054516023106 0 -0.0022262287055456217 0.020158868749918023 0 -0.0023165353501581115 0.020173535618839857 0 -0.0019413916762011615 0.020228555928864557 0 -0.0019630686815655112 0.020145750012287935 0 -0.0020272805868285192 0.020197380433148077 0 -0.0019413916762011615 0.020228555928864557 0 -0.0018688510366605285 0.020174018843188014 0 -0.0018657452498411207 0.020249128015091163 0 -0.0019413916762011615 0.020228555928864557 0 -0.0018688510366605285 0.020174018843188014 0 -0.0019630686815655112 0.020145750012287935 0 -0.0019630686815655112 0.020145750012287935 0 -0.0020272805868285192 0.020197380433148077 0 -0.0020367534691881554 0.020114892222343316 0 -0.0021007743763035796 0.02015448261251641 0 -0.0020272805868285192 0.020197380433148077 0 -0.0020367534691881554 0.020114892222343316 0 -0.0021007743763035796 0.02015448261251641 0 -0.0020272805868285192 0.020197380433148077 0 -0.0020871600990657671 0.020241703001236667 0 -0.0019413916762011615 0.020228555928864557 0 -0.0020272805868285192 0.020197380433148077 0 -0.0020009954993937826 0.020287547627460191 0 -0.0019432149983056696 0.020392863743996428 0 -0.0020752454277848148 0.020348339819060601 0 -0.0020009954993937826 0.020287547627460191 0 -0.0020272805868285192 0.020197380433148077 0 -0.0020009954993937826 0.020287547627460191 0 -0.0020871600990657671 0.020241703001236667 0 -0.0020752454277848148 0.020348339819060601 0 -0.0020009954993937826 0.020287547627460191 0 -0.0020871600990657671 0.020241703001236667 0 -0.0018062700999776917 0.020412385896915276 0 -0.0018657452498411207 0.020249128015091163 0 -0.0019194788011897162 0.020313046352030704 0 -0.0019432149983056696 0.020392863743996428 0 -0.0020009954993937826 0.020287547627460191 0 -0.0019194788011897162 0.020313046352030704 0 -0.0019413916762011615 0.020228555928864557 0 -0.0020009954993937826 0.020287547627460191 0 -0.0019194788011897162 0.020313046352030704 0 -0.0019413916762011615 0.020228555928864557 0 -0.0018657452498411207 0.020249128015091163 0 -0.0019194788011897162 0.020313046352030704 0 -0.0018062700999776917 0.020412385896915276 0 -0.0018657452498411207 0.020249128015091163 0 -0.0017787017627786522 0.0202450217393342 0 -0.0012594511568034034 0.021011634516738251 0 -0.001311826705014992 0.020903221584738056 0 -0.00072474849081383933 0.021580553529209248 0 -0.00075297305239694007 0.021606839877089515 0 -0.00073034802023353123 0.021617563966310066 0 -0.00075297305239694007 0.021606839877089515 0 -0.00073034802023353123 0.021617563966310066 0 -0.00076447382069253454 0.021633208226030695 0 -0.001311826705014992 0.020903221584738056 0 -0.00012567765015619907 0.02267364758549522 0 -0.00099661426428609198 0.02080790483776539 0 -0.00012567765015619907 0.02267364758549522 0 -0.0011761735841677573 0.021719767858695064 0 -0.0010797858026853179 0.021154701768363787 0 -0.00012995583230926655 0.021641255713075451 0 -0.0018688510366605285 0.020174018843188014 0 -0.0018657452498411207 0.020249128015091163 0 -0.0017711837504881074 0.020247898076736534 0 -0.0019064259248164381 0.020441265398436891 0 -0.001311826705014992 0.020903221584738056 0 -0.001311826705014992 0.020903221584738056 0 -0.00099661426428609198 0.02080790483776539 0 -0.0018688510366605285 0.020174018843188014 0 -0.0017711837504881074 0.020247898076736534 0 -0.0017481876346692711 0.020128217191024467 0 -0.00059450151403074298 0.021118198936564327 0 -0.00051372492530154905 0.020704406831715406 0 -0.0011260737045408439 0.020830921254214398 0 -0.0018688510366605285 0.020174018843188014 0 -0.0017481876346692711 0.020128217191024467 0 -0.0019185627618361777 0.020046065782227954 0 -0.00099661426428609198 0.02080790483776539 0 -0.0015606544623522171 0.020410610705395706 0 -0.00062867198518748544 0.021283989325918913 0 -2.7458546768096531e-05 0.020889567654685547 0 0.00024764447517290519 0.021746660840704726 0 -0.00099661426428609198 0.02080790483776539 0 -0.00054617958413327229 0.020865834855150544 0 -0.00062867198518748544 0.021283989325918913 0 -0.00051372492530154905 0.020704406831715406 0 -2.7458546768096531e-05 0.020889567654685547 0 -0.00046139740793215095 0.020463026644438182 0 -0.00032734472623427153 0.020149525890762389 0 -2.7458546768096531e-05 0.020889567654685547 0 -9.1331124974675855e-05 0.024863319807946434 0 -5.4556470443415652e-05 0.024901058403147935 0 -5.4390902866864496e-05 0.024932429389718229 0 -0.00033699610569788691 0.022307202612771818 0 1.9256810448080845e-05 0.023090819579880989 0 -0.00051372492530154905 0.020704406831715406 0 -0.00046139740793215095 0.020463026644438182 0 -2.7458546768096531e-05 0.020889567654685547 0 -0.00051372492530154905 0.020704406831715406 0 -0.00084950488220933266 0.020422904224425279 0 -0.0011260737045408439 0.020830921254214398 0 -0.00046139740793215095 0.020463026644438182 0 -0.00084950488220933266 0.020422904224425279 0 -0.00061037915163333195 0.020232269574292291 0 -0.00051372492530154905 0.020704406831715406 0 -0.00046139740793215095 0.020463026644438182 0 -0.00084950488220933266 0.020422904224425279 0 -0.00084950488220933266 0.020422904224425279 0 -0.0013165616231962066 0.020423687146882783 0 -0.0011260737045408439 0.020830921254214398 0 -0.00084950488220933266 0.020422904224425279 0 -0.0013165616231962066 0.020423687146882783 0 -0.0011249738438323523 0.020180360763036587 0 -0.0018688510366605285 0.020174018843188014 0 -0.0019630686815655112 0.020145750012287935 0 -0.0019185627618361777 0.020046065782227954 0 -0.0019630686815655112 0.020145750012287935 0 -0.0019185627618361777 0.020046065782227954 0 -0.0020367534691881554 0.020114892222343316 0 -0.0019185627618361777 0.020046065782227954 0 -0.0020654487747304761 0.020049676744514709 0 -0.0020993080999550983 0.019984452575353858 0 -0.0019185627618361777 0.020046065782227954 0 -0.0020367534691881554 0.020114892222343316 0 -0.0020654487747304761 0.020049676744514709 0 -0.0021172881744073585 0.020080394575871317 0 -0.0021007743763035796 0.02015448261251641 0 -0.0020367534691881554 0.020114892222343316 0 -0.0021172881744073585 0.020080394575871317 0 -0.0020367534691881554 0.020114892222343316 0 -0.0020654487747304761 0.020049676744514709 0 -0.0021331387614208046 0.020031721968647002 0 -0.0021172881744073585 0.020080394575871317 0 -0.0020654487747304761 0.020049676744514709 0 -0.0013165616231962066 0.020423687146882783 0 -0.0011260737045408439 0.020830921254214398 0 -0.0016420605286080079 0.020508227146490216 0 -0.0015606544623522171 0.020410610705395706 0 -0.001855832026757402 0.020245666611772514 0 -0.0021331387614208046 0.020031721968647002 0 -0.0020654487747304761 0.020049676744514709 0 -0.0020993080999550983 0.019984452575353858 0 -0.0013165616231962066 0.020423687146882783 0 -0.0016420605286080079 0.020508227146490216 0 -0.0015787250864648008 0.020320918648869767 0 -0.0013165616231962066 0.020423687146882783 0 -0.0015787250864648008 0.020320918648869767 0 -0.0014634467997196043 0.020197083148423334 0 -0.0018009472128164019 0.020333225893251129 0 -0.0015787250864648008 0.020320918648869767 0 -0.0016708892997233922 0.020154677144679209 0 -0.0018009472128164019 0.020333225893251129 0 -0.0016420605286080079 0.020508227146490216 0 -0.0015787250864648008 0.020320918648869767 0 -0.001676235101810191 0.020476980506304601 0 -0.00099512693463577311 0.020700514371776925 0 -0.0019781201537989244 0.020023845949463919 0 -0.0016708892997233922 0.020154677144679209 0 -0.0014426289907565504 0.019894042844231304 0 -0.0015787250864648008 0.020320918648869767 0 -0.0016708892997233922 0.020154677144679209 0 -0.0014634467997196043 0.020197083148423334 0 -0.0016708892997233922 0.020154677144679209 0 -0.0014634467997196043 0.020197083148423334 0 -0.0014426289907565504 0.019894042844231304 0 -0.0011249738438323523 0.020180360763036587 0 -0.00098135480113056687 0.020003655032345861 0 -0.0014426289907565504 0.019894042844231304 0 -0.0011249738438323523 0.020180360763036587 0 -0.00098135480113056687 0.020003655032345861 0 -0.00084194389353393895 0.020165300415450133 0 -0.0013165616231962066 0.020423687146882783 0 -0.0014634467997196043 0.020197083148423334 0 -0.0011249738438323523 0.020180360763036587 0 -0.0014634467997196043 0.020197083148423334 0 -0.0011249738438323523 0.020180360763036587 0 -0.0014426289907565504 0.019894042844231304 0 -0.00052807317888301679 0.021629432562361314 0 -0.00060472533839192079 0.021664985061018487 0 -0.00062710996458079473 0.021584184136492764 0 -0.00099512693463577311 0.020700514371776925 0 -0.00037178774641777692 0.021749126005580696 0 -0.00052807317888301679 0.021629432562361314 0 -0.00060472533839192079 0.021664985061018487 0 -0.00049280189185844556 0.021648033107109943 0 -0.00098135480113056687 0.020003655032345861 0 -0.0014426289907565504 0.019894042844231304 0 -0.00081216795912708052 0.01976301810697606 0 -0.00068840990779408108 0.021613648057542994 0 -0.00060472533839192079 0.021664985061018487 0 -0.00062710996458079473 0.021584184136492764 0 0.0007352792199248557 0.023807071735527662 0 0.00066350740185300034 0.023848264541680014 0 0.00072201206286344054 0.023746456417393414 0 0.00064580911746126631 0.023814258546923678 0 0.00066350740185300034 0.023848264541680014 0 0.00058952055786084265 0.023911578241281883 0 0.00013509396979545797 0.022586862996819109 0 2.4455351277944259e-05 0.022704754375060379 0 0.00064580911746126631 0.023814258546923678 0 0.0007352792199248557 0.023807071735527662 0 0.00066350740185300034 0.023848264541680014 0 0.00072201206286344054 0.023746456417393414 0 0.00058737783399250433 0.023858298361457236 0 0.0006557344787233788 0.023747274521337097 0 0.00066350740185300034 0.023848264541680014 0 0.00072201206286344054 0.023746456417393414 0 0.00058737783399250433 0.023858298361457236 0 0.00073455783269785679 0.023635531614693846 0 0.0007352792199248557 0.023807071735527662 0 0.00080527857525045674 0.023640215941458091 0 0.0007352792199248557 0.023807071735527662 0 0.00072201206286344054 0.023746456417393414 0 0.00080527857525045674 0.023640215941458091 0 0.00051514980193695826 0.023937452332976322 0 0.00053597192696745472 0.02430191414973492 0 0.00056457585219038715 0.023820662051641954 0 0.00051514980193695826 0.023937452332976322 0 0.00056457585219038715 0.023820662051641954 0 0.00054573139256025864 0.023802619718594743 0 0.00051514980193695826 0.023937452332976322 0 0.00058737783399250433 0.023858298361457236 0 0.00049676088635341499 0.024023799080393041 0 0.00051514980193695826 0.023937452332976322 0 0.00058737783399250433 0.023858298361457236 0 0.00054573139256025864 0.023802619718594743 0 0.00058737783399250433 0.023858298361457236 0 0.00058952055786084265 0.023911578241281883 0 0.00049676088635341499 0.024023799080393041 0 0.00066350740185300034 0.023848264541680014 0 0.00058737783399250433 0.023858298361457236 0 0.00058952055786084265 0.023911578241281883 0 0.00064580911746126631 0.023814258546923678 0 0.00058952055786084265 0.023911578241281883 0 0.00049676088635341499 0.024023799080393041 0 0.00051514980193695826 0.023937452332976322 0 0.00049676088635341499 0.024023799080393041 0 0.00053597192696745472 0.02430191414973492 0 0.00049676088635341499 0.024023799080393041 0 0.00053597192696745472 0.02430191414973492 0 0.00050211577893444085 0.024335816122097422 0 0.00065198547757696333 0.024458775958873837 0 -6.4932208590408341e-05 0.022954628882696736 0 0.00049676088635341499 0.024023799080393041 0 0.00050211577893444085 0.024335816122097422 0 0.00046947073709572098 0.024327906945812362 0 0.00049676088635341499 0.024023799080393041 0 0.00056499684743560575 0.023770129720650447 0 0.00031634476142225715 0.023634825420360772 0 0.00064580911746126631 0.023814258546923678 0 0.00049676088635341499 0.024023799080393041 0 0.00056499684743560575 0.023770129720650447 0 0.00013509396979545797 0.022586862996819109 0 -0.00037178774641777692 0.021749126005580696 0 -0.00037178774641777692 0.021749126005580696 0 -6.4932208590408341e-05 0.022954628882696736 0 -0.00081216795912708052 0.01976301810697606 0 -0.00071408903799496817 0.020020161673991496 0 -0.00042639851736036259 0.019971738843966289 0 -0.00098135480113056687 0.020003655032345861 0 -0.00081216795912708052 0.01976301810697606 0 -0.00071408903799496817 0.020020161673991496 0 -0.00098135480113056687 0.020003655032345861 0 -0.00071408903799496817 0.020020161673991496 0 -0.00084194389353393895 0.020165300415450133 0 -0.00071408903799496817 0.020020161673991496 0 -0.00061037915163333195 0.020232269574292291 0 -0.00042639851736036259 0.019971738843966289 0 -0.00071408903799496817 0.020020161673991496 0 -0.00061037915163333195 0.020232269574292291 0 -0.00084194389353393895 0.020165300415450133 0 -0.00084950488220933266 0.020422904224425279 0 -0.00061037915163333195 0.020232269574292291 0 -0.00084194389353393895 0.020165300415450133 0 -0.00084950488220933266 0.020422904224425279 0 -0.0011249738438323523 0.020180360763036587 0 -0.00084194389353393895 0.020165300415450133 0 -0.00030747938288737446 0.02311677189476136 0 -0.00022401686130201263 0.023350468401211098 0 2.4822890406028789e-05 0.023290817267465614 0 -6.4932208590408341e-05 0.022954628882696736 0 0.00012677074675125749 0.024135507669377058 0 0.00050211577893444085 0.024335816122097422 0 0.00046947073709572098 0.024327906945812362 0 0.0004832907386749111 0.024275092178291456 0 -6.4932208590408341e-05 0.022954628882696736 0 -0.00033699610569788691 0.022307202612771818 0 -0.00046139740793215095 0.020463026644438182 0 -0.00061037915163333195 0.020232269574292291 0 -0.00032734472623427153 0.020149525890762389 0 -0.00029099222144239828 0.020949444206197383 0 -0.00033699610569788691 0.022307202612771818 0 -0.00061037915163333195 0.020232269574292291 0 -0.00042639851736036259 0.019971738843966289 0 -0.0003522295593173662 0.020181191231009827 0 -0.00033699610569788691 0.022307202612771818 0 0.00012677074675125749 0.024135507669377058 0 -9.1331124974675855e-05 0.024863319807946434 0 -6.4734839031035506e-05 0.024862518687020163 0 -5.4556470443415652e-05 0.024901058403147935 0 -3.5187735023918695e-06 0.024952927074465035 0 1.2467083714621341e-05 0.024955097519837995 0 -2.05483786656584e-05 0.024970987151823578 0 0.00012677074675125749 0.024135507669377058 0 0.00011643977805520825 0.024800497814998025 0 -3.4084005244984752e-05 0.024901842462025175 0 -6.4734839031035506e-05 0.024862518687020163 0 -5.4556470443415652e-05 0.024901058403147935 0 2.3777383673093333e-05 0.024913030766114647 0 0.00012677074675125749 0.024135507669377058 0 -3.5187735023918695e-06 0.024952927074465035 0 -2.05483786656584e-05 0.024970987151823578 0 -1.8209178086123513e-05 0.024950779174822364 0 0.00018878238814708581 0.024467660190072675 0 0.00021011179276489596 0.024611073022649258 0 0.00037593336455741329 0.024420775144740853 0 0.0004832907386749111 0.024275092178291456 0 0.00018878238814708581 0.024467660190072675 0 0.00037593336455741329 0.024420775144740853 0 0.00050211577893444085 0.024335816122097422 0 0.0004832907386749111 0.024275092178291456 0 0.00037593336455741329 0.024420775144740853 0 0.00053597192696745472 0.02430191414973492 0 0.00050211577893444085 0.024335816122097422 0 0.00037593336455741329 0.024420775144740853 0 0.00053597192696745472 0.02430191414973492 0 0.0002923250970720659 0.024568562429789859 0 0.00032469852983498031 0.024851839708525027 0 0.00053597192696745472 0.02430191414973492 0 0.00037593336455741329 0.024420775144740853 0 0.0002923250970720659 0.024568562429789859 0 0.00021011179276489596 0.024611073022649258 0 0.00037593336455741329 0.024420775144740853 0 0.0002923250970720659 0.024568562429789859 0 0.00021011179276489596 0.024611073022649258 0 0.0002923250970720659 0.024568562429789859 0 0.00012973055502890952 0.02478492528072947 0 0.00032469852983498031 0.024851839708525027 0 0.00012973055502890952 0.02478492528072947 0 0.00014186570901410792 0.024913616534117795 0 0.0002923250970720659 0.024568562429789859 0 0.00032469852983498031 0.024851839708525027 0 0.00012973055502890952 0.02478492528072947 0 0.00052474282153177915 0.024295710032294724 0 0.00043531844704957284 0.024334466583688378 0 4.6515233279451086e-05 0.024905370502888286 0 9.7773650324766901e-09 0.02499969466589412 0 3.399555617303187e-08 0.024999927914373055 0 4.6515233279451086e-05 0.024905370502888286 0 0.00012973055502890952 0.02478492528072947 0 0.00014186570901410792 0.024913616534117795 0 4.6515233279451086e-05 0.024905370502888286 0 0.00012973055502890952 0.02478492528072947 0 7.9165892491673805e-05 0.024788085375782924 0 0.00021011179276489596 0.024611073022649258 0 0.00012973055502890952 0.02478492528072947 0 7.9165892491673805e-05 0.024788085375782924 0 4.6515233279451086e-05 0.024905370502888286 0 7.9165892491673805e-05 0.024788085375782924 0 2.743117128781319e-05 0.024903030447860696 0 9.7773650324766901e-09 0.02499969466589412 0 2.743117128781319e-05 0.024903030447860696 0 -4.8640297176264677e-06 0.024947626679184487 0 4.6515233279451086e-05 0.024905370502888286 0 9.7773650324766901e-09 0.02499969466589412 0 2.743117128781319e-05 0.024903030447860696 0 9.7773650324766901e-09 0.02499969466589412 0 -4.8640297176264677e-06 0.024947626679184487 0 -1.4866732522635262e-09 0.024999857635465726 0 7.9165892491673805e-05 0.024788085375782924 0 2.743117128781319e-05 0.024903030447860696 0 -4.8640297176264677e-06 0.024947626679184487 0 -4.8640297176264677e-06 0.024947626679184487 0 -1.4866732522635262e-09 0.024999857635465726 0 -1.199076617031698e-05 0.024973260313261865 0 0.00011643977805520825 0.024800497814998025 0 8.7276877979132108e-06 0.024888930570883212 0 0.00018878238814708581 0.024467660190072675 0 0.00021011179276489596 0.024611073022649258 0 7.9165892491673805e-05 0.024788085375782924 0 0.00018878238814708581 0.024467660190072675 0 7.9165892491673805e-05 0.024788085375782924 0 -4.8640297176264677e-06 0.024947626679184487 0 -2.05483786656584e-05 0.024970987151823578 0 -4.8640297176264677e-06 0.024947626679184487 0 -1.199076617031698e-05 0.024973260313261865 0 -2.05483786656584e-05 0.024970987151823578 0 -1.3235725553357659e-05 0.024976370373008327 0 -1.8209178086123513e-05 0.024950779174822364 0 -2.05483786656584e-05 0.024970987151823578 0 -1.3235725553357659e-05 0.024976370373008327 0 -1.199076617031698e-05 0.024973260313261865 0 -1.3235725553357659e-05 0.024976370373008327 0 -1.4866732522635262e-09 0.024999857635465726 0 -1.199076617031698e-05 0.024973260313261865 0 -1.3235725553357659e-05 0.024976370373008327 0 -1.4866732522635262e-09 0.024999857635465726 0 -6.1757864320449719e-09 0.024999998036849134 0 -1.3235725553357659e-05 0.024976370373008327 0 -6.1757864320449719e-09 0.024999998036849134 0 -1.2807832244873399e-05 0.02497257002219555 0 -6.1757864320449719e-09 0.024999998036849134 0 -7.2222266576727878e-06 0.024985590412583941 0 -1.2807832244873399e-05 0.02497257002219555 0 -6.1757864320449719e-09 0.024999998036849134 0 -7.2222266576727878e-06 0.024985590412583941 0 -1.299846201261559e-08 0.024999953055076109 0 -7.2222266576727878e-06 0.024985590412583941 0 -2.9681593086614108e-05 0.024958877191331299 0 -1.734792379276875e-05 0.024980572540341285 0 -7.2222266576727878e-06 0.024985590412583941 0 -1.2807832244873399e-05 0.02497257002219555 0 -2.9681593086614108e-05 0.024958877191331299 0 -1.3235725553357659e-05 0.024976370373008327 0 -1.2807832244873399e-05 0.02497257002219555 0 -1.8209178086123513e-05 0.024950779174822364 0 -1.2807832244873399e-05 0.02497257002219555 0 -1.8209178086123513e-05 0.024950779174822364 0 -2.9681593086614108e-05 0.024958877191331299 0 -1.8209178086123513e-05 0.024950779174822364 0 -3.5253451259398856e-05 0.024936719423075439 0 -2.9681593086614108e-05 0.024958877191331299 0 2.3777383673093333e-05 0.024913030766114647 0 -2.566205147022707e-05 0.024934691443694694 0 -3.4084005244984752e-05 0.024901842462025175 0 -1.8209178086123513e-05 0.024950779174822364 0 -3.5253451259398856e-05 0.024936719423075439 0 -3.4084005244984752e-05 0.024901842462025175 0 -5.4556470443415652e-05 0.024901058403147935 0 -3.5253451259398856e-05 0.024936719423075439 0 -5.4556470443415652e-05 0.024901058403147935 0 -3.5253451259398856e-05 0.024936719423075439 0 -5.4390902866864496e-05 0.024932429389718229 0 -5.4390902866864496e-05 0.024932429389718229 0 -3.6849296772395869e-05 0.024942883915964116 0 -3.5679740459065565e-05 0.02492959527396128 0 -3.5253451259398856e-05 0.024936719423075439 0 -5.4390902866864496e-05 0.024932429389718229 0 -3.6849296772395869e-05 0.024942883915964116 0 -3.5253451259398856e-05 0.024936719423075439 0 -3.6849296772395869e-05 0.024942883915964116 0 -2.9681593086614108e-05 0.024958877191331299 0 -3.6849296772395869e-05 0.024942883915964116 0 -2.9681593086614108e-05 0.024958877191331299 0 -4.0321169585429279e-05 0.024933948376136553 0 -2.9681593086614108e-05 0.024958877191331299 0 -3.5499310875824615e-05 0.024989061022806732 0 -1.734792379276875e-05 0.024980572540341285 0 -5.3368134936135773e-05 0.025069577134008543 0 -0.00012551416725784044 0.024601542937567274 0 -3.6849296772395869e-05 0.024942883915964116 0 -4.0321169585429279e-05 0.024933948376136553 0 -3.5679740459065565e-05 0.02492959527396128 0 1.9242535172601249e-05 0.023610749841196495 0 -0.00018396046935705216 0.023621937698707889 0 -6.7852375719800577e-06 0.023715897453888645 0 -0.00012551416725784044 0.024601542937567274 0 -0.00012567765015619907 0.02267364758549522 0 -0.00012551416725784044 0.024601542937567274 0 -4.3755004918045629e-05 0.023891588678169335 0 -1.2371761109388881e-05 0.02497576025440295 0 -1.3475665059748553e-05 0.024977358463442834 0 -7.9924562517710074e-06 0.024983477040692387 0 1.9256810448080845e-05 0.023090819579880989 0 -0.00012567765015619907 0.02267364758549522 0 -0.00012567765015619907 0.02267364758549522 0 -4.3755004918045629e-05 0.023891588678169335 0 -0.00077921597820396855 0.021601570554800786 0 -0.00075297305239694007 0.021606839877089515 0 -0.00076447382069253454 0.021633208226030695 0 -0.00038065287991827311 0.022589453840607083 0 -0.00012567765015619907 0.02267364758549522 0 -6.5260009321829518e-05 0.023533254581107239 0 -0.00012603291303498335 0.023785255865219807 0 -0.0003819288078638674 0.02366043635209009 0 -0.00018993976416551757 0.022889051358209976 0 -0.00010246996611473387 0.023111353524460865 0 -0.00022879875684885537 0.023049652110171046 0 -4.3755004918045629e-05 0.023891588678169335 0 -0.00020141784601716264 0.024318106045683578 0 -1.3475665059748553e-05 0.024977358463442834 0 -7.5245937758917392e-06 0.024984332188489122 0 -7.9924562517710074e-06 0.024983477040692387 0 -0.00038065287991827311 0.022589453840607083 0 -4.3755004918045629e-05 0.023891588678169335 0 -7.5245937758917392e-06 0.024984332188489122 0 -7.9924562517710074e-06 0.024983477040692387 0 -5.4750593467338999e-06 0.024988390277010598 0 -0.00018692977342937503 0.02452383056105039 0 -0.00020141784601716264 0.024318106045683578 0 -8.3515188520157055e-06 0.024982081113844107 0 -7.5245937758917392e-06 0.024984332188489122 0 -5.4750593467338999e-06 0.024988390277010598 0 -0.00018692977342937503 0.02452383056105039 0 -7.6509985269569771e-08 0.025000500059271659 0 -8.3515188520157055e-06 0.024982081113844107 0 -5.4750593467338999e-06 0.024988390277010598 0 -1.299846201261559e-08 0.024999953055076109 0 -1.6729913808672356e-09 0.024999995201467031 0 -8.5105176122031806e-07 0.024998405381828761 0 -4.3444059045749516e-11 0.024999998408753388 0 -5.4750593467338999e-06 0.024988390277010598 0 -3.6996879298893542e-06 0.024992272483729819 0 -1.299846201261559e-08 0.024999953055076109 0 -7.2222266576727878e-06 0.024985590412583941 0 -3.6996879298893542e-06 0.024992272483729819 0 -1.299846201261559e-08 0.024999953055076109 0 -3.5499310875824615e-05 0.024989061022806732 0 -3.6996879298893542e-06 0.024992272483729819 0 -1.734792379276875e-05 0.024980572540341285 0 -0.00012551416725784044 0.024601542937567274 0 3.335685359573336e-05 0.025093323585096129 0 -7.2222266576727878e-06 0.024985590412583941 0 -3.6996879298893542e-06 0.024992272483729819 0 -1.734792379276875e-05 0.024980572540341285 0 -7.9924562517710074e-06 0.024983477040692387 0 -5.4750593467338999e-06 0.024988390277010598 0 -3.6996879298893542e-06 0.024992272483729819 0 -1.2371761109388881e-05 0.02497576025440295 0 -7.9924562517710074e-06 0.024983477040692387 0 -3.6996879298893542e-06 0.024992272483729819 0 -0.0021859720486865583 0.0037676037630250134 0 -0.002366552768791635 0.002637047174357286 0 -0.0021509257529102399 0.0039046969037614589 0 -0.0023050167780483883 0.0030403865828328431 0 -0.0028310837154365484 0.0038415247752974892 0 -0.0021509257529102399 0.0039046969037614589 0 -0.001226800021277182 0.0027885805755928882 0 -0.0024402037345903384 0.0022475205566635887 0 -0.0021509257529102399 0.0039046969037614589 0 -0.0012059385373212233 0.0041112558641043856 0 -0.001226800021277182 0.0027885805755928882 0 -0.0012059385373212233 0.0041112558641043856 0 -0.00035895834687323016 0.0034929747771417999 0 -0.001226800021277182 0.0027885805755928882 0 -0.00035895834687323016 0.0034929747771417999 0 -0.001226800021277182 0.0027885805755928882 0 6.4280869497488171e-05 0.0022704672064118542 0 -0.001226800021277182 0.0027885805755928882 0 -0.00068931686386576303 0.0016518724689934745 0 6.4280869497488171e-05 0.0022704672064118542 0 -0.00068931686386576303 0.0016518724689934745 0 6.4280869497488171e-05 0.0022704672064118542 0 0.00010991268233548217 0.0009530291292332505 0 -0.001226800021277182 0.0027885805755928882 0 -0.00068931686386576303 0.0016518724689934745 0 -0.0016235339130390076 0.0013974072514479552 0 -0.0016235339130390076 0.0013974072514479552 0 -0.0024402037345903384 0.0022475205566635887 0 -0.0026554767990025316 0.00067169923162782488 0 -0.002366552768791635 0.002637047174357286 0 -0.0016506868343885827 0.0013832732067190609 0 -0.001226800021277182 0.0027885805755928882 0 -0.0016235339130390076 0.0013974072514479552 0 -0.0024402037345903384 0.0022475205566635887 0 -0.0023050167780483883 0.0030403865828328431 0 -0.0029931530552722123 0.0027146542346623455 0 -0.0024288529805941905 0.0020244235608782263 0 -0.0023050167780483883 0.0030403865828328431 0 -0.0029931530552722123 0.0027146542346623455 0 -0.0033050811859507154 0.0033089422379499931 0 -0.0029931530552722123 0.0027146542346623455 0 -0.0033050811859507154 0.0033089422379499931 0 -0.003943326830775481 0.0024769270839700825 0 -0.0033050811859507154 0.0033089422379499931 0 -0.0042559215555553597 0.003427375094312088 0 -0.003943326830775481 0.0024769270839700825 0 -0.0042559215555553597 0.003427375094312088 0 -0.0036457317019467335 0.0042247066774861158 0 -0.0048762816648097044 0.0041154346617590419 0 -0.0033050811859507154 0.0033089422379499931 0 -0.0042559215555553597 0.003427375094312088 0 -0.0036457317019467335 0.0042247066774861158 0 -0.0023050167780483883 0.0030403865828328431 0 -0.0033050811859507154 0.0033089422379499931 0 -0.0028310837154365484 0.0038415247752974892 0 -0.0036457317019467335 0.0042247066774861158 0 -0.0028310837154365484 0.0038415247752974892 0 -0.002814506481036962 0.0049128969601066061 0 -0.0021509257529102399 0.0039046969037614589 0 -0.0028310837154365484 0.0038415247752974892 0 -0.002814506481036962 0.0049128969601066061 0 -0.0033050811859507154 0.0033089422379499931 0 -0.0036457317019467335 0.0042247066774861158 0 -0.0028310837154365484 0.0038415247752974892 0 -0.002814506481036962 0.0049128969601066061 0 -0.0039343794886870847 0.0051382764193579232 0 -0.0034515198462003109 0.0059366699663472213 0 -0.0036457317019467335 0.0042247066774861158 0 -0.0039343794886870847 0.0051382764193579232 0 -0.0048762816648097044 0.0041154346617590419 0 -0.0036457317019467335 0.0042247066774861158 0 -0.002814506481036962 0.0049128969601066061 0 -0.0039343794886870847 0.0051382764193579232 0 -0.0039343794886870847 0.0051382764193579232 0 -0.0042022168441839354 0.0059404055771847914 0 -0.004782652351889947 0.0053391293372730356 0 -0.0039343794886870847 0.0051382764193579232 0 -0.0034515198462003109 0.0059366699663472213 0 -0.0042022168441839354 0.0059404055771847914 0 -0.0034515198462003109 0.0059366699663472213 0 -0.0042022168441839354 0.0059404055771847914 0 -0.0038097498957637343 0.0064826037994468056 0 -0.0042022168441839354 0.0059404055771847914 0 -0.0043585098223596769 0.0065331545845801657 0 -0.0038097498957637343 0.0064826037994468056 0 -0.002814506481036962 0.0049128969601066061 0 -0.0034515198462003109 0.0059366699663472213 0 -0.0018089812260075173 0.0061174514910120941 0 -0.0034370921853050058 0.005894236316074216 0 -0.0019813767031140127 0.0063621717163274468 0 -0.0034515198462003109 0.0059366699663472213 0 -0.0024046033018626555 0.0061139689206923791 0 -0.0029975159627469981 0.0065782155803514051 0 -0.0018089812260075173 0.0061174514910120941 0 -0.0017101845735535055 0.0048567358019455083 0 -0.0005354426913414999 0.0050051151373313235 0 -0.0021509257529102399 0.0039046969037614589 0 -0.002814506481036962 0.0049128969601066061 0 -0.0017101845735535055 0.0048567358019455083 0 -0.002814506481036962 0.0049128969601066061 0 -0.0018089812260075173 0.0061174514910120941 0 -0.0017101845735535055 0.0048567358019455083 0 -0.0021509257529102399 0.0039046969037614589 0 -0.0012059385373212233 0.0041112558641043856 0 -0.0017101845735535055 0.0048567358019455083 0 -0.0012059385373212233 0.0041112558641043856 0 -0.00035895834687323016 0.0034929747771417999 0 -0.0005354426913414999 0.0050051151373313235 0 -0.0012059385373212233 0.0041112558641043856 0 -0.0017101845735535055 0.0048567358019455083 0 -0.0005354426913414999 0.0050051151373313235 0 -0.0019813767031140127 0.0063621717163274468 0 -0.0012348759896323282 0.0040561520554466277 0 -0.0018089812260075173 0.0061174514910120941 0 -0.0005354426913414999 0.0050051151373313235 0 5.0398150277796122e-05 0.0063496253543619792 0 -0.0012348759896323282 0.0040561520554466277 0 -0.00012734051102015231 0.0017421697978103222 0 -0.00085821866409616749 0.0012531461829184958 0 -0.0010132509471899723 0.0013232868678298279 0 -0.00095363112997810665 0.0014875890414226762 0 -0.0010132509471899723 0.0013232868678298279 0 -0.0011868941602286602 0.0013108939507549466 0 -0.0011339420529815371 0.0011863001430734415 0 -0.00085821866409616749 0.0012531461829184958 0 -0.0010132509471899723 0.0013232868678298279 0 -0.0011339420529815371 0.0011863001430734415 0 -0.0010132509471899723 0.0013232868678298279 0 -0.00095363112997810665 0.0014875890414226762 0 -0.0011868941602286602 0.0013108939507549466 0 -0.00012734051102015231 0.0017421697978103222 0 -0.00098539934857973807 -0.00099597501459928496 0 -0.00036541440588275248 -0.0025015164270459087 0 -0.00032970699450961835 -0.0024826502669557634 0 -0.00036357091220885795 -0.0025088568367398379 0 -0.0005354426913414999 0.0050051151373313235 0 5.0398150277796122e-05 0.0063496253543619792 0 0.00088979814402625058 0.0044198344404987287 0 -0.00035895834687323016 0.0034929747771417999 0 -0.0005354426913414999 0.0050051151373313235 0 0.00088979814402625058 0.0044198344404987287 0 -0.00027080426809337067 -0.0025127818871798478 0 -0.00036357091220885795 -0.0025088568367398379 0 -0.00028878167623198702 -0.0025565732295986078 0 -0.00027080426809337067 -0.0025127818871798478 0 -0.00036357091220885795 -0.0025088568367398379 0 -0.00029009006404118897 -0.0024671992302861788 0 -0.0011868941602286602 0.0013108939507549466 0 -0.0014163527833075877 0.0011138718450423967 0 -0.0011339420529815371 0.0011863001430734415 0 -0.00098539934857973807 -0.00099597501459928496 0 -0.00075710323904225948 -0.00052279319908832798 0 -0.00036357091220885795 -0.0025088568367398379 0 -0.0003397524315615703 -0.0025420291322598089 0 -0.00028878167623198702 -0.0025565732295986078 0 -0.00036541440588275248 -0.0025015164270459087 0 -0.00036357091220885795 -0.0025088568367398379 0 -0.0003397524315615703 -0.0025420291322598089 0 -0.00036541440588275248 -0.0025015164270459087 0 -0.0003397524315615703 -0.0025420291322598089 0 -0.00035463128465335004 -0.0025782429870105945 0 -0.0003397524315615703 -0.0025420291322598089 0 -0.00028878167623198702 -0.0025565732295986078 0 -0.00031925021653917204 -0.0026092714718479104 0 -0.00026663863676437639 -0.002622311184399435 0 -0.00028878167623198702 -0.0025565732295986078 0 -0.00031925021653917204 -0.0026092714718479104 0 -0.00026663863676437639 -0.002622311184399435 0 -0.00031925021653917204 -0.0026092714718479104 0 -0.00028397316587662426 -0.0026708348827021431 0 -0.0003397524315615703 -0.0025420291322598089 0 -0.00031925021653917204 -0.0026092714718479104 0 -0.00035463128465335004 -0.0025782429870105945 0 -0.00031925021653917204 -0.0026092714718479104 0 -0.00035463128465335004 -0.0025782429870105945 0 -0.0003506511506144796 -0.0026147976287179573 0 -0.00035463128465335004 -0.0025782429870105945 0 -0.0003506511506144796 -0.0026147976287179573 0 -0.00037321693138731357 -0.0026153488657124002 0 -0.00031925021653917204 -0.0026092714718479104 0 -0.00034407881131326374 -0.0026522246598863794 0 -0.00032067485767073387 -0.0026818439418942455 0 -0.0003506511506144796 -0.0026147976287179573 0 -0.00034407881131326374 -0.0026522246598863794 0 -0.00036578160923722412 -0.0026397133784976973 0 -0.00034407881131326374 -0.0026522246598863794 0 -0.0003687743194876696 -0.0026682556497690229 0 -0.00034133826999917732 -0.0026958470510142557 0 -0.00034407881131326374 -0.0026522246598863794 0 -0.00036578160923722412 -0.0026397133784976973 0 -0.0003687743194876696 -0.0026682556497690229 0 -0.00034407881131326374 -0.0026522246598863794 0 -0.00032067485767073387 -0.0026818439418942455 0 -0.00034133826999917732 -0.0026958470510142557 0 -0.00031925021653917204 -0.0026092714718479104 0 -0.0003506511506144796 -0.0026147976287179573 0 -0.00034407881131326374 -0.0026522246598863794 0 -0.00031925021653917204 -0.0026092714718479104 0 -0.00028397316587662426 -0.0026708348827021431 0 -0.00032067485767073387 -0.0026818439418942455 0 -0.00028397316587662426 -0.0026708348827021431 0 -0.00032067485767073387 -0.0026818439418942455 0 -0.00031767673469643116 -0.0027242809108401133 0 0.00040131082685937507 0.004194967591411909 0 -0.00012734051102015231 0.0017421697978103222 0 0.0010093815499115548 0.0044061620742623271 0 0.00078494853072346143 0.0028797007660839777 0 0.0017566409267340327 0.0026583899093742753 0 -0.00035895834687323016 0.0034929747771417999 0 0.0010093815499115548 0.0044061620742623271 0 0.00078494853072346143 0.0028797007660839777 0 -0.00035895834687323016 0.0034929747771417999 0 0.00078494853072346143 0.0028797007660839777 0 6.4280869497488171e-05 0.0022704672064118542 0 -0.00036541440588275248 -0.0025015164270459087 0 -0.00035463128465335004 -0.0025782429870105945 0 -0.00040325018342146965 -0.002607868906339697 0 -0.00012734051102015231 0.0017421697978103222 0 9.6991276353139096e-05 -0.0010372160522681389 0 -0.00036541440588275248 -0.0025015164270459087 0 -0.00032970699450961835 -0.0024826502669557634 0 -0.00034925029375461325 -0.0023524041364009051 0 -0.00050664670479284477 -0.0030666613577509955 0 9.6991276353139096e-05 -0.0010372160522681389 0 -0.00035463128465335004 -0.0025782429870105945 0 -0.00040325018342146965 -0.002607868906339697 0 -0.00037321693138731357 -0.0026153488657124002 0 0.00078494853072346143 0.0028797007660839777 0 0.0017566409267340327 0.0026583899093742753 0 0.0014443743869271004 0.001097557498825664 0 -0.000400556670637874 -0.002600092315004725 0 -0.00039011420868824718 -0.0026270477948930897 0 -0.00040604190399669466 -0.0026694786036529456 0 9.6991276353139096e-05 -0.0010372160522681389 0 0.0005401803871067668 -0.00052421139077358766 0 9.6991276353139096e-05 -0.0010372160522681389 0 0.00016973229303430927 -0.0020259414534842196 0 -0.0003506511506144796 -0.0026147976287179573 0 -0.00037321693138731357 -0.0026153488657124002 0 -0.00036578160923722412 -0.0026397133784976973 0 -0.00040325018342146965 -0.002607868906339697 0 -0.00039011420868824718 -0.0026270477948930897 0 -0.00037321693138731357 -0.0026153488657124002 0 -0.00039011420868824718 -0.0026270477948930897 0 -0.00037321693138731357 -0.0026153488657124002 0 -0.00036578160923722412 -0.0026397133784976973 0 -0.00039011420868824718 -0.0026270477948930897 0 -0.00036578160923722412 -0.0026397133784976973 0 -0.0003687743194876696 -0.0026682556497690229 0 -0.00039011420868824718 -0.0026270477948930897 0 -0.0003687743194876696 -0.0026682556497690229 0 -0.00040604190399669466 -0.0026694786036529456 0 0.00079302456114402938 0.003211286357227039 0 0.0005401803871067668 -0.00052421139077358766 0 0.00078494853072346143 0.0028797007660839777 0 0.00083045572417899749 0.0017445355070445203 0 0.0013911364367120696 0.0011709911208990925 0 0.00078494853072346143 0.0028797007660839777 0 0.00083045572417899749 0.0017445355070445203 0 6.4280869497488171e-05 0.0022704672064118542 0 0.00083045572417899749 0.0017445355070445203 0 6.4280869497488171e-05 0.0022704672064118542 0 0.00010991268233548217 0.0009530291292332505 0 0.00079086891505073052 0.0018560252674860388 0 0.00042709975051364408 -0.00063495170170379709 0 0.00083045572417899749 0.0017445355070445203 0 0.00010991268233548217 0.0009530291292332505 0 0.00088382046226565469 0.00034603536498709596 0 0.00083045572417899749 0.0017445355070445203 0 0.0011650919079713026 0.0001081124634879872 0 0.0013911364367120696 0.0011709911208990925 0 0.00010991268233548217 0.0009530291292332505 0 0.00088382046226565469 0.00034603536498709596 0 8.537588493992001e-05 -6.9071955033631906e-05 0 0.00042709975051364408 -0.00063495170170379709 0 0.0005401803871067668 -0.00052421139077358766 0 0.0005401803871067668 -0.00052421139077358766 0 -0.00026894257508013693 -0.0028384894642639203 0 -0.00036719699810948593 -0.002225805553279391 0 -0.00031343771116952774 -0.0019933300484067315 0 -0.00019265851145646267 -0.0023802598301140465 0 -0.00040604190399669466 -0.0026694786036529456 0 -0.00036174088210311336 -0.0027015844184364096 0 -0.00036163880411882438 -0.0027393106663390408 0 -0.0003687743194876696 -0.0026682556497690229 0 -0.00040604190399669466 -0.0026694786036529456 0 -0.00036174088210311336 -0.0027015844184364096 0 -0.00036174088210311336 -0.0027015844184364096 0 -0.00036163880411882438 -0.0027393106663390408 0 -0.00034110008085889244 -0.002725653596063271 0 -0.00036719699810948593 -0.002225805553279391 0 -0.00019265851145646267 -0.0023802598301140465 0 -0.00026938796548958276 -0.0025989256548343176 0 -0.00026894257508013693 -0.0028384894642639203 0 -0.0002714253665398351 -0.0026376403811114914 0 0.00042709975051364408 -0.00063495170170379709 0 -0.00014473685574314878 -0.0020219461389074491 0 0.00088382046226565469 0.00034603536498709596 0 0.00038590089988064434 -0.00059176295814563197 0 8.537588493992001e-05 -6.9071955033631906e-05 0 0.00042709975051364408 -0.00063495170170379709 0 0.00017743064799846482 -0.0007361961888099174 0 -1.5364589180297799e-05 -0.00086162020381043967 0 -5.917183912654835e-05 -0.0010608655006572607 0 3.8486431777236588e-05 -0.0011248499617565297 0 0.00038590089988064434 -0.00059176295814563197 0 8.537588493992001e-05 -6.9071955033631906e-05 0 -0.00028648009108236358 -0.0007590832849658733 0 -0.0002520754212247082 -0.0027160975377692144 0 -0.00028397316587662426 -0.0026708348827021431 0 -0.00031767673469643116 -0.0027242809108401133 0 -0.0002520754212247082 -0.0027160975377692144 0 -0.00031767673469643116 -0.0027242809108401133 0 -0.00031470361633844008 -0.0027695818306340964 0 -0.00031767673469643116 -0.0027242809108401133 0 -0.00034133826999917732 -0.0026958470510142557 0 -0.00034110008085889244 -0.002725653596063271 0 -0.00032067485767073387 -0.0026818439418942455 0 -0.00031767673469643116 -0.0027242809108401133 0 -0.00034133826999917732 -0.0026958470510142557 0 -0.0003687743194876696 -0.0026682556497690229 0 -0.00036174088210311336 -0.0027015844184364096 0 -0.00034133826999917732 -0.0026958470510142557 0 -0.00036174088210311336 -0.0027015844184364096 0 -0.00034133826999917732 -0.0026958470510142557 0 -0.00034110008085889244 -0.002725653596063271 0 -0.00036163880411882438 -0.0027393106663390408 0 -0.00034110008085889244 -0.002725653596063271 0 -0.00033095021404334045 -0.0027514608749951079 0 -0.00036163880411882438 -0.0027393106663390408 0 -0.00033095021404334045 -0.0027514608749951079 0 -0.00032091131819296829 -0.0027483809040538556 0 -0.00031767673469643116 -0.0027242809108401133 0 -0.00034110008085889244 -0.002725653596063271 0 -0.00033095021404334045 -0.0027514608749951079 0 -0.00033095021404334045 -0.0027514608749951079 0 -0.00031470361633844008 -0.0027695818306340964 0 -0.00034016590221831917 -0.0027507542968093 0 -0.00031767673469643116 -0.0027242809108401133 0 -0.00033095021404334045 -0.0027514608749951079 0 -0.00031470361633844008 -0.0027695818306340964 0 -0.00033095021404334045 -0.0027514608749951079 0 -0.00034016590221831917 -0.0027507542968093 0 -0.00032091131819296829 -0.0027483809040538556 0 -0.00034016590221831917 -0.0027507542968093 0 -0.00032091131819296829 -0.0027483809040538556 0 -0.0003082524319713714 -0.0026906585480828199 0 -0.0001715526843661566 -0.0026628666745310428 0 -0.0003082524319713714 -0.0026906585480828199 0 -0.00016762768482013208 -0.0026926861591898567 0 -0.0002714253665398351 -0.0026376403811114914 0 -0.00029012085812048753 -0.0027014825750780419 0 -0.00038189159044533323 -0.0027348696614916262 0 -0.0004033307693110635 -0.0027420659474895219 0 -0.0003082524319713714 -0.0026906585480828199 0 -0.00038189159044533323 -0.0027348696614916262 0 -0.00034016590221831917 -0.0027507542968093 0 -0.0003082524319713714 -0.0026906585480828199 0 -5.917183912654835e-05 -0.0010608655006572607 0 -0.00010555866044878847 -0.0012514351734032566 0 3.8486431777236588e-05 -0.0011248499617565297 0 0.00038590089988064434 -0.00059176295814563197 0 -0.00010555866044878847 -0.0012514351734032566 0 -0.00028648009108236358 -0.0007590832849658733 0 0.00017743064799846482 -0.0007361961888099174 0 -3.4745797009398441e-05 -0.0012079339976261707 0 -0.00010555866044878847 -0.0012514351734032566 0 -0.0003709056734700943 -0.001131003493511926 0 -0.00028648009108236358 -0.0007590832849658733 0 -0.00019265851145646267 -0.0023802598301140465 0 -0.0001715526843661566 -0.0026628666745310428 0 -0.00026938796548958276 -0.0025989256548343176 0 -0.00014473685574314878 -0.0020219461389074491 0 -8.6505291317934036e-05 -0.0020614282721692066 0 -0.00010555866044878847 -0.0012514351734032566 0 3.8486431777236588e-05 -0.0011248499617565297 0 4.5934666241135297e-05 -0.0015223010969321348 0 -0.0001715526843661566 -0.0026628666745310428 0 -0.00026938796548958276 -0.0025989256548343176 0 -0.00016762768482013208 -0.0026926861591898567 0 -0.00010555866044878847 -0.0012514351734032566 0 4.5934666241135297e-05 -0.0015223010969321348 0 -0.0002384951618058356 -0.0016161448884973301 0 -0.00010555866044878847 -0.0012514351734032566 0 -0.0002384951618058356 -0.0016161448884973301 0 -0.00047127840998519304 -0.0014353126459742431 0 -0.00047127840998519304 -0.0014353126459742431 0 -0.00077825806976187769 -0.0012420248731470724 0 -0.00062045566448108713 -0.001029554501527205 0 -0.00047127840998519304 -0.0014353126459742431 0 -0.0003709056734700943 -0.001131003493511926 0 -0.00062045566448108713 -0.001029554501527205 0 -0.00010555866044878847 -0.0012514351734032566 0 -0.00047127840998519304 -0.0014353126459742431 0 -0.0003709056734700943 -0.001131003493511926 0 -0.00075649267684354507 -0.0016498705410818095 0 -0.00047127840998519304 -0.0014353126459742431 0 -0.00077825806976187769 -0.0012420248731470724 0 -0.00077825806976187769 -0.0012420248731470724 0 -0.00088946117923750366 -0.00088601711353955949 0 -0.00090713003904797657 -0.0010163138545375341 0 -0.00088946117923750366 -0.00088601711353955949 0 -0.00062045566448108713 -0.001029554501527205 0 -0.00081391345969799688 -0.00044164818708224954 0 -0.00088946117923750366 -0.00088601711353955949 0 -0.00081391345969799688 -0.00044164818708224954 0 -0.0011879563314941657 -0.00054158612552945384 0 -0.00077825806976187769 -0.0012420248731470724 0 -0.00088946117923750366 -0.00088601711353955949 0 -0.00062045566448108713 -0.001029554501527205 0 -0.00062045566448108713 -0.001029554501527205 0 -0.00028648009108236358 -0.0007590832849658733 0 -0.00081391345969799688 -0.00044164818708224954 0 -0.0003709056734700943 -0.001131003493511926 0 -0.00062045566448108713 -0.001029554501527205 0 -0.00028648009108236358 -0.0007590832849658733 0 8.537588493992001e-05 -6.9071955033631906e-05 0 -0.00028648009108236358 -0.0007590832849658733 0 -0.00062327848578509336 0.00012750309895775478 0 -0.00028648009108236358 -0.0007590832849658733 0 -0.00081391345969799688 -0.00044164818708224954 0 -0.00062327848578509336 0.00012750309895775478 0 -0.00081391345969799688 -0.00044164818708224954 0 -0.0012029457244549799 0.00018217459071812132 0 -0.00062327848578509336 0.00012750309895775478 0 -0.00081391345969799688 -0.00044164818708224954 0 -0.0012029457244549799 0.00018217459071812132 0 -0.0011879563314941657 -0.00054158612552945384 0 -0.0016506868343885827 0.0013832732067190609 0 -0.00075584778542768061 -1.5515261215930816e-05 0 -0.0016235339130390076 0.0013974072514479552 0 -0.0026554767990025316 0.00067169923162782488 0 -0.00062327848578509336 0.00012750309895775478 0 -0.00068931686386576303 0.0016518724689934745 0 -0.0016235339130390076 0.0013974072514479552 0 -0.00062327848578509336 0.00012750309895775478 0 -0.00068931686386576303 0.0016518724689934745 0 0.00010991268233548217 0.0009530291292332505 0 -0.00062327848578509336 0.00012750309895775478 0 0.00010991268233548217 0.0009530291292332505 0 8.537588493992001e-05 -6.9071955033631906e-05 0 -0.00062327848578509336 0.00012750309895775478 0 -0.0021297336697074392 0.003137662902999739 0 -0.0010755924808825933 0.001816993270444434 0 -0.0017806132604075628 0.0015163257438377902 0 -0.0021297336697074392 0.003137662902999739 0 -0.0017806132604075628 0.0015163257438377902 0 -0.0027495695730128293 0.001871472749992077 0 -0.00011511694806053429 0.0024030021238012019 0 -0.0021297336697074392 0.003137662902999739 0 -0.0010755924808825933 0.001816993270444434 0 -0.0029931530552722123 0.0027146542346623455 0 -0.0024288529805941905 0.0020244235608782263 0 -0.003943326830775481 0.0024769270839700825 0 -0.0016506868343885827 0.0013832732067190609 0 -0.0029784255094234833 0.0020320956342286208 0 -0.00011511694806053429 0.0024030021238012019 0 -0.0010755924808825933 0.001816993270444434 0 -0.00038205033230178872 0.00066645683420231297 0 -0.0010755924808825933 0.001816993270444434 0 -0.00038205033230178872 0.00066645683420231297 0 -0.0014510931509589373 0.0010482177282840162 0 -0.0016506868343885827 0.0013832732067190609 0 -0.00071805802684400623 7.500648172167807e-05 0 -0.00038205033230178872 0.00066645683420231297 0 -0.0014510931509589373 0.0010482177282840162 0 -0.0011309324480464262 -0.00012725116535331992 0 -0.0014510931509589373 0.0010482177282840162 0 -0.0017806132604075628 0.0015163257438377902 0 -0.0016094325536596869 0.0013135444821229187 0 -0.0010755924808825933 0.001816993270444434 0 -0.0014510931509589373 0.0010482177282840162 0 -0.0017806132604075628 0.0015163257438377902 0 -0.0017806132604075628 0.0015163257438377902 0 -0.0027495695730128293 0.001871472749992077 0 -0.0030084922588283366 0.00077783298312456559 0 -0.0029037690056888704 0.0011526608437979556 0 -0.0019027387131050565 0.0070568744472459446 0 -0.0016094325536596869 0.0013135444821229187 0 -0.00157521932644877 0.0013420223611099776 0 -0.0015428453692015254 0.0013743497992146426 0 -0.0017806132604075628 0.0015163257438377902 0 -0.0016094325536596869 0.0013135444821229187 0 -0.00157521932644877 0.0013420223611099776 0 -0.0014510931509589373 0.0010482177282840162 0 -0.0016094325536596869 0.0013135444821229187 0 -0.0017188819321202961 0.0018981097982999524 0 -0.0011309324480464262 -0.00012725116535331992 0 -0.00090713003904797657 -0.0010163138545375341 0 -0.0017056323017613337 -0.0009986441211152549 0 -0.0014510931509589373 0.0010482177282840162 0 -0.0011309324480464262 -0.00012725116535331992 0 -0.0017056323017613337 -0.0009986441211152549 0 -0.0016094325536596869 0.0013135444821229187 0 -0.0017188819321202961 0.0018981097982999524 0 -0.0015428453692015254 0.0013743497992146426 0 -0.0014210852306608299 0.0010800679622313106 0 -0.001667498666702196 0.00048806621112246608 0 -0.00071805802684400623 7.500648172167807e-05 0 -0.00090483133139650901 -0.00089100877876830342 0 -0.00088946117923750366 -0.00088601711353955949 0 -0.0011879563314941657 -0.00054158612552945384 0 -0.00090713003904797657 -0.0010163138545375341 0 -0.00038205033230178872 0.00066645683420231297 0 -0.0011309324480464262 -0.00012725116535331992 0 -0.00090713003904797657 -0.0010163138545375341 0 -0.0012469572713966696 -0.0015061316556312309 0 -0.00093116528955371799 -0.0014717726840126389 0 -0.00090713003904797657 -0.0010163138545375341 0 -0.00093116528955371799 -0.0014717726840126389 0 -0.00077825806976187769 -0.0012420248731470724 0 -0.00090713003904797657 -0.0010163138545375341 0 -0.0012469572713966696 -0.0015061316556312309 0 -0.00090713003904797657 -0.0010163138545375341 0 -0.0017056323017613337 -0.0009986441211152549 0 -0.0012950836966703471 0.00073926732917731295 0 -0.001667498666702196 0.00048806621112246608 0 -0.0017188819321202961 0.0018981097982999524 0 -0.0013655087559546826 0.0016682929051574748 0 -0.0010231400395462626 0.002165909688200704 0 -0.0012666481215913633 0.0028776347996946352 0 -0.0017188819321202961 0.0018981097982999524 0 -0.0010231400395462626 0.002165909688200704 0 -0.0013655087559546826 0.0016682929051574748 0 -0.00099662621372990858 0.0016349430476166593 0 -0.0015000377242748008 0.0012758628405428304 0 -0.0017188819321202961 0.0018981097982999524 0 -0.0013655087559546826 0.0016682929051574748 0 -0.0015428453692015254 0.0013743497992146426 0 -0.002443726628846659 0.0095571264072658191 0 -0.0019027387131050565 0.0070568744472459446 0 -0.0013655087559546826 0.0016682929051574748 0 -0.0015000377242748008 0.0012758628405428304 0 -0.0015428453692015254 0.0013743497992146426 0 -0.0039286957349635382 0.017509004636044129 0 -0.0043303497682870831 0.017189385519406554 0 -0.0042404240091847463 0.01785641206884658 0 -0.002443726628846659 0.0095571264072658191 0 -0.0033821961363186574 0.012323900822775385 0 -0.0013655087559546826 0.0016682929051574748 0 -0.00099662621372990858 0.0016349430476166593 0 -0.0010231400395462626 0.002165909688200704 0 -0.00099662621372990858 0.0016349430476166593 0 -0.0010231400395462626 0.002165909688200704 0 -0.00041886860667728391 0.0020604031006481666 0 -0.002663630863190158 0.01230251298499976 0 -0.0026277443714974669 0.012995273605619589 0 -0.0029986610608374572 0.012764269398101401 0 -0.0003543064612416913 0.002907713024833869 0 -0.0010231400395462626 0.002165909688200704 0 -0.00041886860667728391 0.0020604031006481666 0 -0.0013667402265729719 0.0064444131425497181 0 -0.0033821961363186574 0.012323900822775385 0 -0.0033821961363186574 0.012323900822775385 0 -0.0033297443902053363 0.015931608480692864 0 -0.004176984401800604 0.018875058867020282 0 -0.0038934937307594404 0.018675146870218588 0 -0.0040418422327549632 0.018245502590273768 0 -0.0044461709657580258 0.018507366397181087 0 -0.004176984401800604 0.018875058867020282 0 -0.0040418422327549632 0.018245502590273768 0 -0.0037629754660755375 0.019249693000474178 0 -0.0037910072296462919 0.01936178903512898 0 -0.004176984401800604 0.018875058867020282 0 -0.0037629754660755375 0.019249693000474178 0 -0.004176984401800604 0.018875058867020282 0 -0.0038934937307594404 0.018675146870218588 0 -0.0039740264531250473 0.016729669871822294 0 -0.0033297443902053363 0.015931608480692864 0 -0.0033821961363186574 0.012323900822775385 0 -0.0043294405303184198 0.020025560610476261 0 -0.0044461709657580258 0.018507366397181087 0 -0.0040418422327549632 0.018245502590273768 0 -0.0042404240091847463 0.01785641206884658 0 -0.0040418422327549632 0.018245502590273768 0 -0.0042404240091847463 0.01785641206884658 0 -0.0040914273992704977 0.017938733478883244 0 -0.0042404240091847463 0.01785641206884658 0 -0.0040914273992704977 0.017938733478883244 0 -0.0040894289292085296 0.017893200999939345 0 -0.0040418422327549632 0.018245502590273768 0 -0.0040914273992704977 0.017938733478883244 0 -0.0039467535481964282 0.01787211672618811 0 -0.0040914273992704977 0.017938733478883244 0 -0.0040894289292085296 0.017893200999939345 0 -0.0039467535481964282 0.01787211672618811 0 -0.0040894289292085296 0.017893200999939345 0 -0.0039467535481964282 0.01787211672618811 0 -0.0042468325035252543 0.018016824339111649 0 -0.0040894289292085296 0.017893200999939345 0 -0.0040343036936727628 0.017905971976534762 0 -0.0040059610765615875 0.017964122279150261 0 -0.0042404240091847463 0.01785641206884658 0 -0.0040894289292085296 0.017893200999939345 0 -0.0040343036936727628 0.017905971976534762 0 -0.0040343036936727628 0.017905971976534762 0 -0.0038697038901974552 0.017855678518441356 0 -0.0039579400126503982 0.017780240028893706 0 -0.0040343036936727628 0.017905971976534762 0 -0.0038697038901974552 0.017855678518441356 0 -0.003943570951093078 0.017958138578042251 0 -0.0040342194864552532 0.010551315770582829 0 -0.0042180939479822552 0.010669159698111901 0 -0.0021297336697074392 0.003137662902999739 0 -0.0037679284896709338 0.0023424214116238222 0 -0.0027495695730128293 0.001871472749992077 0 -0.0021297336697074392 0.003137662902999739 0 -0.0037679284896709338 0.0023424214116238222 0 -0.0045321363525034873 0.0039965194559591693 0 -0.0038697038901974552 0.017855678518441356 0 -0.0037256021779253881 0.017636591870676531 0 -0.0039579400126503982 0.017780240028893706 0 -0.0039286957349635382 0.017509004636044129 0 -0.0037256021779253881 0.017636591870676531 0 -0.0039579400126503982 0.017780240028893706 0 -0.0037679284896709338 0.0023424214116238222 0 -0.0027495695730128293 0.001871472749992077 0 -0.0030084922588283366 0.00077783298312456559 0 -0.0040342194864552532 0.010551315770582829 0 -0.0019027387131050565 0.0070568744472459446 0 -0.0019027387131050565 0.0070568744472459446 0 -0.0011130127634611706 0.0045784879208558742 0 -0.0039286957349635382 0.017509004636044129 0 -0.0042404240091847463 0.01785641206884658 0 -0.0039579400126503982 0.017780240028893706 0 -0.0042404240091847463 0.01785641206884658 0 -0.0040343036936727628 0.017905971976534762 0 -0.0039579400126503982 0.017780240028893706 0 -0.0030591318356287256 0.021095735597062973 0 -0.0031923536799001273 0.020952005557952048 0 -0.003167704707932417 0.021124005205742653 0 -0.0031923536799001273 0.020952005557952048 0 -0.003167704707932417 0.021124005205742653 0 -0.0033259192254114596 0.021014615498208402 0 -0.0030718558148908619 0.021197992997913133 0 -0.0030591318356287256 0.021095735597062973 0 -0.003167704707932417 0.021124005205742653 0 -0.0033628433263761135 0.01990296531242184 0 -0.0033903355485226778 0.019914723440469101 0 -0.0035166242621130312 0.020102531770145475 0 -0.0031516320119408074 0.021258051232176802 0 -0.003167704707932417 0.021124005205742653 0 -0.0033259192254114596 0.021014615498208402 0 -0.0030718558148908619 0.021197992997913133 0 -0.0031227117861054201 0.021202775894834994 0 -0.003167704707932417 0.021124005205742653 0 -0.0030574234115888664 0.021280321115971317 0 -0.0031516320119408074 0.021258051232176802 0 -0.0031032753345236956 0.021232214490394585 0 -0.0030718558148908619 0.021197992997913133 0 -0.0031227117861054201 0.021202775894834994 0 -0.0031032753345236956 0.021232214490394585 0 -0.0031227117861054201 0.021202775894834994 0 -0.0031516320119408074 0.021258051232176802 0 -0.003167704707932417 0.021124005205742653 0 -0.0031227117861054201 0.021202775894834994 0 -0.0031516320119408074 0.021258051232176802 0 -0.0031032753345236956 0.021232214490394585 0 -0.0032505138524035683 0.020534966933374872 0 -0.0033964846613103328 0.020584605141791321 0 -0.0033903355485226778 0.019914723440469101 0 -0.0033988437912137672 0.019932699884266766 0 -0.0035166242621130312 0.020102531770145475 0 -0.0033672029489621993 0.019905698071195965 0 -0.0033903355485226778 0.019914723440469101 0 -0.0033988437912137672 0.019932699884266766 0 -0.0033287043065475174 0.019854268273292966 0 -0.0033988437912137672 0.019932699884266766 0 -0.0033865569283615142 0.019912919801617867 0 -0.0033988437912137672 0.019932699884266766 0 -0.0033865569283615142 0.019912919801617867 0 -0.0035166242621130312 0.020102531770145475 0 -0.0033865569283615142 0.019912919801617867 0 -0.0035166242621130312 0.020102531770145475 0 -0.003364072225788359 0.019965361788755173 0 -0.0031923536799001273 0.020952005557952048 0 -0.0033259192254114596 0.021014615498208402 0 -0.0033016288778541479 0.020781334522193846 0 -0.0035166242621130312 0.020102531770145475 0 -0.003364072225788359 0.019965361788755173 0 -0.0031946627691597017 0.02029559371228197 0 -0.0035166242621130312 0.020102531770145475 0 -0.0031946627691597017 0.02029559371228197 0 -0.0034164526063506294 0.020643395840479119 0 -0.0033964846613103328 0.020584605141791321 0 -0.0033951644559095844 0.020647795927100417 0 -0.0032627874026608969 0.01963170367631244 0 -0.003364072225788359 0.019965361788755173 0 -0.0031946627691597017 0.02029559371228197 0 -0.003339793729341344 0.019814142981061229 0 -0.0033865569283615142 0.019912919801617867 0 -0.003364072225788359 0.019965361788755173 0 -0.0032627874026608969 0.01963170367631244 0 -0.003339793729341344 0.019814142981061229 0 -0.003364072225788359 0.019965361788755173 0 -0.0032686852599261578 0.019610562241990589 0 -0.0033904428096694405 0.019349635128490375 0 -0.0037629754660755375 0.019249693000474178 0 -0.0032627874026608969 0.01963170367631244 0 -0.0035410815202999647 0.01838041452245864 0 -0.0037629754660755375 0.019249693000474178 0 -0.0038934937307594404 0.018675146870218588 0 -0.0035410815202999647 0.01838041452245864 0 -0.0040418422327549632 0.018245502590273768 0 -0.0035410815202999647 0.01838041452245864 0 -0.0039467535481964282 0.01787211672618811 0 -0.0038934937307594404 0.018675146870218588 0 -0.0040418422327549632 0.018245502590273768 0 -0.0035410815202999647 0.01838041452245864 0 -0.0033904428096694405 0.019349635128490375 0 -0.0037113720904863299 0.019302088435881149 0 -0.0031946627691597017 0.02029559371228197 0 -0.0034729062783449786 0.020742402393763699 0 -0.0034164526063506294 0.020643395840479119 0 -0.0034729062783449786 0.020742402393763699 0 -0.0034214190535051983 0.020579868073615469 0 -0.0035404310828576367 0.020469557473115928 0 -0.0037113720904863299 0.019302088435881149 0 -0.0040603271377039098 0.019217346468440834 0 -0.0034729062783449786 0.020742402393763699 0 -0.0034214190535051983 0.020579868073615469 0 -0.003388140551930212 0.020685613065963455 0 -0.0034214190535051983 0.020579868073615469 0 -0.003388140551930212 0.020685613065963455 0 -0.0032631717985474183 0.020627251924100993 0 -0.003388140551930212 0.020685613065963455 0 -0.0034164526063506294 0.020643395840479119 0 -0.0033016288778541479 0.020781334522193846 0 -0.0034729062783449786 0.020742402393763699 0 -0.003388140551930212 0.020685613065963455 0 -0.0034164526063506294 0.020643395840479119 0 -0.0033259192254114596 0.021014615498208402 0 -0.0034164526063506294 0.020643395840479119 0 -0.0033016288778541479 0.020781334522193846 0 -0.003388140551930212 0.020685613065963455 0 -0.0033016288778541479 0.020781334522193846 0 -0.0032631717985474183 0.020627251924100993 0 -0.0033016288778541479 0.020781334522193846 0 -0.0032631717985474183 0.020627251924100993 0 -0.0031476083506507329 0.020783856322622512 0 -0.0030419202120260985 0.020669409651045106 0 -0.0032631717985474183 0.020627251924100993 0 -0.0031476083506507329 0.020783856322622512 0 -0.0031923536799001273 0.020952005557952048 0 -0.0033016288778541479 0.020781334522193846 0 -0.0031476083506507329 0.020783856322622512 0 -0.0030119111804870246 0.020952070717901044 0 -0.0031923536799001273 0.020952005557952048 0 -0.0031476083506507329 0.020783856322622512 0 -0.0030838693472063227 0.020436044365295392 0 -0.0032055299112127697 0.020462997205954861 0 -0.0032283685631571239 0.020292996944830215 0 -0.0030419202120260985 0.020669409651045106 0 -0.0030838693472063227 0.020436044365295392 0 -0.0032055299112127697 0.020462997205954861 0 -0.0030419202120260985 0.020669409651045106 0 -0.0032631717985474183 0.020627251924100993 0 -0.0032055299112127697 0.020462997205954861 0 -0.0034214190535051983 0.020579868073615469 0 -0.0032631717985474183 0.020627251924100993 0 -0.0033539753662074042 0.020380127624378047 0 -0.0032631717985474183 0.020627251924100993 0 -0.0032055299112127697 0.020462997205954861 0 -0.0033539753662074042 0.020380127624378047 0 -0.0032055299112127697 0.020462997205954861 0 -0.0032283685631571239 0.020292996944830215 0 -0.0033539753662074042 0.020380127624378047 0 -0.0032283685631571239 0.020292996944830215 0 -0.0033539753662074042 0.020380127624378047 0 -0.0034358448778391841 0.020188239261223276 0 -0.0033539753662074042 0.020380127624378047 0 -0.003486840532329252 0.02012194790484809 0 -0.0034358448778391841 0.020188239261223276 0 -0.003486840532329252 0.02012194790484809 0 -0.0035914315957159067 0.020136822504795631 0 -0.0034358448778391841 0.020188239261223276 0 -0.0034214190535051983 0.020579868073615469 0 -0.0033539753662074042 0.020380127624378047 0 -0.0035404310828576367 0.020469557473115928 0 -0.0033539753662074042 0.020380127624378047 0 -0.0035404310828576367 0.020469557473115928 0 -0.003486840532329252 0.02012194790484809 0 -0.0035404310828576367 0.020469557473115928 0 -0.003486840532329252 0.02012194790484809 0 -0.0039069800389773379 0.020435132663360455 0 -0.0034729062783449786 0.020742402393763699 0 -0.0035404310828576367 0.020469557473115928 0 -0.0039069800389773379 0.020435132663360455 0 -0.003486840532329252 0.02012194790484809 0 -0.0039069800389773379 0.020435132663360455 0 -0.0042547283158567793 0.018931987293016161 0 -0.0037333732359536307 0.019762063228310728 0 -0.0036083096767435215 0.02031274350509376 0 -0.003486840532329252 0.02012194790484809 0 -0.0042547283158567793 0.018931987293016161 0 -0.0041968086787244436 0.018865639625613845 0 -0.003486840532329252 0.02012194790484809 0 -0.0035914315957159067 0.020136822504795631 0 -0.0037639560519205605 0.020165411180225998 0 -0.0035914315957159067 0.020136822504795631 0 -0.0036388863925072221 0.020062783960950934 0 -0.0035093910350001284 0.020091133066809867 0 -0.0035914315957159067 0.020136822504795631 0 -0.003686471322179597 0.020103589522460663 0 -0.0037639560519205605 0.020165411180225998 0 -0.003686471322179597 0.020103589522460663 0 -0.0036388863925072221 0.020062783960950934 0 -0.0037684094935515576 0.020027271969828456 0 -0.0035914315957159067 0.020136822504795631 0 -0.003686471322179597 0.020103589522460663 0 -0.0036388863925072221 0.020062783960950934 0 -0.0037051740301900934 0.019951233598040755 0 -0.0037684094935515576 0.020027271969828456 0 -0.0038437108378689406 0.019923852574351454 0 -0.0036388863925072221 0.020062783960950934 0 -0.0037051740301900934 0.019951233598040755 0 -0.0037684094935515576 0.020027271969828456 0 -0.0037846320812324661 0.019852067886825302 0 -0.0037051740301900934 0.019951233598040755 0 -0.0038437108378689406 0.019923852574351454 0 -0.0037846320812324661 0.019852067886825302 0 -0.0037051740301900934 0.019951233598040755 0 -0.0036334454971991481 0.019847967290051036 0 -0.0037051740301900934 0.019951233598040755 0 -0.0035860805852571979 0.019988179029441413 0 -0.0036334454971991481 0.019847967290051036 0 -0.0035860805852571979 0.019988179029441413 0 -0.0034615741762203489 0.019965074244998972 0 -0.0036334454971991481 0.019847967290051036 0 -0.0036388863925072221 0.020062783960950934 0 -0.0035860805852571979 0.019988179029441413 0 -0.0035093910350001284 0.020091133066809867 0 -0.0036388863925072221 0.020062783960950934 0 -0.0037051740301900934 0.019951233598040755 0 -0.0035860805852571979 0.019988179029441413 0 -0.0034615741762203489 0.019965074244998972 0 -0.0033590378912868443 0.020097076585786473 0 -0.0033325656840018708 0.019908843238907015 0 -0.0035860805852571979 0.019988179029441413 0 -0.0034615741762203489 0.019965074244998972 0 -0.0035093910350001284 0.020091133066809867 0 -0.0034615741762203489 0.019965074244998972 0 -0.0034875252617618678 0.0198000645646089 0 -0.0036334454971991481 0.019847967290051036 0 -0.0034615741762203489 0.019965074244998972 0 -0.0033325656840018708 0.019908843238907015 0 -0.0034875252617618678 0.0198000645646089 0 -0.0034615741762203489 0.019965074244998972 0 -0.0035093910350001284 0.020091133066809867 0 -0.0033590378912868443 0.020097076585786473 0 -0.0035914315957159067 0.020136822504795631 0 -0.0035093910350001284 0.020091133066809867 0 -0.0034358448778391841 0.020188239261223276 0 -0.0035093910350001284 0.020091133066809867 0 -0.0034358448778391841 0.020188239261223276 0 -0.0033590378912868443 0.020097076585786473 0 -0.0032283685631571239 0.020292996944830215 0 -0.0034358448778391841 0.020188239261223276 0 -0.0033590378912868443 0.020097076585786473 0 -0.0032283685631571239 0.020292996944830215 0 -0.0033590378912868443 0.020097076585786473 0 -0.0031843908243691077 0.020071051449877541 0 -0.0033590378912868443 0.020097076585786473 0 -0.0031843908243691077 0.020071051449877541 0 -0.0033325656840018708 0.019908843238907015 0 -0.0030252219514097785 0.020259517476637862 0 -0.0030052608407761844 0.020009213296377053 0 -0.0031843908243691077 0.020071051449877541 0 -0.0030838693472063227 0.020436044365295392 0 -0.0030252219514097785 0.020259517476637862 0 -0.0032283685631571239 0.020292996944830215 0 -0.0030252219514097785 0.020259517476637862 0 -0.0032283685631571239 0.020292996944830215 0 -0.0031843908243691077 0.020071051449877541 0 -0.0048762816648097044 0.0041154346617590419 0 -0.0055322619888199982 0.0029978496447750657 0 -0.006275763564006367 0.0045843365530030631 0 -0.0042180939479822552 0.010669159698111901 0 -0.0049707280683387962 0.011092608888251563 0 -0.0031629162859598318 0.017740865838824085 0 -0.0039874256461169258 0.018099396970688193 0 -0.0035824745866901886 0.018655819340351452 0 -0.0042559215555553597 0.003427375094312088 0 -0.0048762816648097044 0.0041154346617590419 0 -0.0055322619888199982 0.0029978496447750657 0 -0.0029784255094234833 0.0020320956342286208 0 -0.0042180939479822552 0.010669159698111901 0 -0.0042559215555553597 0.003427375094312088 0 -0.003943326830775481 0.0024769270839700825 0 -0.0055322619888199982 0.0029978496447750657 0 -0.0040343036936727628 0.017905971976534762 0 -0.003943570951093078 0.017958138578042251 0 -0.0040059610765615875 0.017964122279150261 0 -0.0042180939479822552 0.010669159698111901 0 -0.0040863101089415668 0.01970785977015652 0 -0.0040894289292085296 0.017893200999939345 0 -0.0040059610765615875 0.017964122279150261 0 -0.0039874256461169258 0.018099396970688193 0 -0.003943570951093078 0.017958138578042251 0 -0.0040059610765615875 0.017964122279150261 0 -0.0039874256461169258 0.018099396970688193 0 -0.0040894289292085296 0.017893200999939345 0 -0.0039874256461169258 0.018099396970688193 0 -0.0042468325035252543 0.018016824339111649 0 -0.0039874256461169258 0.018099396970688193 0 -0.0042468325035252543 0.018016824339111649 0 -0.0041113474111022438 0.018399243498983288 0 -0.0040603271377039098 0.019217346468440834 0 -0.0042337630413758261 0.018957473018877815 0 -0.0042468325035252543 0.018016824339111649 0 -0.0041113474111022438 0.018399243498983288 0 -0.0042547283158567793 0.018931987293016161 0 -0.0039874256461169258 0.018099396970688193 0 -0.0041113474111022438 0.018399243498983288 0 -0.0039855879803478 0.018593221567981238 0 -0.0041113474111022438 0.018399243498983288 0 -0.0039855879803478 0.018593221567981238 0 -0.0042547283158567793 0.018931987293016161 0 -0.0039874256461169258 0.018099396970688193 0 -0.0039855879803478 0.018593221567981238 0 -0.0035824745866901886 0.018655819340351452 0 -0.0040307094590306273 0.01886434002381563 0 -0.0039605364034725008 0.019196612058686946 0 -0.0035824745866901886 0.018655819340351452 0 -0.0047155816508390493 0.015188715638827404 0 -0.0049707280683387962 0.011092608888251563 0 -0.0039855879803478 0.018593221567981238 0 -0.0040307094590306273 0.01886434002381563 0 -0.0035824745866901886 0.018655819340351452 0 -0.0040307094590306273 0.01886434002381563 0 -0.0041968086787244436 0.018865639625613845 0 -0.0039605364034725008 0.019196612058686946 0 -0.0042547283158567793 0.018931987293016161 0 -0.0040307094590306273 0.01886434002381563 0 -0.0041968086787244436 0.018865639625613845 0 -0.0039855879803478 0.018593221567981238 0 -0.0042547283158567793 0.018931987293016161 0 -0.0040307094590306273 0.01886434002381563 0 -0.003686471322179597 0.020103589522460663 0 -0.0037639560519205605 0.020165411180225998 0 -0.0037684094935515576 0.020027271969828456 0 -0.0037639560519205605 0.020165411180225998 0 -0.0037684094935515576 0.020027271969828456 0 -0.0039360767704665674 0.019944296669068062 0 -0.0036083096767435215 0.02031274350509376 0 -0.0047155816508390493 0.015188715638827404 0 -0.0037639560519205605 0.020165411180225998 0 -0.0039360767704665674 0.019944296669068062 0 -0.0041722894748275089 0.019910139816459099 0 -0.0037684094935515576 0.020027271969828456 0 -0.0039360767704665674 0.019944296669068062 0 -0.0038437108378689406 0.019923852574351454 0 -0.0039360767704665674 0.019944296669068062 0 -0.0041722894748275089 0.019910139816459099 0 -0.0041393083742604919 0.019798588326918064 0 -0.0039360767704665674 0.019944296669068062 0 -0.0041393083742604919 0.019798588326918064 0 -0.0039403212350284387 0.019818128651293589 0 -0.0037846320812324661 0.019852067886825302 0 -0.0038437108378689406 0.019923852574351454 0 -0.0039403212350284387 0.019818128651293589 0 -0.0039360767704665674 0.019944296669068062 0 -0.0038437108378689406 0.019923852574351454 0 -0.0039403212350284387 0.019818128651293589 0 -0.0070652042416811528 0.0062515089872545917 0 -0.0061338073366795738 0.0060401190487075146 0 -0.0062027965054916112 0.0072618649489980067 0 -0.0070652042416811528 0.0062515089872545917 0 -0.0061338073366795738 0.0060401190487075146 0 -0.006275763564006367 0.0045843365530030631 0 -0.0047155816508390493 0.015188715638827404 0 -0.0053036850430174445 0.019059534436784847 0 -0.0061338073366795738 0.0060401190487075146 0 -0.0055206109393957934 0.0056211301913006327 0 -0.0056248136484891628 0.0066320422535109677 0 -0.0055206109393957934 0.0056211301913006327 0 -0.0048697449754317541 0.0061911496855332525 0 -0.0056248136484891628 0.0066320422535109677 0 -0.0048762816648097044 0.0041154346617590419 0 -0.006275763564006367 0.0045843365530030631 0 -0.0053376131549873699 0.0048762802705314343 0 -0.0055206109393957934 0.0056211301913006327 0 -0.006275763564006367 0.0045843365530030631 0 -0.0053376131549873699 0.0048762802705314343 0 -0.0061338073366795738 0.0060401190487075146 0 -0.0055206109393957934 0.0056211301913006327 0 -0.006275763564006367 0.0045843365530030631 0 -0.0039343794886870847 0.0051382764193579232 0 -0.0048762816648097044 0.0041154346617590419 0 -0.004782652351889947 0.0053391293372730356 0 -0.0048762816648097044 0.0041154346617590419 0 -0.0053376131549873699 0.0048762802705314343 0 -0.004782652351889947 0.0053391293372730356 0 -0.0055206109393957934 0.0056211301913006327 0 -0.0053376131549873699 0.0048762802705314343 0 -0.004782652351889947 0.0053391293372730356 0 -0.0042022168441839354 0.0059404055771847914 0 -0.004782652351889947 0.0053391293372730356 0 -0.0048697449754317541 0.0061911496855332525 0 -0.0055206109393957934 0.0056211301913006327 0 -0.004782652351889947 0.0053391293372730356 0 -0.0048697449754317541 0.0061911496855332525 0 -0.0042022168441839354 0.0059404055771847914 0 -0.0048697449754317541 0.0061911496855332525 0 -0.0043585098223596769 0.0065331545845801657 0 -0.0043585098223596769 0.0065331545845801657 0 -0.0047623334345347906 0.0070190149321243444 0 -0.0042750441468560746 0.0070861532403546463 0 -0.0048697449754317541 0.0061911496855332525 0 -0.0043585098223596769 0.0065331545845801657 0 -0.0047623334345347906 0.0070190149321243444 0 -0.0047623334345347906 0.0070190149321243444 0 -0.0052590505790624936 0.0078652440446110219 0 -0.0056248136484891628 0.0066320422535109677 0 -0.0048697449754317541 0.0061911496855332525 0 -0.0047623334345347906 0.0070190149321243444 0 -0.0056248136484891628 0.0066320422535109677 0 -0.0047623334345347906 0.0070190149321243444 0 -0.0045656845232104303 0.0077133198190223271 0 -0.0042750441468560746 0.0070861532403546463 0 -0.0047623334345347906 0.0070190149321243444 0 -0.0045656845232104303 0.0077133198190223271 0 -0.0052590505790624936 0.0078652440446110219 0 -0.0045656845232104303 0.0077133198190223271 0 -0.0052590505790624936 0.0078652440446110219 0 -0.0045680314559855715 0.0086008337305028704 0 -0.0048165857967764764 0.012210598734347846 0 -0.0047218369192950603 0.010412023044763434 0 -0.0050015282428007455 0.019286592797617477 0 -0.0046051602276704056 0.019641828703752577 0 -0.004543876917184826 0.019350452169742214 0 -0.0050015282428007455 0.019286592797617477 0 -0.004543876917184826 0.019350452169742214 0 -0.0047047634935269292 0.019120911874186672 0 -0.0048165857967764764 0.012210598734347846 0 -0.0055489106780913563 0.013330122023889763 0 -0.0050707186697095024 0.0085553754509095636 0 -0.0062027965054916112 0.0072618649489980067 0 -0.0056248136484891628 0.0066320422535109677 0 -0.0048165857967764764 0.012210598734347846 0 -0.005881369716039136 0.0051788713856038733 0 -0.0061338073366795738 0.0060401190487075146 0 -0.0062027965054916112 0.0072618649489980067 0 -0.0056248136484891628 0.0066320422535109677 0 -0.0042289494014072903 0.019956479750252023 0 -0.0046051602276704056 0.019641828703752577 0 -0.004287282210163868 0.019636542027164739 0 -0.0047155816508390493 0.015188715638827404 0 -0.0055489106780913563 0.013330122023889763 0 -0.0042289494014072903 0.019956479750252023 0 -0.0041393083742604919 0.019798588326918064 0 -0.004287282210163868 0.019636542027164739 0 -0.0041393083742604919 0.019798588326918064 0 -0.004287282210163868 0.019636542027164739 0 -0.0040431791212162151 0.019641816971109359 0 -0.004287282210163868 0.019636542027164739 0 -0.0040431791212162151 0.019641816971109359 0 -0.0041948058425139434 0.019425079467086482 0 -0.0046051602276704056 0.019641828703752577 0 -0.004287282210163868 0.019636542027164739 0 -0.004543876917184826 0.019350452169742214 0 -0.0037846320812324661 0.019852067886825302 0 -0.0039403212350284387 0.019818128651293589 0 -0.0038145421285890003 0.019713773296917717 0 -0.0039403212350284387 0.019818128651293589 0 -0.0040431791212162151 0.019641816971109359 0 -0.0038145421285890003 0.019713773296917717 0 -0.0041393083742604919 0.019798588326918064 0 -0.0039403212350284387 0.019818128651293589 0 -0.0040431791212162151 0.019641816971109359 0 -0.0040431791212162151 0.019641816971109359 0 -0.0038145421285890003 0.019713773296917717 0 -0.0038575192452757886 0.019452981694035261 0 -0.0038575192452757886 0.019452981694035261 0 -0.0040694335493498719 0.019227640520630834 0 -0.0038155235454132323 0.019085963515870042 0 -0.0040431791212162151 0.019641816971109359 0 -0.0038575192452757886 0.019452981694035261 0 -0.0041948058425139434 0.019425079467086482 0 -0.0038575192452757886 0.019452981694035261 0 -0.0040694335493498719 0.019227640520630834 0 -0.0041948058425139434 0.019425079467086482 0 -0.004287282210163868 0.019636542027164739 0 -0.004543876917184826 0.019350452169742214 0 -0.0041948058425139434 0.019425079467086482 0 -0.0040694335493498719 0.019227640520630834 0 -0.0041948058425139434 0.019425079467086482 0 -0.0043965508416948249 0.019128793858075713 0 -0.004543876917184826 0.019350452169742214 0 -0.0041948058425139434 0.019425079467086482 0 -0.0043965508416948249 0.019128793858075713 0 -0.004543876917184826 0.019350452169742214 0 -0.0043965508416948249 0.019128793858075713 0 -0.0047047634935269292 0.019120911874186672 0 -0.0043965508416948249 0.019128793858075713 0 -0.0047047634935269292 0.019120911874186672 0 -0.004660737061592474 0.018893599976651364 0 -0.0040694335493498719 0.019227640520630834 0 -0.0043965508416948249 0.019128793858075713 0 -0.0041209788633657183 0.018882149662621486 0 -0.0043965508416948249 0.019128793858075713 0 -0.0043996004057099041 0.018787610062921286 0 -0.0041209788633657183 0.018882149662621486 0 -0.0043996004057099041 0.018787610062921286 0 -0.0046831287154355953 0.018585887371988602 0 -0.004660737061592474 0.018893599976651364 0 -0.0043965508416948249 0.019128793858075713 0 -0.0043996004057099041 0.018787610062921286 0 -0.004660737061592474 0.018893599976651364 0 -0.0040694335493498719 0.019227640520630834 0 -0.0038155235454132323 0.019085963515870042 0 -0.0041209788633657183 0.018882149662621486 0 -0.0038155235454132323 0.019085963515870042 0 -0.0041209788633657183 0.018882149662621486 0 -0.0038720701477595394 0.018670359732914362 0 -0.0038720701477595394 0.018670359732914362 0 -0.0041543469818329263 0.018427172673799112 0 -0.0037945619258286665 0.01833352112845511 0 -0.0041209788633657183 0.018882149662621486 0 -0.0038720701477595394 0.018670359732914362 0 -0.0041543469818329263 0.018427172673799112 0 -0.0041543469818329263 0.018427172673799112 0 -0.0046831287154355953 0.018585887371988602 0 -0.0048082184310064583 0.018178783305274376 0 -0.0043996004057099041 0.018787610062921286 0 -0.0041543469818329263 0.018427172673799112 0 -0.0046831287154355953 0.018585887371988602 0 -0.0043996004057099041 0.018787610062921286 0 -0.0041209788633657183 0.018882149662621486 0 -0.0041543469818329263 0.018427172673799112 0 -0.0046831287154355953 0.018585887371988602 0 -0.0049637559080602913 0.018564277533913674 0 -0.0048082184310064583 0.018178783305274376 0 -0.0046831287154355953 0.018585887371988602 0 -0.0049637559080602913 0.018564277533913674 0 -0.0048514039217888673 0.01874964612602938 0 -0.0049637559080602913 0.018564277533913674 0 -0.0048514039217888673 0.01874964612602938 0 -0.0050448231543049346 0.018765018781673758 0 -0.0049637559080602913 0.018564277533913674 0 -0.0051422520188939419 0.018313353110259913 0 -0.0048082184310064583 0.018178783305274376 0 -0.004511855910849509 0.016228644474460641 0 -0.0040807160143576902 0.011489864251198214 0 -0.0051422520188939419 0.018313353110259913 0 -0.005284771039406385 0.018733812111676903 0 -0.0056280723922594797 0.017696270020806246 0 -0.0033555240518299183 0.013752402803576803 0 -0.0038474497861110827 0.011848560653445632 0 -0.004489600251008666 0.013526698878164097 0 -0.004511855910849509 0.016228644474460641 0 -0.0047067445433457275 0.014775892019350482 0 -0.0049637559080602913 0.018564277533913674 0 -0.0051422520188939419 0.018313353110259913 0 -0.005284771039406385 0.018733812111676903 0 -0.0049637559080602913 0.018564277533913674 0 -0.005284771039406385 0.018733812111676903 0 -0.0050448231543049346 0.018765018781673758 0 -0.004511855910849509 0.016228644474460641 0 -0.0047784181864667357 0.017045552530177161 0 -0.0048165857967764764 0.012210598734347846 0 -0.004511855910849509 0.016228644474460641 0 -0.0045745579403166509 0.01288955950763644 0 -0.0044489094547531518 0.012676379768742358 0 -0.004200530751314947 0.012942042352509833 0 -0.0047007960192042876 0.01240037881656301 0 -0.0045745579403166509 0.01288955950763644 0 -0.0044489094547531518 0.012676379768742358 0 -0.0050015282428007455 0.019286592797617477 0 -0.0052079834597616934 0.018723181992243335 0 -0.0049277266129852783 0.018932597701917672 0 -0.0052079834597616934 0.018723181992243335 0 -0.0049277266129852783 0.018932597701917672 0 -0.0050448231543049346 0.018765018781673758 0 -0.0050015282428007455 0.019286592797617477 0 -0.0049277266129852783 0.018932597701917672 0 -0.0047047634935269292 0.019120911874186672 0 -0.0049277266129852783 0.018932597701917672 0 -0.0047047634935269292 0.019120911874186672 0 -0.004660737061592474 0.018893599976651364 0 -0.0049277266129852783 0.018932597701917672 0 -0.004660737061592474 0.018893599976651364 0 -0.0048514039217888673 0.01874964612602938 0 -0.0046831287154355953 0.018585887371988602 0 -0.004660737061592474 0.018893599976651364 0 -0.0048514039217888673 0.01874964612602938 0 -0.0049277266129852783 0.018932597701917672 0 -0.0048514039217888673 0.01874964612602938 0 -0.0050448231543049346 0.018765018781673758 0 -0.0029741213465308801 0.019756984909408918 0 -0.0031900586256015545 0.019777035451269489 0 -0.0031653621243903887 0.019527250347873275 0 -0.0030052608407761844 0.020009213296377053 0 -0.0031843908243691077 0.020071051449877541 0 -0.0031900586256015545 0.019777035451269489 0 -0.0029741213465308801 0.019756984909408918 0 -0.0030052608407761844 0.020009213296377053 0 -0.0031900586256015545 0.019777035451269489 0 -0.0031843908243691077 0.020071051449877541 0 -0.0031900586256015545 0.019777035451269489 0 -0.0033325656840018708 0.019908843238907015 0 -0.0031900586256015545 0.019777035451269489 0 -0.0033325656840018708 0.019908843238907015 0 -0.0034173630038550427 0.019616589150360537 0 -0.0031900586256015545 0.019777035451269489 0 -0.0034173630038550427 0.019616589150360537 0 -0.0033188719024386461 0.019460312904014423 0 -0.0031900586256015545 0.019777035451269489 0 -0.0033188719024386461 0.019460312904014423 0 -0.0031653621243903887 0.019527250347873275 0 -0.0034173630038550427 0.019616589150360537 0 -0.0034376829471246318 0.019260530148588129 0 -0.0033188719024386461 0.019460312904014423 0 -0.0034173630038550427 0.019616589150360537 0 -0.0036073322762407859 0.019427081442996191 0 -0.0034376829471246318 0.019260530148588129 0 -0.0033325656840018708 0.019908843238907015 0 -0.0034173630038550427 0.019616589150360537 0 -0.0034875252617618678 0.0198000645646089 0 -0.0034173630038550427 0.019616589150360537 0 -0.0034875252617618678 0.0198000645646089 0 -0.0036182518154714428 0.019646230184134382 0 -0.0034875252617618678 0.0198000645646089 0 -0.0036182518154714428 0.019646230184134382 0 -0.0036334454971991481 0.019847967290051036 0 -0.0038145421285890003 0.019713773296917717 0 -0.0036182518154714428 0.019646230184134382 0 -0.0036334454971991481 0.019847967290051036 0 -0.0037846320812324661 0.019852067886825302 0 -0.0038145421285890003 0.019713773296917717 0 -0.0036334454971991481 0.019847967290051036 0 -0.0038145421285890003 0.019713773296917717 0 -0.0038575192452757886 0.019452981694035261 0 -0.0036182518154714428 0.019646230184134382 0 -0.0038575192452757886 0.019452981694035261 0 -0.0038155235454132323 0.019085963515870042 0 -0.0036073322762407859 0.019427081442996191 0 -0.0038575192452757886 0.019452981694035261 0 -0.0036182518154714428 0.019646230184134382 0 -0.0036073322762407859 0.019427081442996191 0 -0.0034173630038550427 0.019616589150360537 0 -0.0036182518154714428 0.019646230184134382 0 -0.0036073322762407859 0.019427081442996191 0 -0.0038155235454132323 0.019085963515870042 0 -0.0036274987586435775 0.01884416224647513 0 -0.0034376829471246318 0.019260530148588129 0 -0.0038155235454132323 0.019085963515870042 0 -0.0036073322762407859 0.019427081442996191 0 -0.0034376829471246318 0.019260530148588129 0 -0.0038155235454132323 0.019085963515870042 0 -0.0038720701477595394 0.018670359732914362 0 -0.0036274987586435775 0.01884416224647513 0 -0.0038720701477595394 0.018670359732914362 0 -0.0036412220110230752 0.018501519302981703 0 -0.0036274987586435775 0.01884416224647513 0 -0.0036274987586435775 0.01884416224647513 0 -0.0033564987487293536 0.018487623147030133 0 -0.0034376829471246318 0.019260530148588129 0 -0.0038720701477595394 0.018670359732914362 0 -0.0036412220110230752 0.018501519302981703 0 -0.0037945619258286665 0.01833352112845511 0 -0.0035613639107529346 0.018673884106107447 0 -0.0033830035862357144 0.018879326771077478 0 -0.0036412220110230752 0.018501519302981703 0 -0.0036274987586435775 0.01884416224647513 0 -0.0033564987487293536 0.018487623147030133 0 -0.0033830035862357144 0.018879326771077478 0 -0.003424073016050716 0.019220060055146825 0 -0.0034163665031083194 0.019244400373105073 0 -0.003387660491817174 0.019279591804875859 0 -0.0034376829471246318 0.019260530148588129 0 -0.0033830035862357144 0.018879326771077478 0 -0.0031861759120497915 0.019210121508148128 0 -0.0034163665031083194 0.019244400373105073 0 -0.003387660491817174 0.019279591804875859 0 -0.0033362751491339349 0.019223893246206464 0 -0.003387660491817174 0.019279591804875859 0 -0.0034376829471246318 0.019260530148588129 0 -0.0033188719024386461 0.019460312904014423 0 -0.003387660491817174 0.019279591804875859 0 -0.0033188719024386461 0.019460312904014423 0 -0.0032758857313121138 0.019353888901162679 0 -0.0033188719024386461 0.019460312904014423 0 -0.0032758857313121138 0.019353888901162679 0 -0.0031653621243903887 0.019527250347873275 0 -0.0033362751491339349 0.019223893246206464 0 -0.0032110074580750034 0.019296162872398718 0 -0.0031536592804752676 0.019220916739645655 0 -0.0031861759120497915 0.019210121508148128 0 -0.0027528064885082321 0.019470434120829702 0 -0.003387660491817174 0.019279591804875859 0 -0.0032758857313121138 0.019353888901162679 0 -0.0033362751491339349 0.019223893246206464 0 -0.0032758857313121138 0.019353888901162679 0 -0.0033362751491339349 0.019223893246206464 0 -0.0032110074580750034 0.019296162872398718 0 -0.0032758857313121138 0.019353888901162679 0 -0.0032110074580750034 0.019296162872398718 0 -0.0031582003835752674 0.019378608609450367 0 -0.0032110074580750034 0.019296162872398718 0 -0.0031582003835752674 0.019378608609450367 0 -0.0031113615970433392 0.019306280810438961 0 -0.0032110074580750034 0.019296162872398718 0 -0.0031536592804752676 0.019220916739645655 0 -0.0031113615970433392 0.019306280810438961 0 -0.0027528064885082321 0.019470434120829702 0 -0.0023549982207201809 0.019940717053470114 0 -0.0024536747613480001 0.019747213752511709 0 -0.0026930913024259388 0.019665627493022204 0 -0.0025199197437637032 0.019659527706127319 0 -0.0026190958315170992 0.019766818002469631 0 -0.0027528064885082321 0.019470434120829702 0 -0.0030182126363809511 0.019265076361037792 0 -0.0031536592804752676 0.019220916739645655 0 -0.0031113615970433392 0.019306280810438961 0 -0.0026190958315170992 0.019766818002469631 0 -0.0023549982207201809 0.019940717053470114 0 -0.0030318399638376726 0.019436595862151705 0 -0.0031582003835752674 0.019378608609450367 0 -0.0031113615970433392 0.019306280810438961 0 -0.0030318399638376726 0.019436595862151705 0 -0.0030182126363809511 0.019265076361037792 0 -0.0031113615970433392 0.019306280810438961 0 -0.0030318399638376726 0.019436595862151705 0 -0.0031582003835752674 0.019378608609450367 0 -0.0031653621243903887 0.019527250347873275 0 -0.0029741213465308801 0.019756984909408918 0 -0.0030318399638376726 0.019436595862151705 0 -0.0031653621243903887 0.019527250347873275 0 -0.0032758857313121138 0.019353888901162679 0 -0.0031582003835752674 0.019378608609450367 0 -0.0031653621243903887 0.019527250347873275 0 -0.0023081671714149593 0.02048561041983836 0 -0.0021753616388328475 0.020499177538234957 0 -0.0022858628705874724 0.020678627083231829 0 -0.0023670488055780575 0.019582278057823723 0 -0.0022485486251985535 0.019579387409672896 0 -0.0024474235608005304 0.019308363877493056 0 -0.0023081671714149593 0.02048561041983836 0 -0.0022845998271700369 0.020338086101978941 0 -0.0021753616388328475 0.020499177538234957 0 -0.0023549982207201809 0.019940717053470114 0 -0.0023194331871661377 0.019885600884007055 0 -0.0029935076631478342 0.019189720844306573 0 -0.0027081658441594175 0.019183345518750824 0 -0.00299808576725129 0.019080094077695106 0 -0.0027528064885082321 0.019470434120829702 0 -0.0027414532557422312 0.019317475762012561 0 -0.0023670488055780575 0.019582278057823723 0 -0.0026375601612657926 0.019487098253694154 0 -0.0024474235608005304 0.019308363877493056 0 -0.0026375601612657926 0.019487098253694154 0 -0.0024474235608005304 0.019308363877493056 0 -0.0027221868350534007 0.019242924465653868 0 -0.0023194331871661377 0.019885600884007055 0 -0.0022648690784332444 0.01998069448362929 0 -0.0024474235608005304 0.019308363877493056 0 -0.0027221868350534007 0.019242924465653868 0 -0.0026492730951317841 0.01903227944367401 0 -0.0021753616388328475 0.020499177538234957 0 -0.0020669241494610012 0.020674045073076311 0 -0.0022858628705874724 0.020678627083231829 0 -0.0027221868350534007 0.019242924465653868 0 -0.002913454791972889 0.019389500078677197 0 -0.0029243100377440386 0.019132030128548531 0 -0.0027221868350534007 0.019242924465653868 0 -0.0029243100377440386 0.019132030128548531 0 -0.0028176723384359002 0.01900645382587959 0 -0.0026375601612657926 0.019487098253694154 0 -0.0027221868350534007 0.019242924465653868 0 -0.002913454791972889 0.019389500078677197 0 -0.0032798156499498784 0.019197215060906103 0 -0.0029935076631478342 0.019189720844306573 0 -0.00299808576725129 0.019080094077695106 0 -0.0027414532557422312 0.019317475762012561 0 -0.0032522068543430374 0.018742076470000448 0 -0.0032798156499498784 0.019197215060906103 0 -0.00299808576725129 0.019080094077695106 0 -0.0032893791942959021 0.018977622650410537 0 -0.0033830035862357144 0.018879326771077478 0 -0.0032522068543430374 0.018742076470000448 0 -0.0032522068543430374 0.018742076470000448 0 -0.0036777482029515568 0.018339796041777847 0 -0.0034628765128324203 0.018197349981115031 0 -0.0036090207029626058 0.018324060530174949 0 -0.003650630634973724 0.018139523246372604 0 -0.0037945619258286665 0.01833352112845511 0 -0.003650630634973724 0.018139523246372604 0 -0.0038134922773031894 0.018018724191093061 0 -0.0034426229059961659 0.018490933749410694 0 -0.0034628765128324203 0.018197349981115031 0 -0.0036090207029626058 0.018324060530174949 0 -0.0036412220110230752 0.018501519302981703 0 -0.0034426229059961659 0.018490933749410694 0 -0.0036090207029626058 0.018324060530174949 0 -0.0036412220110230752 0.018501519302981703 0 -0.0036090207029626058 0.018324060530174949 0 -0.0037945619258286665 0.01833352112845511 0 -0.0036090207029626058 0.018324060530174949 0 -0.0037945619258286665 0.01833352112845511 0 -0.003650630634973724 0.018139523246372604 0 -0.0034844419323180336 0.018199557488036925 0 -0.0034982543270815078 0.01788100498322244 0 -0.0036262023709679745 0.017966497604326531 0 -0.003650630634973724 0.018139523246372604 0 -0.0036262023709679745 0.017966497604326531 0 -0.0038134922773031894 0.018018724191093061 0 -0.0032522068543430374 0.018742076470000448 0 -0.0032057130780512063 0.018607850807846726 0 -0.0036262023709679745 0.017966497604326531 0 -0.0035078925729644102 0.017562736316331352 0 -0.0038134922773031894 0.018018724191093061 0 -0.0034844419323180336 0.018199557488036925 0 -0.003650630634973724 0.018139523246372604 0 -0.0036262023709679745 0.017966497604326531 0 -0.0030600581184432527 0.017645210210615971 0 -0.0036543480372242735 0.01759623412621544 0 -0.0029254832302246124 0.016483639235414613 0 -0.0034734524484455395 0.017409045274170108 0 -0.0035609743781620036 0.016663761656456354 0 -0.0029254832302246124 0.016483639235414613 0 -0.0033301180695123325 0.01622904530073932 0 -0.0035609743781620036 0.016663761656456354 0 -0.0032057130780512063 0.018607850807846726 0 -0.0030600581184432527 0.017645210210615971 0 -0.0034982543270815078 0.01788100498322244 0 -0.0036262023709679745 0.017966497604326531 0 -0.0035078925729644102 0.017562736316331352 0 -0.0030600581184432527 0.017645210210615971 0 -0.0032386780023784872 0.016843072427330647 0 -0.0029254832302246124 0.016483639235414613 0 -0.0033301180695123325 0.01622904530073932 0 -0.0029703548351207045 0.015909548464689661 0 -0.0033301180695123325 0.01622904530073932 0 -0.0029703548351207045 0.015909548464689661 0 -0.0035143133014056884 0.015880466401570204 0 -0.0031095233191825011 0.018158719710468951 0 -0.0031406109762080981 0.017575887309478289 0 -0.0029222158360429702 0.01786523964967306 0 -0.0030600581184432527 0.017645210210615971 0 -0.0028469103194941809 0.019156395489940203 0 -0.0032386780023784872 0.016843072427330647 0 -0.0028469103194941809 0.019156395489940203 0 -0.0029243100377440386 0.019132030128548531 0 -0.00293621556479965 0.01887104019312659 0 -0.0028176723384359002 0.01900645382587959 0 -0.0028469103194941809 0.019156395489940203 0 -0.0022648690784332444 0.01998069448362929 0 -0.0028577552937262452 0.018751254963197989 0 -0.0028176723384359002 0.01900645382587959 0 -0.0026492730951317841 0.01903227944367401 0 -0.00293621556479965 0.01887104019312659 0 -0.0028577552937262452 0.018751254963197989 0 -0.0028176723384359002 0.01900645382587959 0 -0.0027221868350534007 0.019242924465653868 0 -0.0028176723384359002 0.01900645382587959 0 -0.0026492730951317841 0.01903227944367401 0 -0.0020669241494610012 0.020674045073076311 0 -0.002184757636187779 0.020880147084854878 0 -0.0022858628705874724 0.020678627083231829 0 -0.0019451529506563732 0.020847009339197423 0 -0.0020669241494610012 0.020674045073076311 0 -0.002184757636187779 0.020880147084854878 0 -0.0019451529506563732 0.020847009339197423 0 -0.002184757636187779 0.020880147084854878 0 -0.0021177890797358444 0.021102705720506456 0 -0.0024016309198727219 0.020953325757947217 0 -0.002184757636187779 0.020880147084854878 0 -0.0022858628705874724 0.020678627083231829 0 -0.0024016309198727219 0.020953325757947217 0 -0.002184757636187779 0.020880147084854878 0 -0.0022768916705582436 0.021033005481034286 0 -0.0050053576106715778 0.017547495604172687 0 -0.0048099378521002396 0.016933310089854017 0 -0.0052973633516381546 0.016665824129198169 0 -0.0050053576106715778 0.017547495604172687 0 -0.0044912538649693693 0.01725707637259883 0 -0.0048099378521002396 0.016933310089854017 0 -0.0050053576106715778 0.017547495604172687 0 -0.0045096511463610248 0.0177828563226783 0 -0.0044912538649693693 0.01725707637259883 0 -0.0050053576106715778 0.017547495604172687 0 -0.0056280723922594797 0.017696270020806246 0 -0.0052973633516381546 0.016665824129198169 0 -0.0051422520188939419 0.018313353110259913 0 -0.0056280723922594797 0.017696270020806246 0 -0.0051445002219535343 0.017936609325531518 0 -0.0050053576106715778 0.017547495604172687 0 -0.0056280723922594797 0.017696270020806246 0 -0.0051445002219535343 0.017936609325531518 0 -0.0050053576106715778 0.017547495604172687 0 -0.0051445002219535343 0.017936609325531518 0 -0.0048082184310064583 0.018178783305274376 0 -0.0051422520188939419 0.018313353110259913 0 -0.0051445002219535343 0.017936609325531518 0 -0.0048082184310064583 0.018178783305274376 0 -0.0050053576106715778 0.017547495604172687 0 -0.0048082184310064583 0.018178783305274376 0 -0.0045096511463610248 0.0177828563226783 0 -0.0041543469818329263 0.018427172673799112 0 -0.0045096511463610248 0.0177828563226783 0 -0.0040655313433359602 0.017496009081642699 0 -0.0041543469818329263 0.018427172673799112 0 -0.0048082184310064583 0.018178783305274376 0 -0.0045096511463610248 0.0177828563226783 0 -0.0041354156132494884 0.018447162973215588 0 -0.0036543480372242735 0.01759623412621544 0 -0.0041543469818329263 0.018427172673799112 0 -0.0037945619258286665 0.01833352112845511 0 -0.0038134922773031894 0.018018724191093061 0 -0.0041543469818329263 0.018427172673799112 0 -0.0034734524484455395 0.017409045274170108 0 -0.0040655313433359602 0.017496009081642699 0 -0.0034734524484455395 0.017409045274170108 0 -0.0037995641404908252 0.017052440327810153 0 -0.0035609743781620036 0.016663761656456354 0 -0.0034734524484455395 0.017409045274170108 0 -0.0037995641404908252 0.017052440327810153 0 -0.0040655313433359602 0.017496009081642699 0 -0.0037995641404908252 0.017052440327810153 0 -0.0040655313433359602 0.017496009081642699 0 -0.0041225942663111279 0.016949854593207934 0 -0.0045096511463610248 0.0177828563226783 0 -0.0040655313433359602 0.017496009081642699 0 -0.0044912538649693693 0.01725707637259883 0 -0.0040655313433359602 0.017496009081642699 0 -0.0044912538649693693 0.01725707637259883 0 -0.0041225942663111279 0.016949854593207934 0 -0.0044912538649693693 0.01725707637259883 0 -0.0041225942663111279 0.016949854593207934 0 -0.0043873358125492787 0.016665139548484389 0 -0.0044912538649693693 0.01725707637259883 0 -0.0043873358125492787 0.016665139548484389 0 -0.0048099378521002396 0.016933310089854017 0 -0.0041225942663111279 0.016949854593207934 0 -0.004108942466439839 0.016614974102423366 0 -0.0043873358125492787 0.016665139548484389 0 -0.0041225942663111279 0.016949854593207934 0 -0.004108942466439839 0.016614974102423366 0 -0.0038942640529545242 0.01673794650880156 0 -0.004108942466439839 0.016614974102423366 0 -0.0039017762196601859 0.016442419687321647 0 -0.0042109030124675983 0.016361213247470283 0 -0.004108942466439839 0.016614974102423366 0 -0.0043873358125492787 0.016665139548484389 0 -0.0042109030124675983 0.016361213247470283 0 -0.0043873358125492787 0.016665139548484389 0 -0.0044891129253913746 0.016313328361919208 0 -0.0048023341192255419 0.016495279821023279 0 -0.0043873358125492787 0.016665139548484389 0 -0.0044891129253913746 0.016313328361919208 0 -0.0042109030124675983 0.016361213247470283 0 -0.0037995641404908252 0.017052440327810153 0 -0.0041225942663111279 0.016949854593207934 0 -0.0038942640529545242 0.01673794650880156 0 -0.0037995641404908252 0.017052440327810153 0 -0.0038942640529545242 0.01673794650880156 0 -0.0035609743781620036 0.016663761656456354 0 -0.004108942466439839 0.016614974102423366 0 -0.0038942640529545242 0.01673794650880156 0 -0.0039017762196601859 0.016442419687321647 0 -0.0038942640529545242 0.01673794650880156 0 -0.0039017762196601859 0.016442419687321647 0 -0.0035609743781620036 0.016663761656456354 0 -0.0039017762196601859 0.016442419687321647 0 -0.0035609743781620036 0.016663761656456354 0 -0.0036812216490722158 0.016214298541816507 0 -0.0033301180695123325 0.01622904530073932 0 -0.0035609743781620036 0.016663761656456354 0 -0.0036812216490722158 0.016214298541816507 0 -0.0039017762196601859 0.016442419687321647 0 -0.0036812216490722158 0.016214298541816507 0 -0.0040087785846690998 0.016177781310794347 0 -0.0036812216490722158 0.016214298541816507 0 -0.003825900488529385 0.015979938930682197 0 -0.0040087785846690998 0.016177781310794347 0 -0.003825900488529385 0.015979938930682197 0 -0.0040087785846690998 0.016177781310794347 0 -0.0040904602677843127 0.015928584456591427 0 -0.003825900488529385 0.015979938930682197 0 -0.0040904602677843127 0.015928584456591427 0 -0.0038411729980820379 0.015704346132582599 0 -0.0036812216490722158 0.016214298541816507 0 -0.003825900488529385 0.015979938930682197 0 -0.0035143133014056884 0.015880466401570204 0 -0.0033301180695123325 0.01622904530073932 0 -0.0036812216490722158 0.016214298541816507 0 -0.0035143133014056884 0.015880466401570204 0 -0.0044891129253913746 0.016313328361919208 0 -0.0042799083539975724 0.016102578230037631 0 -0.0045140812938604859 0.016017111550999798 0 -0.0044891129253913746 0.016313328361919208 0 -0.0042109030124675983 0.016361213247470283 0 -0.0042799083539975724 0.016102578230037631 0 -0.0039017762196601859 0.016442419687321647 0 -0.0042109030124675983 0.016361213247470283 0 -0.0040087785846690998 0.016177781310794347 0 -0.0042109030124675983 0.016361213247470283 0 -0.0040087785846690998 0.016177781310794347 0 -0.0042799083539975724 0.016102578230037631 0 -0.0040087785846690998 0.016177781310794347 0 -0.0042799083539975724 0.016102578230037631 0 -0.0040904602677843127 0.015928584456591427 0 -0.0042799083539975724 0.016102578230037631 0 -0.0040904602677843127 0.015928584456591427 0 -0.004348853434583964 0.015876920294199334 0 -0.0042799083539975724 0.016102578230037631 0 -0.004348853434583964 0.015876920294199334 0 -0.0045140812938604859 0.016017111550999798 0 -0.004348853434583964 0.015876920294199334 0 -0.0045140812938604859 0.016017111550999798 0 -0.0045151575602299298 0.015766803144833166 0 -0.0045140812938604859 0.016017111550999798 0 -0.0047407577117412466 0.015920860207136091 0 -0.0047261254513688037 0.016209714685454037 0 -0.0045140812938604859 0.016017111550999798 0 -0.0047407577117412466 0.015920860207136091 0 -0.0045151575602299298 0.015766803144833166 0 -0.0047407577117412466 0.015920860207136091 0 -0.0050143741891159601 0.016143333159628723 0 -0.0047261254513688037 0.016209714685454037 0 -0.0050143741891159601 0.016143333159628723 0 -0.0052545445569662178 0.015881594860068415 0 -0.0049654743784261143 0.01572632937927659 0 -0.0047407577117412466 0.015920860207136091 0 -0.0050143741891159601 0.016143333159628723 0 -0.0049654743784261143 0.01572632937927659 0 -0.0044891129253913746 0.016313328361919208 0 -0.0047261254513688037 0.016209714685454037 0 -0.0048023341192255419 0.016495279821023279 0 -0.0044891129253913746 0.016313328361919208 0 -0.0045140812938604859 0.016017111550999798 0 -0.0047261254513688037 0.016209714685454037 0 -0.0050143741891159601 0.016143333159628723 0 -0.0047261254513688037 0.016209714685454037 0 -0.0048023341192255419 0.016495279821023279 0 -0.0043873358125492787 0.016665139548484389 0 -0.0048023341192255419 0.016495279821023279 0 -0.0048099378521002396 0.016933310089854017 0 -0.0048023341192255419 0.016495279821023279 0 -0.0048099378521002396 0.016933310089854017 0 -0.0052973633516381546 0.016665824129198169 0 -0.0050143741891159601 0.016143333159628723 0 -0.0048023341192255419 0.016495279821023279 0 -0.0052973633516381546 0.016665824129198169 0 -0.0056280723922594797 0.017696270020806246 0 -0.0052973633516381546 0.016665824129198169 0 -0.0059151173318240154 0.016575343397149781 0 -0.0052973633516381546 0.016665824129198169 0 -0.0054855417991666973 0.016201605028278242 0 -0.0059151173318240154 0.016575343397149781 0 -0.0050143741891159601 0.016143333159628723 0 -0.0052973633516381546 0.016665824129198169 0 -0.0054855417991666973 0.016201605028278242 0 -0.0050143741891159601 0.016143333159628723 0 -0.0054855417991666973 0.016201605028278242 0 -0.0052545445569662178 0.015881594860068415 0 -0.0054855417991666973 0.016201605028278242 0 -0.0057945599345574665 0.015865625275887571 0 -0.0055261420211661057 0.015754608097695778 0 -0.0054855417991666973 0.016201605028278242 0 -0.0052545445569662178 0.015881594860068415 0 -0.0055261420211661057 0.015754608097695778 0 -0.0054855417991666973 0.016201605028278242 0 -0.0057945599345574665 0.015865625275887571 0 -0.0059151173318240154 0.016575343397149781 0 -0.0057945599345574665 0.015865625275887571 0 -0.0059151173318240154 0.016575343397149781 0 -0.0061653547319763836 0.015475396326642061 0 -0.0051523189886484213 0.013263924106513768 0 -0.0056018758546079106 0.011932634765529767 0 -0.0050411529849829417 0.0091755950979502815 0 -0.0043704481315853961 0.0099441265827917742 0 -0.00504748686418823 0.0083197787057043421 0 -0.0050411529849829417 0.0091755950979502815 0 -0.0057349348533314347 0.009868359152841533 0 -0.0051400059498661931 0.0083450972817042807 0 -0.0047883031275106755 0.0079770897817083661 0 -0.004839291808739269 0.0072312116862944245 0 -0.0044478010117606727 0.0076177119439135316 0 -0.0047883031275106755 0.0079770897817083661 0 -0.004839291808739269 0.0072312116862944245 0 -0.0051400059498661931 0.0083450972817042807 0 -0.0053834671284179961 0.0085601330420690472 0 -0.0051323703329034052 0.0083509143929140998 0 -0.0050411529849829417 0.0091755950979502815 0 -0.0057349348533314347 0.009868359152841533 0 -0.0043704481315853961 0.0099441265827917742 0 -0.0057349348533314347 0.009868359152841533 0 -0.0043704481315853961 0.0099441265827917742 0 -0.0055600529615101504 0.010687326759996174 0 -0.0043704481315853961 0.0099441265827917742 0 -0.004815343195589121 0.011072580553648962 0 -0.0055600529615101504 0.010687326759996174 0 -0.0040444656501956886 0.0076709030688515605 0 -0.0032718135185605042 0.0074956941043341314 0 -0.003567643485064588 0.0079473346612336983 0 -0.0040444656501956886 0.0076709030688515605 0 -0.0041385578567454109 0.0071890358722745641 0 -0.0032718135185605042 0.0074956941043341314 0 -0.0040444656501956886 0.0076709030688515605 0 -0.0040817462232507484 0.0080553755338247483 0 -0.003567643485064588 0.0079473346612336983 0 -0.0040444656501956886 0.0076709030688515605 0 -0.0044478010117606727 0.0076177119439135316 0 -0.0041385578567454109 0.0071890358722745641 0 -0.0040444656501956886 0.0076709030688515605 0 -0.0044600422941769519 0.0080268398017605859 0 -0.0040817462232507484 0.0080553755338247483 0 -0.0040444656501956886 0.0076709030688515605 0 -0.0044478010117606727 0.0076177119439135316 0 -0.0044600422941769519 0.0080268398017605859 0 -0.0047883031275106755 0.0079770897817083661 0 -0.0044478010117606727 0.0076177119439135316 0 -0.0044600422941769519 0.0080268398017605859 0 -0.004839291808739269 0.0072312116862944245 0 -0.0044011367863928839 0.0069081300630416086 0 -0.0041385578567454109 0.0071890358722745641 0 -0.004839291808739269 0.0072312116862944245 0 -0.0044478010117606727 0.0076177119439135316 0 -0.0041385578567454109 0.0071890358722745641 0 -0.0044011367863928839 0.0069081300630416086 0 -0.0041385578567454109 0.0071890358722745641 0 -0.0040579533815135486 0.0068202644611490386 0 -0.0041385578567454109 0.0071890358722745641 0 -0.0037805666795580465 0.0067121406338349629 0 -0.0032718135185605042 0.0074956941043341314 0 -0.0041385578567454109 0.0071890358722745641 0 -0.0037805666795580465 0.0067121406338349629 0 -0.0040579533815135486 0.0068202644611490386 0 -0.0033357820010327071 0.0065151496082229273 0 -0.0032622702636197214 0.0066440566890079295 0 -0.0034060894689919084 0.0066473679232128564 0 -0.0037938941642067527 0.0068918923483329364 0 -0.0042861745483329756 0.0070047441754217277 0 -0.0037805666795580465 0.0067121406338349629 0 -0.0040579533815135486 0.0068202644611490386 0 -0.0042851011392433984 0.0065787130562880393 0 -0.0037938941642067527 0.0068918923483329364 0 -0.0037478383254404531 0.0071497628204259967 0 -0.0043855971904009881 0.0073596111257596686 0 -0.0039188258586338176 0.007494560196572771 0 -0.0041143532592819079 0.0078462937512401004 0 -0.004839291808739269 0.0072312116862944245 0 -0.0044011367863928839 0.0069081300630416086 0 -0.0045367057686487551 0.0063339993086918255 0 -0.0044011367863928839 0.0069081300630416086 0 -0.0043429756429467217 0.0067117929331437518 0 -0.0045367057686487551 0.0063339993086918255 0 -0.0039188258586338176 0.007494560196572771 0 -0.0036761896862896387 0.0077619344930161737 0 -0.0041143532592819079 0.0078462937512401004 0 -0.0043429756429467217 0.0067117929331437518 0 -0.0042913791301859199 0.0065948434573229915 0 -0.0045367057686487551 0.0063339993086918255 0 -0.0040579533815135486 0.0068202644611490386 0 -0.0043429756429467217 0.0067117929331437518 0 -0.0042913791301859199 0.0065948434573229915 0 -0.0044011367863928839 0.0069081300630416086 0 -0.0040579533815135486 0.0068202644611490386 0 -0.0043429756429467217 0.0067117929331437518 0 -0.0042303964826695076 0.0068272147799649458 0 -0.0042861745483329756 0.0070047441754217277 0 -0.0042861745483329756 0.0070047441754217277 0 -0.0046180406304930401 0.0090354465258738626 0 -0.0047118018241071999 0.010306657702824728 0 -0.0052540829906173297 0.0111823005726024 0 -0.0062346462643891876 0.011561267151528354 0 -0.0060843427778266186 0.011717686168468007 0 -0.0059607268901827387 0.011420949828502445 0 -0.0036761896862896387 0.0077619344930161737 0 -0.0041143532592819079 0.0078462937512401004 0 -0.0038381832181185625 0.0083328373122569781 0 -0.0032622702636197214 0.0066440566890079295 0 -0.0031853331569656261 0.0067813717248493251 0 -0.0032845910463238769 0.0068175772049687841 0 -0.0042716517791351822 0.0099053006495090825 0 -0.0044761515153817679 0.0096839829108045835 0 -0.0038251242036641169 0.0084014015298941886 0 -0.0046180406304930401 0.0090354465258738626 0 -0.0035718584849653793 0.0084053996805875473 0 -0.0046180406304930401 0.0090354465258738626 0 -0.0047118018241071999 0.010306657702824728 0 -0.0047118018241071999 0.010306657702824728 0 -0.0035718584849653793 0.0084053996805875473 0 -0.0037478383254404531 0.0071497628204259967 0 -0.0035718584849653793 0.0084053996805875473 0 -0.0031012453627490134 0.0056688334760933252 0 -0.0031443184173798643 0.0060447644749459691 0 -0.0032622702636197214 0.0066440566890079295 0 -0.0032845910463238769 0.0068175772049687841 0 -0.0034060894689919084 0.0066473679232128564 0 -0.0030393239027120315 0.0051508989333771231 0 -0.0028681719004407026 0.0051767294797045353 0 -0.0029115001552250802 0.0053174016169776645 0 -0.0047067445433457275 0.014775892019350482 0 -0.0051523189886484213 0.013263924106513768 0 -0.0038474497861110827 0.011848560653445632 0 -0.004815343195589121 0.011072580553648962 0 -0.0053584244458136851 0.011874046805838976 0 -0.0038474497861110827 0.011848560653445632 0 -0.0043704481315853961 0.0099441265827917742 0 -0.004815343195589121 0.011072580553648962 0 -0.004815343195589121 0.011072580553648962 0 -0.0055600529615101504 0.010687326759996174 0 -0.005423996760247427 0.011262891591793996 0 -0.0057349348533314347 0.009868359152841533 0 -0.0062346462643891876 0.011561267151528354 0 -0.0055600529615101504 0.010687326759996174 0 -0.0053834671284179961 0.0085601330420690472 0 -0.0046180406304930401 0.0090354465258738626 0 -0.0055600529615101504 0.010687326759996174 0 -0.0059607268901827387 0.011420949828502445 0 -0.005423996760247427 0.011262891591793996 0 -0.0062346462643891876 0.011561267151528354 0 -0.0055600529615101504 0.010687326759996174 0 -0.0059607268901827387 0.011420949828502445 0 -0.0059607268901827387 0.011420949828502445 0 -0.005423996760247427 0.011262891591793996 0 -0.0053584244458136851 0.011874046805838976 0 -0.004815343195589121 0.011072580553648962 0 -0.005423996760247427 0.011262891591793996 0 -0.0053584244458136851 0.011874046805838976 0 -0.0039833536223276185 0.010076809975074286 0 -0.003839197034255208 0.010234883318768281 0 -0.0040609122145701783 0.010236842246629357 0 -0.0060925678258988017 0.011736481665620999 0 -0.0059607268901827387 0.011420949828502445 0 -0.0053584244458136851 0.011874046805838976 0 -0.0060925678258988017 0.011736481665620999 0 -0.0053584244458136851 0.011874046805838976 0 -0.0052941995037266067 0.012633384110594732 0 -0.0047118018241071999 0.010306657702824728 0 -0.0045133983259646607 0.011519805083050207 0 -0.0038474497861110827 0.011848560653445632 0 -0.0053584244458136851 0.011874046805838976 0 -0.0052941995037266067 0.012633384110594732 0 -0.0038474497861110827 0.011848560653445632 0 -0.0052941995037266067 0.012633384110594732 0 -0.004489600251008666 0.013526698878164097 0 -0.0045133983259646607 0.011519805083050207 0 -0.0040807160143576902 0.011489864251198214 0 -0.0047218369192950603 0.010412023044763434 0 -0.0040807160143576902 0.011489864251198214 0 -0.0045680314559855715 0.0086008337305028704 0 -0.0038762564347095013 0.0093237925610127267 0 -0.0032141304434464267 0.0087144731751055918 0 -0.0045680314559855715 0.0086008337305028704 0 -0.0032141304434464267 0.0087144731751055918 0 -0.0038472821069963563 0.0076560075382966931 0 -0.0032141304434464267 0.0087144731751055918 0 -0.0024895929716437009 0.0091863174195456216 0 -0.0027896977980745139 0.0079281893455027275 0 -0.0038762564347095013 0.0093237925610127267 0 -0.0032141304434464267 0.0087144731751055918 0 -0.0024895929716437009 0.0091863174195456216 0 -0.003839197034255208 0.010234883318768281 0 -0.0036976620669518776 0.010398707372197906 0 -0.0040129328339276391 0.010321171563055244 0 -0.0038762564347095013 0.0093237925610127267 0 -0.0024895929716437009 0.0091863174195456216 0 -0.0022673845722432384 0.0095743812686427694 0 -0.0040807160143576902 0.011489864251198214 0 -0.002860363566367491 0.0089855559464185678 0 -0.003839197034255208 0.010234883318768281 0 -0.0040609122145701783 0.010236842246629357 0 -0.0040129328339276391 0.010321171563055244 0 -0.0029186827996692277 0.0076864326216979683 0 -0.002860363566367491 0.0089855559464185678 0 -0.0035718584849653793 0.0084053996805875473 0 -0.002860363566367491 0.0089855559464185678 0 -0.0031853331569656261 0.0067813717248493251 0 -0.0032010104560656863 0.0068379171761522774 0 -0.0032845910463238769 0.0068175772049687841 0 -0.0029186827996692277 0.0076864326216979683 0 -0.0031012453627490134 0.0056688334760933252 0 -0.0035718584849653793 0.0084053996805875473 0 -0.0029186827996692277 0.0076864326216979683 0 -0.0033363189053185653 0.0082363924338602953 0 -0.0034001197560312229 0.0084608076922280794 0 -0.0031838366158269192 0.0085010932084711478 0 -0.0019523689283299315 0.0096060484029981182 0 -0.0018835903585557594 0.0093802161169119509 0 -0.0022756839684267274 0.0095521235119792307 0 -0.0023869591278239221 0.0066270816941803581 0 -0.0024686938696612724 0.0069117022247761036 0 -0.0030001660997547655 0.0065126696800650082 0 -0.0024686938696612724 0.0069117022247761036 0 -0.0025464930455567454 0.007101322355809756 0 -0.0030001660997547655 0.0065126696800650082 0 -0.0029186827996692277 0.0076864326216979683 0 -0.0025597295054626185 0.0074951810179978342 0 -0.0018835903585557594 0.0093802161169119509 0 -0.0018190053635651524 0.0092305087133296194 0 -0.0022545811419847476 0.0090577044030659155 0 -0.0025597295054626185 0.0074951810179978342 0 -0.0023119875249124453 0.0069412112774938847 0 -0.0018835903585557594 0.0093802161169119509 0 -0.0022756839684267274 0.0095521235119792307 0 -0.0022545811419847476 0.0090577044030659155 0 -0.0024895929716437009 0.0091863174195456216 0 -0.0022756839684267274 0.0095521235119792307 0 -0.0022545811419847476 0.0090577044030659155 0 -0.0025414695702884547 0.0093459502107191457 0 -0.002860363566367491 0.0089855559464185678 0 -0.0026730419114225521 0.003515869164469154 0 -0.0025108742286881415 0.0032558028549707547 0 -0.0020665992359782687 0.0036260930309269111 0 -0.0025108742286881415 0.0032558028549707547 0 -0.002401583169875785 0.0028040383368559156 0 -0.0020665992359782687 0.0036260930309269111 0 -0.0031012453627490134 0.0056688334760933252 0 -0.0023829498344976174 0.0038899851314614293 0 -0.0028772800803190447 0.0032284013368488167 0 -0.0026730419114225521 0.003515869164469154 0 -0.0025108742286881415 0.0032558028549707547 0 -0.0023119875249124453 0.0069412112774938847 0 -0.0031012453627490134 0.0056688334760933252 0 -0.0028772800803190447 0.0032284013368488167 0 -0.002401583169875785 0.0028040383368559156 0 -0.0025290177304975233 0.002484412365836285 0 -0.0021907732421937785 0.0076627456294336878 0 -0.0018776908786594696 0.0070442706810551897 0 -0.0020278279361700255 0.0072087328953882521 0 -0.0023119875249124453 0.0069412112774938847 0 -0.0022776072246009369 0.0045011808454007906 0 -0.0028772800803190447 0.0032284013368488167 0 -0.0025108742286881415 0.0032558028549707547 0 -0.002401583169875785 0.0028040383368559156 0 -0.0023119875249124453 0.0069412112774938847 0 -0.0027666747904193309 0.0079736700034606055 0 -0.0024895929716437009 0.0091863174195456216 0 -0.0022545811419847476 0.0090577044030659155 0 -0.0027896977980745139 0.0079281893455027275 0 -0.0018190053635651524 0.0092305087133296194 0 -0.0022545811419847476 0.0090577044030659155 0 -0.0027896977980745139 0.0079281893455027275 0 -0.0022712637203723424 0.0081618242341175724 0 -0.0024156207398087588 0.0076284808045792157 0 -0.0020774969277335938 0.007467754412254936 0 -0.0022712637203723424 0.0081618242341175724 0 -0.0024156207398087588 0.0076284808045792157 0 -0.0029709134507327033 0.007302923459817201 0 -0.0023119875249124453 0.0069412112774938847 0 -0.0020862286555341594 0.0074991131469824782 0 -0.0024156207398087588 0.0076284808045792157 0 -0.0024630419971142484 0.0073715425157986599 0 -0.0029709134507327033 0.007302923459817201 0 -0.0024156207398087588 0.0076284808045792157 0 -0.0024630419971142484 0.0073715425157986599 0 -0.0020774969277335938 0.007467754412254936 0 -0.0024630419971142484 0.0073715425157986599 0 -0.0024679815052602392 0.0069423769153972364 0 -0.0020774969277335938 0.007467754412254936 0 -0.0024630419971142484 0.0073715425157986599 0 -0.0024679815052602392 0.0069423769153972364 0 -0.0029709134507327033 0.007302923459817201 0 -0.0020862286555341594 0.0074991131469824782 0 -0.001869377337129365 0.0067098594494078585 0 -0.0024679815052602392 0.0069423769153972364 0 -0.0020774969277335938 0.007467754412254936 0 -0.0018661891380915723 0.0067042133688935603 0 -0.0018776908786594696 0.0070442706810551897 0 -0.0020278279361700255 0.0072087328953882521 0 -0.0018661891380915723 0.0067042133688935603 0 -0.0012348759896323282 0.0040561520554466277 0 -0.0022776072246009369 0.0045011808454007906 0 -0.0015166495868761895 0.0062610115687931588 0 -0.0018776908786594696 0.0070442706810551897 0 -0.0018661891380915723 0.0067042133688935603 0 -0.0024046033018626555 0.0061139689206923791 0 -0.0015166495868761895 0.0062610115687931588 0 -0.0018661891380915723 0.0067042133688935603 0 -0.0024046033018626555 0.0061139689206923791 0 -0.0024679815052602392 0.0069423769153972364 0 -0.0018661891380915723 0.0067042133688935603 0 -0.0024046033018626555 0.0061139689206923791 0 -0.0024679815052602392 0.0069423769153972364 0 -0.0029975159627469981 0.0065782155803514051 0 -0.0029975159627469981 0.0065782155803514051 0 -0.0038097498957637343 0.0064826037994468056 0 -0.0029709134507327033 0.007302923459817201 0 -0.0034515198462003109 0.0059366699663472213 0 -0.0029975159627469981 0.0065782155803514051 0 -0.0038097498957637343 0.0064826037994468056 0 -0.0038413713258881261 0.006373451433497667 0 -0.0027666747904193309 0.0079736700034606055 0 -0.0038097498957637343 0.0064826037994468056 0 -0.0042750441468560746 0.0070861532403546463 0 -0.0038472821069963563 0.0076560075382966931 0 -0.0043585098223596769 0.0065331545845801657 0 -0.0038097498957637343 0.0064826037994468056 0 -0.0042750441468560746 0.0070861532403546463 0 -0.0045656845232104303 0.0077133198190223271 0 -0.0045680314559855715 0.0086008337305028704 0 -0.0038472821069963563 0.0076560075382966931 0 -0.0038097498957637343 0.0064826037994468056 0 -0.0038472821069963563 0.0076560075382966931 0 -0.0027896977980745139 0.0079281893455027275 0 -0.0045656845232104303 0.0077133198190223271 0 -0.0042750441468560746 0.0070861532403546463 0 -0.0038472821069963563 0.0076560075382966931 0 -0.0024679815052602392 0.0069423769153972364 0 -0.0029975159627469981 0.0065782155803514051 0 -0.0029709134507327033 0.007302923459817201 0 -0.0032141304434464267 0.0087144731751055918 0 -0.0038472821069963563 0.0076560075382966931 0 -0.0027896977980745139 0.0079281893455027275 0 -0.00094261651582117458 0.002565685695084636 0 -0.0014110951865299384 0.0024154298174223422 0 -0.0010690853849995318 0.0020255885329256772 0 -0.0014110951865299384 0.0024154298174223422 0 -0.0010690853849995318 0.0020255885329256772 0 -0.00167101072734794 0.0019854897577789958 0 -0.00075710323904225948 -0.00052279319908832798 0 -0.0015828297369381249 0.0015287543866430138 0 -0.0014110951865299384 0.0024154298174223422 0 -0.00167101072734794 0.0019854897577789958 0 -0.0020491394539253645 0.0024504691220369663 0 -0.0012348759896323282 0.0040561520554466277 0 -0.0015828297369381249 0.0015287543866430138 0 -0.0022808285904518904 0.0019351805076929165 0 -0.00167101072734794 0.0019854897577789958 0 -0.0020491394539253645 0.0024504691220369663 0 -0.0022808285904518904 0.0019351805076929165 0 -0.0025290177304975233 0.002484412365836285 0 -0.0020491394539253645 0.0024504691220369663 0 -0.002401583169875785 0.0028040383368559156 0 -0.0025290177304975233 0.002484412365836285 0 -0.0020491394539253645 0.0024504691220369663 0 -0.0014110951865299384 0.0024154298174223422 0 -0.0020491394539253645 0.0024504691220369663 0 -0.0016902560526570907 0.0028180042782426189 0 -0.0020491394539253645 0.0024504691220369663 0 -0.0016902560526570907 0.0028180042782426189 0 -0.0020382438138939751 0.0029523237078103387 0 -0.002401583169875785 0.0028040383368559156 0 -0.0020491394539253645 0.0024504691220369663 0 -0.0020382438138939751 0.0029523237078103387 0 -0.002401583169875785 0.0028040383368559156 0 -0.0020382438138939751 0.0029523237078103387 0 -0.0021791869058895193 0.0032805746680394788 0 -0.0023458048027102311 0.0026772651385032235 0 -0.0023829498344976174 0.0038899851314614293 0 -0.0020382438138939751 0.0029523237078103387 0 -0.0021791869058895193 0.0032805746680394788 0 -0.0015548265051522484 0.0033765062519346377 0 -0.0016902560526570907 0.0028180042782426189 0 -0.0020382438138939751 0.0029523237078103387 0 -0.0015548265051522484 0.0033765062519346377 0 -0.0016902560526570907 0.0028180042782426189 0 -0.0013168964524058995 0.0028572876471928302 0 -0.0015548265051522484 0.0033765062519346377 0 -0.0014110951865299384 0.0024154298174223422 0 -0.0016902560526570907 0.0028180042782426189 0 -0.0013168964524058995 0.0028572876471928302 0 -0.00094261651582117458 0.002565685695084636 0 -0.0013168964524058995 0.0028572876471928302 0 -0.00097481557590354867 0.0031029823712921414 0 -0.00094261651582117458 0.002565685695084636 0 -0.0014110951865299384 0.0024154298174223422 0 -0.0013168964524058995 0.0028572876471928302 0 -0.0013168964524058995 0.0028572876471928302 0 -0.00097481557590354867 0.0031029823712921414 0 -0.0015548265051522484 0.0033765062519346377 0 -0.0010806877877446697 0.0041536166073521986 0 -0.0018407320617439913 0.0040262297690211177 0 -0.0016282360266317811 0.004408868258538391 0 -0.0011733930158154913 0.0038981166035379771 0 -0.001851504374983458 0.0042177646118384008 0 -0.0017226040921923132 0.0042930437204857213 0 -0.0011733930158154913 0.0038981166035379771 0 -0.00091657868202206527 0.0040487506051323837 0 -0.0017226040921923132 0.0042930437204857213 0 -0.00090766446370330186 0.0034792735236073087 0 -0.00097481557590354867 0.0031029823712921414 0 -0.0015548265051522484 0.0033765062519346377 0 -0.0010809268299992575 0.0036271130907901783 0 -0.0017393478286623027 0.0043296016364481379 0 -0.0010809268299992575 0.0036271130907901783 0 -0.0016816550350854185 0.0036861989257979126 0 -0.0018407320617439913 0.0040262297690211177 0 -0.0016282360266317811 0.004408868258538391 0 -0.0020731748478599334 0.0043091995739436596 0 -0.0016282360266317811 0.004408868258538391 0 -0.0020731748478599334 0.0043091995739436596 0 -0.0021759698571208602 0.0046622381560653238 0 -0.0017393478286623027 0.0043296016364481379 0 -0.0024400469299825037 0.0048308512982371465 0 -0.0017999688589439389 0.0045204537364558258 0 -0.0024400469299825037 0.0048308512982371465 0 -0.0018069170376553848 0.0046678702834088148 0 -0.0027006658531886127 0.0049293012306108903 0 -0.0019215299113382643 0.0054549393253532008 0 -0.001851504374983458 0.0042177646118384008 0 -0.0017226040921923132 0.0042930437204857213 0 -0.0025312895984796386 0.004544716484265853 0 -0.00095528607181006968 0.0038359937073857587 0 -0.0017999688589439389 0.0045204537364558258 0 -0.00099986644780742143 0.0050466371180361309 0 -0.0018069170376553848 0.0046678702834088148 0 -0.0019215299113382643 0.0054549393253532008 0 -0.0025958953838303694 0.0038953326598386668 0 -0.0024364127360865322 0.0043008179818659282 0 -0.0020731748478599334 0.0043091995739436596 0 -0.0028681719004407026 0.0051767294797045353 0 -0.0029115001552250802 0.0053174016169776645 0 -0.0028118996465816689 0.0053248467776700528 0 -0.0023829498344976174 0.0038899851314614293 0 -0.0026028895516664935 0.0048613112873078825 0 -0.0025958953838303694 0.0038953326598386668 0 -0.0018407320617439913 0.0040262297690211177 0 -0.0020731748478599334 0.0043091995739436596 0 -0.0023829498344976174 0.0038899851314614293 0 -0.0016816550350854185 0.0036861989257979126 0 -0.0026028895516664935 0.0048613112873078825 0 -0.002759874591331043 0.0053453832779240098 0 -0.0024364127360865322 0.0043008179818659282 0 -0.0021759698571208602 0.0046622381560653238 0 -0.0022777289055789097 0.0047091752774963309 0 -0.0028118996465816689 0.0053248467776700528 0 -0.0027849854259181378 0.0054858595286614575 0 -0.0027563475613564142 0.0054725087900931776 0 -0.0027006658531886127 0.0049293012306108903 0 -0.0028395153693602316 0.0049933599693142922 0 -0.0027464736615891317 0.0052290242145252349 0 -0.0024400469299825037 0.0048308512982371465 0 -0.002759874591331043 0.0053453832779240098 0 -0.0031292449530978999 0.0058777393019904256 0 -0.002759874591331043 0.0053453832779240098 0 -0.0024364127360865322 0.0043008179818659282 0 -0.0020731748478599334 0.0043091995739436596 0 -0.0021759698571208602 0.0046622381560653238 0 -0.0029115001552250802 0.0053174016169776645 0 -0.0028118996465816689 0.0053248467776700528 0 -0.0027849854259181378 0.0054858595286614575 0 -0.0031443184173798643 0.0060447644749459691 0 -0.0031292449530978999 0.0058777393019904256 0 -0.0033357820010327071 0.0065151496082229273 0 -0.0034060894689919084 0.0066473679232128564 0 -0.0035004169997555623 0.0064822098084560036 0 -0.0034060894689919084 0.0066473679232128564 0 -0.0035161317298432033 0.0064889235660100216 0 -0.0035004169997555623 0.0064822098084560036 0 -0.0031292449530978999 0.0058777393019904256 0 -0.0032072858660687994 0.0059317335400028781 0 -0.0037894908290652374 0.0065835065965874984 0 -0.0030266959975634332 0.0071798570408769836 0 -0.0028082911044226611 0.006856044732085103 0 -0.0037938941642067527 0.0068918923483329364 0 -0.0030087849379104212 0.0062098945053186781 0 -0.0037894908290652374 0.0065835065965874984 0 -0.0030266959975634332 0.0071798570408769836 0 -0.0032718135185605042 0.0074956941043341314 0 -0.0037938941642067527 0.0068918923483329364 0 -0.0033136632582163633 0.0073666972426345134 0 -0.0033357820010327071 0.0065151496082229273 0 -0.0035004169997555623 0.0064822098084560036 0 -0.003544744832308642 0.0064495112299458356 0 -0.0027006658531886127 0.0049293012306108903 0 -0.0027464736615891317 0.0052290242145252349 0 -0.0019215299113382643 0.0054549393253532008 0 -0.0035183761524734884 0.005517962005216169 0 -0.0034216183618804245 0.0057608652026380951 0 -0.0022399631389563648 0.0058601907934458632 0 -0.0030266959975634332 0.0071798570408769836 0 -0.0026668049196131973 0.0070442545525274351 0 -0.0025374963305753034 0.007364291380265506 0 -0.0030266959975634332 0.0071798570408769836 0 -0.0028082911044226611 0.006856044732085103 0 -0.0026668049196131973 0.0070442545525274351 0 -0.0031292449530978999 0.0058777393019904256 0 -0.0030087849379104212 0.0062098945053186781 0 -0.0035157247056684703 0.0064887072761595265 0 -0.0035004169997555623 0.0064822098084560036 0 -0.003544744832308642 0.0064495112299458356 0 -0.0029345426703825603 0.0059030989514773351 0 -0.0029552489222232515 0.0059122559815153247 0 -0.0029591453821869403 0.0058719004126178177 0 -0.002759874591331043 0.0053453832779240098 0 -0.0030241264243910373 0.0059287492207544023 0 -0.0029552489222232515 0.0059122559815153247 0 -0.0029736362755575646 0.0058679911187098539 0 -0.0029591453821869403 0.0058719004126178177 0 -0.0030087849379104212 0.0062098945053186781 0 -0.0029006515293252318 0.0064893605060564498 0 -0.0030241264243910373 0.0059287492207544023 0 -0.0029006515293252318 0.0064893605060564498 0 -0.0030405670980509342 0.0061914029900726909 0 -0.0031283104667202467 0.0061667840684192995 0 -0.00296727419643756 0.0063775828860542149 0 -0.0030241264243910373 0.0059287492207544023 0 -0.0030087849379104212 0.0062098945053186781 0 -0.0029006515293252318 0.0064893605060564498 0 -0.0025669095108689951 0.0073089857097179359 0 -0.0026661861854198107 0.0070624020393660475 0 -0.0025374963305753034 0.007364291380265506 0 -0.0020634402874514686 0.0077996955493056935 0 -0.0025374963305753034 0.007364291380265506 0 -0.0028675822681134963 0.0076265674652473067 0 -0.002505955190227237 0.0078353115470149379 0 -0.0030266959975634332 0.0071798570408769836 0 -0.0025374963305753034 0.007364291380265506 0 -0.0028675822681134963 0.0076265674652473067 0 -0.0028675822681134963 0.0076265674652473067 0 -0.0032718135185605042 0.0074956941043341314 0 -0.003567643485064588 0.0079473346612336983 0 -0.0030266959975634332 0.0071798570408769836 0 -0.0028675822681134963 0.0076265674652473067 0 -0.0032718135185605042 0.0074956941043341314 0 -0.00099986644780742143 0.0050466371180361309 0 -0.0010912584008119796 0.0056858891280707332 0 -0.0019215299113382643 0.0054549393253532008 0 -0.00098849004725837697 0.0059360758999665473 0 -0.0021233684601242846 0.0055963064839888894 0 -0.0030241264243910373 0.0059287492207544023 0 -0.0021233684601242846 0.0055963064839888894 0 -0.0034216183618804245 0.0057608652026380951 0 -0.0022399631389563648 0.0058601907934458632 0 -0.0025125131060783168 0.0069761446455293046 0 -0.0029006515293252318 0.0064893605060564498 0 -0.0022958730399076019 0.0073746997243125476 0 -0.0025374963305753034 0.007364291380265506 0 -0.0020634402874514686 0.0077996955493056935 0 -0.002505955190227237 0.0078353115470149379 0 -0.0009596770082008426 0.00619005734700636 0 -0.0022399631389563648 0.0058601907934458632 0 -0.0016384647297258323 0.0067673726720363083 0 -0.0022399631389563648 0.0058601907934458632 0 -0.0025125131060783168 0.0069761446455293046 0 -0.0016384647297258323 0.0067673726720363083 0 -0.0016384647297258323 0.0067673726720363083 0 -0.0014322143117078321 0.0083347574481271933 0 -0.00087654514196727079 0.0069848195056883711 0 -0.0022958730399076019 0.0073746997243125476 0 -0.0014723122491421539 0.0083103094285328655 0 -0.0025125131060783168 0.0069761446455293046 0 -0.0016384647297258323 0.0067673726720363083 0 -0.0014322143117078321 0.0083347574481271933 0 -0.0020634402874514686 0.0077996955493056935 0 -0.002245297698565631 0.008333226997851011 0 -0.0014322143117078321 0.0083347574481271933 0 -0.0020634402874514686 0.0077996955493056935 0 -0.002245297698565631 0.008333226997851011 0 -0.002505955190227237 0.0078353115470149379 0 -0.002245297698565631 0.008333226997851011 0 -0.0014322143117078321 0.0083347574481271933 0 -0.0022462499414965015 0.0090518687572628403 0 -0.0028745712336535022 0.0081315190700937713 0 -0.0033344725539386434 0.0084529292759060008 0 -0.003567643485064588 0.0079473346612336983 0 -0.0028675822681134963 0.0076265674652473067 0 -0.0028745712336535022 0.0081315190700937713 0 -0.003567643485064588 0.0079473346612336983 0 -0.0028745712336535022 0.0081315190700937713 0 -0.0027113425230821252 0.0085864065064314519 0 -0.0033344725539386434 0.0084529292759060008 0 -0.002245297698565631 0.008333226997851011 0 -0.0028745712336535022 0.0081315190700937713 0 -0.002505955190227237 0.0078353115470149379 0 -0.002245297698565631 0.008333226997851011 0 -0.0028745712336535022 0.0081315190700937713 0 -0.0027113425230821252 0.0085864065064314519 0 -0.0028675822681134963 0.0076265674652473067 0 -0.0028745712336535022 0.0081315190700937713 0 -0.002505955190227237 0.0078353115470149379 0 -0.002245297698565631 0.008333226997851011 0 -0.0027113425230821252 0.0085864065064314519 0 -0.0022462499414965015 0.0090518687572628403 0 -0.0027113425230821252 0.0085864065064314519 0 -0.0030825103998291226 0.0089792478411255781 0 -0.0022462499414965015 0.0090518687572628403 0 -0.0033344725539386434 0.0084529292759060008 0 -0.0030825103998291226 0.0089792478411255781 0 -0.0037134295239995086 0.0088048279300755421 0 -0.0027113425230821252 0.0085864065064314519 0 -0.0033344725539386434 0.0084529292759060008 0 -0.0030825103998291226 0.0089792478411255781 0 -0.0028798663754792762 0.0095360971045588359 0 -0.0034127931177293661 0.0099938057197822023 0 -0.003578811544251435 0.0093124818633185062 0 -0.0030825103998291226 0.0089792478411255781 0 -0.0028798663754792762 0.0095360971045588359 0 -0.003578811544251435 0.0093124818633185062 0 -0.0030825103998291226 0.0089792478411255781 0 -0.003578811544251435 0.0093124818633185062 0 -0.0037134295239995086 0.0088048279300755421 0 -0.0028798663754792762 0.0095360971045588359 0 -0.0022462499414965015 0.0090518687572628403 0 -0.002268544229781047 0.0098527842373305492 0 -0.0030825103998291226 0.0089792478411255781 0 -0.0028798663754792762 0.0095360971045588359 0 -0.0022462499414965015 0.0090518687572628403 0 -0.0027732160397817133 0.010115044931718118 0 -0.002268544229781047 0.0098527842373305492 0 -0.0023555497359273279 0.010433447206317737 0 -0.0028798663754792762 0.0095360971045588359 0 -0.0027732160397817133 0.010115044931718118 0 -0.002268544229781047 0.0098527842373305492 0 -0.0027732160397817133 0.010115044931718118 0 -0.0034127931177293661 0.0099938057197822023 0 -0.0030757747397043627 0.010412904982820348 0 -0.0028798663754792762 0.0095360971045588359 0 -0.0027732160397817133 0.010115044931718118 0 -0.0034127931177293661 0.0099938057197822023 0 -0.0014322143117078321 0.0083347574481271933 0 -0.0015350254863250442 0.0095866740311789222 0 -0.00042693990057978792 0.0095600242754127606 0 -0.0014322143117078321 0.0083347574481271933 0 -0.0022462499414965015 0.0090518687572628403 0 -0.0015350254863250442 0.0095866740311789222 0 -0.0022462499414965015 0.0090518687572628403 0 -0.002268544229781047 0.0098527842373305492 0 -0.0015350254863250442 0.0095866740311789222 0 -0.002268544229781047 0.0098527842373305492 0 -0.0015350254863250442 0.0095866740311789222 0 -0.001814675229961941 0.01040697921956394 0 -0.002268544229781047 0.0098527842373305492 0 -0.001814675229961941 0.01040697921956394 0 -0.0023555497359273279 0.010433447206317737 0 -0.0015350254863250442 0.0095866740311789222 0 -0.001814675229961941 0.01040697921956394 0 -0.00098366131236187252 0.010373371526761021 0 -0.0014885145115923987 0.011064463100309934 0 -0.001814675229961941 0.01040697921956394 0 -0.00098366131236187252 0.010373371526761021 0 -0.0014885145115923987 0.011064463100309934 0 -0.0012387334849765462 0.011699331228975852 0 -0.0019553258726188539 0.011781625282391585 0 -0.0014885145115923987 0.011064463100309934 0 -0.0012387334849765462 0.011699331228975852 0 -0.00068398033222874836 0.011109766723973727 0 -0.0014885145115923987 0.011064463100309934 0 -0.00068398033222874836 0.011109766723973727 0 -0.00098366131236187252 0.010373371526761021 0 -0.0014885145115923987 0.011064463100309934 0 -0.0022541724735226135 0.011110037136366704 0 -0.0019553258726188539 0.011781625282391585 0 -0.001814675229961941 0.01040697921956394 0 -0.0023555497359273279 0.010433447206317737 0 -0.0022541724735226135 0.011110037136366704 0 -0.0014885145115923987 0.011064463100309934 0 -0.001814675229961941 0.01040697921956394 0 -0.0022541724735226135 0.011110037136366704 0 -0.0027732160397817133 0.010115044931718118 0 -0.0027454167256269037 0.010756819561316546 0 -0.0030757747397043627 0.010412904982820348 0 -0.0027732160397817133 0.010115044931718118 0 -0.0023555497359273279 0.010433447206317737 0 -0.0027454167256269037 0.010756819561316546 0 -0.0023555497359273279 0.010433447206317737 0 -0.0027454167256269037 0.010756819561316546 0 -0.0022541724735226135 0.011110037136366704 0 -0.0027454167256269037 0.010756819561316546 0 -0.0033786156854852798 0.010751771504436351 0 -0.0029008764754642094 0.011299549641368003 0 -0.0034127931177293661 0.0099938057197822023 0 -0.0030757747397043627 0.010412904982820348 0 -0.0033786156854852798 0.010751771504436351 0 -0.0027454167256269037 0.010756819561316546 0 -0.0030757747397043627 0.010412904982820348 0 -0.0033786156854852798 0.010751771504436351 0 -0.0033786156854852798 0.010751771504436351 0 -0.0029008764754642094 0.011299549641368003 0 -0.0034587527176161773 0.011385039632493626 0 -0.0029008764754642094 0.011299549641368003 0 -0.0025784189940302807 0.011731763734393422 0 -0.003067606060940076 0.011860902844906686 0 -0.0029008764754642094 0.011299549641368003 0 -0.003067606060940076 0.011860902844906686 0 -0.0034587527176161773 0.011385039632493626 0 -0.003067606060940076 0.011860902844906686 0 -0.0035884410704873412 0.011903713986768974 0 -0.0034587527176161773 0.011385039632493626 0 -0.0029008764754642094 0.011299549641368003 0 -0.0022541724735226135 0.011110037136366704 0 -0.0025784189940302807 0.011731763734393422 0 -0.0022541724735226135 0.011110037136366704 0 -0.0025784189940302807 0.011731763734393422 0 -0.0019553258726188539 0.011781625282391585 0 -0.0027454167256269037 0.010756819561316546 0 -0.0029008764754642094 0.011299549641368003 0 -0.0022541724735226135 0.011110037136366704 0 -0.0025784189940302807 0.011731763734393422 0 -0.0023652070677227786 0.01212490478396885 0 -0.0019553258726188539 0.011781625282391585 0 -0.0023652070677227786 0.01212490478396885 0 -0.0028497207506853169 0.01223957186893321 0 -0.002723682368358544 0.012654282390289652 0 -0.0025784189940302807 0.011731763734393422 0 -0.0023652070677227786 0.01212490478396885 0 -0.0028497207506853169 0.01223957186893321 0 -0.003067606060940076 0.011860902844906686 0 -0.0032051171228227901 0.012288746738417502 0 -0.0035884410704873412 0.011903713986768974 0 -0.003067606060940076 0.011860902844906686 0 -0.0028497207506853169 0.01223957186893321 0 -0.0032051171228227901 0.012288746738417502 0 -0.0025784189940302807 0.011731763734393422 0 -0.003067606060940076 0.011860902844906686 0 -0.0028497207506853169 0.01223957186893321 0 -0.0032051171228227901 0.012288746738417502 0 -0.0031491631320919164 0.012659151454663082 0 -0.0034240490166337068 0.01268543357946455 0 -0.0028497207506853169 0.01223957186893321 0 -0.0032051171228227901 0.012288746738417502 0 -0.0031491631320919164 0.012659151454663082 0 -0.0028497207506853169 0.01223957186893321 0 -0.0031491631320919164 0.012659151454663082 0 -0.002723682368358544 0.012654282390289652 0 -0.003109030158755213 0.012920652030288228 0 -0.002723682368358544 0.012654282390289652 0 -0.0028194470103213593 0.012983847225518748 0 -0.0031491631320919164 0.012659151454663082 0 -0.003109030158755213 0.012920652030288228 0 -0.002723682368358544 0.012654282390289652 0 -0.0031491631320919164 0.012659151454663082 0 -0.003109030158755213 0.012920652030288228 0 -0.003394034741286136 0.012945610257588509 0 -0.0023652070677227786 0.01212490478396885 0 -0.002723682368358544 0.012654282390289652 0 -0.0021257857600830753 0.012486861275382991 0 -0.002723682368358544 0.012654282390289652 0 -0.0021257857600830753 0.012486861275382991 0 -0.0024262285993104766 0.012964351036997689 0 -0.0021257857600830753 0.012486861275382991 0 -0.0020225394064137922 0.012839846980225772 0 -0.0024262285993104766 0.012964351036997689 0 -0.0021257857600830753 0.012486861275382991 0 -0.0016044735507663172 0.012655774692600853 0 -0.0016206544761378085 0.012163575416699626 0 -0.0021257857600830753 0.012486861275382991 0 -0.0016044735507663172 0.012655774692600853 0 -0.0020225394064137922 0.012839846980225772 0 -0.0016044735507663172 0.012655774692600853 0 -0.0011190999464710367 0.012329242115861836 0 -0.0016206544761378085 0.012163575416699626 0 -0.0011190999464710367 0.012329242115861836 0 -0.0016206544761378085 0.012163575416699626 0 -0.0012387334849765462 0.011699331228975852 0 -0.0016206544761378085 0.012163575416699626 0 -0.0012387334849765462 0.011699331228975852 0 -0.0019553258726188539 0.011781625282391585 0 -0.0021257857600830753 0.012486861275382991 0 -0.0016206544761378085 0.012163575416699626 0 -0.0019553258726188539 0.011781625282391585 0 -0.0023652070677227786 0.01212490478396885 0 -0.0021257857600830753 0.012486861275382991 0 -0.0019553258726188539 0.011781625282391585 0 -0.0036702003127216162 0.013506789608542952 0 -0.0038858144727651179 0.013513922048346798 0 -0.003539610877827783 0.013376670268899089 0 -0.0038515187755009035 0.013700217347789168 0 -0.0036702003127216162 0.013506789608542952 0 -0.0038858144727651179 0.013513922048346798 0 -0.0038515187755009035 0.013700217347789168 0 -0.0036702003127216162 0.013506789608542952 0 -0.0036177532682271111 0.013661721083627669 0 -0.0038858144727651179 0.013513922048346798 0 -0.0041011664982359775 0.013772433806943887 0 -0.004219726703232677 0.013523689967110075 0 -0.0041011664982359775 0.013772433806943887 0 -0.004219726703232677 0.013523689967110075 0 -0.0043532157686236288 0.013763174997413299 0 -0.0038515187755009035 0.013700217347789168 0 -0.0038858144727651179 0.013513922048346798 0 -0.0041011664982359775 0.013772433806943887 0 -0.0041011664982359775 0.013772433806943887 0 -0.0039535311273404001 0.01406978070586138 0 -0.0043004684448994151 0.014163999694325476 0 -0.0038515187755009035 0.013700217347789168 0 -0.0041011664982359775 0.013772433806943887 0 -0.0039535311273404001 0.01406978070586138 0 -0.0038515187755009035 0.013700217347789168 0 -0.0039535311273404001 0.01406978070586138 0 -0.0036177532682271111 0.013661721083627669 0 -0.0039535311273404001 0.01406978070586138 0 -0.0036177532682271111 0.013661721083627669 0 -0.0035883208809930414 0.01421426905458264 0 -0.0034403553833739155 0.0130582753064941 0 -0.0036871354510325601 0.013670172570727241 0 -0.0036177532682271111 0.013661721083627669 0 -0.0034279850026476145 0.012959557981881635 0 -0.0035883208809930414 0.01421426905458264 0 -0.0034279850026476145 0.012959557981881635 0 -0.0034951719029185282 0.01309432538565471 0 -0.0037245022276393425 0.013149599210656197 0 -0.003394034741286136 0.012945610257588509 0 -0.0034279850026476145 0.012959557981881635 0 -0.0034951719029185282 0.01309432538565471 0 -0.003109030158755213 0.012920652030288228 0 -0.003394034741286136 0.012945610257588509 0 -0.0033210547079504959 0.013159618184361937 0 -0.003394034741286136 0.012945610257588509 0 -0.0034240490166337068 0.01268543357946455 0 -0.0034279850026476145 0.012959557981881635 0 -0.0031491631320919164 0.012659151454663082 0 -0.003394034741286136 0.012945610257588509 0 -0.0034240490166337068 0.01268543357946455 0 -0.0031880817402573716 0.012771379820104407 0 -0.0047872900333449766 0.012749466680857519 0 -0.0034240490166337068 0.01268543357946455 0 -0.0035884410704873412 0.011903713986768974 0 -0.0047422822579256223 0.011872013085712927 0 -0.0034240490166337068 0.01268543357946455 0 -0.0034279850026476145 0.012959557981881635 0 -0.0035145762285557196 0.013440866789454609 0 -0.0032051171228227901 0.012288746738417502 0 -0.0034240490166337068 0.01268543357946455 0 -0.0035884410704873412 0.011903713986768974 0 -0.0036177532682271111 0.013661721083627669 0 -0.0034279850026476145 0.012959557981881635 0 -0.0035115808044484218 0.01331989233646098 0 -0.0036702003127216162 0.013506789608542952 0 -0.0036177532682271111 0.013661721083627669 0 -0.0035115808044484218 0.01331989233646098 0 -0.0034279850026476145 0.012959557981881635 0 -0.0035115808044484218 0.01331989233646098 0 -0.0035145762285557196 0.013440866789454609 0 -0.0040210282358689644 0.013494905985099958 0 -0.0047872900333449766 0.012749466680857519 0 -0.0036702003127216162 0.013506789608542952 0 -0.0035115808044484218 0.01331989233646098 0 -0.003539610877827783 0.013376670268899089 0 -0.0047422822579256223 0.011872013085712927 0 -0.003984206081054085 0.011441098398834825 0 -0.0043378625243010857 0.011017613257338407 0 -0.0047872900333449766 0.012749466680857519 0 -0.0059217927100172338 0.011825146470635707 0 -0.0047422822579256223 0.011872013085712927 0 -0.0043378625243010857 0.011017613257338407 0 -0.0049633295982679793 0.010475660306989577 0 -0.0035884410704873412 0.011903713986768974 0 -0.0047422822579256223 0.011872013085712927 0 -0.003984206081054085 0.011441098398834825 0 -0.0035884410704873412 0.011903713986768974 0 -0.003984206081054085 0.011441098398834825 0 -0.0034587527176161773 0.011385039632493626 0 -0.003984206081054085 0.011441098398834825 0 -0.0038493731207882883 0.010982781760014987 0 -0.0043378625243010857 0.011017613257338407 0 -0.0033786156854852798 0.010751771504436351 0 -0.0034587527176161773 0.011385039632493626 0 -0.0038493731207882883 0.010982781760014987 0 -0.003984206081054085 0.011441098398834825 0 -0.0034587527176161773 0.011385039632493626 0 -0.0038493731207882883 0.010982781760014987 0 -0.0033786156854852798 0.010751771504436351 0 -0.0038493731207882883 0.010982781760014987 0 -0.0040879509052670149 0.010360871308322342 0 -0.0034127931177293661 0.0099938057197822023 0 -0.0033786156854852798 0.010751771504436351 0 -0.0040879509052670149 0.010360871308322342 0 -0.0038493731207882883 0.010982781760014987 0 -0.0040879509052670149 0.010360871308322342 0 -0.0043378625243010857 0.011017613257338407 0 -0.0040879509052670149 0.010360871308322342 0 -0.0043378625243010857 0.011017613257338407 0 -0.0049633295982679793 0.010475660306989577 0 -0.0065667108385207831 0.013433347388944609 0 -0.0062503808216006814 0.013229377856013009 0 -0.0061887388611547977 0.013777479537770662 0 -0.00675836800182247 0.012553307055509312 0 -0.0062503808216006814 0.013229377856013009 0 -0.005969757202265928 0.012978493371210105 0 -0.00675836800182247 0.012553307055509312 0 -0.0065667108385207831 0.013433347388944609 0 -0.0062503808216006814 0.013229377856013009 0 -0.0038858144727651179 0.013513922048346798 0 -0.003539610877827783 0.013376670268899089 0 -0.0040247967425978519 0.013252704388709043 0 -0.0047872900333449766 0.012749466680857519 0 -0.0050791148778298193 0.013118444797385146 0 -0.0038858144727651179 0.013513922048346798 0 -0.004219726703232677 0.013523689967110075 0 -0.0040247967425978519 0.013252704388709043 0 -0.004219726703232677 0.013523689967110075 0 -0.0040247967425978519 0.013252704388709043 0 -0.0044334678711259448 0.013225293315055663 0 -0.0062503808216006814 0.013229377856013009 0 -0.0058179542128731412 0.01342262126678188 0 -0.0061887388611547977 0.013777479537770662 0 -0.0062503808216006814 0.013229377856013009 0 -0.005969757202265928 0.012978493371210105 0 -0.0058179542128731412 0.01342262126678188 0 -0.0058601980441628735 0.013966050402375394 0 -0.0061887388611547977 0.013777479537770662 0 -0.0055696720472658392 0.013706282743673128 0 -0.0061201361295010331 0.013770243931160315 0 -0.0055966588975032358 0.013707918590733639 0 -0.0058601980441628735 0.013966050402375394 0 -0.0061887388611547977 0.013777479537770662 0 -0.0063839451069960668 0.014411374434193863 0 -0.0058179542128731412 0.01342262126678188 0 -0.0061887388611547977 0.013777479537770662 0 -0.0055707310350462487 0.01370852694604092 0 -0.0049633295982679793 0.010475660306989577 0 -0.0051430379328036863 0.0092535834990756551 0 -0.0045908924041562606 0.0097545501937170171 0 -0.0065667108385207831 0.013433347388944609 0 -0.0061887388611547977 0.013777479537770662 0 -0.0063839451069960668 0.014411374434193863 0 -0.0059217927100172338 0.011825146470635707 0 -0.0057263647100139281 0.011875453657764884 0 -0.0051430379328036863 0.0092535834990756551 0 -0.0044792789863475598 0.0091686283666555547 0 -0.0047027294026048237 0.0087385619321030741 0 -0.0058601980441628735 0.013966050402375394 0 -0.0063839451069960668 0.014411374434193863 0 -0.0057588437652117989 0.01436665562410129 0 -0.0063839451069960668 0.014411374434193863 0 -0.0057588437652117989 0.01436665562410129 0 -0.0058817527312603384 0.014693649182860136 0 -0.0057588437652117989 0.01436665562410129 0 -0.0058817527312603384 0.014693649182860136 0 -0.0055016450212715803 0.014716196808152279 0 -0.0034127931177293661 0.0099938057197822023 0 -0.0040879509052670149 0.010360871308322342 0 -0.0040857620653212481 0.0095915097415311106 0 -0.0040879509052670149 0.010360871308322342 0 -0.0045908924041562606 0.0097545501937170171 0 -0.0040857620653212481 0.0095915097415311106 0 -0.0040879509052670149 0.010360871308322342 0 -0.0049633295982679793 0.010475660306989577 0 -0.0045908924041562606 0.0097545501937170171 0 -0.0051430379328036863 0.0092535834990756551 0 -0.0045908924041562606 0.0097545501937170171 0 -0.0044792789863475598 0.0091686283666555547 0 -0.0044792789863475598 0.0091686283666555547 0 -0.0040857620653212481 0.0095915097415311106 0 -0.0040707386818698028 0.00906928152716183 0 -0.0045908924041562606 0.0097545501937170171 0 -0.0044792789863475598 0.0091686283666555547 0 -0.0040857620653212481 0.0095915097415311106 0 -0.0034127931177293661 0.0099938057197822023 0 -0.0040857620653212481 0.0095915097415311106 0 -0.003578811544251435 0.0093124818633185062 0 -0.0040857620653212481 0.0095915097415311106 0 -0.0040707386818698028 0.00906928152716183 0 -0.003578811544251435 0.0093124818633185062 0 -0.0040707386818698028 0.00906928152716183 0 -0.003578811544251435 0.0093124818633185062 0 -0.0037134295239995086 0.0088048279300755421 0 -0.0033344725539386434 0.0084529292759060008 0 -0.0037134295239995086 0.0088048279300755421 0 -0.0039443933915485124 0.0083699796990083525 0 -0.0040707386818698028 0.00906928152716183 0 -0.0037134295239995086 0.0088048279300755421 0 -0.0042384556702192017 0.0087140046326457804 0 -0.0037134295239995086 0.0088048279300755421 0 -0.0042384556702192017 0.0087140046326457804 0 -0.0039443933915485124 0.0083699796990083525 0 -0.0044792789863475598 0.0091686283666555547 0 -0.0040707386818698028 0.00906928152716183 0 -0.0042384556702192017 0.0087140046326457804 0 -0.0044792789863475598 0.0091686283666555547 0 -0.0042384556702192017 0.0087140046326457804 0 -0.0047027294026048237 0.0087385619321030741 0 -0.0042384556702192017 0.0087140046326457804 0 -0.0047027294026048237 0.0087385619321030741 0 -0.0043935261336685225 0.0083805726892753028 0 -0.0047027294026048237 0.0087385619321030741 0 -0.0043935261336685225 0.0083805726892753028 0 -0.0047635835699297415 0.0083788049949549068 0 -0.0047883031275106755 0.0079770897817083661 0 -0.0044600422941769519 0.0080268398017605859 0 -0.0047635835699297415 0.0083788049949549068 0 -0.0044600422941769519 0.0080268398017605859 0 -0.0043935261336685225 0.0083805726892753028 0 -0.0047635835699297415 0.0083788049949549068 0 -0.0044600422941769519 0.0080268398017605859 0 -0.0043935261336685225 0.0083805726892753028 0 -0.0040817462232507484 0.0080553755338247483 0 -0.0043935261336685225 0.0083805726892753028 0 -0.0039443933915485124 0.0083699796990083525 0 -0.0040817462232507484 0.0080553755338247483 0 -0.0042384556702192017 0.0087140046326457804 0 -0.0043935261336685225 0.0083805726892753028 0 -0.0039443933915485124 0.0083699796990083525 0 -0.0033344725539386434 0.0084529292759060008 0 -0.0039443933915485124 0.0083699796990083525 0 -0.003567643485064588 0.0079473346612336983 0 -0.0039443933915485124 0.0083699796990083525 0 -0.0040817462232507484 0.0080553755338247483 0 -0.003567643485064588 0.0079473346612336983 0 -0.0063839451069960668 0.014411374434193863 0 -0.0060051964494219527 0.015017891561403023 0 -0.0061653547319763836 0.015475396326642061 0 -0.0063839451069960668 0.014411374434193863 0 -0.0060051964494219527 0.015017891561403023 0 -0.0058817527312603384 0.014693649182860136 0 -0.0060051964494219527 0.015017891561403023 0 -0.0058282835059463066 0.015191333163522744 0 -0.0059493148151889396 0.01532811194734127 0 -0.0058282835059463066 0.015191333163522744 0 -0.0057310440111598493 0.015007601992007413 0 -0.0056253033370782775 0.015267756588213185 0 -0.0060051964494219527 0.015017891561403023 0 -0.0058282835059463066 0.015191333163522744 0 -0.0057310440111598493 0.015007601992007413 0 -0.0057310440111598493 0.015007601992007413 0 -0.0058817527312603384 0.014693649182860136 0 -0.0055016450212715803 0.014716196808152279 0 -0.0060051964494219527 0.015017891561403023 0 -0.0057310440111598493 0.015007601992007413 0 -0.0058817527312603384 0.014693649182860136 0 -0.0051430379328036863 0.0092535834990756551 0 -0.0047027294026048237 0.0087385619321030741 0 -0.0049652755333189861 0.0085871782385217605 0 -0.0057263647100139281 0.011875453657764884 0 -0.0056018758546079106 0.011932634765529767 0 -0.0051430379328036863 0.0092535834990756551 0 -0.0049652755333189861 0.0085871782385217605 0 -0.00504748686418823 0.0083197787057043421 0 -0.0047027294026048237 0.0087385619321030741 0 -0.0049652755333189861 0.0085871782385217605 0 -0.0047635835699297415 0.0083788049949549068 0 -0.0049652755333189861 0.0085871782385217605 0 -0.0051400059498661931 0.0083450972817042807 0 -0.00504748686418823 0.0083197787057043421 0 -0.0050411529849829417 0.0091755950979502815 0 -0.0051400059498661931 0.0083450972817042807 0 -0.00504748686418823 0.0083197787057043421 0 -0.0049652755333189861 0.0085871782385217605 0 -0.0047635835699297415 0.0083788049949549068 0 -0.0051400059498661931 0.0083450972817042807 0 -0.0047883031275106755 0.0079770897817083661 0 -0.0047635835699297415 0.0083788049949549068 0 -0.0051400059498661931 0.0083450972817042807 0 -0.0060051964494219527 0.015017891561403023 0 -0.0061653547319763836 0.015475396326642061 0 -0.0059493148151889396 0.01532811194734127 0 -0.0061653547319763836 0.015475396326642061 0 -0.0059493148151889396 0.01532811194734127 0 -0.0058837667239985021 0.015542592527086251 0 -0.0058282835059463066 0.015191333163522744 0 -0.0057901554658979469 0.015407954685196056 0 -0.0056253033370782775 0.015267756588213185 0 -0.0058282835059463066 0.015191333163522744 0 -0.0059493148151889396 0.01532811194734127 0 -0.0057901554658979469 0.015407954685196056 0 -0.0059493148151889396 0.01532811194734127 0 -0.0057901554658979469 0.015407954685196056 0 -0.0058837667239985021 0.015542592527086251 0 -0.0057945599345574665 0.015865625275887571 0 -0.0057196029688491691 0.015638320946754686 0 -0.0058837667239985021 0.015542592527086251 0 -0.0057901554658979469 0.015407954685196056 0 -0.0057196029688491691 0.015638320946754686 0 -0.0058837667239985021 0.015542592527086251 0 -0.0057945599345574665 0.015865625275887571 0 -0.0061653547319763836 0.015475396326642061 0 -0.0058837667239985021 0.015542592527086251 0 -0.0057945599345574665 0.015865625275887571 0 -0.0057196029688491691 0.015638320946754686 0 -0.0055261420211661057 0.015754608097695778 0 -0.0055261420211661057 0.015754608097695778 0 -0.0052826015498320172 0.015584310742630853 0 -0.0055594956346292105 0.015497211871052416 0 -0.0057196029688491691 0.015638320946754686 0 -0.0055261420211661057 0.015754608097695778 0 -0.0055594956346292105 0.015497211871052416 0 -0.0057901554658979469 0.015407954685196056 0 -0.0057196029688491691 0.015638320946754686 0 -0.0055594956346292105 0.015497211871052416 0 -0.0052545445569662178 0.015881594860068415 0 -0.0052826015498320172 0.015584310742630853 0 -0.0049654743784261143 0.01572632937927659 0 -0.0052545445569662178 0.015881594860068415 0 -0.0055261420211661057 0.015754608097695778 0 -0.0052826015498320172 0.015584310742630853 0 -0.0052826015498320172 0.015584310742630853 0 -0.0052026522781974316 0.015389665979539894 0 -0.0050592435974896486 0.015494314023505068 0 -0.0052826015498320172 0.015584310742630853 0 -0.0053837344358418464 0.015340678833079994 0 -0.0052026522781974316 0.015389665979539894 0 -0.0053837344358418464 0.015340678833079994 0 -0.0052026522781974316 0.015389665979539894 0 -0.0052206642314585961 0.015198692931469656 0 -0.0052026522781974316 0.015389665979539894 0 -0.0052206642314585961 0.015198692931469656 0 -0.0050418409201501034 0.015319095011215192 0 -0.0057901554658979469 0.015407954685196056 0 -0.0055594956346292105 0.015497211871052416 0 -0.0056253033370782775 0.015267756588213185 0 -0.0052826015498320172 0.015584310742630853 0 -0.0053837344358418464 0.015340678833079994 0 -0.0055594956346292105 0.015497211871052416 0 -0.0053837344358418464 0.015340678833079994 0 -0.0055594956346292105 0.015497211871052416 0 -0.0056253033370782775 0.015267756588213185 0 -0.0057310440111598493 0.015007601992007413 0 -0.0056253033370782775 0.015267756588213185 0 -0.0054483685326701652 0.015087090680427857 0 -0.0053837344358418464 0.015340678833079994 0 -0.0056253033370782775 0.015267756588213185 0 -0.0054483685326701652 0.015087090680427857 0 -0.0053837344358418464 0.015340678833079994 0 -0.0054483685326701652 0.015087090680427857 0 -0.0052206642314585961 0.015198692931469656 0 -0.0052206642314585961 0.015198692931469656 0 -0.0052177443002525813 0.014927926121125512 0 -0.0050252574002837965 0.015100720299256461 0 -0.0054483685326701652 0.015087090680427857 0 -0.0052206642314585961 0.015198692931469656 0 -0.0052177443002525813 0.014927926121125512 0 -0.0052177443002525813 0.014927926121125512 0 -0.0055016450212715803 0.014716196808152279 0 -0.0051088511103020819 0.014650067306787222 0 -0.0054483685326701652 0.015087090680427857 0 -0.0052177443002525813 0.014927926121125512 0 -0.0055016450212715803 0.014716196808152279 0 -0.0057310440111598493 0.015007601992007413 0 -0.0054483685326701652 0.015087090680427857 0 -0.0055016450212715803 0.014716196808152279 0 -0.0046749188385947328 0.014946876852902377 0 -0.004933146274867844 0.014900298528830241 0 -0.0048177122626843353 0.015080479482577883 0 -0.0046749188385947328 0.014946876852902377 0 -0.0047354825876204524 0.014715868601810275 0 -0.004933146274867844 0.014900298528830241 0 -0.0046749188385947328 0.014946876852902377 0 -0.0047354825876204524 0.014715868601810275 0 -0.0044960462857667098 0.014794611526094308 0 -0.0047354825876204524 0.014715868601810275 0 -0.004933146274867844 0.014900298528830241 0 -0.0051088511103020819 0.014650067306787222 0 -0.0052177443002525813 0.014927926121125512 0 -0.004933146274867844 0.014900298528830241 0 -0.0051088511103020819 0.014650067306787222 0 -0.0052177443002525813 0.014927926121125512 0 -0.004933146274867844 0.014900298528830241 0 -0.0050252574002837965 0.015100720299256461 0 -0.004933146274867844 0.014900298528830241 0 -0.0050252574002837965 0.015100720299256461 0 -0.0048177122626843353 0.015080479482577883 0 -0.0052206642314585961 0.015198692931469656 0 -0.0050252574002837965 0.015100720299256461 0 -0.0050418409201501034 0.015319095011215192 0 -0.0050252574002837965 0.015100720299256461 0 -0.0050418409201501034 0.015319095011215192 0 -0.0048407033145930513 0.015285468520057213 0 -0.0050252574002837965 0.015100720299256461 0 -0.0048177122626843353 0.015080479482577883 0 -0.0048407033145930513 0.015285468520057213 0 -0.0048177122626843353 0.015080479482577883 0 -0.0046039378488653563 0.015198249818277177 0 -0.0048407033145930513 0.015285468520057213 0 -0.0046749188385947328 0.014946876852902377 0 -0.0048177122626843353 0.015080479482577883 0 -0.0046039378488653563 0.015198249818277177 0 -0.0046749188385947328 0.014946876852902377 0 -0.0046039378488653563 0.015198249818277177 0 -0.0044219794697489805 0.015036919626787595 0 -0.0046039378488653563 0.015198249818277177 0 -0.0046481452909221182 0.015425644141841005 0 -0.0044269520840872758 0.015406336891618109 0 -0.0046039378488653563 0.015198249818277177 0 -0.0046481452909221182 0.015425644141841005 0 -0.0048407033145930513 0.015285468520057213 0 -0.0046481452909221182 0.015425644141841005 0 -0.0048407033145930513 0.015285468520057213 0 -0.0048669883824236215 0.015479131032982171 0 -0.0046481452909221182 0.015425644141841005 0 -0.0048669883824236215 0.015479131032982171 0 -0.0047038710889440666 0.015631504917570052 0 -0.0046481452909221182 0.015425644141841005 0 -0.0047038710889440666 0.015631504917570052 0 -0.004527731705234731 0.015570091306255227 0 -0.0050418409201501034 0.015319095011215192 0 -0.0048407033145930513 0.015285468520057213 0 -0.0048669883824236215 0.015479131032982171 0 -0.0050418409201501034 0.015319095011215192 0 -0.0048669883824236215 0.015479131032982171 0 -0.0050592435974896486 0.015494314023505068 0 -0.0052026522781974316 0.015389665979539894 0 -0.0050418409201501034 0.015319095011215192 0 -0.0050592435974896486 0.015494314023505068 0 -0.0052826015498320172 0.015584310742630853 0 -0.0050592435974896486 0.015494314023505068 0 -0.0049654743784261143 0.01572632937927659 0 -0.0048669883824236215 0.015479131032982171 0 -0.0050592435974896486 0.015494314023505068 0 -0.0049654743784261143 0.01572632937927659 0 -0.0048669883824236215 0.015479131032982171 0 -0.0049654743784261143 0.01572632937927659 0 -0.0047038710889440666 0.015631504917570052 0 -0.0047407577117412466 0.015920860207136091 0 -0.0049654743784261143 0.01572632937927659 0 -0.0047038710889440666 0.015631504917570052 0 -0.0047407577117412466 0.015920860207136091 0 -0.0047038710889440666 0.015631504917570052 0 -0.0045151575602299298 0.015766803144833166 0 -0.0047038710889440666 0.015631504917570052 0 -0.0045151575602299298 0.015766803144833166 0 -0.004527731705234731 0.015570091306255227 0 -0.0045151575602299298 0.015766803144833166 0 -0.004527731705234731 0.015570091306255227 0 -0.0043456794031311464 0.015620339943644838 0 -0.004348853434583964 0.015876920294199334 0 -0.0045151575602299298 0.015766803144833166 0 -0.0043456794031311464 0.015620339943644838 0 -0.004348853434583964 0.015876920294199334 0 -0.0043456794031311464 0.015620339943644838 0 -0.004117296992097552 0.015699331065148047 0 -0.0040904602677843127 0.015928584456591427 0 -0.004348853434583964 0.015876920294199334 0 -0.004117296992097552 0.015699331065148047 0 -0.0040904602677843127 0.015928584456591427 0 -0.004117296992097552 0.015699331065148047 0 -0.0038411729980820379 0.015704346132582599 0 -0.004117296992097552 0.015699331065148047 0 -0.0041454084230252023 0.015530176046822552 0 -0.0039656898362458864 0.015533613332076122 0 -0.0043456794031311464 0.015620339943644838 0 -0.004117296992097552 0.015699331065148047 0 -0.0041454084230252023 0.015530176046822552 0 -0.0043456794031311464 0.015620339943644838 0 -0.0041454084230252023 0.015530176046822552 0 -0.0042839736646306924 0.015465583074765595 0 -0.0041454084230252023 0.015530176046822552 0 -0.0039807204545326711 0.015349562975943797 0 -0.0039656898362458864 0.015533613332076122 0 -0.0041454084230252023 0.015530176046822552 0 -0.0039807204545326711 0.015349562975943797 0 -0.0042189869568929729 0.015306319753405261 0 -0.0041454084230252023 0.015530176046822552 0 -0.0042189869568929729 0.015306319753405261 0 -0.0042839736646306924 0.015465583074765595 0 -0.0042189869568929729 0.015306319753405261 0 -0.0044269520840872758 0.015406336891618109 0 -0.0042839736646306924 0.015465583074765595 0 -0.0042189869568929729 0.015306319753405261 0 -0.0044269520840872758 0.015406336891618109 0 -0.0043821931826375912 0.015220308312835685 0 -0.004527731705234731 0.015570091306255227 0 -0.0043456794031311464 0.015620339943644838 0 -0.0044269520840872758 0.015406336891618109 0 -0.0046481452909221182 0.015425644141841005 0 -0.004527731705234731 0.015570091306255227 0 -0.0044269520840872758 0.015406336891618109 0 -0.0043456794031311464 0.015620339943644838 0 -0.0044269520840872758 0.015406336891618109 0 -0.0042839736646306924 0.015465583074765595 0 -0.0035143133014056884 0.015880466401570204 0 -0.0035931288547111019 0.015535783534799652 0 -0.0033375184234561003 0.015472336553750915 0 -0.0035143133014056884 0.015880466401570204 0 -0.0038411729980820379 0.015704346132582599 0 -0.0035931288547111019 0.015535783534799652 0 -0.004117296992097552 0.015699331065148047 0 -0.0038411729980820379 0.015704346132582599 0 -0.0039656898362458864 0.015533613332076122 0 -0.003825900488529385 0.015979938930682197 0 -0.0035143133014056884 0.015880466401570204 0 -0.0038411729980820379 0.015704346132582599 0 -0.0038411729980820379 0.015704346132582599 0 -0.0037505227642604358 0.015388710637281739 0 -0.0035931288547111019 0.015535783534799652 0 -0.0038411729980820379 0.015704346132582599 0 -0.0039656898362458864 0.015533613332076122 0 -0.0037505227642604358 0.015388710637281739 0 -0.0039807204545326711 0.015349562975943797 0 -0.0037505227642604358 0.015388710637281739 0 -0.0038297465498517837 0.015233684014147939 0 -0.0039807204545326711 0.015349562975943797 0 -0.0039656898362458864 0.015533613332076122 0 -0.0037505227642604358 0.015388710637281739 0 -0.0037505227642604358 0.015388710637281739 0 -0.0035931288547111019 0.015535783534799652 0 -0.0035315649773928338 0.015268190637934059 0 -0.0035931288547111019 0.015535783534799652 0 -0.0035315649773928338 0.015268190637934059 0 -0.0033375184234561003 0.015472336553750915 0 -0.0035315649773928338 0.015268190637934059 0 -0.0036483392633828091 0.015179578477895811 0 -0.0035491192447728998 0.015016483520281423 0 -0.0035315649773928338 0.015268190637934059 0 -0.0035491192447728998 0.015016483520281423 0 -0.0034691271792246063 0.015116462449070597 0 -0.0036483392633828091 0.015179578477895811 0 -0.0037749328051428378 0.015117678313852211 0 -0.0035491192447728998 0.015016483520281423 0 -0.0037505227642604358 0.015388710637281739 0 -0.0035315649773928338 0.015268190637934059 0 -0.0036483392633828091 0.015179578477895811 0 -0.0036483392633828091 0.015179578477895811 0 -0.0037749328051428378 0.015117678313852211 0 -0.0038297465498517837 0.015233684014147939 0 -0.0037505227642604358 0.015388710637281739 0 -0.0036483392633828091 0.015179578477895811 0 -0.0038297465498517837 0.015233684014147939 0 -0.0038297465498517837 0.015233684014147939 0 -0.0039674544763229286 0.015233841153068407 0 -0.0038856511773123236 0.015142227716714154 0 -0.0039807204545326711 0.015349562975943797 0 -0.0038297465498517837 0.015233684014147939 0 -0.0039674544763229286 0.015233841153068407 0 -0.0037749328051428378 0.015117678313852211 0 -0.0038297465498517837 0.015233684014147939 0 -0.0038856511773123236 0.015142227716714154 0 -0.0037749328051428378 0.015117678313852211 0 -0.0038856511773123236 0.015142227716714154 0 -0.0039573801908854454 0.014723575764891359 0 -0.0035491192447728998 0.015016483520281423 0 -0.0034347338795481254 0.015019743225931328 0 -0.0034691271792246063 0.015116462449070597 0 -0.0038856511773123236 0.015142227716714154 0 -0.0042272991708281601 0.01494836166008095 0 -0.0044002994093352088 0.014335176142148567 0 -0.003918352489582359 0.015087114151959092 0 -0.0043627792923348523 0.014432392017665191 0 -0.0042678069751286738 0.015141192685298316 0 -0.0044219794697489805 0.015036919626787595 0 -0.0043821931826375912 0.015220308312835685 0 -0.0042678069751286738 0.015141192685298316 0 -0.0044219794697489805 0.015036919626787595 0 -0.0042272991708281601 0.01494836166008095 0 -0.0046039378488653563 0.015198249818277177 0 -0.0044269520840872758 0.015406336891618109 0 -0.0043821931826375912 0.015220308312835685 0 -0.0046039378488653563 0.015198249818277177 0 -0.0044219794697489805 0.015036919626787595 0 -0.0043821931826375912 0.015220308312835685 0 -0.0042189869568929729 0.015306319753405261 0 -0.0042678069751286738 0.015141192685298316 0 -0.0043821931826375912 0.015220308312835685 0 -0.0042189869568929729 0.015306319753405261 0 -0.0042678069751286738 0.015141192685298316 0 -0.0040877836199991521 0.015190050401400694 0 -0.0038856511773123236 0.015142227716714154 0 -0.0040877836199991521 0.015190050401400694 0 -0.0042272991708281601 0.01494836166008095 0 -0.0039807204545326711 0.015349562975943797 0 -0.0039674544763229286 0.015233841153068407 0 -0.0040877836199991521 0.015190050401400694 0 -0.0039807204545326711 0.015349562975943797 0 -0.0042189869568929729 0.015306319753405261 0 -0.0040877836199991521 0.015190050401400694 0 -0.0039674544763229286 0.015233841153068407 0 -0.0038856511773123236 0.015142227716714154 0 -0.0040877836199991521 0.015190050401400694 0 -0.0042678069751286738 0.015141192685298316 0 -0.0040877836199991521 0.015190050401400694 0 -0.0042272991708281601 0.01494836166008095 0 -0.0044219794697489805 0.015036919626787595 0 -0.0042272991708281601 0.01494836166008095 0 -0.0044960462857667098 0.014794611526094308 0 -0.0046749188385947328 0.014946876852902377 0 -0.0044219794697489805 0.015036919626787595 0 -0.0044960462857667098 0.014794611526094308 0 -0.0038856511773123236 0.015142227716714154 0 -0.0039573801908854454 0.014723575764891359 0 -0.0043384327436973595 0.014489727639620151 0 -0.0047354825876204524 0.014715868601810275 0 -0.0044960462857667098 0.014794611526094308 0 -0.0044002994093352088 0.014335176142148567 0 -0.0042272991708281601 0.01494836166008095 0 -0.0044960462857667098 0.014794611526094308 0 -0.0044002994093352088 0.014335176142148567 0 -0.0039573801908854454 0.014723575764891359 0 -0.0043384327436973595 0.014489727639620151 0 -0.0039391450310389126 0.014411927870261661 0 -0.0043384327436973595 0.014489727639620151 0 -0.0039391450310389126 0.014411927870261661 0 -0.004051430014013869 0.014089573948648133 0 -0.0037749328051428378 0.015117678313852211 0 -0.0039573801908854454 0.014723575764891359 0 -0.0035162724522906337 0.014372641655497662 0 -0.0035491192447728998 0.015016483520281423 0 -0.0035201492779343637 0.014660253213329333 0 -0.0034150696786011312 0.014874873977360198 0 -0.0039391450310389126 0.014411927870261661 0 -0.0035162724522906337 0.014372641655497662 0 -0.004051430014013869 0.014089573948648133 0 -0.0037749328051428378 0.015117678313852211 0 -0.0035491192447728998 0.015016483520281423 0 -0.0035201492779343637 0.014660253213329333 0 -0.0037322316298294008 0.015075907942720627 0 -0.0036273826656009222 0.014527764124732832 0 -0.0039573801908854454 0.014723575764891359 0 -0.0039391450310389126 0.014411927870261661 0 -0.0035162724522906337 0.014372641655497662 0 -0.0036273826656009222 0.014527764124732832 0 -0.0041863549394549164 0.01417561571018215 0 -0.0039889979645030636 0.014434422463524771 0 -0.0040852182744798033 0.014209473161830995 0 -0.0038406249874453199 0.014014048608091684 0 -0.0040852182744798033 0.014209473161830995 0 -0.0038406249874453199 0.014014048608091684 0 -0.0042274633294757825 0.014053703728527826 0 -0.0039889979645030636 0.014434422463524771 0 -0.0040852182744798033 0.014209473161830995 0 -0.0043031245624280366 0.014266427490315033 0 -0.0040852182744798033 0.014209473161830995 0 -0.0043031245624280366 0.014266427490315033 0 -0.0042274633294757825 0.014053703728527826 0 -0.0043384327436973595 0.014489727639620151 0 -0.004051430014013869 0.014089573948648133 0 -0.0045859705272496042 0.01380305541979867 0 -0.0041863549394549164 0.01417561571018215 0 -0.0046034321648593546 0.013703871207336644 0 -0.0046034321648593546 0.013703871207336644 0 -0.0045190826065797723 0.013607027546177554 0 -0.0043031245624280366 0.014266427490315033 0 -0.0046191102671829954 0.014093450017404642 0 -0.0042274633294757825 0.014053703728527826 0 -0.0044002994093352088 0.014335176142148567 0 -0.004893493106591029 0.013966529804269077 0 -0.0049053671419281002 0.013621290667310956 0 -0.0043627792923348523 0.014432392017665191 0 -0.0048416725301966192 0.013676856753495439 0 -0.0043384327436973595 0.014489727639620151 0 -0.0045859705272496042 0.01380305541979867 0 -0.0047955146078505996 0.013827071472617478 0 -0.0046034321648593546 0.013703871207336644 0 -0.0048416725301966192 0.013676856753495439 0 -0.004893493106591029 0.013966529804269077 0 -0.0052118155495710361 0.013896079130188844 0 -0.0049537675623341016 0.014158673507132832 0 -0.004893493106591029 0.013966529804269077 0 -0.0049053671419281002 0.013621290667310956 0 -0.0052118155495710361 0.013896079130188844 0 -0.0048416725301966192 0.013676856753495439 0 -0.0055966588975032358 0.013707918590733639 0 -0.0049053671419281002 0.013621290667310956 0 -0.0055696720472658392 0.013706282743673128 0 -0.0052118155495710361 0.013896079130188844 0 -0.0055696720472658392 0.013706282743673128 0 -0.0052118155495710361 0.013896079130188844 0 -0.0053524921876493287 0.014262879298334374 0 -0.0049619653995989672 0.013636487722672693 0 -0.0055707310350462487 0.01370852694604092 0 -0.0051069170009351147 0.013426629771191969 0 -0.0058601980441628735 0.013966050402375394 0 -0.0055696720472658392 0.013706282743673128 0 -0.0053524921876493287 0.014262879298334374 0 -0.0052118155495710361 0.013896079130188844 0 -0.0053524921876493287 0.014262879298334374 0 -0.0049537675623341016 0.014158673507132832 0 -0.0058601980441628735 0.013966050402375394 0 -0.0057588437652117989 0.01436665562410129 0 -0.0053524921876493287 0.014262879298334374 0 -0.0057588437652117989 0.01436665562410129 0 -0.0055016450212715803 0.014716196808152279 0 -0.0053524921876493287 0.014262879298334374 0 -0.0055016450212715803 0.014716196808152279 0 -0.0053524921876493287 0.014262879298334374 0 -0.0051088511103020819 0.014650067306787222 0 -0.0047354825876204524 0.014715868601810275 0 -0.0051088511103020819 0.014650067306787222 0 -0.0048367676739872328 0.01442179878453172 0 -0.0053524921876493287 0.014262879298334374 0 -0.0051088511103020819 0.014650067306787222 0 -0.0048367676739872328 0.01442179878453172 0 -0.0047354825876204524 0.014715868601810275 0 -0.0044002994093352088 0.014335176142148567 0 -0.0048367676739872328 0.01442179878453172 0 -0.0044002994093352088 0.014335176142148567 0 -0.004893493106591029 0.013966529804269077 0 -0.0049537675623341016 0.014158673507132832 0 -0.0044002994093352088 0.014335176142148567 0 -0.0048367676739872328 0.01442179878453172 0 -0.0049537675623341016 0.014158673507132832 0 -0.0053524921876493287 0.014262879298334374 0 -0.0048367676739872328 0.01442179878453172 0 -0.0049537675623341016 0.014158673507132832 0 -0.0023939663241096462 0.021211567787112275 0 -0.0021177890797358444 0.021102705720506456 0 -0.0023693653912411979 0.021304673738664397 0 -0.0023939663241096462 0.021211567787112275 0 -0.0022768916705582436 0.021033005481034286 0 -0.0021177890797358444 0.021102705720506456 0 -0.0024016309198727219 0.020953325757947217 0 -0.0023939663241096462 0.021211567787112275 0 -0.0022768916705582436 0.021033005481034286 0 -0.002184757636187779 0.020880147084854878 0 -0.0022768916705582436 0.021033005481034286 0 -0.0021177890797358444 0.021102705720506456 0 -0.0027904910892661929 0.019663700476797625 0 -0.0028693561340254773 0.019570622306491363 0 -0.0034588847452702472 0.018077932683776464 0 -0.0034963592345293669 0.017999743804323742 0 -0.0033964244204289923 0.017979896814789929 0 -0.0034963592345293669 0.017999743804323742 0 -0.0035167012059206418 0.018091178394000949 0 -0.0035592360980109955 0.018036038856472092 0 -0.0034588847452702472 0.018077932683776464 0 -0.0034963592345293669 0.017999743804323742 0 -0.0035167012059206418 0.018091178394000949 0 -0.0028469103194941809 0.019156395489940203 0 -0.0027904910892661929 0.019663700476797625 0 -0.0035483385115777448 0.018141655547022465 0 -0.0035191758268755631 0.018180669087967224 0 -0.0035167012059206418 0.018091178394000949 0 -0.0035191758268755631 0.018180669087967224 0 -0.0034588847452702472 0.018077932683776464 0 -0.0035167012059206418 0.018091178394000949 0 -0.0035483385115777448 0.018141655547022465 0 -0.0035167012059206418 0.018091178394000949 0 -0.0035592360980109955 0.018036038856472092 0 -0.0032386780023784872 0.016843072427330647 0 -0.0033682342050773239 0.016634271413659429 0 -0.0030808243246981974 0.015817002926103003 0 -0.0033375184234561003 0.015472336553750915 0 -0.0031550159823293036 0.015173579103384514 0 -0.0032386780023784872 0.016843072427330647 0 -0.0034591598603057653 0.015419385149151121 0 -0.0029703548351207045 0.015909548464689661 0 -0.0035143133014056884 0.015880466401570204 0 -0.0033375184234561003 0.015472336553750915 0 -0.0033375184234561003 0.015472336553750915 0 -0.003365300561649361 0.015166035625307481 0 -0.0031550159823293036 0.015173579103384514 0 -0.0035315649773928338 0.015268190637934059 0 -0.0033375184234561003 0.015472336553750915 0 -0.003365300561649361 0.015166035625307481 0 -0.0031550159823293036 0.015173579103384514 0 -0.0033158709296376176 0.015011717945361033 0 -0.0032415208898083107 0.01484623185600638 0 -0.0035315649773928338 0.015268190637934059 0 -0.003365300561649361 0.015166035625307481 0 -0.0034691271792246063 0.015116462449070597 0 -0.003365300561649361 0.015166035625307481 0 -0.0031550159823293036 0.015173579103384514 0 -0.0033158709296376176 0.015011717945361033 0 -0.0033158709296376176 0.015011717945361033 0 -0.0034347338795481254 0.015019743225931328 0 -0.0034150696786011312 0.014874873977360198 0 -0.0035491192447728998 0.015016483520281423 0 -0.0034347338795481254 0.015019743225931328 0 -0.0034150696786011312 0.014874873977360198 0 -0.003365300561649361 0.015166035625307481 0 -0.0034347338795481254 0.015019743225931328 0 -0.0034691271792246063 0.015116462449070597 0 -0.003365300561649361 0.015166035625307481 0 -0.0033158709296376176 0.015011717945361033 0 -0.0034347338795481254 0.015019743225931328 0 -0.0033682342050773239 0.016634271413659429 0 -0.0033494484056781808 0.016342761282015238 0 -0.0031550159823293036 0.015173579103384514 0 -0.0032415208898083107 0.01484623185600638 0 -0.0032452325385850483 0.014713799595409799 0 -0.0035201492779343637 0.014660253213329333 0 -0.0034150696786011312 0.014874873977360198 0 -0.0032415208898083107 0.01484623185600638 0 -0.0033158709296376176 0.015011717945361033 0 -0.0034150696786011312 0.014874873977360198 0 -0.0032415208898083107 0.01484623185600638 0 -0.0034209531689141331 0.014715109336321058 0 -0.0032415208898083107 0.01484623185600638 0 -0.0032452325385850483 0.014713799595409799 0 -0.0036273826656009222 0.014527764124732832 0 -0.0032144847754202051 0.01483775538090744 0 -0.0036273826656009222 0.014527764124732832 0 -0.0039577280687790838 0.014536816618700425 0 -0.0033494484056781808 0.016342761282015238 0 -0.0040985122389656289 0.016076432405617132 0 -0.0032452325385850483 0.014713799595409799 0 -0.0032772850516338209 0.014484593852953979 0 -0.0033278410020242009 0.014487115120599669 0 -0.0034209531689141331 0.014715109336321058 0 -0.0032452325385850483 0.014713799595409799 0 -0.0033278410020242009 0.014487115120599669 0 -0.0035694446061040482 0.017931462993700412 0 -0.0034935628886548602 0.017905482279736682 0 -0.0035792663547065981 0.017823212070327166 0 -0.0034963592345293669 0.017999743804323742 0 -0.0035592360980109955 0.018036038856472092 0 -0.0035694446061040482 0.017931462993700412 0 -0.0034963592345293669 0.017999743804323742 0 -0.0035694446061040482 0.017931462993700412 0 -0.0034935628886548602 0.017905482279736682 0 -0.0034963592345293669 0.017999743804323742 0 -0.0034935628886548602 0.017905482279736682 0 -0.0033964244204289923 0.017979896814789929 0 -0.0034935628886548602 0.017905482279736682 0 -0.0034082820646593316 0.017888147203837031 0 -0.0034668117386468067 0.017830665966129915 0 -0.0034935628886548602 0.017905482279736682 0 -0.0034082820646593316 0.017888147203837031 0 -0.0033964244204289923 0.017979896814789929 0 -0.0028693561340254773 0.019570622306491363 0 -0.0029412225366100488 0.019810115566723775 0 -0.0034082820646593316 0.017888147203837031 0 -0.0033964244204289923 0.017979896814789929 0 -0.0033321161515611924 0.017885462130132708 0 -0.0023693653912411979 0.021304673738664397 0 -0.002504587225805135 0.021302175667264847 0 -0.002580566081645906 0.021257595973604815 0 -0.0023939663241096462 0.021211567787112275 0 -0.0023693653912411979 0.021304673738664397 0 -0.002504587225805135 0.021302175667264847 0 -0.0038503778228350708 0.018706448332935832 0 -0.0040006836965401794 0.019357052359149834 0 -0.004663479682385588 0.017866352755608807 0 -0.0033652384090197629 0.018810993844121989 0 -0.0038503778228350708 0.018706448332935832 0 -0.0035883560841150036 0.019359042987389441 0 -0.0033652384090197629 0.018810993844121989 0 -0.0035883560841150036 0.019359042987389441 0 -0.0032221942241858039 0.01918918456426941 0 -0.0038503778228350708 0.018706448332935832 0 -0.0040006836965401794 0.019357052359149834 0 -0.0035883560841150036 0.019359042987389441 0 -0.0040142725767185394 0.019368703185936375 0 -0.0035883560841150036 0.019359042987389441 0 -0.0035572334448411465 0.019678599359506641 0 -0.0040046976304543508 0.018097106255365175 0 -0.0037923813129547707 0.018529088092108282 0 -0.0035883560841150036 0.019359042987389441 0 -0.0035572334448411465 0.019678599359506641 0 -0.0033314702725054175 0.019533151364933787 0 -0.0040142725767185394 0.019368703185936375 0 -0.0035572334448411465 0.019678599359506641 0 -0.0036135167325335336 0.020027513083066516 0 -0.0040046976304543508 0.018097106255365175 0 -0.0034915676891566594 0.018333559346948934 0 -0.0034082820646593316 0.017888147203837031 0 -0.0033596179532138959 0.017837423377051589 0 -0.0034668117386468067 0.017830665966129915 0 -0.0034082820646593316 0.017888147203837031 0 -0.0033596179532138959 0.017837423377051589 0 -0.0033321161515611924 0.017885462130132708 0 -0.0035572334448411465 0.019678599359506641 0 -0.003458632671462836 0.020009960289835371 0 -0.0032669743377474426 0.019795736390569422 0 -0.0037877869743460578 0.01677562749455631 0 -0.0036704838706758916 0.016967910767631544 0 -0.0041053153748338705 0.01699595717870897 0 -0.0035572334448411465 0.019678599359506641 0 -0.003458632671462836 0.020009960289835371 0 -0.0036135167325335336 0.020027513083066516 0 -0.0035265331542698123 0.018442529617405126 0 -0.0034915676891566594 0.018333559346948934 0 -0.003458632671462836 0.020009960289835371 0 -0.0036084256490300985 0.020025702281555455 0 -0.0032378490897022319 0.020622780227419306 0 -0.0034915676891566594 0.018333559346948934 0 -0.0029412225366100488 0.019810115566723775 0 -0.0037877869743460578 0.01677562749455631 0 -0.0041053153748338705 0.01699595717870897 0 -0.0041591405217622293 0.016767430972383961 0 -0.0034915676891566594 0.018333559346948934 0 -0.0037869432812868472 0.017454071209785191 0 -0.0040046976304543508 0.018097106255365175 0 -0.0046365007306655203 0.017311257173708069 0 -0.0043271095502906264 0.017202039420152956 0 -0.004824646442138176 0.017205247331430761 0 -0.0046427616583784087 0.016705406455718792 0 -0.0040046976304543508 0.018097106255365175 0 -0.0044899172150688702 0.016999863377620283 0 -0.004824646442138176 0.017205247331430761 0 -0.0052028158982354257 0.016889114863632742 0 -0.0049083791098300418 0.016846195673700624 0 -0.0041591405217622293 0.016767430972383961 0 -0.0044068736668049025 0.016851750886927565 0 -0.0045472647976819471 0.016760121864713248 0 -0.0044899172150688702 0.016999863377620283 0 -0.0050050513716483631 0.015984122810857013 0 -0.004824646442138176 0.017205247331430761 0 -0.0053458736881437686 0.017210948689014023 0 -0.0052028158982354257 0.016889114863632742 0 -0.0037869432812868472 0.017454071209785191 0 -0.0040985122389656289 0.016076432405617132 0 -0.0034935628886548602 0.017905482279736682 0 -0.0034668117386468067 0.017830665966129915 0 -0.0035792663547065981 0.017823212070327166 0 -0.0041053153748338705 0.01699595717870897 0 -0.0041591405217622293 0.016767430972383961 0 -0.0042665251861628891 0.016900218895239742 0 -0.0041591405217622293 0.016767430972383961 0 -0.0042665251861628891 0.016900218895239742 0 -0.0044068736668049025 0.016851750886927565 0 -0.0041053153748338705 0.01699595717870897 0 -0.0042665251861628891 0.016900218895239742 0 -0.0044278084218110827 0.016982907603451721 0 -0.0041053153748338705 0.01699595717870897 0 -0.0044278084218110827 0.016982907603451721 0 -0.0045334617297298268 0.01701769318919261 0 -0.0042665251861628891 0.016900218895239742 0 -0.0044278084218110827 0.016982907603451721 0 -0.0044068736668049025 0.016851750886927565 0 -0.0044278084218110827 0.016982907603451721 0 -0.0044068736668049025 0.016851750886927565 0 -0.0045594457850236803 0.016861785404268182 0 -0.0044068736668049025 0.016851750886927565 0 -0.0045594457850236803 0.016861785404268182 0 -0.0045440001885097671 0.016817040347225275 0 -0.0046222265757688841 0.015454994826202216 0 -0.0040985122389656289 0.016076432405617132 0 -0.0044278084218110827 0.016982907603451721 0 -0.0045632077393668018 0.016841175807341725 0 -0.0045334617297298268 0.01701769318919261 0 -0.0046222265757688841 0.015454994826202216 0 -0.0047999277922223284 0.015722898495139248 0 -0.0041306964479557546 0.016730945725506249 0 -0.0046222265757688841 0.015454994826202216 0 -0.0044576271390806407 0.015471286326382195 0 -0.0044866463037763482 0.015273264071503227 0 -0.0043791870299711051 0.015259465248983374 0 -0.0040985122389656289 0.016076432405617132 0 -0.0039577280687790838 0.014536816618700425 0 -0.0048113534254018379 0.013317199985690977 0 -0.0047942678742165104 0.01327052070289279 0 -0.0047851786279782026 0.013303512667089932 0 -0.0046222265757688841 0.015454994826202216 0 -0.0039577280687790838 0.014536816618700425 0 -0.0047851786279782026 0.013303512667089932 0 -0.0047866774714638727 0.01333813528178026 0 -0.004748050059214917 0.013288583398167762 0 -0.0047942678742165104 0.01327052070289279 0 -0.0047851786279782026 0.013303512667089932 0 -0.004748050059214917 0.013288583398167762 0 -0.0048113534254018379 0.013317199985690977 0 -0.0047851786279782026 0.013303512667089932 0 -0.0047866774714638727 0.01333813528178026 0 -0.0046222265757688841 0.015454994826202216 0 -0.0053349923149235067 0.014253690706495998 0 -0.0053349923149235067 0.014253690706495998 0 -0.0050050513716483631 0.015984122810857013 0 -0.00511684238151398 0.014993958738273585 0 -0.0046372341926734046 0.01520397486207474 0 -0.004647815455771735 0.014984957955766766 0 -0.0047003913547900619 0.015381047298225217 0 -0.00511684238151398 0.014993958738273585 0 -0.0046372341926734046 0.01520397486207474 0 -0.0047999277922223284 0.015722898495139248 0 -0.0050050513716483631 0.015984122810857013 0 -0.0044068736668049025 0.016851750886927565 0 -0.0045440001885097671 0.016817040347225275 0 -0.0045472647976819471 0.016760121864713248 0 -0.0050050513716483631 0.015984122810857013 0 -0.0053851827141225481 0.017261869257366256 0 -0.0051966596216704748 0.014299454909576848 0 -0.0053025478116576416 0.01430646333339711 0 -0.0051462341176738997 0.014533062037693553 0 -0.0050050513716483631 0.015984122810857013 0 -0.0053899135810051438 0.015603692377561861 0 -0.0053025478116576416 0.01430646333339711 0 -0.0053172144436439816 0.014705338925638616 0 -0.0051462341176738997 0.014533062037693553 0 -0.0053231193620674206 0.017194818861840568 0 -0.0054151526387905512 0.016615794523905165 0 -0.0052028158982354257 0.016889114863632742 0 -0.0054151526387905512 0.016615794523905165 0 -0.0050245677580175634 0.016581446595332085 0 -0.0052028158982354257 0.016889114863632742 0 -0.0053172144436439816 0.014705338925638616 0 -0.0051462341176738997 0.014533062037693553 0 -0.0050245122821466117 0.014782094405783586 0 -0.0053172144436439816 0.014705338925638616 0 -0.0050245122821466117 0.014782094405783586 0 -0.0050832828672061287 0.015019638972312239 0 -0.0053899135810051438 0.015603692377561861 0 -0.0052963808274074072 0.015554485882356089 0 -0.0053172144436439816 0.014705338925638616 0 -0.0050832828672061287 0.015019638972312239 0 -0.0052880985836522964 0.015509388011731974 0 -0.0054151526387905512 0.016615794523905165 0 -0.0051294188047719463 0.01616230030472093 0 -0.0052880985836522964 0.015509388011731974 0 -0.0054151526387905512 0.016615794523905165 0 -0.0051294188047719463 0.01616230030472093 0 -0.0050245677580175634 0.016581446595332085 0 -0.0049387049045694232 0.016302460279176777 0 -0.0050245677580175634 0.016581446595332085 0 -0.0046427616583784087 0.016705406455718792 0 -0.0051294188047719463 0.01616230030472093 0 -0.0049387049045694232 0.016302460279176777 0 -0.0050245677580175634 0.016581446595332085 0 -0.0050245677580175634 0.016581446595332085 0 -0.0049083791098300418 0.016846195673700624 0 -0.0046427616583784087 0.016705406455718792 0 -0.0050245677580175634 0.016581446595332085 0 -0.0052028158982354257 0.016889114863632742 0 -0.0049083791098300418 0.016846195673700624 0 -0.004824646442138176 0.017205247331430761 0 -0.0049083791098300418 0.016846195673700624 0 -0.0046427616583784087 0.016705406455718792 0 -0.0049387049045694232 0.016302460279176777 0 -0.004663479682385588 0.017866352755608807 0 -0.0042120254641668537 0.016758346547248157 0 -0.0049376035581526591 0.016412414212299355 0 -0.0046365007306655203 0.017311257173708069 0 -0.0042773545819940325 0.016993843190317721 0 -0.0035494167375107796 0.016723342224760955 0 -0.0032614065122989764 0.017445448077161602 0 -0.0042324214817895328 0.016863088198454234 0 -0.0028418982259024663 0.018123656844535853 0 -0.0042773545819940325 0.016993843190317721 0 -0.0032614065122989764 0.017445448077161602 0 -0.0029342238905355053 0.018249385691756721 0 -0.004663479682385588 0.017866352755608807 0 -0.0042120254641668537 0.016758346547248157 0 -0.0036438829254457836 0.018128543243277239 0 -0.0042120254641668537 0.016758346547248157 0 -0.0036438829254457836 0.018128543243277239 0 -0.0027638577104989858 0.018006785383405974 0 -0.0038503778228350708 0.018706448332935832 0 -0.004663479682385588 0.017866352755608807 0 -0.0036438829254457836 0.018128543243277239 0 -0.0033652384090197629 0.018810993844121989 0 -0.0038503778228350708 0.018706448332935832 0 -0.0036438829254457836 0.018128543243277239 0 -0.0033652384090197629 0.018810993844121989 0 -0.0036438829254457836 0.018128543243277239 0 -0.0030664415060810417 0.018493735447322301 0 -0.0048803325326268543 0.013518686133329693 0 -0.004532545594130551 0.013293525583576283 0 -0.0052462034814596391 0.013282472866101912 0 -0.0045600080701088406 0.013316445663214707 0 -0.0049562834666812472 0.013194889757971761 0 -0.0048803325326268543 0.013518686133329693 0 -0.004643719150526515 0.013517770037543817 0 -0.004532545594130551 0.013293525583576283 0 -0.004643719150526515 0.013517770037543817 0 -0.0044787945582241096 0.013529448054075108 0 -0.004532545594130551 0.013293525583576283 0 -0.004219726703232677 0.013523689967110075 0 -0.0044787945582241096 0.013529448054075108 0 -0.0044513442256132714 0.013289393086268017 0 -0.0042551349061606542 0.013494900712429371 0 -0.0044432253180320472 0.01327143199487921 0 -0.0044787945582241096 0.013529448054075108 0 -0.004532545594130551 0.013293525583576283 0 -0.0044513442256132714 0.013289393086268017 0 -0.0050791148778298193 0.013118444797385146 0 -0.0047925365407918792 0.013270692069878061 0 -0.0044432253180320472 0.01327143199487921 0 -0.0047925365407918792 0.013270692069878061 0 -0.004532545594130551 0.013293525583576283 0 -0.0044513442256132714 0.013289393086268017 0 -0.00455830727582542 0.013223543937806205 0 -0.0040247967425978519 0.013252704388709043 0 -0.0044334678711259448 0.013225293315055663 0 -0.0046418818890080985 0.012929588277943941 0 -0.005969757202265928 0.012978493371210105 0 -0.0058179542128731412 0.01342262126678188 0 -0.0051069170009351147 0.013426629771191969 0 -0.0058179542128731412 0.01342262126678188 0 -0.0055707310350462487 0.01370852694604092 0 -0.0051069170009351147 0.013426629771191969 0 -0.0046274678174402489 0.013552643617922274 0 -0.0047483111895881489 0.013566259811400512 0 -0.0048337619532994062 0.013441406367845873 0 -0.0046034321648593546 0.013703871207336644 0 -0.0047925365407918792 0.013270692069878061 0 -0.0048416725301966192 0.013676856753495439 0 -0.0047925365407918792 0.013270692069878061 0 -0.004532545594130551 0.013293525583576283 0 -0.0046157646047053887 0.013260436544077993 0 -0.0046706085429785854 0.013315286065867451 0 -0.004532545594130551 0.013293525583576283 0 -0.00455830727582542 0.013223543937806205 0 -0.0046157646047053887 0.013260436544077993 0 -0.0046107228448516698 0.013211729765775072 0 -0.00455830727582542 0.013223543937806205 0 -0.0046157646047053887 0.013260436544077993 0 -0.0046157646047053887 0.013260436544077993 0 -0.0047064186212478574 0.01324114694482449 0 -0.0046706085429785854 0.013315286065867451 0 -0.0046107228448516698 0.013211729765775072 0 -0.0046157646047053887 0.013260436544077993 0 -0.0047064186212478574 0.01324114694482449 0 -0.0047866774714638727 0.01333813528178026 0 -0.004748050059214917 0.013288583398167762 0 -0.0046706085429785854 0.013315286065867451 0 -0.0047064186212478574 0.01324114694482449 0 -0.004748050059214917 0.013288583398167762 0 -0.0046706085429785854 0.013315286065867451 0 -0.0047942678742165104 0.01327052070289279 0 -0.0047064186212478574 0.01324114694482449 0 -0.004748050059214917 0.013288583398167762 0 -0.0039577280687790838 0.014536816618700425 0 -0.0045190826065797723 0.013607027546177554 0 -0.0051966596216704748 0.014299454909576848 0 -0.0048485383034379149 0.014639373062942084 0 -0.0051462341176738997 0.014533062037693553 0 -0.0053349923149235067 0.014253690706495998 0 -0.0049562834666812472 0.013194889757971761 0 -0.0059303407403612524 0.013315351122032599 0 -0.0052462034814596391 0.013282472866101912 0 -0.0053701866503421541 0.013856279498545074 0 -0.0053349923149235067 0.014253690706495998 0 -0.0051670286163794021 0.014151577002631345 0 -0.0048803325326268543 0.013518686133329693 0 -0.0052462034814596391 0.013282472866101912 0 -0.0053701866503421541 0.013856279498545074 0 -0.0048485383034379149 0.014639373062942084 0 -0.0051462341176738997 0.014533062037693553 0 -0.0050245122821466117 0.014782094405783586 0 -0.0048485383034379149 0.014639373062942084 0 -0.0050245122821466117 0.014782094405783586 0 -0.004868283047838322 0.014936663987585952 0 -0.0050245122821466117 0.014782094405783586 0 -0.0050832828672061287 0.015019638972312239 0 -0.004868283047838322 0.014936663987585952 0 -0.0048485383034379149 0.014639373062942084 0 -0.0046919723644247447 0.014566391669894952 0 -0.004868283047838322 0.014936663987585952 0 -0.0051670286163794021 0.014151577002631345 0 -0.0046739419475219073 0.014605103729967542 0 -0.0048803325326268543 0.013518686133329693 0 -0.0053701866503421541 0.013856279498545074 0 -0.004661956235468204 0.013869818827421313 0 -0.0053701866503421541 0.013856279498545074 0 -0.0046919723644247447 0.014566391669894952 0 -0.004661956235468204 0.013869818827421313 0 -0.004643719150526515 0.013517770037543817 0 -0.0044787945582241096 0.013529448054075108 0 -0.004661956235468204 0.013869818827421313 0 -0.0048803325326268543 0.013518686133329693 0 -0.004643719150526515 0.013517770037543817 0 -0.004661956235468204 0.013869818827421313 0 -0.004661956235468204 0.013869818827421313 0 -0.0043532157686236288 0.013763174997413299 0 -0.0043004684448994151 0.014163999694325476 0 -0.004219726703232677 0.013523689967110075 0 -0.0044787945582241096 0.013529448054075108 0 -0.0043532157686236288 0.013763174997413299 0 -0.0044787945582241096 0.013529448054075108 0 -0.004661956235468204 0.013869818827421313 0 -0.0043532157686236288 0.013763174997413299 0 -0.0041011664982359775 0.013772433806943887 0 -0.0043532157686236288 0.013763174997413299 0 -0.0043004684448994151 0.014163999694325476 0 -0.0046919723644247447 0.014566391669894952 0 -0.004661956235468204 0.013869818827421313 0 -0.0043004684448994151 0.014163999694325476 0 -0.0047058994774645474 0.015020381676112984 0 -0.0046537788046433241 0.015133282162873393 0 -0.0041964770864674752 0.014895748630364665 0 -0.0046919723644247447 0.014566391669894952 0 -0.0047058994774645474 0.015020381676112984 0 -0.0041964770864674752 0.014895748630364665 0 -0.0046919723644247447 0.014566391669894952 0 -0.0043004684448994151 0.014163999694325476 0 -0.0041964770864674752 0.014895748630364665 0 -0.0046919723644247447 0.014566391669894952 0 -0.0047058994774645474 0.015020381676112984 0 -0.004868283047838322 0.014936663987585952 0 -0.0047058994774645474 0.015020381676112984 0 -0.004868283047838322 0.014936663987585952 0 -0.0047781757387178351 0.0152997061771702 0 -0.004868283047838322 0.014936663987585952 0 -0.0050152760471940585 0.015245149138848321 0 -0.0047781757387178351 0.0152997061771702 0 -0.0050832828672061287 0.015019638972312239 0 -0.004868283047838322 0.014936663987585952 0 -0.0050152760471940585 0.015245149138848321 0 -0.0050771245471210383 0.01540258191484703 0 -0.0047781757387178351 0.0152997061771702 0 -0.0050433523574158973 0.015556788326316847 0 -0.0050152760471940585 0.015245149138848321 0 -0.0050771245471210383 0.01540258191484703 0 -0.0047781757387178351 0.0152997061771702 0 -0.0047058994774645474 0.015020381676112984 0 -0.0047781757387178351 0.0152997061771702 0 -0.0046676988685598842 0.015088900013641278 0 -0.0047781757387178351 0.0152997061771702 0 -0.0046676988685598842 0.015088900013641278 0 -0.0045106322095360835 0.014946073106169796 0 -0.0047781757387178351 0.0152997061771702 0 -0.0045106322095360835 0.014946073106169796 0 -0.0042587842933727157 0.014932212534216944 0 -0.0047781757387178351 0.0152997061771702 0 -0.0050433523574158973 0.015556788326316847 0 -0.0050416831856026486 0.015609655303803129 0 -0.0047667734762126468 0.015322828764180075 0 -0.0046434015592792038 0.01519807694210051 0 -0.0045106322095360835 0.014946073106169796 0 -0.0043406333725160137 0.014829202621167267 0 -0.0042587842933727157 0.014932212534216944 0 -0.0045106322095360835 0.014946073106169796 0 -0.0044054876119580602 0.014761021328245468 0 -0.0043406333725160137 0.014829202621167267 0 -0.0044054876119580602 0.014761021328245468 0 -0.0043406333725160137 0.014829202621167267 0 -0.004320125222859226 0.014750499547205236 0 -0.0046676988685598842 0.015088900013641278 0 -0.0045106322095360835 0.014946073106169796 0 -0.0045151814209666149 0.014694667844103563 0 -0.0045106322095360835 0.014946073106169796 0 -0.0044054876119580602 0.014761021328245468 0 -0.0045151814209666149 0.014694667844103563 0 -0.0045015496459656912 0.014672175709837539 0 -0.00447951757173215 0.014603504322133906 0 -0.0046676988685598842 0.015088900013641278 0 -0.0045151814209666149 0.014694667844103563 0 -0.0046537788046433241 0.015133282162873393 0 -0.0043507450085856917 0.01410618946993724 0 -0.0040930053205932718 0.013636486643365352 0 -0.0040516166862890248 0.014255449388728563 0 -0.0045151814209666149 0.014694667844103563 0 -0.0043507450085856917 0.01410618946993724 0 -0.0043184848820504718 0.014538172358037671 0 -0.0043507450085856917 0.01410618946993724 0 -0.0043184848820504718 0.014538172358037671 0 -0.0040516166862890248 0.014255449388728563 0 -0.00447951757173215 0.014603504322133906 0 -0.0041373923388336739 0.014255998097855381 0 -0.0047058994774645474 0.015020381676112984 0 -0.0046676988685598842 0.015088900013641278 0 -0.0046537788046433241 0.015133282162873393 0 -0.0038815810034665927 0.015513446976039767 0 -0.0039653804820852243 0.016202861617292161 0 -0.004573678060378162 0.015882942599357672 0 -0.0038815810034665927 0.015513446976039767 0 -0.0039653804820852243 0.016202861617292161 0 -0.0032731917157600736 0.016287817642802477 0 -0.0035494167375107796 0.016723342224760955 0 -0.0039653804820852243 0.016202861617292161 0 -0.0032731917157600736 0.016287817642802477 0 -0.0042773545819940325 0.016993843190317721 0 -0.0035494167375107796 0.016723342224760955 0 -0.0039653804820852243 0.016202861617292161 0 -0.0042773545819940325 0.016993843190317721 0 -0.004573678060378162 0.015882942599357672 0 -0.0051263211966630414 0.0157960322765325 0 -0.0042773545819940325 0.016993843190317721 0 -0.0039653804820852243 0.016202861617292161 0 -0.004573678060378162 0.015882942599357672 0 -0.0042324214817895328 0.016863088198454234 0 -0.0051082538331965978 0.015898819480476264 0 -0.0038815810034665927 0.015513446976039767 0 -0.004573678060378162 0.015882942599357672 0 -0.0049835817887638042 0.01536756054593341 0 -0.0029503769513785634 0.016848773139771275 0 -0.0042362113300235356 0.016321316221383064 0 -0.0034941129113062143 0.016121915441078691 0 -0.0034223085649110079 0.016181506768604182 0 -0.0045646905388553689 0.015839404324128267 0 -0.004573678060378162 0.015882942599357672 0 -0.0049835817887638042 0.01536756054593341 0 -0.0049336709126652943 0.015656171873288511 0 -0.0049336709126652943 0.015656171873288511 0 -0.0051263211966630414 0.0157960322765325 0 -0.0051459762046679762 0.015502817770220785 0 -0.0049835817887638042 0.01536756054593341 0 -0.0049336709126652943 0.015656171873288511 0 -0.0051459762046679762 0.015502817770220785 0 -0.0049387049045694232 0.016302460279176777 0 -0.0042120254641668537 0.016758346547248157 0 -0.0051263211966630414 0.0157960322765325 0 -0.004573678060378162 0.015882942599357672 0 -0.0049336709126652943 0.015656171873288511 0 -0.0051263211966630414 0.0157960322765325 0 -0.0051294188047719463 0.01616230030472093 0 -0.0049387049045694232 0.016302460279176777 0 -0.0051263211966630414 0.0157960322765325 0 -0.0051263211966630414 0.0157960322765325 0 -0.0052880985836522964 0.015509388011731974 0 -0.0051459762046679762 0.015502817770220785 0 -0.0051294188047719463 0.01616230030472093 0 -0.0051263211966630414 0.0157960322765325 0 -0.0052880985836522964 0.015509388011731974 0 -0.0050832828672061287 0.015019638972312239 0 -0.0050152760471940585 0.015245149138848321 0 -0.0052880985836522964 0.015509388011731974 0 -0.0050152760471940585 0.015245149138848321 0 -0.0050771245471210383 0.01540258191484703 0 -0.0052880985836522964 0.015509388011731974 0 -0.0050771245471210383 0.01540258191484703 0 -0.0052880985836522964 0.015509388011731974 0 -0.0051459762046679762 0.015502817770220785 0 -0.0049835817887638042 0.01536756054593341 0 -0.0051459762046679762 0.015502817770220785 0 -0.0050433523574158973 0.015556788326316847 0 -0.0050771245471210383 0.01540258191484703 0 -0.0051459762046679762 0.015502817770220785 0 -0.0050433523574158973 0.015556788326316847 0 -0.0045646905388553689 0.015839404324128267 0 -0.0049992968761139456 0.015601851105812598 0 -0.0050433523574158973 0.015556788326316847 0 -0.0050416831856026486 0.015609655303803129 0 -0.0044655219736157489 0.015748545066486496 0 -0.0046434015592792038 0.01519807694210051 0 -0.0042467526684837418 0.014989031738115891 0 -0.0050416831856026486 0.015609655303803129 0 -0.0044798542004000257 0.015378561031006811 0 -0.0044453312685684178 0.0147442763079405 0 -0.0042587842933727157 0.014932212534216944 0 -0.0042609725278367743 0.014787615518990528 0 -0.0041261875648580752 0.01470192333110289 0 -0.0050416831856026486 0.015609655303803129 0 -0.0044798542004000257 0.015378561031006811 0 -0.0044655219736157489 0.015748545066486496 0 -0.0043406333725160137 0.014829202621167267 0 -0.0042587842933727157 0.014932212534216944 0 -0.0042609725278367743 0.014787615518990528 0 -0.0043406333725160137 0.014829202621167267 0 -0.0042609725278367743 0.014787615518990528 0 -0.004320125222859226 0.014750499547205236 0 -0.0044798542004000257 0.015378561031006811 0 -0.0039484584043165934 0.015375590016821291 0 -0.0044453312685684178 0.0147442763079405 0 -0.0044798542004000257 0.015378561031006811 0 -0.0044655219736157489 0.015748545066486496 0 -0.0039484584043165934 0.015375590016821291 0 -0.0042362113300235356 0.016321316221383064 0 -0.0050433523574158973 0.015556788326316847 0 -0.0044655219736157489 0.015748545066486496 0 -0.0042362113300235356 0.016321316221383064 0 -0.0044655219736157489 0.015748545066486496 0 -0.0034941129113062143 0.016121915441078691 0 -0.0044655219736157489 0.015748545066486496 0 -0.0034941129113062143 0.016121915441078691 0 -0.0039484584043165934 0.015375590016821291 0 -0.0039484584043165934 0.015375590016821291 0 -0.0033866025287243502 0.015494262352830997 0 -0.0032262759656224811 0.0149113593404364 0 -0.0034941129113062143 0.016121915441078691 0 -0.0039484584043165934 0.015375590016821291 0 -0.0033866025287243502 0.015494262352830997 0 -0.0039484584043165934 0.015375590016821291 0 -0.0032262759656224811 0.0149113593404364 0 -0.0044453312685684178 0.0147442763079405 0 -0.002792153262921435 0.015853961104051729 0 -0.0028342954265163606 0.015900828845233122 0 -0.0026861266301427857 0.015913575870457951 0 -0.0026309290955448292 0.016213156887960569 0 -0.0027851654992630207 0.015861993132922195 0 -0.0033866025287243502 0.015494262352830997 0 -0.0028657711675408059 0.015626655479331727 0 -0.0032262759656224811 0.0149113593404364 0 -0.0026861266301427857 0.015913575870457951 0 -0.0025566891143054115 0.016061554284921998 0 -0.0026309290955448292 0.016213156887960569 0 -0.0023550567160515764 0.016246727563798542 0 -0.0024669979447657572 0.016164757243515831 0 -0.0025566891143054115 0.016061554284921998 0 -0.002588552313408606 0.01589499338673242 0 -0.0024803927827631122 0.015910822369569172 0 -0.0026861266301427857 0.015913575870457951 0 -0.0025566891143054115 0.016061554284921998 0 -0.002588552313408606 0.01589499338673242 0 -0.002485605947249051 0.016201986048103016 0 -0.0023550567160515764 0.016246727563798542 0 -0.0025566891143054115 0.016061554284921998 0 -0.0026309290955448292 0.016213156887960569 0 -0.0024298683927869774 0.016298784331877304 0 -0.002792153262921435 0.015853961104051729 0 -0.0025490648680835011 0.01647651939153769 0 -0.0026309290955448292 0.016213156887960569 0 -0.002548300751822408 0.01652783073719765 0 -0.0024298683927869774 0.016298784331877304 0 -0.0028657711675408059 0.015626655479331727 0 -0.0030065536156628184 0.016156271064697036 0 -0.002548300751822408 0.01652783073719765 0 -0.0034941129113062143 0.016121915441078691 0 -0.0033866025287243502 0.015494262352830997 0 -0.0030065536156628184 0.016156271064697036 0 -0.0033866025287243502 0.015494262352830997 0 -0.0028657711675408059 0.015626655479331727 0 -0.0030065536156628184 0.016156271064697036 0 -0.0029503769513785634 0.016848773139771275 0 -0.0034941129113062143 0.016121915441078691 0 -0.0030065536156628184 0.016156271064697036 0 -0.0029503769513785634 0.016848773139771275 0 -0.0030065536156628184 0.016156271064697036 0 -0.002548300751822408 0.01652783073719765 0 -0.0028170427358257112 0.016123316706160809 0 -0.0017724291738976483 0.016687459848664508 0 -0.0022064000380747698 0.016136093353694186 0 -0.00270266973214689 0.016638710808159429 0 -0.0017592827621721065 0.016648278554044112 0 -0.0022064000380747698 0.016136093353694186 0 -0.0017592827621721065 0.016648278554044112 0 -0.0014875336430969011 0.016007144768143158 0 -0.0020408845233619568 0.016977998823692886 0 -0.0015585935335906606 0.01693832481976346 0 -0.0017592827621721065 0.016648278554044112 0 -0.0020408845233619568 0.016977998823692886 0 -0.0025819702615590395 0.016608845211652026 0 -0.0017592827621721065 0.016648278554044112 0 -0.0020408845233619568 0.016977998823692886 0 -0.0019253568772812681 0.017336509708539616 0 -0.0015585935335906606 0.01693832481976346 0 -0.0020408845233619568 0.016977998823692886 0 -0.0019253568772812681 0.017336509708539616 0 -0.0022980174867429383 0.017264476145932125 0 -0.0026861266301427857 0.015913575870457951 0 -0.0025892614348653072 0.015898755960003518 0 -0.0027851654992630207 0.015861993132922195 0 -0.0023550567160515764 0.016246727563798542 0 -0.0028342954265163606 0.015900828845233122 0 -0.0020408845233619568 0.016977998823692886 0 -0.0022980174867429383 0.017264476145932125 0 -0.0025819702615590395 0.016608845211652026 0 -0.0029084474367016924 0.01583602105793748 0 -0.0031375711877794487 0.015310506147167023 0 -0.0035707611645860353 0.015294236393815009 0 -0.0028342954265163606 0.015900828845233122 0 -0.0042467526684837418 0.014989031738115891 0 -0.0029084474367016924 0.01583602105793748 0 -0.0035707611645860353 0.015294236393815009 0 -0.0038703255453314393 0.015654032188374922 0 -0.0028342954265163606 0.015900828845233122 0 -0.0028170427358257112 0.016123316706160809 0 -0.0030678394024306107 0.015690507609747113 0 -0.0031688354324764237 0.015458663832543769 0 -0.0033525631645992958 0.015679277039383929 0 -0.0028170427358257112 0.016123316706160809 0 -0.0036901145626343562 0.015188609787816595 0 -0.00302437762243884 0.015576554700371874 0 -0.0036901145626343562 0.015188609787816595 0 -0.0028170427358257112 0.016123316706160809 0 -0.00302437762243884 0.015576554700371874 0 -0.0022064000380747698 0.016136093353694186 0 -0.00270266973214689 0.016638710808159429 0 -0.0029313904788415401 0.016137836925025534 0 -0.0032643953641065984 0.01495695579407 0 -0.0033397676188872613 0.015087878149547164 0 -0.0033950829013576866 0.014909290767156864 0 -0.0035423012986110151 0.014952287569894035 0 -0.0033397676188872613 0.015087878149547164 0 -0.0037339047255145362 0.015071033380214529 0 -0.0036901145626343562 0.015188609787816595 0 -0.0041539366234712941 0.014871366105795258 0 -0.0035423012986110151 0.014952287569894035 0 -0.0033397676188872613 0.015087878149547164 0 -0.0033950829013576866 0.014909290767156864 0 -0.0045000997144971407 0.014751222305677342 0 -0.0044956360822362212 0.014736817318541873 0 -0.0044790342952483976 0.01475709377951521 0 -0.0036901145626343562 0.015188609787816595 0 -0.0042467526684837418 0.014989031738115891 0 -0.0041261875648580752 0.01470192333110289 0 -0.0042636636742298005 0.014734601888061492 0 -0.0042999678444980748 0.014689140578503006 0 -0.0042467526684837418 0.014989031738115891 0 -0.0043918690368988577 0.014701653859909118 0 -0.0042609725278367743 0.014787615518990528 0 -0.0041261875648580752 0.01470192333110289 0 -0.0042636636742298005 0.014734601888061492 0 -0.0044956360822362212 0.014736817318541873 0 -0.0044640439540272565 0.014724236254228171 0 -0.0044790342952483976 0.01475709377951521 0 -0.0042636636742298005 0.014734601888061492 0 -0.0042999678444980748 0.014689140578503006 0 -0.004320125222859226 0.014750499547205236 0 -0.0042609725278367743 0.014787615518990528 0 -0.0042636636742298005 0.014734601888061492 0 -0.004320125222859226 0.014750499547205236 0 -0.0035423012986110151 0.014952287569894035 0 -0.0037339047255145362 0.015071033380214529 0 -0.0037501270814522137 0.014844720753214555 0 -0.0037339047255145362 0.015071033380214529 0 -0.0037501270814522137 0.014844720753214555 0 -0.0039776948903413271 0.014834507984512966 0 -0.0037501270814522137 0.014844720753214555 0 -0.0036436335312424665 0.014681374028553032 0 -0.0039551901979842626 0.01471397128570864 0 -0.0037501270814522137 0.014844720753214555 0 -0.0036436335312424665 0.014681374028553032 0 -0.0035345996835151479 0.014836146578264191 0 -0.0035423012986110151 0.014952287569894035 0 -0.0037501270814522137 0.014844720753214555 0 -0.0035345996835151479 0.014836146578264191 0 -0.0038174727519402758 0.014459553628950786 0 -0.0036436335312424665 0.014681374028553032 0 -0.0039551901979842626 0.01471397128570864 0 -0.0038174727519402758 0.014459553628950786 0 -0.0036436335312424665 0.014681374028553032 0 -0.003480349102653968 0.014333614537614931 0 -0.0036436335312424665 0.014681374028553032 0 -0.0032672789759471553 0.01475614001958319 0 -0.003480349102653968 0.014333614537614931 0 -0.0036436335312424665 0.014681374028553032 0 -0.0032672789759471553 0.01475614001958319 0 -0.0035345996835151479 0.014836146578264191 0 -0.0032672789759471553 0.01475614001958319 0 -0.0035345996835151479 0.014836146578264191 0 -0.0033950829013576866 0.014909290767156864 0 -0.0032643953641065984 0.01495695579407 0 -0.0032672789759471553 0.01475614001958319 0 -0.0033950829013576866 0.014909290767156864 0 -0.0035423012986110151 0.014952287569894035 0 -0.0035345996835151479 0.014836146578264191 0 -0.0033950829013576866 0.014909290767156864 0 -0.00302437762243884 0.015576554700371874 0 -0.00328085262659112 0.014739642043716505 0 -0.0028347262953888896 0.015928105289865793 0 -0.0032672789759471553 0.01475614001958319 0 -0.0021922406854707208 0.015212155110128717 0 -0.00302437762243884 0.015576554700371874 0 -0.0022434410457097646 0.015388734225602583 0 -0.0032672789759471553 0.01475614001958319 0 -0.0021922406854707208 0.015212155110128717 0 -0.0024808646101835185 0.014356170391746097 0 -0.0021922406854707208 0.015212155110128717 0 -0.0018505116375893433 0.014475274544492467 0 -0.0024808646101835185 0.014356170391746097 0 -0.0022064000380747698 0.016136093353694186 0 -0.0021922406854707208 0.015212155110128717 0 -0.0014875336430969011 0.016007144768143158 0 -0.0022064000380747698 0.016136093353694186 0 -0.0029313904788415401 0.016137836925025534 0 -0.0021922406854707208 0.015212155110128717 0 -0.0042749956609356545 0.014695440985200483 0 -0.0041915020270269767 0.01458494934923401 0 -0.0042158133476045351 0.014648210188457215 0 -0.0041915020270269767 0.01458494934923401 0 -0.0042158133476045351 0.014648210188457215 0 -0.003983531513725218 0.01454797200746607 0 -0.0041915020270269767 0.01458494934923401 0 -0.0043184848820504718 0.014538172358037671 0 -0.0040516166862890248 0.014255449388728563 0 -0.0042749956609356545 0.014695440985200483 0 -0.0043184848820504718 0.014538172358037671 0 -0.0043601218186514277 0.014711512155518757 0 -0.0042749956609356545 0.014695440985200483 0 -0.0041915020270269767 0.01458494934923401 0 -0.0043184848820504718 0.014538172358037671 0 -0.0045151814209666149 0.014694667844103563 0 -0.0043184848820504718 0.014538172358037671 0 -0.0043601218186514277 0.014711512155518757 0 -0.0045151814209666149 0.014694667844103563 0 -0.004403715536445754 0.014712172214597143 0 -0.0043601218186514277 0.014711512155518757 0 -0.0044054876119580602 0.014761021328245468 0 -0.0045151814209666149 0.014694667844103563 0 -0.004403715536445754 0.014712172214597143 0 -0.0043601218186514277 0.014711512155518757 0 -0.0043463406872920971 0.014728582384872521 0 -0.0042842427876763831 0.014791523153494014 0 -0.004403715536445754 0.014712172214597143 0 -0.0043601218186514277 0.014711512155518757 0 -0.0043463406872920971 0.014728582384872521 0 -0.0042999678444980748 0.014689140578503006 0 -0.0043537771137365866 0.014719476736490997 0 -0.0043463406872920971 0.014728582384872521 0 -0.0044640439540272565 0.014724236254228171 0 -0.0044790342952483976 0.01475709377951521 0 -0.0043463406872920971 0.014728582384872521 0 -0.0043918690368988577 0.014701653859909118 0 -0.0043398775349283566 0.014725249141497802 0 -0.0042999678444980748 0.014689140578503006 0 -0.0043537771137365866 0.014719476736490997 0 -0.004320125222859226 0.014750499547205236 0 -0.0044054876119580602 0.014761021328245468 0 -0.0043537771137365866 0.014719476736490997 0 -0.004320125222859226 0.014750499547205236 0 -0.0044054876119580602 0.014761021328245468 0 -0.004403715536445754 0.014712172214597143 0 -0.0043537771137365866 0.014719476736490997 0 -0.004403715536445754 0.014712172214597143 0 -0.0043537771137365866 0.014719476736490997 0 -0.0043463406872920971 0.014728582384872521 0 -0.0041539366234712941 0.014871366105795258 0 -0.0042336492775542781 0.014824700162779897 0 -0.0037339047255145362 0.015071033380214529 0 -0.0039776948903413271 0.014834507984512966 0 -0.0042842427876763831 0.014791523153494014 0 -0.0044790342952483976 0.01475709377951521 0 -0.0043463406872920971 0.014728582384872521 0 -0.0042842427876763831 0.014791523153494014 0 -0.0041363264974153451 0.014761110792210831 0 -0.0039776948903413271 0.014834507984512966 0 -0.0042842427876763831 0.014791523153494014 0 -0.0042749956609356545 0.014695440985200483 0 -0.0043601218186514277 0.014711512155518757 0 -0.0042604988889705297 0.01474797166336282 0 -0.0043601218186514277 0.014711512155518757 0 -0.0042842427876763831 0.014791523153494014 0 -0.0042604988889705297 0.01474797166336282 0 -0.0041363264974153451 0.014761110792210831 0 -0.0042604988889705297 0.01474797166336282 0 -0.0041791843396006764 0.014692973847005299 0 -0.0041363264974153451 0.014761110792210831 0 -0.0042842427876763831 0.014791523153494014 0 -0.0042604988889705297 0.01474797166336282 0 -0.0042749956609356545 0.014695440985200483 0 -0.0042604988889705297 0.01474797166336282 0 -0.0041791843396006764 0.014692973847005299 0 -0.0042749956609356545 0.014695440985200483 0 -0.0041791843396006764 0.014692973847005299 0 -0.0042186439037188621 0.014621575056473757 0 -0.0041791843396006764 0.014692973847005299 0 -0.0040727955879917583 0.014547060240324702 0 -0.0042186439037188621 0.014621575056473757 0 -0.0041363264974153451 0.014761110792210831 0 -0.0041791843396006764 0.014692973847005299 0 -0.0039551901979842626 0.01471397128570864 0 -0.0041791843396006764 0.014692973847005299 0 -0.0039551901979842626 0.01471397128570864 0 -0.0040727955879917583 0.014547060240324702 0 -0.0037501270814522137 0.014844720753214555 0 -0.0039776948903413271 0.014834507984512966 0 -0.0039551901979842626 0.01471397128570864 0 -0.0041363264974153451 0.014761110792210831 0 -0.0039776948903413271 0.014834507984512966 0 -0.0039551901979842626 0.01471397128570864 0 -0.0038174727519402758 0.014459553628950786 0 -0.0039551901979842626 0.01471397128570864 0 -0.0040727955879917583 0.014547060240324702 0 -0.0040727955879917583 0.014547060240324702 0 -0.0042186439037188621 0.014621575056473757 0 -0.0041449577492635101 0.014404206748654081 0 -0.0042158133476045351 0.014648210188457215 0 -0.0041232507616539892 0.014659625669689712 0 -0.0042677345133102784 0.014441486735194764 0 -0.0042186439037188621 0.014621575056473757 0 -0.0042677345133102784 0.014441486735194764 0 -0.0041449577492635101 0.014404206748654081 0 -0.0042186439037188621 0.014621575056473757 0 -0.0042158133476045351 0.014648210188457215 0 -0.0042677345133102784 0.014441486735194764 0 -0.0042749956609356545 0.014695440985200483 0 -0.0042186439037188621 0.014621575056473757 0 -0.0042158133476045351 0.014648210188457215 0 -0.0030073362577813247 0.0093723384088258595 0 -0.0032145669982731385 0.0092871696505215685 0 -0.0041232507616539892 0.014659625669689712 0 -0.0037699090228167594 0.014669209078224169 0 -0.003983531513725218 0.01454797200746607 0 -0.0042158133476045351 0.014648210188457215 0 -0.0041232507616539892 0.014659625669689712 0 -0.003983531513725218 0.01454797200746607 0 -0.0018808781525067953 0.0040949667241343898 0 -0.0021455074606402252 0.0043668555689060622 0 -0.0021267351388306417 0.0039089253539235222 0 -0.0018808781525067953 0.0040949667241343898 0 -0.0021267351388306417 0.0039089253539235222 0 -0.0019595027105264872 0.0039687829829582674 0 -0.0030073362577813247 0.0093723384088258595 0 -0.0029473600250286827 0.0095012670520597652 0 -0.0037699090228167594 0.014669209078224169 0 -0.003983531513725218 0.01454797200746607 0 -0.0035994433469483914 0.014281267737574734 0 -0.003983531513725218 0.01454797200746607 0 -0.0040516166862890248 0.014255449388728563 0 -0.0035994433469483914 0.014281267737574734 0 -0.0041915020270269767 0.01458494934923401 0 -0.003983531513725218 0.01454797200746607 0 -0.0040516166862890248 0.014255449388728563 0 -0.0037699090228167594 0.014669209078224169 0 -0.0033115351489411853 0.01450582174416948 0 -0.0035994433469483914 0.014281267737574734 0 -0.0021455074606402252 0.0043668555689060622 0 -0.0024630446537216638 0.0046747880303947865 0 -0.0026051349887982553 0.004331431739646798 0 -0.0033115351489411853 0.01450582174416948 0 -0.0030782159073341614 0.01404267778395161 0 -0.0035994433469483914 0.014281267737574734 0 -0.0029473600250286827 0.0095012670520597652 0 -0.0028957668858829739 0.0096433849637112354 0 -0.0021455074606402252 0.0043668555689060622 0 -0.0026051349887982553 0.004331431739646798 0 -0.0024515527239248112 0.0040649376282894277 0 -0.0021455074606402252 0.0043668555689060622 0 -0.0024515527239248112 0.0040649376282894277 0 -0.0021267351388306417 0.0039089253539235222 0 -0.0024515527239248112 0.0040649376282894277 0 -0.0028699437365206013 0.003868094711308018 0 -0.0024604886626100777 0.0037616313315106125 0 -0.0028699437365206013 0.003868094711308018 0 -0.0032235009342156231 0.0040370903192319492 0 -0.0029460240571286636 0.004390916395223295 0 -0.0026051349887982553 0.004331431739646798 0 -0.0024515527239248112 0.0040649376282894277 0 -0.0028699437365206013 0.003868094711308018 0 -0.0026051349887982553 0.004331431739646798 0 -0.0028699437365206013 0.003868094711308018 0 -0.0029460240571286636 0.004390916395223295 0 -0.0028699437365206013 0.003868094711308018 0 -0.0032235009342156231 0.0040370903192319492 0 -0.0031882641729691088 0.0037155767666550328 0 -0.0032235009342156231 0.0040370903192319492 0 -0.0035647006746305516 0.0042645477933179309 0 -0.0029460240571286636 0.004390916395223295 0 -0.0035263070553805407 0.003836358555986602 0 -0.0032235009342156231 0.0040370903192319492 0 -0.0031882641729691088 0.0037155767666550328 0 -0.0035263070553805407 0.003836358555986602 0 -0.0035647006746305516 0.0042645477933179309 0 -0.0037014860573748574 0.0040669519954279068 0 -0.0035263070553805407 0.003836358555986602 0 -0.0032235009342156231 0.0040370903192319492 0 -0.0035647006746305516 0.0042645477933179309 0 -0.0035647006746305516 0.0042645477933179309 0 -0.0029460240571286636 0.004390916395223295 0 -0.0031402559253073769 0.0047087992692169938 0 -0.0035647006746305516 0.0042645477933179309 0 -0.0037209084392853049 0.0042192151047557103 0 -0.0037135896408341906 0.0042770864145281881 0 -0.0035647006746305516 0.0042645477933179309 0 -0.0031402559253073769 0.0047087992692169938 0 -0.0034484121746999928 0.0049849756616072776 0 -0.0036234428389732595 0.0046120802170219041 0 -0.0038177426143982678 0.0037663587438638408 0 -0.0034624672939539193 0.0050291022865869579 0 -0.0038177426143982678 0.0037663587438638408 0 -0.0035647006746305516 0.0042645477933179309 0 -0.0034484121746999928 0.0049849756616072776 0 -0.0038863926537974448 0.004925345629528172 0 -0.0031402559253073769 0.0047087992692169938 0 -0.0028294632841438482 0.005021415280256414 0 -0.0034484121746999928 0.0049849756616072776 0 -0.0024630446537216638 0.0046747880303947865 0 -0.0026051349887982553 0.004331431739646798 0 -0.0029460240571286636 0.004390916395223295 0 -0.0029460240571286636 0.004390916395223295 0 -0.0031402559253073769 0.0047087992692169938 0 -0.0028294632841438482 0.005021415280256414 0 -0.0028957668858829739 0.0096433849637112354 0 -0.0028187726462075091 0.0093170241912321067 0 -0.0024630446537216638 0.0046747880303947865 0 -0.0029460240571286636 0.004390916395223295 0 -0.0028294632841438482 0.005021415280256414 0 -0.0033115351489411853 0.01450582174416948 0 -0.0030782159073341614 0.01404267778395161 0 -0.0027817588868170348 0.014264173709420808 0 -0.0030782159073341614 0.01404267778395161 0 -0.0027817588868170348 0.014264173709420808 0 -0.0026701068895835481 0.014094786070303253 0 -0.0027817588868170348 0.014264173709420808 0 -0.0026701068895835481 0.014094786070303253 0 -0.0022562083525202933 0.013920339513992824 0 -0.0028187726462075091 0.0093170241912321067 0 -0.0022653596363174282 0.011661807825570731 0 -0.0028060638102477913 0.014425517706138079 0 -0.0022653596363174282 0.011661807825570731 0 -0.0026701068895835481 0.014094786070303253 0 -0.0025035832334617133 0.013892751984438565 0 -0.0020776210815560349 0.014019314461305469 0 -0.0026701068895835481 0.014094786070303253 0 -0.0025035832334617133 0.013892751984438565 0 -0.0028074485791101502 0.013852226672392663 0 -0.0025035832334617133 0.013892751984438565 0 -0.002330671759647988 0.013764289045868185 0 -0.0025715010739872563 0.013742966554918445 0 -0.002330671759647988 0.013764289045868185 0 -0.0025715010739872563 0.013742966554918445 0 -0.0024175263643394849 0.013574959024941401 0 -0.0025035832334617133 0.013892751984438565 0 -0.002330671759647988 0.013764289045868185 0 -0.0020776210815560349 0.014019314461305469 0 -0.0025035832334617133 0.013892751984438565 0 -0.0025715010739872563 0.013742966554918445 0 -0.0028074485791101502 0.013852226672392663 0 -0.0025715010739872563 0.013742966554918445 0 -0.0028074485791101502 0.013852226672392663 0 -0.0027652113552838163 0.013548885797025166 0 -0.0030782159073341614 0.01404267778395161 0 -0.0026701068895835481 0.014094786070303253 0 -0.0028074485791101502 0.013852226672392663 0 -0.0030782159073341614 0.01404267778395161 0 -0.0028074485791101502 0.013852226672392663 0 -0.0031555923718652274 0.013706619643011973 0 -0.0028074485791101502 0.013852226672392663 0 -0.0027652113552838163 0.013548885797025166 0 -0.0031555923718652274 0.013706619643011973 0 -0.0028294632841438482 0.005021415280256414 0 -0.0034484121746999928 0.0049849756616072776 0 -0.0032744790001897274 0.0054339252401441798 0 -0.0036589826898503534 0.0052805745675186151 0 -0.0034484121746999928 0.0049849756616072776 0 -0.0038334562782008155 0.0049404147043658371 0 -0.0036589826898503534 0.0052805745675186151 0 -0.0034484121746999928 0.0049849756616072776 0 -0.0032744790001897274 0.0054339252401441798 0 -0.002330671759647988 0.013764289045868185 0 -0.0020776210815560349 0.014019314461305469 0 -0.0020878611709189477 0.013575583158091251 0 -0.0022653596363174282 0.011661807825570731 0 -0.0021448281246638089 0.013828042959870449 0 -0.0020776210815560349 0.014019314461305469 0 -0.0016399707181435992 0.013778879476745397 0 -0.0020878611709189477 0.013575583158091251 0 -0.0022653596363174282 0.011661807825570731 0 -0.0025557350016154408 0.0097063115686656428 0 -0.0020773822003525332 0.014055423006040801 0 -0.0016399707181435992 0.013778879476745397 0 -0.0012279632699381084 0.013770263250560563 0 -0.0036589826898503534 0.0052805745675186151 0 -0.0032744790001897274 0.0054339252401441798 0 -0.0037268994472825947 0.0056466206393589865 0 -0.0012708300465807964 0.013442339973318807 0 -0.0015294883491709487 0.013275302176511457 0 -0.0011353841064644043 0.012971315260503725 0 -0.0016399707181435992 0.013778879476745397 0 -0.0012279632699381084 0.013770263250560563 0 -0.0012708300465807964 0.013442339973318807 0 -0.0012279632699381084 0.013770263250560563 0 -0.0012708300465807964 0.013442339973318807 0 -0.0009126925310628082 0.01330968834316794 0 -0.0016399707181435992 0.013778879476745397 0 -0.0012708300465807964 0.013442339973318807 0 -0.001755194339109087 0.013493590495310556 0 -0.0012708300465807964 0.013442339973318807 0 -0.0015294883491709487 0.013275302176511457 0 -0.001755194339109087 0.013493590495310556 0 -0.001755194339109087 0.013493590495310556 0 -0.0020878611709189477 0.013575583158091251 0 -0.001994754995626272 0.013176252250303923 0 -0.0015294883491709487 0.013275302176511457 0 -0.001755194339109087 0.013493590495310556 0 -0.001994754995626272 0.013176252250303923 0 -0.0016399707181435992 0.013778879476745397 0 -0.001755194339109087 0.013493590495310556 0 -0.0020878611709189477 0.013575583158091251 0 -0.0020878611709189477 0.013575583158091251 0 -0.001994754995626272 0.013176252250303923 0 -0.0023886836509436006 0.013312390744811281 0 -0.001994754995626272 0.013176252250303923 0 -0.0020225394064137922 0.012839846980225772 0 -0.0024262285993104766 0.012964351036997689 0 -0.0016044735507663172 0.012655774692600853 0 -0.0020225394064137922 0.012839846980225772 0 -0.0016297746309344363 0.013001397627990451 0 -0.0015294883491709487 0.013275302176511457 0 -0.001994754995626272 0.013176252250303923 0 -0.0016297746309344363 0.013001397627990451 0 -0.001994754995626272 0.013176252250303923 0 -0.0020225394064137922 0.012839846980225772 0 -0.0016297746309344363 0.013001397627990451 0 -0.0016044735507663172 0.012655774692600853 0 -0.0011190999464710367 0.012329242115861836 0 -0.0011353841064644043 0.012971315260503725 0 -0.0015294883491709487 0.013275302176511457 0 -0.0016297746309344363 0.013001397627990451 0 -0.0011353841064644043 0.012971315260503725 0 -0.0016044735507663172 0.012655774692600853 0 -0.0016297746309344363 0.013001397627990451 0 -0.0011353841064644043 0.012971315260503725 0 -0.0027652113552838163 0.013548885797025166 0 -0.0031346259700235557 0.0133814810135019 0 -0.0031555923718652274 0.013706619643011973 0 -0.0027652113552838163 0.013548885797025166 0 -0.0027772144816652876 0.013250899208398196 0 -0.0031346259700235557 0.0133814810135019 0 -0.0025715010739872563 0.013742966554918445 0 -0.0027652113552838163 0.013548885797025166 0 -0.0024175263643394849 0.013574959024941401 0 -0.002330671759647988 0.013764289045868185 0 -0.0020878611709189477 0.013575583158091251 0 -0.0024175263643394849 0.013574959024941401 0 -0.0020878611709189477 0.013575583158091251 0 -0.0024175263643394849 0.013574959024941401 0 -0.0023886836509436006 0.013312390744811281 0 -0.0027652113552838163 0.013548885797025166 0 -0.0024175263643394849 0.013574959024941401 0 -0.0023886836509436006 0.013312390744811281 0 -0.0027652113552838163 0.013548885797025166 0 -0.0023886836509436006 0.013312390744811281 0 -0.0027772144816652876 0.013250899208398196 0 -0.0023886836509436006 0.013312390744811281 0 -0.0024262285993104766 0.012964351036997689 0 -0.0027772144816652876 0.013250899208398196 0 -0.001994754995626272 0.013176252250303923 0 -0.0023886836509436006 0.013312390744811281 0 -0.0024262285993104766 0.012964351036997689 0 -0.002723682368358544 0.012654282390289652 0 -0.0024262285993104766 0.012964351036997689 0 -0.0028194470103213593 0.012983847225518748 0 -0.0024262285993104766 0.012964351036997689 0 -0.0028194470103213593 0.012983847225518748 0 -0.0027772144816652876 0.013250899208398196 0 -0.0028194470103213593 0.012983847225518748 0 -0.0027772144816652876 0.013250899208398196 0 -0.0030438662305727689 0.013139266118158181 0 -0.0027772144816652876 0.013250899208398196 0 -0.0030438662305727689 0.013139266118158181 0 -0.0031346259700235557 0.0133814810135019 0 -0.003109030158755213 0.012920652030288228 0 -0.0028194470103213593 0.012983847225518748 0 -0.0030438662305727689 0.013139266118158181 0 -0.003109030158755213 0.012920652030288228 0 -0.0030438662305727689 0.013139266118158181 0 -0.0033210547079504959 0.013159618184361937 0 -0.0033210547079504959 0.013159618184361937 0 -0.0031346259700235557 0.0133814810135019 0 -0.0035266243707257183 0.013473488500118098 0 -0.003394034741286136 0.012945610257588509 0 -0.0033210547079504959 0.013159618184361937 0 -0.0034951719029185282 0.01309432538565471 0 -0.0030438662305727689 0.013139266118158181 0 -0.0033210547079504959 0.013159618184361937 0 -0.0031346259700235557 0.0133814810135019 0 -0.0031346259700235557 0.0133814810135019 0 -0.0035266243707257183 0.013473488500118098 0 -0.0031555923718652274 0.013706619643011973 0 -0.0035266243707257183 0.013473488500118098 0 -0.0031555923718652274 0.013706619643011973 0 -0.0034235202187249021 0.013882714428183436 0 -0.0033210547079504959 0.013159618184361937 0 -0.0035266243707257183 0.013473488500118098 0 -0.0034951719029185282 0.01309432538565471 0 -0.0035266243707257183 0.013473488500118098 0 -0.0034951719029185282 0.01309432538565471 0 -0.0037245022276393425 0.013149599210656197 0 -0.0035266243707257183 0.013473488500118098 0 -0.0037245022276393425 0.013149599210656197 0 -0.0040930053205932718 0.013636486643365352 0 -0.0036871354510325601 0.013670172570727241 0 -0.0041373923388336739 0.014255998097855381 0 -0.0039535311273404001 0.01406978070586138 0 -0.0035883208809930414 0.01421426905458264 0 -0.0041964770864674752 0.014895748630364665 0 -0.0035266243707257183 0.013473488500118098 0 -0.0040930053205932718 0.013636486643365352 0 -0.0037414868452608579 0.013918448853899812 0 -0.0039535311273404001 0.01406978070586138 0 -0.0043004684448994151 0.014163999694325476 0 -0.0041964770864674752 0.014895748630364665 0 -0.0040930053205932718 0.013636486643365352 0 -0.0037414868452608579 0.013918448853899812 0 -0.0040516166862890248 0.014255449388728563 0 -0.0037414868452608579 0.013918448853899812 0 -0.0040516166862890248 0.014255449388728563 0 -0.0035994433469483914 0.014281267737574734 0 -0.0037414868452608579 0.013918448853899812 0 -0.0035994433469483914 0.014281267737574734 0 -0.0034235202187249021 0.013882714428183436 0 -0.0030782159073341614 0.01404267778395161 0 -0.0035994433469483914 0.014281267737574734 0 -0.0034235202187249021 0.013882714428183436 0 -0.0030782159073341614 0.01404267778395161 0 -0.0031555923718652274 0.013706619643011973 0 -0.0034235202187249021 0.013882714428183436 0 -0.0035266243707257183 0.013473488500118098 0 -0.0037414868452608579 0.013918448853899812 0 -0.0034235202187249021 0.013882714428183436 0 1.9024567767089694e-05 0.02500340455804818 0 5.8003537372512806e-06 0.025001142312547318 0 3.0021495433192819e-05 0.025004350381911195 0 0.00011691505178278363 0.024745014147449836 0 0.00016206775810963139 0.024738109039768565 0 0.00023665354707778837 0.024489869069533415 0 0.00027652521164611119 0.02448168708817126 0 0.00025840326799784292 0.024459361256881283 0 1.9024567767089694e-05 0.02500340455804818 0 3.1049470582936232e-05 0.025006118655916329 0 3.0021495433192819e-05 0.025004350381911195 0 1.9024567767089694e-05 0.02500340455804818 0 8.5175649951363458e-06 0.025002467743339207 0 5.8003537372512806e-06 0.025001142312547318 0 1.5642190755650855e-05 0.025001829089317879 0 1.9024567767089694e-05 0.02500340455804818 0 8.5175649951363458e-06 0.025002467743339207 0 8.5175649951363458e-06 0.025002467743339207 0 1.1024034552535711e-08 0.025000002265392413 0 1.6509179397509631e-08 0.025000026061413785 0 1.5642190755650855e-05 0.025001829089317879 0 1.9024567767089694e-05 0.02500340455804818 0 3.1049470582936232e-05 0.025006118655916329 0 1.5642190755650855e-05 0.025001829089317879 0 8.5175649951363458e-06 0.025002467743339207 0 1.6509179397509631e-08 0.025000026061413785 0 8.5175649951363458e-06 0.025002467743339207 0 1.1024034552535711e-08 0.025000002265392413 0 5.8003537372512806e-06 0.025001142312547318 0 0.00023665354707778837 0.024489869069533415 0 0.00027652521164611119 0.02448168708817126 0 0.00029423531854566668 0.02451867804208965 0 0.00030547485629374996 0.024491186281762042 0 0.00027652521164611119 0.02448168708817126 0 0.00029423531854566668 0.02451867804208965 0 0.00030547485629374996 0.024491186281762042 0 0.00033286152383475275 0.024498329678277784 0 0.00031567027876614015 0.024528144448870536 0 0.00030547485629374996 0.024491186281762042 0 0.00031567027876614015 0.024528144448870536 0 0.00029423531854566668 0.02451867804208965 0 0.00030547485629374996 0.024491186281762042 0 0.00031882815257393775 0.024458794495285249 0 0.00033286152383475275 0.024498329678277784 0 0.00030547485629374996 0.024491186281762042 0 0.00028744631300366239 0.024458429010223767 0 0.00031882815257393775 0.024458794495285249 0 0.00030547485629374996 0.024491186281762042 0 0.00027652521164611119 0.02448168708817126 0 0.00028744631300366239 0.024458429010223767 0 0.00027652521164611119 0.02448168708817126 0 0.00028744631300366239 0.024458429010223767 0 0.00025840326799784292 0.024459361256881283 0 0.00020462658127997802 0.024539103105505791 0 0.00016206775810963139 0.024738109039768565 0 0.0001626102097934862 0.024619812484696996 0 0.00015263494462500389 0.024625887243294866 0 0.00018461449914824202 0.024653740378420809 0 0.0001626102097934862 0.024619812484696996 0 0.00015392381724789567 0.024618446643728149 0 0.00015263494462500389 0.024625887243294866 0 0.00042517889618342517 0.024422194410990031 0 0.00016055273663616762 0.024675388598252 0 0.00024684331115725448 0.024728995256633544 0 0.00015263494462500389 0.024625887243294866 0 0.00034685535767255371 0.024563140804265887 0 0.00020462658127997802 0.024539103105505791 0 0.00042517889618342517 0.024422194410990031 0 0.00015263494462500389 0.024625887243294866 0 0.00013261332088707981 0.024536923494798631 0 0.00034685535767255371 0.024563140804265887 0 0.00015263494462500389 0.024625887243294866 0 0.00014627878303878934 0.02475777278315126 0 0.00013261332088707981 0.024536923494798631 0 0.00015263494462500389 0.024625887243294866 0 0.00018461449914824202 0.024653740378420809 0 0.00014627878303878934 0.02475777278315126 0 5.5490295061757991e-05 0.024909545173901121 0 9.7623888086376516e-05 0.02496038608813916 0 0.00014627878303878934 0.02475777278315126 0 5.5490295061757991e-05 0.024909545173901121 0 9.7623888086376516e-05 0.02496038608813916 0 2.4016484860503555e-05 0.024984089966549487 0 0.00013421054418314685 0.024815499214999905 0 0.00014844793284085126 0.024760977963365068 0 9.7623888086376516e-05 0.02496038608813916 0 4.7766474270807797e-05 0.02500862662558994 0 2.4016484860503555e-05 0.024984089966549487 0 0.00013421054418314685 0.024815499214999905 0 0.00016206775810963139 0.024738109039768565 0 0.0001626102097934862 0.024619812484696996 0 0.00018461449914824202 0.024653740378420809 0 0.00019518109491249496 0.02462091207431779 0 3.1049470582936232e-05 0.025006118655916329 0 4.7766474270807797e-05 0.02500862662558994 0 2.4016484860503555e-05 0.024984089966549487 0 9.846237917298093e-05 0.0247812486712491 0 0.00016206775810963139 0.024738109039768565 0 1.5642190755650855e-05 0.025001829089317879 0 3.1049470582936232e-05 0.025006118655916329 0 2.4016484860503555e-05 0.024984089966549487 0 1.5642190755650855e-05 0.025001829089317879 0 1.6509179397509631e-08 0.025000026061413785 0 2.4016484860503555e-05 0.024984089966549487 0 5.5490295061757991e-05 0.024909545173901121 0 2.4016484860503555e-05 0.024984089966549487 0 1.3824441030502737e-08 0.024999843379750676 0 1.6509179397509631e-08 0.025000026061413785 0 2.4016484860503555e-05 0.024984089966549487 0 1.3824441030502737e-08 0.024999843379750676 0 5.5490295061757991e-05 0.024909545173901121 0 1.3824441030502737e-08 0.024999843379750676 0 7.6354748849654467e-05 0.024898055533655667 0 1.3824441030502737e-08 0.024999843379750676 0 7.6354748849654467e-05 0.024898055533655667 0 9.627914727422582e-08 0.024999872034253561 0 7.6354748849654467e-05 0.024898055533655667 0 0.0001590266688951122 0.024764991127070798 0 0.00014627878303878934 0.02475777278315126 0 5.5490295061757991e-05 0.024909545173901121 0 7.6354748849654467e-05 0.024898055533655667 0 0.00014627878303878934 0.02475777278315126 0 7.6354748849654467e-05 0.024898055533655667 0 0.00012667415960240027 0.024893047923204136 0 0.0001590266688951122 0.024764991127070798 0 7.6354748849654467e-05 0.024898055533655667 0 9.627914727422582e-08 0.024999872034253561 0 0.00012667415960240027 0.024893047923204136 0 9.627914727422582e-08 0.024999872034253561 0 0.00012667415960240027 0.024893047923204136 0 7.2348419182850085e-05 0.02494735999529735 0 9.627914727422582e-08 0.024999872034253561 0 7.2348419182850085e-05 0.02494735999529735 0 3.399555617303187e-08 0.024999927914373055 0 0.00012667415960240027 0.024893047923204136 0 7.2348419182850085e-05 0.02494735999529735 0 0.00014186570901410792 0.024913616534117795 0 4.6515233279451086e-05 0.024905370502888286 0 7.2348419182850085e-05 0.02494735999529735 0 0.00014186570901410792 0.024913616534117795 0 4.6515233279451086e-05 0.024905370502888286 0 7.2348419182850085e-05 0.02494735999529735 0 3.399555617303187e-08 0.024999927914373055 0 0.00032469852983498031 0.024851839708525027 0 0.00014186570901410792 0.024913616534117795 0 0.00014458412997645845 0.024897429615987045 0 0.00043531844704957284 0.024334466583688378 0 0.00023947895955819584 0.024415384542127536 0 0.00012667415960240027 0.024893047923204136 0 0.00014186570901410792 0.024913616534117795 0 0.00014458412997645845 0.024897429615987045 0 0.00031606149833053691 0.023918975280094273 0 0.00013261332088707981 0.024536923494798631 0 0.00044743604690592278 0.024258706435108607 0 0.00023947895955819584 0.024415384542127536 0 0.00014416762343958663 0.024532332016855306 0 0.00014458412997645845 0.024897429615987045 0 0.0001590266688951122 0.024764991127070798 0 0.00013261332088707981 0.024536923494798631 0 0.00012667415960240027 0.024893047923204136 0 0.00014458412997645845 0.024897429615987045 0 0.0001590266688951122 0.024764991127070798 0 0.0001590266688951122 0.024764991127070798 0 0.00014627878303878934 0.02475777278315126 0 0.00013261332088707981 0.024536923494798631 0 0.00013261332088707981 0.024536923494798631 0 0.00044743604690592278 0.024258706435108607 0 0.00034685535767255371 0.024563140804265887 0 0.00044743604690592278 0.024258706435108607 0 0.00066725331419744283 0.02408618929583816 0 0.00056152433635018174 0.024352265868119293 0 0.00044743604690592278 0.024258706435108607 0 0.00056480739832749985 0.023900893868726805 0 0.00066725331419744283 0.02408618929583816 0 0.00031606149833053691 0.023918975280094273 0 0.00044743604690592278 0.024258706435108607 0 0.00056480739832749985 0.023900893868726805 0 0.00031606149833053691 0.023918975280094273 0 0.00056480739832749985 0.023900893868726805 0 0.00054573139256025864 0.023802619718594743 0 0.00056480739832749985 0.023900893868726805 0 0.0006557344787233788 0.023747274521337097 0 0.00054573139256025864 0.023802619718594743 0 0.00056480739832749985 0.023900893868726805 0 0.0006557344787233788 0.023747274521337097 0 0.00074642684637024495 0.023747486069741058 0 0.00058737783399250433 0.023858298361457236 0 0.0006557344787233788 0.023747274521337097 0 0.00054573139256025864 0.023802619718594743 0 0.00056457585219038715 0.023820662051641954 0 0.00031606149833053691 0.023918975280094273 0 0.00054573139256025864 0.023802619718594743 0 0.00072201206286344054 0.023746456417393414 0 0.00082447990448190846 0.023599429372611041 0 0.00080527857525045674 0.023640215941458091 0 0.00082447990448190846 0.023599429372611041 0 0.00080527857525045674 0.023640215941458091 0 0.0010634497261878518 0.023282538931455168 0 0.00072201206286344054 0.023746456417393414 0 0.0006557344787233788 0.023747274521337097 0 0.00082447990448190846 0.023599429372611041 0 0.0006557344787233788 0.023747274521337097 0 0.00082447990448190846 0.023599429372611041 0 0.00074642684637024495 0.023747486069741058 0 0.00082447990448190846 0.023599429372611041 0 0.00074642684637024495 0.023747486069741058 0 0.0010634497261878518 0.023282538931455168 0 0.00074642684637024495 0.023747486069741058 0 0.00086945001258066461 0.02393310070367765 0 0.0010634497261878518 0.023282538931455168 0 0.00056480739832749985 0.023900893868726805 0 0.00074642684637024495 0.023747486069741058 0 0.00066725331419744283 0.02408618929583816 0 0.00074642684637024495 0.023747486069741058 0 0.00086945001258066461 0.02393310070367765 0 0.00066725331419744283 0.02408618929583816 0 0.00086945001258066461 0.02393310070367765 0 0.00080614545211705948 0.024127646966806537 0 0.00066725331419744283 0.02408618929583816 0 0.00080614545211705948 0.024127646966806537 0 0.00066725331419744283 0.02408618929583816 0 0.00074234595233938676 0.024279882759532558 0 0.00066725331419744283 0.02408618929583816 0 0.00074234595233938676 0.024279882759532558 0 0.00056152433635018174 0.024352265868119293 0 0.00080614545211705948 0.024127646966806537 0 0.00095533767776101691 0.024244694419895678 0 0.00074234595233938676 0.024279882759532558 0 0.00086945001258066461 0.02393310070367765 0 0.00080614545211705948 0.024127646966806537 0 0.00095533767776101691 0.024244694419895678 0 0.00086945001258066461 0.02393310070367765 0 0.00095533767776101691 0.024244694419895678 0 0.0012574188650653585 0.024016971081351979 0 0.00093885264943923015 0.024368333123736971 0 0.00092304871393489112 0.024440104647778356 0 0.00083538973089575589 0.02438372346808846 0 0.00095533767776101691 0.024244694419895678 0 0.00093885264943923015 0.024368333123736971 0 0.00083538973089575589 0.02438372346808846 0 0.00095533767776101691 0.024244694419895678 0 0.0010338059049321757 0.024383111280890348 0 0.0011086431996166878 0.024329063899709655 0 0.00095533767776101691 0.024244694419895678 0 0.00093885264943923015 0.024368333123736971 0 0.0010338059049321757 0.024383111280890348 0 0.0010338059049321757 0.024383111280890348 0 0.0010399254186347895 0.02443700926396063 0 0.0010722027304516165 0.024393786447082857 0 0.0010338059049321757 0.024383111280890348 0 0.00092304871393489112 0.024440104647778356 0 0.0010399254186347895 0.02443700926396063 0 0.00093885264943923015 0.024368333123736971 0 0.0010338059049321757 0.024383111280890348 0 0.00092304871393489112 0.024440104647778356 0 0.00092304871393489112 0.024440104647778356 0 0.0010399254186347895 0.02443700926396063 0 0.00082026257071088967 0.024552095633002025 0 0.0010399254186347895 0.02443700926396063 0 0.0011403278701094504 0.024430038838600381 0 0.0010760393244799871 0.024388858822392112 0 0.0010712294860972184 0.024443777695572114 0 0.0007977575564209144 0.024379016379799306 0 0.0010399254186347895 0.02443700926396063 0 0.0010720452725004868 0.024389215053967767 0 0.0010722027304516165 0.024393786447082857 0 0.0010399254186347895 0.02443700926396063 0 0.0010760393244799871 0.024388858822392112 0 0.0010720452725004868 0.024389215053967767 0 0.00092304871393489112 0.024440104647778356 0 0.00082026257071088967 0.024552095633002025 0 0.00080952200442884414 0.024495343289854744 0 0.0007977575564209144 0.024379016379799306 0 0.00080660616926308821 0.024482214479906471 0 0.00092304871393489112 0.024440104647778356 0 0.00080952200442884414 0.024495343289854744 0 0.00083538973089575589 0.02438372346808846 0 0.00081258271043516985 0.024595798465319649 0 0.00080952200442884414 0.024495343289854744 0 0.00061864879888825857 0.024518875659148582 0 0.00080952200442884414 0.024495343289854744 0 0.00083538973089575589 0.02438372346808846 0 0.00061864879888825857 0.024518875659148582 0 0.00083538973089575589 0.02438372346808846 0 0.00074234595233938676 0.024279882759532558 0 0.00061864879888825857 0.024518875659148582 0 0.00095533767776101691 0.024244694419895678 0 0.00083538973089575589 0.02438372346808846 0 0.00074234595233938676 0.024279882759532558 0 0.00056152433635018174 0.024352265868119293 0 0.00034685535767255371 0.024563140804265887 0 0.00061864879888825857 0.024518875659148582 0 0.00074234595233938676 0.024279882759532558 0 0.00056152433635018174 0.024352265868119293 0 0.00061864879888825857 0.024518875659148582 0 0.00044743604690592278 0.024258706435108607 0 0.00056152433635018174 0.024352265868119293 0 0.00034685535767255371 0.024563140804265887 0 0.00042517889618342517 0.024422194410990031 0 0.00063956755978992878 0.024417647112722832 0 0.00024684331115725448 0.024728995256633544 0 0.00034685535767255371 0.024563140804265887 0 0.00049431551906313996 0.024679048058962368 0 0.00081258271043516985 0.024595798465319649 0 0.00049431551906313996 0.024679048058962368 0 0.00061864879888825857 0.024518875659148582 0 0.00034685535767255371 0.024563140804265887 0 0.00049431551906313996 0.024679048058962368 0 0.00061864879888825857 0.024518875659148582 0 0.0007977575564209144 0.024379016379799306 0 0.00063956755978992878 0.024417647112722832 0 0.00076339281956357803 0.024156874557928972 0 0.00071193181335077796 0.024033414328058451 0 0.00085008928460198374 0.02397491100736987 0 0.00059383655329886358 0.024167295088495633 0 0.00076339281956357803 0.024156874557928972 0 0.00071193181335077796 0.024033414328058451 0 0.00042517889618342517 0.024422194410990031 0 0.00062725612320192704 0.024340339433551631 0 0.0009301272559062634 0.024148772351565668 0 0.00076339281956357803 0.024156874557928972 0 0.00085008928460198374 0.02397491100736987 0 0.00085008928460198374 0.02397491100736987 0 0.00067283929204167898 0.023900424953651373 0 0.00076471714558631312 0.023792353125794644 0 0.00071193181335077796 0.024033414328058451 0 0.00085008928460198374 0.02397491100736987 0 0.00067283929204167898 0.023900424953651373 0 0.00071193181335077796 0.024033414328058451 0 0.00067283929204167898 0.023900424953651373 0 0.0005813932047403934 0.024009490110340429 0 0.0010551700833427529 0.022987747479660432 0 0.00087361699584168745 0.024085119068829396 0 0.0013712961211996329 0.021136096199466749 0 0.00087361699584168745 0.024085119068829396 0 0.0011756498189616767 0.022396870646703228 0 0.00051463004229642642 0.022415920671968497 0 0.00056821185706338521 0.023095378872635047 0 0.0013712961211996329 0.021136096199466749 0 0.00083475938120902737 0.02135678172674901 0 0.0011195740988045771 0.024283288903573185 0 0.0010913249233060359 0.024358190994293295 0 0.0010770914688291132 0.024364883669897072 0 0.0011916509207838609 0.017856637344020258 0 0.00059090371832084404 0.018129537398039235 0 0.00074868863861417766 0.017672831986931772 0 0.0011195740988045771 0.024283288903573185 0 0.0010913249233060359 0.024358190994293295 0 0.0011290228060765375 0.024343992185123613 0 0.0010913249233060359 0.024358190994293295 0 0.0010760393244799871 0.024388858822392112 0 0.0011290228060765375 0.024343992185123613 0 0.0011403278701094504 0.024430038838600381 0 0.0010760393244799871 0.024388858822392112 0 0.001131120203123742 0.024321574609460245 0 0.0010746632808521896 0.024380641618631967 0 0.00087361699584168745 0.024085119068829396 0 0.0010913249233060359 0.024358190994293295 0 0.0010760393244799871 0.024388858822392112 0 0.0010720452725004868 0.024389215053967767 0 0.0007977575564209144 0.024379016379799306 0 0.00087361699584168745 0.024085119068829396 0 0.00059383655329886358 0.024167295088495633 0 0.00071193181335077796 0.024033414328058451 0 0.0005813932047403934 0.024009490110340429 0 0.00083475938120902737 0.02135678172674901 0 0.00022569830809448071 0.020476882846583049 0 0.0010770914688291132 0.024364883669897072 0 0.0011468935721263894 0.024362761689264378 0 0.0011126333508343484 0.024377166854048754 0 0.0010720452725004868 0.024389215053967767 0 0.0010770914688291132 0.024364883669897072 0 0.0011126333508343484 0.024377166854048754 0 0.0010913249233060359 0.024358190994293295 0 0.0010720452725004868 0.024389215053967767 0 0.0010770914688291132 0.024364883669897072 0 0.00059090371832084404 0.018129537398039235 0 0.00024941118490805225 0.017825540420801044 0 0.00074868863861417766 0.017672831986931772 0 0.00059090371832084404 0.018129537398039235 0 0.00024941118490805225 0.017825540420801044 0 5.4541739920452975e-06 0.018415242327286419 0 0.00024941118490805225 0.017825540420801044 0 -0.00018599035447736643 0.017856794749627529 0 5.4541739920452975e-06 0.018415242327286419 0 -0.00018599035447736643 0.017856794749627529 0 -0.00062541575941399668 0.018370496504988877 0 0.00027946806603750018 0.018844743772389483 0 -0.00030458339822300897 0.017188268309855339 0 0.00022569830809448071 0.020476882846583049 0 -0.00018599035447736643 0.017856794749627529 0 -0.00077484544236856542 0.017795681315470359 0 -0.00062541575941399668 0.018370496504988877 0 -0.00077484544236856542 0.017795681315470359 0 -0.00062541575941399668 0.018370496504988877 0 -0.001200706499316153 0.017885408732597571 0 -0.00062541575941399668 0.018370496504988877 0 -0.00089835178870674719 0.01874992647076346 0 -0.0012580662613695781 0.018294902473240723 0 -0.00062541575941399668 0.018370496504988877 0 -0.00089835178870674719 0.01874992647076346 0 -0.00040495011349076497 0.019219008166943111 0 -0.00089835178870674719 0.01874992647076346 0 -0.00040495011349076497 0.019219008166943111 0 -0.0011465600167323651 0.019145080714563632 0 0.00022569830809448071 0.020476882846583049 0 -0.00031676137650525475 0.019318616385655137 0 -0.00062541575941399668 0.018370496504988877 0 0.00027946806603750018 0.018844743772389483 0 -0.00040495011349076497 0.019219008166943111 0 0.00039528997634034608 0.019260855202966408 0 6.9195156953613454e-05 0.020201014996868053 0 -0.00038119398366558003 0.019588648510426378 0 -0.00038119398366558003 0.019588648510426378 0 -0.00053304528893182649 0.020454784066535912 0 -0.001162762436807842 0.019788112176091308 0 -0.00031676137650525475 0.019318616385655137 0 -0.0011569118282427986 0.019780693173603859 0 -0.00040495011349076497 0.019219008166943111 0 -0.001162762436807842 0.019788112176091308 0 -0.0011465600167323651 0.019145080714563632 0 6.9195156953613454e-05 0.020201014996868053 0 -0.00038119398366558003 0.019588648510426378 0 -0.00053304528893182649 0.020454784066535912 0 -0.00053304528893182649 0.020454784066535912 0 -0.00047921065689982001 0.02132083215902281 0 -0.0013871116461566387 0.020200960007055461 0 -0.0005070611088098787 0.021232380782081919 0 -0.0011451969260319998 0.020128608700558111 0 6.9195156953613454e-05 0.020201014996868053 0 -0.00053304528893182649 0.020454784066535912 0 0.00020453914458168552 0.021105391841249977 0 6.9195156953613454e-05 0.020201014996868053 0 0.00078844875553010676 0.020406571977663695 0 0.00020453914458168552 0.021105391841249977 0 0.0011076566769604465 0.022644677426166313 0 0.0011050242887380908 0.022765591690946285 0 0.00039528997634034608 0.019260855202966408 0 6.9195156953613454e-05 0.020201014996868053 0 0.00078844875553010676 0.020406571977663695 0 0.0011468935721263894 0.024362761689264378 0 0.001201393997258291 0.024307472431681156 0 0.0011126333508343484 0.024377166854048754 0 0.00022569830809448071 0.020476882846583049 0 0.0011076566769604465 0.022644677426166313 0 0.001201393997258291 0.024307472431681156 0 0.0011126333508343484 0.024377166854048754 0 0.0011086431996166878 0.024329063899709655 0 0.0010722027304516165 0.024393786447082857 0 0.0011126333508343484 0.024377166854048754 0 0.0011086431996166878 0.024329063899709655 0 0.0010720452725004868 0.024389215053967767 0 0.0010722027304516165 0.024393786447082857 0 0.0011126333508343484 0.024377166854048754 0 0.0010338059049321757 0.024383111280890348 0 0.0010722027304516165 0.024393786447082857 0 0.0011086431996166878 0.024329063899709655 0 0.001201393997258291 0.024307472431681156 0 0.0011086431996166878 0.024329063899709655 0 0.0012574188650653585 0.024016971081351979 0 0.00095533767776101691 0.024244694419895678 0 0.0011086431996166878 0.024329063899709655 0 0.0012574188650653585 0.024016971081351979 0 0.00078844875553010676 0.020406571977663695 0 0.0010715973278151143 0.021677500704971042 0 0.00020453914458168552 0.021105391841249977 0 0.0010715973278151143 0.021677500704971042 0 0.00035080979776759466 0.022096340023162638 0 0.00020453914458168552 0.021105391841249977 0 0.00086945001258066461 0.02393310070367765 0 0.0012574188650653585 0.024016971081351979 0 0.0010634497261878518 0.023282538931455168 0 0.0011050242887380908 0.022765591690946285 0 0.0011032106727517745 0.023245200435351387 0 0.0010715973278151143 0.021677500704971042 0 0.00035080979776759466 0.022096340023162638 0 0.0010634497261878518 0.023282538931455168 0 0.00035080979776759466 0.022096340023162638 0 0.0010634497261878518 0.023282538931455168 0 0.00023400315978749667 0.0228571067096364 0 0.0010634497261878518 0.023282538931455168 0 0.00056212769983947147 0.02346254637458918 0 0.00023400315978749667 0.0228571067096364 0 8.6835192733074269e-05 0.023626898615559423 0 0.00056212769983947147 0.02346254637458918 0 0.00023400315978749667 0.0228571067096364 0 0.00073455783269785679 0.023635531614693846 0 0.0010634497261878518 0.023282538931455168 0 0.00056212769983947147 0.02346254637458918 0 0.00073455783269785679 0.023635531614693846 0 0.00080527857525045674 0.023640215941458091 0 0.0010634497261878518 0.023282538931455168 0 -0.0011035589300728804 0.022353383944634809 0 -0.0019623940085777567 0.021977140202149088 0 -8.2376803861202659e-05 0.023395432061872532 0 -0.00038137756456273523 0.022871605593840726 0 -0.00086330646258842578 0.022960140121022182 0 -0.003075032331299831 0.020974896614899801 0 -0.002917565704000312 0.02095450576007387 0 -0.0028718748398945944 0.021087650797404565 0 -9.519736422197508e-05 0.023366258529460303 0 -0.00038137756456273523 0.022871605593840726 0 0.00023400315978749667 0.0228571067096364 0 -0.00085971400993329315 0.022480685456528936 0 0.00035755177218713553 0.023238999591608609 0 -0.0011035589300728804 0.022353383944634809 0 -9.6038326082823128e-05 0.023338345616851781 0 -3.6484500810610618e-05 0.023396302021290328 0 -9.519736422197508e-05 0.023366258529460303 0 0.00023400315978749667 0.0228571067096364 0 -0.00038137756456273523 0.022871605593840726 0 0.00023400315978749667 0.0228571067096364 0 -0.0002403817849507178 0.022266123602120096 0 -0.00038137756456273523 0.022871605593840726 0 -0.00088857526243895019 0.022120467033468136 0 -0.00086330646258842578 0.022960140121022182 0 -0.00038137756456273523 0.022871605593840726 0 -0.0002403817849507178 0.022266123602120096 0 -0.00088857526243895019 0.022120467033468136 0 -0.0002403817849507178 0.022266123602120096 0 -0.00047921065689982001 0.02132083215902281 0 -0.00088857526243895019 0.022120467033468136 0 0.00035080979776759466 0.022096340023162638 0 -0.0002403817849507178 0.022266123602120096 0 -0.00047921065689982001 0.02132083215902281 0 0.00035080979776759466 0.022096340023162638 0 0.00023400315978749667 0.0228571067096364 0 -0.0002403817849507178 0.022266123602120096 0 0.00035080979776759466 0.022096340023162638 0 0.00020453914458168552 0.021105391841249977 0 -0.00047921065689982001 0.02132083215902281 0 -0.00053304528893182649 0.020454784066535912 0 0.00020453914458168552 0.021105391841249977 0 -0.00047921065689982001 0.02132083215902281 0 -0.00047921065689982001 0.02132083215902281 0 -0.0012107834699433093 0.021182773393444626 0 -0.00090128186977665432 0.020058087370070244 0 -0.0012107834699433093 0.021182773393444626 0 -0.0016093431022087248 0.020905414530631786 0 -0.0018475513962122447 0.021328947019745859 0 -0.0016093431022087248 0.020905414530631786 0 -0.0020025644260990056 0.020833798679066987 0 -0.0017937776070671499 0.020373792259714342 0 -0.0012107834699433093 0.021182773393444626 0 -0.0016093431022087248 0.020905414530631786 0 -0.0013548064591209358 0.020504127021627232 0 -0.0016093431022087248 0.020905414530631786 0 -0.0018475513962122447 0.021328947019745859 0 -0.0020025644260990056 0.020833798679066987 0 -0.0012107834699433093 0.021182773393444626 0 -0.0014158119140265995 0.021735118559331669 0 -0.0018475513962122447 0.021328947019745859 0 -0.0014158119140265995 0.021735118559331669 0 -0.0018475513962122447 0.021328947019745859 0 -0.0017163406765210399 0.022289784830591991 0 -0.0012107834699433093 0.021182773393444626 0 -0.0014158119140265995 0.021735118559331669 0 -0.00088857526243895019 0.022120467033468136 0 -0.00047921065689982001 0.02132083215902281 0 -0.0012107834699433093 0.021182773393444626 0 -0.00088857526243895019 0.022120467033468136 0 -0.00088857526243895019 0.022120467033468136 0 -0.0017163406765210399 0.022289784830591991 0 -0.00086330646258842578 0.022960140121022182 0 -0.0014158119140265995 0.021735118559331669 0 -0.00088857526243895019 0.022120467033468136 0 -0.0017163406765210399 0.022289784830591991 0 -0.0021697733030161177 0.02176742439214294 0 -0.0019623940085777567 0.021977140202149088 0 -0.0027037541953906967 0.021223609940901025 0 -0.0026768949535542711 0.021055642864033202 0 -0.0028718748398945944 0.021087650797404565 0 -0.0027037541953906967 0.021223609940901025 0 -0.0026768949535542711 0.021055642864033202 0 -0.002537042753330913 0.021127854053650249 0 -0.0027554608328920925 0.02092581947615527 0 -0.002917565704000312 0.02095450576007387 0 -0.0028718748398945944 0.021087650797404565 0 -0.0027554608328920925 0.02092581947615527 0 -0.0026768949535542711 0.021055642864033202 0 -0.0028718748398945944 0.021087650797404565 0 -0.0024016309198727219 0.020953325757947217 0 -0.0023939663241096462 0.021211567787112275 0 -0.002537042753330913 0.021127854053650249 0 -0.0025714270627959605 0.020927552944643869 0 -0.0026768949535542711 0.021055642864033202 0 -0.002537042753330913 0.021127854053650249 0 -0.0025714270627959605 0.020927552944643869 0 -0.0024016309198727219 0.020953325757947217 0 -0.002537042753330913 0.021127854053650249 0 -0.0027037541953906967 0.021223609940901025 0 -0.002537042753330913 0.021127854053650249 0 -0.0024951285177404873 0.021451451480891743 0 -0.0021697733030161177 0.02176742439214294 0 -0.0024736200070912167 0.021494398863402923 0 -0.0023939663241096462 0.021211567787112275 0 -0.002537042753330913 0.021127854053650249 0 -0.0024951285177404873 0.021451451480891743 0 -0.0024951285177404873 0.021451451480891743 0 -0.0022797540938864092 0.021154173749292262 0 -0.0026112902082817487 0.021211042254782729 0 -0.002504587225805135 0.021302175667264847 0 -0.0024951285177404873 0.021451451480891743 0 -0.0026112902082817487 0.021211042254782729 0 -0.0023939663241096462 0.021211567787112275 0 -0.002504587225805135 0.021302175667264847 0 -0.0024951285177404873 0.021451451480891743 0 -0.0018475513962122447 0.021328947019745859 0 -0.0017163406765210399 0.022289784830591991 0 -0.0024951285177404873 0.021451451480891743 0 -0.0018475513962122447 0.021328947019745859 0 -0.0024951285177404873 0.021451451480891743 0 -0.0022797540938864092 0.021154173749292262 0 -0.0018475513962122447 0.021328947019745859 0 -0.0022797540938864092 0.021154173749292262 0 -0.0020025644260990056 0.020833798679066987 0 -0.0022797540938864092 0.021154173749292262 0 -0.0023611695109078887 0.020713483895523976 0 -0.0026112902082817487 0.021211042254782729 0 -0.0022797540938864092 0.021154173749292262 0 -0.0023611695109078887 0.020713483895523976 0 -0.0020025644260990056 0.020833798679066987 0 -0.0023611695109078887 0.020713483895523976 0 -0.0020025644260990056 0.020833798679066987 0 -0.0021381665210187984 0.020388877229279068 0 -0.002504587225805135 0.021302175667264847 0 -0.0026112902082817487 0.021211042254782729 0 -0.002580566081645906 0.021257595973604815 0 -0.0023611695109078887 0.020713483895523976 0 -0.0026112902082817487 0.021211042254782729 0 -0.0027162251852683472 0.020580967137232453 0 -0.0026112902082817487 0.021211042254782729 0 -0.0031556255598764204 0.020616827580932355 0 -0.0027162251852683472 0.020580967137232453 0 -0.0024736737368304122 0.021302866449988456 0 -0.0029412225366100488 0.019810115566723775 0 -0.003458632671462836 0.020009960289835371 0 -0.0032378490897022319 0.020622780227419306 0 -0.0029121330651991194 0.020129256773742887 0 -0.0031556255598764204 0.020616827580932355 0 -0.0027162251852683472 0.020580967137232453 0 -0.0029121330651991194 0.020129256773742887 0 -0.0029412225366100488 0.019810115566723775 0 -0.0030933572207282049 0.020280939921831071 0 -0.0027162251852683472 0.020580967137232453 0 -0.0029121330651991194 0.020129256773742887 0 -0.0024332739169537661 0.020118394816738293 0 -0.0029121330651991194 0.020129256773742887 0 -0.0026983591028201482 0.019781129247782206 0 -0.0030328382263384913 0.019641690843833833 0 -0.0029121330651991194 0.020129256773742887 0 -0.0026983591028201482 0.019781129247782206 0 -0.0024332739169537661 0.020118394816738293 0 -0.0029121330651991194 0.020129256773742887 0 -0.0032669743377474426 0.019795736390569422 0 -0.0030328382263384913 0.019641690843833833 0 -0.003458632671462836 0.020009960289835371 0 -0.0029121330651991194 0.020129256773742887 0 -0.0032669743377474426 0.019795736390569422 0 -0.0035572334448411465 0.019678599359506641 0 -0.0032669743377474426 0.019795736390569422 0 -0.0033314702725054175 0.019533151364933787 0 -0.0032221942241858039 0.01918918456426941 0 -0.0030328382263384913 0.019641690843833833 0 -0.0027764303330927876 0.019363397715346547 0 -0.0033314702725054175 0.019533151364933787 0 -0.0032221942241858039 0.01918918456426941 0 -0.0030328382263384913 0.019641690843833833 0 -0.0032669743377474426 0.019795736390569422 0 -0.0033314702725054175 0.019533151364933787 0 -0.0030328382263384913 0.019641690843833833 0 -0.0035883560841150036 0.019359042987389441 0 -0.0033314702725054175 0.019533151364933787 0 -0.0032221942241858039 0.01918918456426941 0 -0.0026983591028201482 0.019781129247782206 0 -0.0027764303330927876 0.019363397715346547 0 -0.0023665940446802379 0.019556758053495996 0 -0.0026983591028201482 0.019781129247782206 0 -0.0030328382263384913 0.019641690843833833 0 -0.0027764303330927876 0.019363397715346547 0 -0.0029087542766069834 0.018873305860867672 0 -0.0024790541771774464 0.019087834670763502 0 -0.0026859107493977085 0.018641535975945069 0 -0.0027764303330927876 0.019363397715346547 0 -0.0029087542766069834 0.018873305860867672 0 -0.0024790541771774464 0.019087834670763502 0 -0.0033652384090197629 0.018810993844121989 0 -0.0029087542766069834 0.018873305860867672 0 -0.0030664415060810417 0.018493735447322301 0 -0.0032221942241858039 0.01918918456426941 0 -0.0027764303330927876 0.019363397715346547 0 -0.0029087542766069834 0.018873305860867672 0 -0.0033652384090197629 0.018810993844121989 0 -0.0032221942241858039 0.01918918456426941 0 -0.0029087542766069834 0.018873305860867672 0 -0.0018493691355491277 0.019263951845217578 0 -0.0022248192167625526 0.018852844635804254 0 -0.0016052073395862161 0.019072757619378225 0 -0.0018493691355491277 0.019263951845217578 0 -0.0022248192167625526 0.018852844635804254 0 -0.0021375562797175409 0.019374006134292049 0 -0.0022248192167625526 0.018852844635804254 0 -0.0024790541771774464 0.019087834670763502 0 -0.0021375562797175409 0.019374006134292049 0 -0.0022248192167625526 0.018852844635804254 0 -0.0024790541771774464 0.019087834670763502 0 -0.0026859107493977085 0.018641535975945069 0 -0.0027764303330927876 0.019363397715346547 0 -0.0024790541771774464 0.019087834670763502 0 -0.0023665940446802379 0.019556758053495996 0 -0.0023665940446802379 0.019556758053495996 0 -0.0021375562797175409 0.019374006134292049 0 -0.0020726069868488802 0.019889383744914731 0 -0.0024790541771774464 0.019087834670763502 0 -0.0023665940446802379 0.019556758053495996 0 -0.0021375562797175409 0.019374006134292049 0 -0.0021375562797175409 0.019374006134292049 0 -0.0018550853594319662 0.019566638796601078 0 -0.0020726069868488802 0.019889383744914731 0 -0.0018493691355491277 0.019263951845217578 0 -0.0021375562797175409 0.019374006134292049 0 -0.0018550853594319662 0.019566638796601078 0 -0.0018550853594319662 0.019566638796601078 0 -0.0020726069868488802 0.019889383744914731 0 -0.0017168530588179557 0.019925294454389147 0 -0.0020726069868488802 0.019889383744914731 0 -0.0024332739169537661 0.020118394816738293 0 -0.0021381665210187984 0.020388877229279068 0 -0.0023665940446802379 0.019556758053495996 0 -0.0020726069868488802 0.019889383744914731 0 -0.0024332739169537661 0.020118394816738293 0 -0.0026983591028201482 0.019781129247782206 0 -0.0023665940446802379 0.019556758053495996 0 -0.0024332739169537661 0.020118394816738293 0 -0.0023611695109078887 0.020713483895523976 0 -0.0024332739169537661 0.020118394816738293 0 -0.0021381665210187984 0.020388877229279068 0 -0.0023611695109078887 0.020713483895523976 0 -0.0027162251852683472 0.020580967137232453 0 -0.0024332739169537661 0.020118394816738293 0 -0.0020025644260990056 0.020833798679066987 0 -0.0021381665210187984 0.020388877229279068 0 -0.0017937776070671499 0.020373792259714342 0 -0.0020726069868488802 0.019889383744914731 0 -0.0021381665210187984 0.020388877229279068 0 -0.0017937776070671499 0.020373792259714342 0 -0.0016093431022087248 0.020905414530631786 0 -0.0017937776070671499 0.020373792259714342 0 -0.0013548064591209358 0.020504127021627232 0 -0.0017937776070671499 0.020373792259714342 0 -0.0013548064591209358 0.020504127021627232 0 -0.0015198482609371908 0.020180084204137177 0 -0.0013548064591209358 0.020504127021627232 0 -0.0015198482609371908 0.020180084204137177 0 -0.0012982177018841003 0.020164713684122142 0 -0.0015198482609371908 0.020180084204137177 0 -0.0012982177018841003 0.020164713684122142 0 -0.0014130549232025471 0.019911411492516844 0 -0.0017937776070671499 0.020373792259714342 0 -0.0015198482609371908 0.020180084204137177 0 -0.0017168530588179557 0.019925294454389147 0 -0.0020726069868488802 0.019889383744914731 0 -0.0017937776070671499 0.020373792259714342 0 -0.0017168530588179557 0.019925294454389147 0 -0.0015198482609371908 0.020180084204137177 0 -0.0014130549232025471 0.019911411492516844 0 -0.0017168530588179557 0.019925294454389147 0 -0.00053304528893182649 0.020454784066535912 0 -0.0013871116461566387 0.020200960007055461 0 -0.001162762436807842 0.019788112176091308 0 -0.0012107834699433093 0.021182773393444626 0 -0.0013548064591209358 0.020504127021627232 0 -0.00090128186977665432 0.020058087370070244 0 -0.0013548064591209358 0.020504127021627232 0 -0.0012982177018841003 0.020164713684122142 0 -0.00090128186977665432 0.020058087370070244 0 -0.0012982177018841003 0.020164713684122142 0 -0.0014130549232025471 0.019911411492516844 0 -0.00090128186977665432 0.020058087370070244 0 -0.0013871116461566387 0.020200960007055461 0 -0.0016049282506630648 0.019233265280971835 0 -0.0013248985099830913 0.019594679988753434 0 -0.0013871116461566387 0.020200960007055461 0 -0.001162762436807842 0.019788112176091308 0 -0.0013248985099830913 0.019594679988753434 0 -0.0016049282506630648 0.019233265280971835 0 -0.0013248985099830913 0.019594679988753434 0 -0.0011465600167323651 0.019145080714563632 0 -0.001162762436807842 0.019788112176091308 0 -0.0013248985099830913 0.019594679988753434 0 -0.0011465600167323651 0.019145080714563632 0 -0.0014130549232025471 0.019911411492516844 0 -0.00090128186977665432 0.020058087370070244 0 -0.001560142339642192 0.019576524397935443 0 -0.00090128186977665432 0.020058087370070244 0 -0.001560142339642192 0.019576524397935443 0 -0.0016052073395862161 0.019072757619378225 0 -0.0013871116461566387 0.020200960007055461 0 -0.0016049282506630648 0.019233265280971835 0 -0.0021555911947023438 0.018888890045203964 0 -0.00090128186977665432 0.020058087370070244 0 -0.0016052073395862161 0.019072757619378225 0 -0.0015894386682614742 0.018689392029835081 0 -0.0011451969260319998 0.020128608700558111 0 -0.0018805779306856239 0.01879069818522279 0 -0.0018493691355491277 0.019263951845217578 0 -0.0018550853594319662 0.019566638796601078 0 -0.001560142339642192 0.019576524397935443 0 -0.0018550853594319662 0.019566638796601078 0 -0.0017168530588179557 0.019925294454389147 0 -0.001560142339642192 0.019576524397935443 0 -0.0014130549232025471 0.019911411492516844 0 -0.0017168530588179557 0.019925294454389147 0 -0.001560142339642192 0.019576524397935443 0 -0.0018493691355491277 0.019263951845217578 0 -0.001560142339642192 0.019576524397935443 0 -0.0016052073395862161 0.019072757619378225 0 -0.0016052073395862161 0.019072757619378225 0 -0.0015894386682614742 0.018689392029835081 0 -0.002272837193372255 0.018301562334586803 0 -0.0016049282506630648 0.019233265280971835 0 -0.0021555911947023438 0.018888890045203964 0 -0.0017605261047674335 0.018828631399727486 0 -0.0021555911947023438 0.018888890045203964 0 -0.0017605261047674335 0.018828631399727486 0 -0.0018816729345867919 0.018581581972332829 0 -0.0017605261047674335 0.018828631399727486 0 -0.0018816729345867919 0.018581581972332829 0 -0.0016081545601156846 0.018524926351473049 0 -0.0018816729345867919 0.018581581972332829 0 -0.0016081545601156846 0.018524926351473049 0 -0.0018514390106966331 0.018275279192701374 0 -0.0018816729345867919 0.018581581972332829 0 -0.0020495495426152408 0.018422599958989847 0 -0.0018514390106966331 0.018275279192701374 0 -0.0021555911947023438 0.018888890045203964 0 -0.0020495495426152408 0.018422599958989847 0 -0.002228998505589894 0.018186646656725571 0 -0.0021555911947023438 0.018888890045203964 0 -0.0018816729345867919 0.018581581972332829 0 -0.0020495495426152408 0.018422599958989847 0 -0.0011465600167323651 0.019145080714563632 0 -0.0014751961759729684 0.018895289491792432 0 -0.0012661374251465361 0.018684602537190297 0 -0.00089835178870674719 0.01874992647076346 0 -0.0011465600167323651 0.019145080714563632 0 -0.0012661374251465361 0.018684602537190297 0 -0.0016049282506630648 0.019233265280971835 0 -0.0011465600167323651 0.019145080714563632 0 -0.0014751961759729684 0.018895289491792432 0 -0.0016049282506630648 0.019233265280971835 0 -0.0017605261047674335 0.018828631399727486 0 -0.0014751961759729684 0.018895289491792432 0 -0.0014751961759729684 0.018895289491792432 0 -0.0016081545601156846 0.018524926351473049 0 -0.0012661374251465361 0.018684602537190297 0 -0.0016081545601156846 0.018524926351473049 0 -0.0012661374251465361 0.018684602537190297 0 -0.0012580662613695781 0.018294902473240723 0 -0.0017605261047674335 0.018828631399727486 0 -0.0014751961759729684 0.018895289491792432 0 -0.0016081545601156846 0.018524926351473049 0 -0.00089835178870674719 0.01874992647076346 0 -0.0012661374251465361 0.018684602537190297 0 -0.0012580662613695781 0.018294902473240723 0 -0.00062541575941399668 0.018370496504988877 0 -0.0012580662613695781 0.018294902473240723 0 -0.001200706499316153 0.017885408732597571 0 -0.0016081545601156846 0.018524926351473049 0 -0.0012580662613695781 0.018294902473240723 0 -0.0016184274046023692 0.018201850965382665 0 -0.0012580662613695781 0.018294902473240723 0 -0.0016184274046023692 0.018201850965382665 0 -0.0015645064604900552 0.017975961903010113 0 -0.0012580662613695781 0.018294902473240723 0 -0.0015645064604900552 0.017975961903010113 0 -0.001200706499316153 0.017885408732597571 0 -0.0015645064604900552 0.017975961903010113 0 -0.0015157801760549391 0.017791769386807928 0 -0.001200706499316153 0.017885408732597571 0 -0.0015157801760549391 0.017791769386807928 0 -0.001200706499316153 0.017885408732597571 0 -0.0014424388801693717 0.017622169486155713 0 -0.0015645064604900552 0.017975961903010113 0 -0.0015157801760549391 0.017791769386807928 0 -0.001681504883501189 0.017805828441826314 0 -0.0020350350728367316 0.018140756457257393 0 -0.001908451683445072 0.018050982248325971 0 -0.0019886884143399215 0.017924452584597718 0 -0.0020350350728367316 0.018140756457257393 0 -0.0019886884143399215 0.017924452584597718 0 -0.0021363981873903908 0.017961172548680564 0 -0.0020350350728367316 0.018140756457257393 0 -0.002228998505589894 0.018186646656725571 0 -0.0021363981873903908 0.017961172548680564 0 -0.0020495495426152408 0.018422599958989847 0 -0.0020350350728367316 0.018140756457257393 0 -0.002228998505589894 0.018186646656725571 0 -0.0020495495426152408 0.018422599958989847 0 -0.0020350350728367316 0.018140756457257393 0 -0.0018514390106966331 0.018275279192701374 0 -0.0016081545601156846 0.018524926351473049 0 -0.0016184274046023692 0.018201850965382665 0 -0.0018514390106966331 0.018275279192701374 0 -0.0016184274046023692 0.018201850965382665 0 -0.0018514390106966331 0.018275279192701374 0 -0.0017592513701582516 0.018048412460176244 0 -0.0016184274046023692 0.018201850965382665 0 -0.0015645064604900552 0.017975961903010113 0 -0.0017592513701582516 0.018048412460176244 0 -0.0018514390106966331 0.018275279192701374 0 -0.0017592513701582516 0.018048412460176244 0 -0.001908451683445072 0.018050982248325971 0 -0.0020350350728367316 0.018140756457257393 0 -0.0018514390106966331 0.018275279192701374 0 -0.001908451683445072 0.018050982248325971 0 -0.001908451683445072 0.018050982248325971 0 -0.0018642676319577172 0.017908897647179824 0 -0.0019886884143399215 0.017924452584597718 0 -0.0017592513701582516 0.018048412460176244 0 -0.0018642676319577172 0.017908897647179824 0 -0.0017492720561393664 0.01789292058270088 0 -0.0017592513701582516 0.018048412460176244 0 -0.001908451683445072 0.018050982248325971 0 -0.0018642676319577172 0.017908897647179824 0 -0.0018642676319577172 0.017908897647179824 0 -0.0017492720561393664 0.01789292058270088 0 -0.0018200892276313667 0.017798839149948495 0 -0.0015645064604900552 0.017975961903010113 0 -0.0017492720561393664 0.01789292058270088 0 -0.001681504883501189 0.017805828441826314 0 -0.0015645064604900552 0.017975961903010113 0 -0.0017592513701582516 0.018048412460176244 0 -0.0017492720561393664 0.01789292058270088 0 -0.0015157801760549391 0.017791769386807928 0 -0.001681504883501189 0.017805828441826314 0 -0.001659058469180987 0.017688510016865357 0 -0.0017492720561393664 0.01789292058270088 0 -0.001681504883501189 0.017805828441826314 0 -0.0018200892276313667 0.017798839149948495 0 -0.001681504883501189 0.017805828441826314 0 -0.0018200892276313667 0.017798839149948495 0 -0.001774617235973017 0.017692154014849571 0 -0.0018642676319577172 0.017908897647179824 0 -0.0018200892276313667 0.017798839149948495 0 -0.0019361831696680484 0.017807188360855927 0 -0.0018200892276313667 0.017798839149948495 0 -0.0018840832208786129 0.017708232765787299 0 -0.001774617235973017 0.017692154014849571 0 -0.0018200892276313667 0.017798839149948495 0 -0.0018840832208786129 0.017708232765787299 0 -0.0019361831696680484 0.017807188360855927 0 -0.0018840832208786129 0.017708232765787299 0 -0.0019894013824034306 0.017729831610609134 0 -0.0019361831696680484 0.017807188360855927 0 -0.0019894013824034306 0.017729831610609134 0 -0.0021225517977878365 0.017682662115864275 0 -0.0019469567243383128 0.017643141050791008 0 -0.0019894013824034306 0.017729831610609134 0 -0.0019361831696680484 0.017807188360855927 0 -0.0020571187749849882 0.017812340621092645 0 -0.0019886884143399215 0.017924452584597718 0 -0.0021363981873903908 0.017961172548680564 0 -0.0020571187749849882 0.017812340621092645 0 -0.0018642676319577172 0.017908897647179824 0 -0.0019361831696680484 0.017807188360855927 0 -0.0019886884143399215 0.017924452584597718 0 -0.0019361831696680484 0.017807188360855927 0 -0.0019886884143399215 0.017924452584597718 0 -0.0020571187749849882 0.017812340621092645 0 -0.0021363981873903908 0.017961172548680564 0 -0.002192835220564915 0.017814183908686172 0 -0.0020571187749849882 0.017812340621092645 0 -0.002192835220564915 0.017814183908686172 0 -0.0020571187749849882 0.017812340621092645 0 -0.0021225517977878365 0.017682662115864275 0 -0.0019894013824034306 0.017729831610609134 0 -0.0020571187749849882 0.017812340621092645 0 -0.0021225517977878365 0.017682662115864275 0 -0.0023403874312236356 0.01772158234900599 0 -0.0023037405747039423 0.017898467747919755 0 -0.0026314223188546571 0.017616180333875742 0 -0.0021225517977878365 0.017682662115864275 0 -0.0023403874312236356 0.01772158234900599 0 -0.0024334206845010278 0.017577750118782428 0 -0.002192835220564915 0.017814183908686172 0 -0.0021225517977878365 0.017682662115864275 0 -0.0023403874312236356 0.01772158234900599 0 -0.0018805779306856239 0.01879069818522279 0 -0.0025854455324064653 0.017703347391419579 0 -0.0021555911947023438 0.018888890045203964 0 -0.002228998505589894 0.018186646656725571 0 -0.0026314223188546571 0.017616180333875742 0 -0.0021363981873903908 0.017961172548680564 0 -0.002192835220564915 0.017814183908686172 0 -0.0023037405747039423 0.017898467747919755 0 -0.002192835220564915 0.017814183908686172 0 -0.0023403874312236356 0.01772158234900599 0 -0.0023037405747039423 0.017898467747919755 0 -0.002228998505589894 0.018186646656725571 0 -0.0023037405747039423 0.017898467747919755 0 -0.0026314223188546571 0.017616180333875742 0 -0.002228998505589894 0.018186646656725571 0 -0.0021363981873903908 0.017961172548680564 0 -0.0023037405747039423 0.017898467747919755 0 -0.0026314223188546571 0.017616180333875742 0 -0.0027290899415832312 0.017921629363505377 0 -0.002272837193372255 0.018301562334586803 0 -0.0023403874312236356 0.01772158234900599 0 -0.0026314223188546571 0.017616180333875742 0 -0.0024334206845010278 0.017577750118782428 0 -0.0032614065122989764 0.017445448077161602 0 -0.0028629019814791728 0.016686985253632079 0 -0.0019858829490831029 0.016818268571739684 0 -0.0026314223188546571 0.017616180333875742 0 -0.0032614065122989764 0.017445448077161602 0 -0.0024334206845010278 0.017577750118782428 0 -0.0032107753193777533 0.017474951768023755 0 -0.0022256357638522875 0.017176067741828085 0 -0.0035494167375107796 0.016723342224760955 0 -0.0032614065122989764 0.017445448077161602 0 -0.0028629019814791728 0.016686985253632079 0 -0.0026314223188546571 0.017616180333875742 0 -0.0032614065122989764 0.017445448077161602 0 -0.0027290899415832312 0.017921629363505377 0 -0.0032614065122989764 0.017445448077161602 0 -0.0027290899415832312 0.017921629363505377 0 -0.0029342238905355053 0.018249385691756721 0 -0.0036438829254457836 0.018128543243277239 0 -0.0027638577104989858 0.018006785383405974 0 -0.0030664415060810417 0.018493735447322301 0 -0.0027638577104989858 0.018006785383405974 0 -0.0030664415060810417 0.018493735447322301 0 -0.0026859107493977085 0.018641535975945069 0 -0.0022248192167625526 0.018852844635804254 0 -0.0027638577104989858 0.018006785383405974 0 -0.0026859107493977085 0.018641535975945069 0 -0.0029087542766069834 0.018873305860867672 0 -0.0030664415060810417 0.018493735447322301 0 -0.0026859107493977085 0.018641535975945069 0 -0.0016620969348640447 0.019004841142182868 0 -0.0028418982259024663 0.018123656844535853 0 -0.0015894386682614742 0.018689392029835081 0 -0.0026314223188546571 0.017616180333875742 0 -0.002272837193372255 0.018301562334586803 0 -0.0016052073395862161 0.019072757619378225 0 -0.0029342238905355053 0.018249385691756721 0 -0.002272837193372255 0.018301562334586803 0 -0.0022248192167625526 0.018852844635804254 0 -0.0016052073395862161 0.019072757619378225 0 -0.0027638577104989858 0.018006785383405974 0 -0.0027290899415832312 0.017921629363505377 0 -0.0029342238905355053 0.018249385691756721 0 -0.002272837193372255 0.018301562334586803 0 -0.0020145800952022785 0.017117674450687102 0 -0.001860688722126938 0.016807016295241565 0 -0.0015850291532140558 0.016945336337445834 0 -0.001860688722126938 0.016807016295241565 0 -0.0015850291532140558 0.016945336337445834 0 -0.0016344831819388799 0.016689440875222637 0 -0.0020145800952022785 0.017117674450687102 0 -0.001860688722126938 0.016807016295241565 0 -0.0021958293063652139 0.016698529631998336 0 -0.001860688722126938 0.016807016295241565 0 -0.0021958293063652139 0.016698529631998336 0 -0.0018943898015907747 0.01659668195583126 0 -0.0034223085649110079 0.016181506768604182 0 -0.0021138798678835185 0.016477879921582957 0 -0.0029503769513785634 0.016848773139771275 0 -0.0021958293063652139 0.016698529631998336 0 -0.002548300751822408 0.01652783073719765 0 -0.0038815810034665927 0.015513446976039767 0 -0.0023254818552159756 0.015863339926661054 0 -0.0032731917157600736 0.016287817642802477 0 -0.0029503769513785634 0.016848773139771275 0 -0.0020145800952022785 0.017117674450687102 0 -0.0021958293063652139 0.016698529631998336 0 -0.0023254818552159756 0.015863339926661054 0 -0.0032731917157600736 0.016287817642802477 0 -0.0028629019814791728 0.016686985253632079 0 -0.0035494167375107796 0.016723342224760955 0 -0.0032731917157600736 0.016287817642802477 0 -0.0028629019814791728 0.016686985253632079 0 -0.0023254818552159756 0.015863339926661054 0 -0.0028629019814791728 0.016686985253632079 0 -0.0019858829490831029 0.016818268571739684 0 -0.0023254818552159756 0.015863339926661054 0 -0.0019858829490831029 0.016818268571739684 0 -0.0007513851544421105 0.016274577470979167 0 -0.0022256357638522875 0.017176067741828085 0 -0.001302833285895642 0.016957542860490997 0 -0.0021138798678835185 0.016477879921582957 0 -0.001302833285895642 0.016957542860490997 0 -0.0021225517977878365 0.017682662115864275 0 -0.0024334206845010278 0.017577750118782428 0 -0.001945742886560423 0.017554022356184949 0 -0.0024334206845010278 0.017577750118782428 0 -0.001945742886560423 0.017554022356184949 0 -0.0016958393574340658 0.017374710190819074 0 -0.001945742886560423 0.017554022356184949 0 -0.0019469567243383128 0.017643141050791008 0 -0.0018437292654547137 0.017608838770498 0 -0.0021225517977878365 0.017682662115864275 0 -0.001945742886560423 0.017554022356184949 0 -0.0019469567243383128 0.017643141050791008 0 -0.0018840832208786129 0.017708232765787299 0 -0.0019894013824034306 0.017729831610609134 0 -0.0019469567243383128 0.017643141050791008 0 -0.0018840832208786129 0.017708232765787299 0 -0.0019469567243383128 0.017643141050791008 0 -0.0018437292654547137 0.017608838770498 0 -0.0018840832208786129 0.017708232765787299 0 -0.001774617235973017 0.017692154014849571 0 -0.0018437292654547137 0.017608838770498 0 -0.0018437292654547137 0.017608838770498 0 -0.0017365667440933895 0.017597158431214836 0 -0.0017925320986370652 0.017558792398920494 0 -0.001774617235973017 0.017692154014849571 0 -0.0018437292654547137 0.017608838770498 0 -0.0017365667440933895 0.017597158431214836 0 -0.0018437292654547137 0.017608838770498 0 -0.0018451879887251899 0.017556852429814883 0 -0.0017925320986370652 0.017558792398920494 0 -0.001945742886560423 0.017554022356184949 0 -0.0018437292654547137 0.017608838770498 0 -0.0018451879887251899 0.017556852429814883 0 -0.001774617235973017 0.017692154014849571 0 -0.001659058469180987 0.017688510016865357 0 -0.0017365667440933895 0.017597158431214836 0 -0.001681504883501189 0.017805828441826314 0 -0.001774617235973017 0.017692154014849571 0 -0.001659058469180987 0.017688510016865357 0 -0.001659058469180987 0.017688510016865357 0 -0.0017365667440933895 0.017597158431214836 0 -0.0016389517071669873 0.017554170500229775 0 -0.0016389517071669873 0.017554170500229775 0 -0.0017229745760579986 0.017503453912120562 0 -0.0016958393574340658 0.017374710190819074 0 -0.0017229745760579986 0.017503453912120562 0 -0.0017980692084176523 0.01750613966016145 0 -0.0016958393574340658 0.017374710190819074 0 -0.0017365667440933895 0.017597158431214836 0 -0.0017229745760579986 0.017503453912120562 0 -0.0017925320986370652 0.017558792398920494 0 -0.0017365667440933895 0.017597158431214836 0 -0.0016389517071669873 0.017554170500229775 0 -0.0017229745760579986 0.017503453912120562 0 -0.001945742886560423 0.017554022356184949 0 -0.0018451879887251899 0.017556852429814883 0 -0.0017980692084176523 0.01750613966016145 0 -0.001945742886560423 0.017554022356184949 0 -0.0017980692084176523 0.01750613966016145 0 -0.0016958393574340658 0.017374710190819074 0 -0.0017229745760579986 0.017503453912120562 0 -0.0017925320986370652 0.017558792398920494 0 -0.0017980692084176523 0.01750613966016145 0 -0.0018451879887251899 0.017556852429814883 0 -0.0017925320986370652 0.017558792398920494 0 -0.0017980692084176523 0.01750613966016145 0 -0.001302833285895642 0.016957542860490997 0 -0.00086620608693877704 0.017182761432331269 0 -0.0016958393574340658 0.017374710190819074 0 -0.0011014345357145973 0.017546493713045067 0 -0.00087342676704947456 0.017146091972116657 0 -0.001200706499316153 0.017885408732597571 0 -0.0011014345357145973 0.017546493713045067 0 -0.0014424388801693717 0.017622169486155713 0 -0.00077484544236856542 0.017795681315470359 0 -0.001200706499316153 0.017885408732597571 0 -0.0011014345357145973 0.017546493713045067 0 -0.0016958393574340658 0.017374710190819074 0 -0.0011014345357145973 0.017546493713045067 0 -0.0014424388801693717 0.017622169486155713 0 -0.0015157801760549391 0.017791769386807928 0 -0.001659058469180987 0.017688510016865357 0 -0.0014424388801693717 0.017622169486155713 0 -0.001659058469180987 0.017688510016865357 0 -0.0016389517071669873 0.017554170500229775 0 -0.0014424388801693717 0.017622169486155713 0 -0.0016389517071669873 0.017554170500229775 0 -0.0016958393574340658 0.017374710190819074 0 -0.0014424388801693717 0.017622169486155713 0 -0.0012953943830869327 0.017322504920074745 0 -0.0011457846416740294 0.016926198755598493 0 -0.00074997287761055173 0.017125232389921297 0 -0.0011457846416740294 0.016926198755598493 0 -0.00070358330729888147 0.016739543659591946 0 -0.00074997287761055173 0.017125232389921297 0 -0.0020145800952022785 0.017117674450687102 0 -0.0012953943830869327 0.017322504920074745 0 -0.0015850291532140558 0.016945336337445834 0 -0.0012953943830869327 0.017322504920074745 0 -0.0011457846416740294 0.016926198755598493 0 -0.0015850291532140558 0.016945336337445834 0 -0.0011457846416740294 0.016926198755598493 0 -0.0015850291532140558 0.016945336337445834 0 -0.0013877768455310396 0.016726519805278822 0 -0.0015850291532140558 0.016945336337445834 0 -0.0016344831819388799 0.016689440875222637 0 -0.0013877768455310396 0.016726519805278822 0 -0.0016344831819388799 0.016689440875222637 0 -0.0013877768455310396 0.016726519805278822 0 -0.0014633264594548132 0.016479903898527243 0 -0.0013877768455310396 0.016726519805278822 0 -0.0014633264594548132 0.016479903898527243 0 -0.0011154072245208833 0.01659457715221177 0 -0.0014633264594548132 0.016479903898527243 0 -0.0011154072245208833 0.01659457715221177 0 -0.0011827475991347998 0.016212954039383772 0 -0.0016344831819388799 0.016689440875222637 0 -0.0014633264594548132 0.016479903898527243 0 -0.001769837070568551 0.016377767326218595 0 -0.0011457846416740294 0.016926198755598493 0 -0.0011154072245208833 0.01659457715221177 0 -0.00070358330729888147 0.016739543659591946 0 -0.0011457846416740294 0.016926198755598493 0 -0.0013877768455310396 0.016726519805278822 0 -0.0011154072245208833 0.01659457715221177 0 -0.0011154072245208833 0.01659457715221177 0 -0.00076351326680421344 0.016368334877008874 0 -0.00070358330729888147 0.016739543659591946 0 -0.0011154072245208833 0.01659457715221177 0 -0.0011827475991347998 0.016212954039383772 0 -0.00076351326680421344 0.016368334877008874 0 -0.0011827475991347998 0.016212954039383772 0 -0.00087927491460977213 0.016037452521782167 0 -0.001310449923307645 0.015740200026571189 0 -0.0011827475991347998 0.016212954039383772 0 -0.00087927491460977213 0.016037452521782167 0 -0.00076351326680421344 0.016368334877008874 0 -0.0011827475991347998 0.016212954039383772 0 -0.0016066874234640326 0.016113978946063798 0 -0.001310449923307645 0.015740200026571189 0 -0.0014633264594548132 0.016479903898527243 0 -0.0016066874234640326 0.016113978946063798 0 -0.001769837070568551 0.016377767326218595 0 -0.0014633264594548132 0.016479903898527243 0 -0.0011827475991347998 0.016212954039383772 0 -0.0016066874234640326 0.016113978946063798 0 -0.0016066874234640326 0.016113978946063798 0 -0.0019424816064143784 0.01614741422097591 0 -0.0019768468552936757 0.015795742728063219 0 -0.0019424816064143784 0.01614741422097591 0 -0.0022557271176388235 0.016087667050220786 0 -0.0019768468552936757 0.015795742728063219 0 -0.0019424816064143784 0.01614741422097591 0 -0.0020956663879883423 0.016356624521373472 0 -0.0022557271176388235 0.016087667050220786 0 -0.0019424816064143784 0.01614741422097591 0 -0.001769837070568551 0.016377767326218595 0 -0.0020956663879883423 0.016356624521373472 0 -0.0016066874234640326 0.016113978946063798 0 -0.0019424816064143784 0.01614741422097591 0 -0.001769837070568551 0.016377767326218595 0 -0.001769837070568551 0.016377767326218595 0 -0.0020956663879883423 0.016356624521373472 0 -0.0018943898015907747 0.01659668195583126 0 -0.0021958293063652139 0.016698529631998336 0 -0.0020956663879883423 0.016356624521373472 0 -0.0018943898015907747 0.01659668195583126 0 -0.001860688722126938 0.016807016295241565 0 -0.0016344831819388799 0.016689440875222637 0 -0.0018943898015907747 0.01659668195583126 0 -0.0016344831819388799 0.016689440875222637 0 -0.001769837070568551 0.016377767326218595 0 -0.0018943898015907747 0.01659668195583126 0 -0.0021958293063652139 0.016698529631998336 0 -0.002548300751822408 0.01652783073719765 0 -0.0024298683927869774 0.016298784331877304 0 -0.0021958293063652139 0.016698529631998336 0 -0.0020956663879883423 0.016356624521373472 0 -0.0024298683927869774 0.016298784331877304 0 -0.0025566891143054115 0.016061554284921998 0 -0.0024298683927869774 0.016298784331877304 0 -0.0022557271176388235 0.016087667050220786 0 -0.0022557271176388235 0.016087667050220786 0 -0.0024803927827631122 0.015910822369569172 0 -0.0019768468552936757 0.015795742728063219 0 -0.0020956663879883423 0.016356624521373472 0 -0.0024298683927869774 0.016298784331877304 0 -0.0022557271176388235 0.016087667050220786 0 -0.0025566891143054115 0.016061554284921998 0 -0.0022557271176388235 0.016087667050220786 0 -0.0024803927827631122 0.015910822369569172 0 -0.0026010361248597204 0.015887572935471519 0 -0.0024803927827631122 0.015910822369569172 0 -0.0019768468552936757 0.015795742728063219 0 -0.0019253568772812681 0.017336509708539616 0 -0.0015585935335906606 0.01693832481976346 0 -0.00089920629229793244 0.017152328790474094 0 -0.0023550567160515764 0.016246727563798542 0 -0.0014231801696119174 0.016511640784485741 0 -0.0015585935335906606 0.01693832481976346 0 -0.00089920629229793244 0.017152328790474094 0 -0.0011707340702071158 0.016568194683821154 0 -0.0015585935335906606 0.01693832481976346 0 -0.0017592827621721065 0.016648278554044112 0 -0.0011707340702071158 0.016568194683821154 0 -0.00089920629229793244 0.017152328790474094 0 -0.00053173763358176627 0.016603431112944461 0 -0.0011707340702071158 0.016568194683821154 0 -0.00053173763358176627 0.016603431112944461 0 -0.0011707340702071158 0.016568194683821154 0 -0.00078264960860513532 0.015954918691848733 0 -0.0011707340702071158 0.016568194683821154 0 -0.0014875336430969011 0.016007144768143158 0 -0.00078264960860513532 0.015954918691848733 0 -0.0017592827621721065 0.016648278554044112 0 -0.0011707340702071158 0.016568194683821154 0 -0.0014875336430969011 0.016007144768143158 0 -0.0021922406854707208 0.015212155110128717 0 -0.0014875336430969011 0.016007144768143158 0 -0.0012930612475309294 0.015228627188275249 0 -0.0014875336430969011 0.016007144768143158 0 -0.00078264960860513532 0.015954918691848733 0 -0.0012930612475309294 0.015228627188275249 0 -0.00078264960860513532 0.015954918691848733 0 -0.0012930612475309294 0.015228627188275249 0 -0.0001565621820344426 0.015184221914787511 0 0.00037101946592815862 0.015850652191186233 0 9.7270148470693729e-05 0.015632822136865777 0 -0.0012930612475309294 0.015228627188275249 0 -0.0001565621820344426 0.015184221914787511 0 -0.0010689975478238413 0.014413225218403885 0 -0.0012930612475309294 0.015228627188275249 0 -0.0010689975478238413 0.014413225218403885 0 -0.0018505116375893433 0.014475274544492467 0 -0.0021922406854707208 0.015212155110128717 0 -0.0012930612475309294 0.015228627188275249 0 -0.0018505116375893433 0.014475274544492467 0 0.00059377287521590605 0.016387250149289125 0 0.00081472672322022502 0.016739760041448858 0 0.00054547196726548435 0.016785877178835878 0 0.00096582388508555626 0.016517652765773723 0 0.00059377287521590605 0.016387250149289125 0 0.00081472672322022502 0.016739760041448858 0 -0.00078264960860513532 0.015954918691848733 0 -0.0001565621820344426 0.015184221914787511 0 -2.6445377862630693e-06 0.015949979731056715 0 0.00037101946592815862 0.015850652191186233 0 0.00056549061102919272 0.016132282581166085 0 -0.0001565621820344426 0.015184221914787511 0 -2.6445377862630693e-06 0.015949979731056715 0 0.00057143231772926551 0.016184529598299382 0 -0.00078264960860513532 0.015954918691848733 0 -2.6445377862630693e-06 0.015949979731056715 0 0.0003600802112867041 0.016456162449745401 0 -2.6445377862630693e-06 0.015949979731056715 0 0.00057143231772926551 0.016184529598299382 0 0.0003600802112867041 0.016456162449745401 0 0.00096582388508555626 0.016517652765773723 0 0.00057143231772926551 0.016184529598299382 0 0.00059377287521590605 0.016387250149289125 0 0.00057143231772926551 0.016184529598299382 0 0.00059377287521590605 0.016387250149289125 0 0.00053725326048129182 0.016358870925053923 0 0.00057143231772926551 0.016184529598299382 0 0.00055721884894049652 0.016338738518474435 0 0.00053725326048129182 0.016358870925053923 0 0.00057143231772926551 0.016184529598299382 0 0.0003600802112867041 0.016456162449745401 0 0.00055721884894049652 0.016338738518474435 0 0.00027680005795597976 0.01646249979595088 0 0.00025657754238149786 0.016349754899494112 0 0.0003600802112867041 0.016456162449745401 0 0.00054898625493387252 0.016371809832113702 0 0.00055721884894049652 0.016338738518474435 0 -0.0007657792872113637 0.015963602082405808 0 0.00027680005795597976 0.01646249979595088 0 -0.00053173763358176627 0.016603431112944461 0 4.9020982762143727e-05 0.016408513367845247 0 1.7920850545752537e-05 0.016957382576419266 0 -0.00053173763358176627 0.016603431112944461 0 -0.00078264960860513532 0.015954918691848733 0 4.9020982762143727e-05 0.016408513367845247 0 -0.0014231801696119174 0.016511640784485741 0 -0.00068485364867635723 0.016339790336104033 0 -0.0016066874234640326 0.016113978946063798 0 -0.0019768468552936757 0.015795742728063219 0 -0.001310449923307645 0.015740200026571189 0 -0.00089920629229793244 0.017152328790474094 0 -0.00053173763358176627 0.016603431112944461 0 1.7920850545752537e-05 0.016957382576419266 0 4.9020982762143727e-05 0.016408513367845247 0 1.7920850545752537e-05 0.016957382576419266 0 0.00085643618184525567 0.016807161474884768 0 -0.00087927491460977213 0.016037452521782167 0 -0.001310449923307645 0.015740200026571189 0 -0.00064989182143276706 0.01568404963304601 0 -0.00068485364867635723 0.016339790336104033 0 0.00025657754238149786 0.016349754899494112 0 -0.00064989182143276706 0.01568404963304601 0 -0.00021545352917272381 0.015941294363648308 0 -0.00055194862010907728 0.0160989043405751 0 0.00025657754238149786 0.016349754899494112 0 4.6845479319758863e-06 0.016089778828604254 0 -0.00087927491460977213 0.016037452521782167 0 -0.00064989182143276706 0.01568404963304601 0 -0.00055194862010907728 0.0160989043405751 0 4.6845479319758863e-06 0.016089778828604254 0 0.00025538070099760457 0.016257222690430534 0 0.00042108369146805224 0.016318116907098088 0 0.00039185340181862791 0.016303488355817339 0 0.00038646103070404228 0.01634177401988569 0 0.00039185340181862791 0.016303488355817339 0 0.00038646103070404228 0.01634177401988569 0 0.000302928259734917 0.01630552945681037 0 0.00025657754238149786 0.016349754899494112 0 0.00048090838109801805 0.016336876201233148 0 0.00054898625493387252 0.016371809832113702 0 0.00038646103070404228 0.01634177401988569 0 0.00048474962965266917 0.016378217170944169 0 0.00038646103070404228 0.01634177401988569 0 0.00048474962965266917 0.016378217170944169 0 0.00040094065792654963 0.016436878080586297 0 0.00054898625493387252 0.016371809832113702 0 0.00048474962965266917 0.016378217170944169 0 0.00055721884894049652 0.016338738518474435 0 0.00048474962965266917 0.016378217170944169 0 0.00055721884894049652 0.016338738518474435 0 0.00048713447048606977 0.016419741494257758 0 0.00055721884894049652 0.016338738518474435 0 0.00053725326048129182 0.016358870925053923 0 0.00048713447048606977 0.016419741494257758 0 0.00053725326048129182 0.016358870925053923 0 0.00048713447048606977 0.016419741494257758 0 0.0004979765995736465 0.016570271608411451 0 0.00048474962965266917 0.016378217170944169 0 0.00048713447048606977 0.016419741494257758 0 0.00040094065792654963 0.016436878080586297 0 0.00048713447048606977 0.016419741494257758 0 0.00039484458244639563 0.016562221831351285 0 0.00040094065792654963 0.016436878080586297 0 0.0004979765995736465 0.016570271608411451 0 0.00039484458244639563 0.016562221831351285 0 0.00037331585580711705 0.016755171895988991 0 0.00048713447048606977 0.016419741494257758 0 0.0004979765995736465 0.016570271608411451 0 0.00039484458244639563 0.016562221831351285 0 0.00059377287521590605 0.016387250149289125 0 0.00053725326048129182 0.016358870925053923 0 0.0004979765995736465 0.016570271608411451 0 0.00059377287521590605 0.016387250149289125 0 0.00020517033408802863 0.016640839883307973 0 0.00054547196726548435 0.016785877178835878 0 0.00057764580566989517 0.016412945428685467 0 0.00036053604563153453 0.016593524806274729 0 0.00039484458244639563 0.016562221831351285 0 0.00028768925527470967 0.016513777458663149 0 0.00021234890325465652 0.016713100358172597 0 0.00039484458244639563 0.016562221831351285 0 0.00037331585580711705 0.016755171895988991 0 0.00021234890325465652 0.016713100358172597 0 0.00039484458244639563 0.016562221831351285 0 0.00040094065792654963 0.016436878080586297 0 0.00028768925527470967 0.016513777458663149 0 0.00040094065792654963 0.016436878080586297 0 0.00028768925527470967 0.016513777458663149 0 0.00033607804412281555 0.016388471033755774 0 0.00028768925527470967 0.016513777458663149 0 0.00027942853814768675 0.016420282842995307 0 0.00020202805616140654 0.016495921112033615 0 0.00028768925527470967 0.016513777458663149 0 0.00027942853814768675 0.016420282842995307 0 0.00033607804412281555 0.016388471033755774 0 0.00027942853814768675 0.016420282842995307 0 0.00033607804412281555 0.016388471033755774 0 0.00032760985206293179 0.016347828434746067 0 0.00038646103070404228 0.01634177401988569 0 0.00040094065792654963 0.016436878080586297 0 0.00033607804412281555 0.016388471033755774 0 0.00039185340181862791 0.016303488355817339 0 0.000302928259734917 0.01630552945681037 0 0.00024286636655009312 0.016276816434186724 0 0.00038646103070404228 0.01634177401988569 0 0.00033607804412281555 0.016388471033755774 0 0.000302928259734917 0.01630552945681037 0 0.00033607804412281555 0.016388471033755774 0 0.000302928259734917 0.01630552945681037 0 0.00032760985206293179 0.016347828434746067 0 0.00032760985206293179 0.016347828434746067 0 0.00045330310199801741 0.016315944519370594 0 0.00030391827280432771 0.016373098703347105 0 0.000302928259734917 0.01630552945681037 0 0.00032760985206293179 0.016347828434746067 0 0.00045330310199801741 0.016315944519370594 0 0.00027942853814768675 0.016420282842995307 0 0.00032760985206293179 0.016347828434746067 0 0.00030391827280432771 0.016373098703347105 0 0.00045330310199801741 0.016315944519370594 0 0.00064641650644044625 0.016669488166384364 0 0.00077141629804720316 0.016474124569266183 0 0.00045330310199801741 0.016315944519370594 0 0.00064641650644044625 0.016669488166384364 0 0.00031095747927150974 0.016752631175466864 0 0.00064641650644044625 0.016669488166384364 0 0.00031095747927150974 0.016752631175466864 0 0.00069879459025295207 0.017044443043403919 0 0.00045330310199801741 0.016315944519370594 0 0.00012301586352713399 0.016531537861757314 0 0.00031095747927150974 0.016752631175466864 0 0.00012301586352713399 0.016531537861757314 0 0.00031095747927150974 0.016752631175466864 0 -0.00021334625891848743 0.016951585588387982 0 0.000302928259734917 0.01630552945681037 0 0.00045330310199801741 0.016315944519370594 0 0.00024286636655009312 0.016276816434186724 0 0.00045330310199801741 0.016315944519370594 0 0.00012301586352713399 0.016531537861757314 0 0.00024286636655009312 0.016276816434186724 0 0.00012301586352713399 0.016531537861757314 0 0.00024286636655009312 0.016276816434186724 0 -0.00024908535825397734 0.01645749630700832 0 -0.00021545352917272381 0.015941294363648308 0 -0.00024908535825397734 0.01645749630700832 0 -0.00055194862010907728 0.0160989043405751 0 -0.00021545352917272381 0.015941294363648308 0 0.00024286636655009312 0.016276816434186724 0 -0.00024908535825397734 0.01645749630700832 0 -0.00024908535825397734 0.01645749630700832 0 -0.00055194862010907728 0.0160989043405751 0 -0.00076351326680421344 0.016368334877008874 0 -0.00087927491460977213 0.016037452521782167 0 -0.00055194862010907728 0.0160989043405751 0 -0.00076351326680421344 0.016368334877008874 0 -0.00024908535825397734 0.01645749630700832 0 -0.00076351326680421344 0.016368334877008874 0 -0.00070358330729888147 0.016739543659591946 0 0.00012301586352713399 0.016531537861757314 0 -0.00024908535825397734 0.01645749630700832 0 -0.00021334625891848743 0.016951585588387982 0 -0.00024908535825397734 0.01645749630700832 0 -0.00070358330729888147 0.016739543659591946 0 -0.00021334625891848743 0.016951585588387982 0 -0.00021334625891848743 0.016951585588387982 0 -0.00087342676704947456 0.017146091972116657 0 3.5923538230449238e-05 0.017406983010029776 0 -0.00023682913257563816 0.016941165162710169 0 -0.00086620608693877704 0.017182761432331269 0 -0.00070358330729888147 0.016739543659591946 0 -0.00021334625891848743 0.016951585588387982 0 -0.00074997287761055173 0.017125232389921297 0 -0.00077484544236856542 0.017795681315470359 0 -0.0011014345357145973 0.017546493713045067 0 -0.00087342676704947456 0.017146091972116657 0 -0.00018599035447736643 0.017856794749627529 0 -0.00077484544236856542 0.017795681315470359 0 -0.00087342676704947456 0.017146091972116657 0 -0.00018599035447736643 0.017856794749627529 0 -0.00087342676704947456 0.017146091972116657 0 3.5923538230449238e-05 0.017406983010029776 0 0.00024941118490805225 0.017825540420801044 0 -0.00018599035447736643 0.017856794749627529 0 3.5923538230449238e-05 0.017406983010029776 0 0.00024941118490805225 0.017825540420801044 0 3.5923538230449238e-05 0.017406983010029776 0 0.00043355433318862784 0.017371560002807727 0 0.00024941118490805225 0.017825540420801044 0 0.00074868863861417766 0.017672831986931772 0 0.00043355433318862784 0.017371560002807727 0 0.00074868863861417766 0.017672831986931772 0 0.00043355433318862784 0.017371560002807727 0 0.00069879459025295207 0.017044443043403919 0 0.00031095747927150974 0.016752631175466864 0 0.00043355433318862784 0.017371560002807727 0 0.00069879459025295207 0.017044443043403919 0 0.00031095747927150974 0.016752631175466864 0 -0.00021334625891848743 0.016951585588387982 0 3.5923538230449238e-05 0.017406983010029776 0 0.00031095747927150974 0.016752631175466864 0 3.5923538230449238e-05 0.017406983010029776 0 0.00043355433318862784 0.017371560002807727 0 0.00042199996118369985 0.021309625350942354 0 0.0010208592398914353 0.021652056217963785 0 0.0011284362353661951 0.020370633886973938 0 0.00074868863861417766 0.017672831986931772 0 0.00069879459025295207 0.017044443043403919 0 0.0011322010410157427 0.017289012811627417 0 0.00072813926458965058 0.01909561244202735 0 0.00070922113547442595 0.018508512399337779 0 0.00069879459025295207 0.017044443043403919 0 0.0011322010410157427 0.017289012811627417 0 0.001042045935392658 0.016742312095716309 0 0.0011916509207838609 0.017856637344020258 0 0.00074868863861417766 0.017672831986931772 0 0.0011322010410157427 0.017289012811627417 0 0.0013712961211996329 0.021136096199466749 0 0.00072813926458965058 0.01909561244202735 0 0.00051463004229642642 0.022415920671968497 0 0.00042199996118369985 0.021309625350942354 0 0.0010208592398914353 0.021652056217963785 0 0.0011756498189616767 0.022396870646703228 0 0.00051463004229642642 0.022415920671968497 0 0.0010208592398914353 0.021652056217963785 0 0.0011756498189616767 0.022396870646703228 0 0.0010208592398914353 0.021652056217963785 0 0.0017862191910630553 0.021710833706868653 0 0.0010551700833427529 0.022987747479660432 0 0.00062896875917515778 0.023506218822670916 0 0.00062725612320192704 0.024340339433551631 0 0.00062896875917515778 0.023506218822670916 0 0.00033286152383475275 0.024498329678277784 0 0.00033158762471380005 0.024523134914489212 0 0.00031567027876614015 0.024528144448870536 0 0.00033158762471380005 0.024523134914489212 0 0.00029588051237783541 0.024539038031892391 0 0.00031567027876614015 0.024528144448870536 0 0.00062896875917515778 0.023506218822670916 0 0.0001188163229523689 0.02470004726445069 0 0.00062896875917515778 0.023506218822670916 0 0.00071476642398380264 0.022782781970039065 0 9.8811909853174573e-05 0.02456481788622026 0 0.00018848754037680747 0.02447963164146056 0 9.1779844834566064e-06 0.024417142445643303 0 0.0010208592398914353 0.021652056217963785 0 0.0017862191910630553 0.021710833706868653 0 0.0011284362353661951 0.020370633886973938 0 0.00018848754037680747 0.02447963164146056 0 0.00012658907778376413 0.024387265327954682 0 9.1779844834566064e-06 0.024417142445643303 0 0.00012658907778376413 0.024387265327954682 0 4.5458162075310472e-05 0.024315225523524914 0 9.1779844834566064e-06 0.024417142445643303 0 0.00018848754037680747 0.02447963164146056 0 0.00012658907778376413 0.024387265327954682 0 0.00019763802281332293 0.024405180374553987 0 0.00019763802281332293 0.024405180374553987 0 0.0001420819239381731 0.02431357670485022 0 0.00020993072540767809 0.024306863195826978 0 0.00012658907778376413 0.024387265327954682 0 0.00019763802281332293 0.024405180374553987 0 0.0001420819239381731 0.02431357670485022 0 0.0001420819239381731 0.02431357670485022 0 9.7875823779889145e-05 0.024234221725672488 0 0.00015313686862807456 0.024234166470598117 0 0.0001420819239381731 0.02431357670485022 0 0.00020993072540767809 0.024306863195826978 0 0.00015313686862807456 0.024234166470598117 0 4.5458162075310472e-05 0.024315225523524914 0 9.7875823779889145e-05 0.024234221725672488 0 -0.00011676584940419554 0.02417884999283812 0 0.00012658907778376413 0.024387265327954682 0 0.0001420819239381731 0.02431357670485022 0 4.5458162075310472e-05 0.024315225523524914 0 0.0001420819239381731 0.02431357670485022 0 4.5458162075310472e-05 0.024315225523524914 0 9.7875823779889145e-05 0.024234221725672488 0 4.5458162075310472e-05 0.024315225523524914 0 9.1779844834566064e-06 0.024417142445643303 0 -0.00011676584940419554 0.02417884999283812 0 0.00071476642398380264 0.022782781970039065 0 -8.6638016478829429e-05 0.019365794046353774 0 0.00042199996118369985 0.021309625350942354 0 0.0011284362353661951 0.020370633886973938 0 0.00032717802496990729 0.020195485349013033 0 0.0011284362353661951 0.020370633886973938 0 0.00032717802496990729 0.020195485349013033 0 0.00044803393026214897 0.018993741966578319 0 0.00064641650644044625 0.016669488166384364 0 0.00069879459025295207 0.017044443043403919 0 0.001042045935392658 0.016742312095716309 0 0.00064641650644044625 0.016669488166384364 0 0.001042045935392658 0.016742312095716309 0 0.00077141629804720316 0.016474124569266183 0 0.00066578310028201336 0.016197392274690962 0 0.00036117402164194629 0.01762466820051627 0 0.00032717802496990729 0.020195485349013033 0 0.00023580203200058314 0.019057538719973427 0 0.00044803393026214897 0.018993741966578319 0 0.00070922113547442595 0.018508512399337779 0 0.00036117402164194629 0.01762466820051627 0 0.00045330310199801741 0.016315944519370594 0 0.00077141629804720316 0.016474124569266183 0 0.000984658443620305 0.016157748577957383 0 0.001042045935392658 0.016742312095716309 0 0.00077141629804720316 0.016474124569266183 0 0.000984658443620305 0.016157748577957383 0 0.00036117402164194629 0.01762466820051627 0 -8.6638016478829429e-05 0.019365794046353774 0 -8.6638016478829429e-05 0.019365794046353774 0 -5.9221364102235139e-05 0.015477766382738014 0 0.00045330310199801741 0.016315944519370594 0 0.00023779229879365208 0.016325310974158212 0 0.00030391827280432771 0.016373098703347105 0 0.00023012056493871611 0.016368167779623261 0 0.00022634302476293224 0.016346681496280491 0 0.0002118513602938523 0.016433884742958264 0 0.00023779229879365208 0.016325310974158212 0 0.00023012056493871611 0.016368167779623261 0 0.00030391827280432771 0.016373098703347105 0 0.00023472670678369344 0.016348684187414884 0 0.00023012056493871611 0.016368167779623261 0 0.00022634302476293224 0.016346681496280491 0 0.00036117402164194629 0.01762466820051627 0 0.00027224167605578161 0.016607228626293415 0 0.00023012056493871611 0.016368167779623261 0 0.00030391827280432771 0.016373098703347105 0 0.0002118513602938523 0.016433884742958264 0 0.00012717627747109111 0.016386536248883331 0 8.5540912019244344e-05 0.016456876326316695 0 9.9788943748939963e-06 0.016441521442448054 0 0.00012717627747109111 0.016386536248883331 0 8.5540912019244344e-05 0.016456876326316695 0 0.0002118513602938523 0.016433884742958264 0 -8.6638016478829429e-05 0.019365794046353774 0 0.00032821127912590302 0.020835061610858088 0 8.5540912019244344e-05 0.016456876326316695 0 0.00011396740625647823 0.016512313305158212 0 0.0002118513602938523 0.016433884742958264 0 8.5540912019244344e-05 0.016456876326316695 0 0.00011396740625647823 0.016512313305158212 0 1.4791084745987212e-06 0.016553214903516446 0 0.00027942853814768675 0.016420282842995307 0 0.00030391827280432771 0.016373098703347105 0 0.0002118513602938523 0.016433884742958264 0 0.00011396740625647823 0.016512313305158212 0 0.0002118513602938523 0.016433884742958264 0 0.00020202805616140654 0.016495921112033615 0 0.00027942853814768675 0.016420282842995307 0 0.0002118513602938523 0.016433884742958264 0 0.00020202805616140654 0.016495921112033615 0 0.00028768925527470967 0.016513777458663149 0 0.00012352419386962857 0.016604663230146421 0 0.00020202805616140654 0.016495921112033615 0 0.00011396740625647823 0.016512313305158212 0 0.00012352419386962857 0.016604663230146421 0 0.00020202805616140654 0.016495921112033615 0 0.00011396740625647823 0.016512313305158212 0 0.00012352419386962857 0.016604663230146421 0 1.4791084745987212e-06 0.016553214903516446 0 0.00012352419386962857 0.016604663230146421 0 9.8471061073473183e-05 0.016726208853195 0 -3.6379320732914957e-05 0.016751431468136381 0 0.00012352419386962857 0.016604663230146421 0 1.4791084745987212e-06 0.016553214903516446 0 -3.6379320732914957e-05 0.016751431468136381 0 0.00012352419386962857 0.016604663230146421 0 9.8471061073473183e-05 0.016726208853195 0 0.00021234890325465652 0.016713100358172597 0 0.00028768925527470967 0.016513777458663149 0 0.00012352419386962857 0.016604663230146421 0 0.00021234890325465652 0.016713100358172597 0 0.0015478161786618815 0.018561355391569487 0 0.0011196815075509528 0.019269997091817658 0 0.001907866776130969 0.019519145427262147 0 0.0015478161786618815 0.018561355391569487 0 0.00072247164467557988 0.018682374403480324 0 0.0011196815075509528 0.019269997091817658 0 0.00014596287697872992 0.022324787488554012 0 0.00024593241646740757 0.023671660047602825 0 9.3894281732199506e-05 0.017637607525701125 0 3.9509923369877681e-05 0.017648862713705232 0 0.00072247164467557988 0.018682374403480324 0 0.00027610045420811582 0.01966491336654878 0 7.1525033515819261e-05 0.018311812355231331 0 0.00072247164467557988 0.018682374403480324 0 0.00027610045420811582 0.01966491336654878 0 0.0011196815075509528 0.019269997091817658 0 0.0011196815075509528 0.019269997091817658 0 0.0012983301394303081 0.019977900927459151 0 0.001907866776130969 0.019519145427262147 0 0.00027610045420811582 0.01966491336654878 0 0.0011196815075509528 0.019269997091817658 0 0.0012983301394303081 0.019977900927459151 0 0.0012983301394303081 0.019977900927459151 0 0.00051606925535251915 0.021011665953579187 0 0.0013937698770118722 0.020746590858057239 0 0.00027610045420811582 0.01966491336654878 0 0.0012983301394303081 0.019977900927459151 0 0.00051606925535251915 0.021011665953579187 0 8.5540912019244344e-05 0.016456876326316695 0 1.4791084745987212e-06 0.016553214903516446 0 9.9788943748939963e-06 0.016441521442448054 0 9.3894281732199506e-05 0.017637607525701125 0 0.00032821127912590302 0.020835061610858088 0 9.7875823779889145e-05 0.024234221725672488 0 -0.00011676584940419554 0.02417884999283812 0 8.6468062940254448e-05 0.024143594007360054 0 9.7875823779889145e-05 0.024234221725672488 0 9.0817824614644276e-05 0.024192234658080559 0 0.00015313686862807456 0.024234166470598117 0 0.00051727545903785047 0.024062283805600243 0 0.00032821127912590302 0.020835061610858088 0 0.00020993072540767809 0.024306863195826978 0 0.00019559330102973839 0.024174153189893011 0 0.00015313686862807456 0.024234166470598117 0 0.00032821127912590302 0.020835061610858088 0 0.0008120461597955716 0.022488232696254076 0 9.0817824614644276e-05 0.024192234658080559 0 0.00019559330102973839 0.024174153189893011 0 0.00015313686862807456 0.024234166470598117 0 0.00019559330102973839 0.024174153189893011 0 0.00028828258671256281 0.024274345088567777 0 0.00033922009912093856 0.024130210664507653 0 0.00020993072540767809 0.024306863195826978 0 0.00019559330102973839 0.024174153189893011 0 0.00028828258671256281 0.024274345088567777 0 0.00028828258671256281 0.024274345088567777 0 0.00033922009912093856 0.024130210664507653 0 0.00038799345259058144 0.024359310741633868 0 0.00053955549120822703 0.025237412872468574 0 0.00034926933955416959 0.025142104830861496 0 0.00045194947304120418 0.024992661283114274 0 0.0009672479347295511 0.023215505007726414 0 0.00040476350452323671 0.02496205125897305 0 0.0009672479347295511 0.023215505007726414 0 0.00022002690217624109 0.0245696961073491 0 0.00050716828804477619 0.023370864155069934 0 0.00054812153281444777 0.022782209296907174 0 0.00098005993417916884 0.023231674264415563 0 0.00053955549120822703 0.025237412872468574 0 0.0003321044818211186 0.025310059264811037 0 0.00034926933955416959 0.025142104830861496 0 0.0009672479347295511 0.023215505007726414 0 0.0010631943745929141 0.0206713689569448 0 0.0012983301394303081 0.019977900927459151 0 0.0013937698770118722 0.020746590858057239 0 0.0022643559349220695 0.020488481491331607 0 0.0012983301394303081 0.019977900927459151 0 0.0022643559349220695 0.020488481491331607 0 0.001907866776130969 0.019519145427262147 0 0.0008120461597955716 0.022488232696254076 0 0.0009672479347295511 0.023215505007726414 0 0.00050716828804477619 0.023370864155069934 0 0.00030846119124195527 0.022851835806010377 0 0.00054812153281444777 0.022782209296907174 0 0.00026995428412630374 0.024014732216627862 0 0.00022002690217624109 0.0245696961073491 0 -4.0599414011327637e-05 0.025019284522667825 0 -3.3029750290696506e-07 0.024970689307114387 0 -1.4873801435149039e-05 0.025015281372211953 0 -4.0599414011327637e-05 0.025019284522667825 0 -2.4770580248607472e-05 0.024906132070815663 0 -3.3029750290696506e-07 0.024970689307114387 0 -4.0599414011327637e-05 0.025019284522667825 0 -2.4770580248607472e-05 0.024906132070815663 0 -6.5079759368926346e-05 0.024825482015341148 0 0.00010774938267820153 0.022334468111864687 0 0.00030846119124195527 0.022851835806010377 0 0.00054812153281444777 0.022782209296907174 0 -0.00048805138718799703 0.024824633908009115 0 -4.0599414011327637e-05 0.025019284522667825 0 -6.5079759368926346e-05 0.024825482015341148 0 0.00014596287697872992 0.022324787488554012 0 0.00026995428412630374 0.024014732216627862 0 0.00014596287697872992 0.022324787488554012 0 0.0010631943745929141 0.0206713689569448 0 -3.3029750290696506e-07 0.024970689307114387 0 3.2881959405258142e-08 0.02500000724491008 0 -1.799716583408098e-09 0.024999922532225532 0 -3.3029750290696506e-07 0.024970689307114387 0 -1.799716583408098e-09 0.024999922532225532 0 -3.0169500995127607e-06 0.024970576826991189 0 -2.4770580248607472e-05 0.024906132070815663 0 -3.3029750290696506e-07 0.024970689307114387 0 -1.946566386917547e-05 0.024936376726965394 0 -3.3029750290696506e-07 0.024970689307114387 0 3.2881959405258142e-08 0.02500000724491008 0 -1.4873801435149039e-05 0.025015281372211953 0 1.6192987162155665e-09 0.025000002136588671 0 5.8467991547368786e-06 0.02499736197000953 0 2.4617532480555786e-06 0.024998755998489271 0 -5.3071424356101211e-07 0.025000408189989238 0 0.00022002690217624109 0.0245696961073491 0 1.6192987162155665e-09 0.025000002136588671 0 2.0545234606802491e-09 0.024999997076118687 0 2.4617532480555786e-06 0.024998755998489271 0 0.00022002690217624109 0.0245696961073491 0 0.00011698874330124672 0.025144673164475051 0 0.00034926933955416959 0.025142104830861496 0 0.00016135926751322183 0.025162889713965284 0 0.00024994492827444271 0.024960384602791021 0 0.0003321044818211186 0.025310059264811037 0 0.00034926933955416959 0.025142104830861496 0 0.00016135926751322183 0.025162889713965284 0 0.00016135926751322183 0.025162889713965284 0 7.8370393440651767e-08 0.025000477848111925 0 0.00010168945546971841 0.024981434277938655 0 2.0545234606802491e-09 0.024999997076118687 0 2.4617532480555786e-06 0.024998755998489271 0 -1.5287632157494089e-10 0.024999999787840437 0 0.00011698874330124672 0.025144673164475051 0 -3.0200033436452784e-08 0.024999964311373211 0 0.00010168945546971841 0.024981434277938655 0 -3.087424399201332e-08 0.024999281987814669 0 0.00016647310140718798 0.024775673607718561 0 0.00016135926751322183 0.025162889713965284 0 0.00010168945546971841 0.024981434277938655 0 0.00024994492827444271 0.024960384602791021 0 0.00010168945546971841 0.024981434277938655 0 0.00016647310140718798 0.024775673607718561 0 0.00024994492827444271 0.024960384602791021 0 7.8370393440651767e-08 0.025000477848111925 0 0.00010168945546971841 0.024981434277938655 0 -3.087424399201332e-08 0.024999281987814669 0 1.4852096908989082e-08 0.024999953281642305 0 7.2977888554227229e-05 0.024790167549281313 0 -3.087424399201332e-08 0.024999281987814669 0 0.00016647310140718798 0.024775673607718561 0 0.00014343870714380113 0.024566936417852705 0 0.00016647310140718798 0.024775673607718561 0 0.00034416742061804591 0.024635465517008261 0 0.00024994492827444271 0.024960384602791021 0 0.00016647310140718798 0.024775673607718561 0 0.00034416742061804591 0.024635465517008261 0 0.00014343870714380113 0.024566936417852705 0 0.00034926933955416959 0.025142104830861496 0 0.00024994492827444271 0.024960384602791021 0 0.00045194947304120418 0.024992661283114274 0 0.00034416742061804591 0.024635465517008261 0 0.00024994492827444271 0.024960384602791021 0 0.00045194947304120418 0.024992661283114274 0 0.00020993072540767809 0.024306863195826978 0 0.00028828258671256281 0.024274345088567777 0 0.00028777974699763085 0.024458388218598449 0 0.00028828258671256281 0.024274345088567777 0 0.00038799345259058144 0.024359310741633868 0 0.00028777974699763085 0.024458388218598449 0 0.00019763802281332293 0.024405180374553987 0 0.00020993072540767809 0.024306863195826978 0 0.00028777974699763085 0.024458388218598449 0 0.0001188163229523689 0.02470004726445069 0 0.00034619211954271822 0.024383146792020711 0 0.00018848754037680747 0.02447963164146056 0 0.00019763802281332293 0.024405180374553987 0 0.00028777974699763085 0.024458388218598449 0 0.00029588051237783541 0.024539038031892391 0 0.00028777974699763085 0.024458388218598449 0 0.00031723475613874331 0.024563626979106187 0 0.00033543550756744476 0.024513317895299241 0 0.00040476350452323671 0.02496205125897305 0 0.00034416742061804591 0.024635465517008261 0 0.00038799345259058144 0.024359310741633868 0 0.00028777974699763085 0.024458388218598449 0 0.00034416742061804591 0.024635465517008261 0 0.00028777974699763085 0.024458388218598449 0 0.00031723475613874331 0.024563626979106187 0 0.00034416742061804591 0.024635465517008261 0 0.00031723475613874331 0.024563626979106187 0 0.00027656746445818098 0.024544176337913167 0 0.00029588051237783541 0.024539038031892391 0 0.00031723475613874331 0.024563626979106187 0 0.00031567027876614015 0.024528144448870536 0 0.00031723475613874331 0.024563626979106187 0 0.00031567027876614015 0.024528144448870536 0 0.00029423531854566668 0.02451867804208965 0 0.00031723475613874331 0.024563626979106187 0 0.00029423531854566668 0.02451867804208965 0 0.00027656746445818098 0.024544176337913167 0 0.00023665354707778837 0.024489869069533415 0 0.00027656746445818098 0.024544176337913167 0 0.00014343870714380113 0.024566936417852705 0 0.00023665354707778837 0.024489869069533415 0 0.00029423531854566668 0.02451867804208965 0 0.00027656746445818098 0.024544176337913167 0 5.8003537372512806e-06 0.025001142312547318 0 -7.627766904364493e-10 0.024999998981081847 0 6.8471417977001707e-07 0.024999556853341674 0 0.00011691505178278363 0.024745014147449836 0 7.2977888554227229e-05 0.024790167549281313 0 1.1024034552535711e-08 0.025000002265392413 0 5.8003537372512806e-06 0.025001142312547318 0 -7.627766904364493e-10 0.024999998981081847 0 5.1390901531960573e-10 0.024999999654904542 0 -7.627766904364493e-10 0.024999998981081847 0 6.8471417977001707e-07 0.024999556853341674 0 0.00034416742061804591 0.024635465517008261 0 0.00027656746445818098 0.024544176337913167 0 0.00014343870714380113 0.024566936417852705 0 -2.9405398280441497e-07 0.024969645861193632 0 9.8249482234644852e-07 0.024938497630966706 0 -1.2148698564585043e-05 0.024960597216454532 0 -2.9405398280441497e-07 0.024969645861193632 0 -1.2148698564585043e-05 0.024960597216454532 0 -6.2649555829163196e-06 0.024973344151035123 0 -2.9405398280441497e-07 0.024969645861193632 0 -4.3010683804277966e-07 0.024984291802283669 0 -6.2649555829163196e-06 0.024973344151035123 0 -4.3010683804277966e-07 0.024984291802283669 0 2.7268626640803414e-08 0.024999931204629292 0 -7.1616640908667476e-09 0.024999960459645514 0 -2.9405398280441497e-07 0.024969645861193632 0 -4.3010683804277966e-07 0.024984291802283669 0 2.7268626640803414e-08 0.024999931204629292 0 -2.9405398280441497e-07 0.024969645861193632 0 2.7268626640803414e-08 0.024999931204629292 0 9.8249482234644852e-07 0.024938497630966706 0 2.7268626640803414e-08 0.024999931204629292 0 9.8249482234644852e-07 0.024938497630966706 0 1.9230766933858157e-05 0.024901128205142287 0 9.8249482234644852e-07 0.024938497630966706 0 -2.6299751153592238e-05 0.024934874718665564 0 -2.0051301959640253e-05 0.024884720576006124 0 -2.6299751153592238e-05 0.024934874718665564 0 -8.5685452060561921e-05 0.02490602270459517 0 -2.0051301959640253e-05 0.024884720576006124 0 -2.6299751153592238e-05 0.024934874718665564 0 -8.5685452060561921e-05 0.02490602270459517 0 -2.8396477530451505e-05 0.024953341780430242 0 -0.0003495604498585649 0.022341409235747834 0 -0.00028349737693006898 0.022259712985384636 0 -0.00063847621556953533 0.019680265536764999 0 -0.00044970132027254893 0.019921002176146032 0 -0.00065601940092448337 0.019874446004831986 0 -2.6299751153592238e-05 0.024934874718665564 0 -2.8396477530451505e-05 0.024953341780430242 0 -1.2148698564585043e-05 0.024960597216454532 0 9.8249482234644852e-07 0.024938497630966706 0 -2.6299751153592238e-05 0.024934874718665564 0 -1.2148698564585043e-05 0.024960597216454532 0 -2.8396477530451505e-05 0.024953341780430242 0 -1.2148698564585043e-05 0.024960597216454532 0 -1.2721860386330738e-05 0.024960810530832444 0 -0.00028349737693006898 0.022259712985384636 0 -6.8297367176050862e-05 0.02342955125241172 0 -2.8396477530451505e-05 0.024953341780430242 0 -9.4212538486046852e-06 0.024947953486953636 0 -1.2721860386330738e-05 0.024960810530832444 0 -0.00044970132027254893 0.019921002176146032 0 -0.00050875751508889741 0.020190437514949495 0 -0.00029093348549481904 0.020249655402368356 0 -0.00044970132027254893 0.019921002176146032 0 -0.00059234031889809251 0.020034798088960266 0 -0.00065601940092448337 0.019874446004831986 0 -0.00044970132027254893 0.019921002176146032 0 -0.00059234031889809251 0.020034798088960266 0 -0.00050875751508889741 0.020190437514949495 0 -0.00050875751508889741 0.020190437514949495 0 -0.00029093348549481904 0.020249655402368356 0 -0.0005980728421363156 0.020386400037128258 0 -0.00050875751508889741 0.020190437514949495 0 -0.00060245919203214611 0.020258208011643429 0 -0.0005980728421363156 0.020386400037128258 0 -6.8297367176050862e-05 0.02342955125241172 0 -0.00049521421936736803 0.020895994885491646 0 -0.00059234031889809251 0.020034798088960266 0 -0.00050875751508889741 0.020190437514949495 0 -0.00065334856871408211 0.020153794443342133 0 -0.00050875751508889741 0.020190437514949495 0 -0.00060245919203214611 0.020258208011643429 0 -0.00065334856871408211 0.020153794443342133 0 -9.9372075550032901e-05 0.022808179549633087 0 -9.2438289232628907e-05 0.022823641530884318 0 -0.00031237005176519529 0.022905453349788843 0 -6.8297367176050862e-05 0.02342955125241172 0 -0.00020584117590844627 0.025244625421398572 0 -4.6566592464327961e-06 0.024983985224872458 0 -4.7511970249510822e-06 0.024985037098807818 0 -2.9822569636198126e-06 0.024988451766194901 0 -6.8297367176050862e-05 0.02342955125241172 0 -6.9337806952999085e-06 0.023905996194388515 0 -6.8297367176050862e-05 0.02342955125241172 0 -9.2416072825999182e-05 0.025425857490816391 0 -1.4535884398805763e-05 0.024949280444682278 0 -1.2721860386330738e-05 0.024960810530832444 0 -2.1156436702960163e-06 0.024989555933407525 0 -4.6566592464327961e-06 0.024983985224872458 0 -2.9822569636198126e-06 0.024988451766194901 0 -2.1156436702960163e-06 0.024989555933407525 0 -2.9822569636198126e-06 0.024988451766194901 0 -2.1156436702960163e-06 0.024989555933407525 0 -1.616777606881443e-06 0.024993415707985928 0 -2.9822569636198126e-06 0.024988451766194901 0 -1.616777606881443e-06 0.024993415707985928 0 -1.3409091227883596e-06 0.024994900794118011 0 -1.2148698564585043e-05 0.024960597216454532 0 -1.2721860386330738e-05 0.024960810530832444 0 -6.2649555829163196e-06 0.024973344151035123 0 -1.2721860386330738e-05 0.024960810530832444 0 -6.2649555829163196e-06 0.024973344151035123 0 -2.1156436702960163e-06 0.024989555933407525 0 -4.3010683804277966e-07 0.024984291802283669 0 -7.1616640908667476e-09 0.024999960459645514 0 -2.1156436702960163e-06 0.024989555933407525 0 -4.3010683804277966e-07 0.024984291802283669 0 -6.2649555829163196e-06 0.024973344151035123 0 -2.1156436702960163e-06 0.024989555933407525 0 -7.1616640908667476e-09 0.024999960459645514 0 -2.1156436702960163e-06 0.024989555933407525 0 -4.0304906562919632e-10 0.024999996363022352 0 -2.1156436702960163e-06 0.024989555933407525 0 -1.616777606881443e-06 0.024993415707985928 0 -4.0304906562919632e-10 0.024999996363022352 0 -1.616777606881443e-06 0.024993415707985928 0 -4.0304906562919632e-10 0.024999996363022352 0 -1.3409091227883596e-06 0.024994900794118011 0 -4.0304906562919632e-10 0.024999996363022352 0 -1.3409091227883596e-06 0.024994900794118011 0 -3.2500918964941999e-06 0.024994245638540274 0 -6.9337806952999085e-06 0.023905996194388515 0 2.653731365194833e-05 0.025061429119805075 0 -2.9822569636198126e-06 0.024988451766194901 0 -1.3409091227883596e-06 0.024994900794118011 0 3.1877008808478169e-08 0.024994679440668015 0 -4.7511970249510822e-06 0.024985037098807818 0 -2.9822569636198126e-06 0.024988451766194901 0 3.1877008808478169e-08 0.024994679440668015 0 -1.3409091227883596e-06 0.024994900794118011 0 3.1877008808478169e-08 0.024994679440668015 0 -3.2500918964941999e-06 0.024994245638540274 0 3.1877008808478169e-08 0.024994679440668015 0 -4.5665084568984991e-06 0.024988141356179522 0 -6.2947509199846891e-06 0.02497552506908135 0 -2.9840026043072896e-05 0.024816072439185721 0 -1.47251570112375e-05 0.024965097214725718 0 -6.2947509199846891e-06 0.02497552506908135 0 2.653731365194833e-05 0.025061429119805075 0 -2.7285771399939067e-05 0.024908454021641917 0 -2.9840026043072896e-05 0.024816072439185721 0 -1.47251570112375e-05 0.024965097214725718 0 -0.00016213985396370547 0.024864864726269094 0 1.735608875369086e-05 0.02502246015987844 0 7.2357777597821459e-05 0.023950752108418558 0 3.1877008808478169e-08 0.024994679440668015 0 -3.2500918964941999e-06 0.024994245638540274 0 -4.5665084568984991e-06 0.024988141356179522 0 -4.0304906562919632e-10 0.024999996363022352 0 -3.2500918964941999e-06 0.024994245638540274 0 -9.659931124476815e-10 0.024999960294518994 0 -4.5665084568984991e-06 0.024988141356179522 0 -1.6172134384589656e-06 0.024988084110779133 0 -6.2947509199846891e-06 0.02497552506908135 0 -4.5665084568984991e-06 0.024988141356179522 0 -9.659931124476815e-10 0.024999960294518994 0 -1.6172134384589656e-06 0.024988084110779133 0 -3.2500918964941999e-06 0.024994245638540274 0 -4.5665084568984991e-06 0.024988141356179522 0 -9.659931124476815e-10 0.024999960294518994 0 -1.3522762106667977e-05 0.024916046008576678 0 3.5378927991284647e-06 0.024990439188218003 0 -1.075639268412981e-05 0.02495136462572968 0 1.735608875369086e-05 0.02502246015987844 0 -1.7146037084258277e-05 0.02496028560152521 0 -1.47251570112375e-05 0.024965097214725718 0 3.5378927991284647e-06 0.024990439188218003 0 -6.2947509199846891e-06 0.02497552506908135 0 -9.659931124476815e-10 0.024999960294518994 0 3.5378927991284647e-06 0.024990439188218003 0 -1.6172134384589656e-06 0.024988084110779133 0 -9.659931124476815e-10 0.024999960294518994 0 3.5378927991284647e-06 0.024990439188218003 0 -1.799716583408098e-09 0.024999922532225532 0 3.5378927991284647e-06 0.024990439188218003 0 -1.075639268412981e-05 0.02495136462572968 0 -3.0169500995127607e-06 0.024970576826991189 0 3.5378927991284647e-06 0.024990439188218003 0 -1.6172134384589656e-06 0.024988084110779133 0 -6.2947509199846891e-06 0.02497552506908135 0 -1.3522762106667977e-05 0.024916046008576678 0 -2.2467837981773219e-05 0.024927085471205777 0 -1.075639268412981e-05 0.02495136462572968 0 -1.3522762106667977e-05 0.024916046008576678 0 -2.2467837981773219e-05 0.024927085471205777 0 -2.6734752963755614e-05 0.024911920970520311 0 -2.2467837981773219e-05 0.024927085471205777 0 -1.075639268412981e-05 0.02495136462572968 0 -1.946566386917547e-05 0.024936376726965394 0 -1.075639268412981e-05 0.02495136462572968 0 -1.946566386917547e-05 0.024936376726965394 0 -3.0169500995127607e-06 0.024970576826991189 0 -3.3029750290696506e-07 0.024970689307114387 0 -1.946566386917547e-05 0.024936376726965394 0 -3.0169500995127607e-06 0.024970576826991189 0 3.5378927991284647e-06 0.024990439188218003 0 -1.799716583408098e-09 0.024999922532225532 0 -3.0169500995127607e-06 0.024970576826991189 0 -6.5079759368926346e-05 0.024825482015341148 0 -0.00035594837596405012 0.024365036818661291 0 0.00027746233307378911 0.023790148513249988 0 -0.00035594837596405012 0.024365036818661291 0 -0.00054738475983499987 0.023781604881490528 0 -0.00057778270790802093 0.024226761387079285 0 -0.00048805138718799703 0.024824633908009115 0 -6.5079759368926346e-05 0.024825482015341148 0 -0.00035594837596405012 0.024365036818661291 0 -0.00048805138718799703 0.024824633908009115 0 -0.00035594837596405012 0.024365036818661291 0 -0.00063598611628991038 0.0246000118085083 0 -0.00035594837596405012 0.024365036818661291 0 -0.00063598611628991038 0.0246000118085083 0 -0.00057778270790802093 0.024226761387079285 0 -4.0878089714936649e-05 0.02480294159936083 0 0.00012826511136721717 0.024318970691401827 0 -2.4770580248607472e-05 0.024906132070815663 0 -1.946566386917547e-05 0.024936376726965394 0 -3.4242748973692902e-05 0.024909825556381493 0 -2.4770580248607472e-05 0.024906132070815663 0 -6.5079759368926346e-05 0.024825482015341148 0 -3.4242748973692902e-05 0.024909825556381493 0 -3.4242748973692902e-05 0.024909825556381493 0 -2.6734752963755614e-05 0.024911920970520311 0 -3.2073216014287711e-05 0.024894249825186308 0 -2.2467837981773219e-05 0.024927085471205777 0 -1.946566386917547e-05 0.024936376726965394 0 -3.4242748973692902e-05 0.024909825556381493 0 -2.2467837981773219e-05 0.024927085471205777 0 -3.4242748973692902e-05 0.024909825556381493 0 -2.6734752963755614e-05 0.024911920970520311 0 0.00027746233307378911 0.023790148513249988 0 -0.00054738475983499987 0.023781604881490528 0 -0.00034705628956135676 0.02316390528643866 0 -0.00035594837596405012 0.024365036818661291 0 0.00027746233307378911 0.023790148513249988 0 -0.00054738475983499987 0.023781604881490528 0 -0.00034705628956135676 0.02316390528643866 0 -0.00030474597216334693 0.022577920929320483 0 0.00050419459077319742 0.022742533478912461 0 -0.00034705628956135676 0.02316390528643866 0 -0.00030474597216334693 0.022577920929320483 0 -0.00072858469098483999 0.022685262029780419 0 -1.3522762106667977e-05 0.024916046008576678 0 -2.6734752963755614e-05 0.024911920970520311 0 -3.2073216014287711e-05 0.024894249825186308 0 0.00012826511136721717 0.024318970691401827 0 7.2357777597821459e-05 0.023950752108418558 0 0.00027746233307378911 0.023790148513249988 0 -0.00034705628956135676 0.02316390528643866 0 0.00050419459077319742 0.022742533478912461 0 -0.00011562122238465683 0.024608495645317054 0 -2.9840026043072896e-05 0.024816072439185721 0 -0.00016213985396370547 0.024864864726269094 0 -9.2438289232628907e-05 0.022823641530884318 0 -0.00013537367506399114 0.023033443690025249 0 -0.00031237005176519529 0.022905453349788843 0 -6.9337806952999085e-06 0.023905996194388515 0 7.2357777597821459e-05 0.023950752108418558 0 7.2357777597821459e-05 0.023950752108418558 0 -0.00049521421936736803 0.020895994885491646 0 -0.00030474597216334693 0.022577920929320483 0 0.00050419459077319742 0.022742533478912461 0 -0.00043157753302305418 0.022116157095786817 0 -0.00030474597216334693 0.022577920929320483 0 -0.00052772297693651888 0.022167744887165164 0 -0.00072858469098483999 0.022685262029780419 0 -0.00030474597216334693 0.022577920929320483 0 -0.00052772297693651888 0.022167744887165164 0 -0.00043157753302305418 0.022116157095786817 0 -0.00060245919203214611 0.020258208011643429 0 -0.0005980728421363156 0.020386400037128258 0 -0.00065810933266376517 0.020345219994067611 0 -0.00085407887767053204 0.020556174994867497 0 -0.00059238572464720743 0.020417830401691744 0 -0.0011787441325653029 0.020033733537748767 0 -0.00049521421936736803 0.020895994885491646 0 -0.0012821205101360281 0.019442176143811322 0 -0.00071488689117965099 0.020302548247333657 0 -0.00049521421936736803 0.020895994885491646 0 -0.0017962212284564183 0.01813174329761149 0 -0.0017541971003283566 0.018195986679005249 0 -0.0016038555893849878 0.01815510721300664 0 -0.00071488689117965099 0.020302548247333657 0 -0.0016838107629102428 0.020447450611745056 0 -0.00052772297693651888 0.022167744887165164 0 -0.0014042754140926224 0.022627714383996789 0 -0.00072858469098483999 0.022685262029780419 0 -0.0017962212284564183 0.01813174329761149 0 -0.0016038555893849878 0.01815510721300664 0 -0.0014811256391284321 0.017945603513042616 0 -0.00071488689117965099 0.020302548247333657 0 -0.0012821205101360281 0.019442176143811322 0 -0.0017541971003283566 0.018195986679005249 0 -0.0016038555893849878 0.01815510721300664 0 -0.0015770727489104375 0.018308288633662729 0 -0.0016038555893849878 0.01815510721300664 0 -0.0014039726003119812 0.018196883666213755 0 -0.0015770727489104375 0.018308288633662729 0 -0.0016038555893849878 0.01815510721300664 0 -0.0014039726003119812 0.018196883666213755 0 -0.0014811256391284321 0.017945603513042616 0 -0.0014039726003119812 0.018196883666213755 0 -0.0014811256391284321 0.017945603513042616 0 -0.0011894001858143652 0.018051976312305949 0 -0.0016838107629102428 0.020447450611745056 0 -0.0010565583728181953 0.019207338450789823 0 -0.0014811256391284321 0.017945603513042616 0 -0.001159724908278473 0.017768794283356912 0 -0.0011894001858143652 0.018051976312305949 0 -0.0014042754140926224 0.022627714383996789 0 -0.0015313589739785055 0.023235669017493462 0 -0.0022779400920119649 0.023066292858153092 0 -0.0014042754140926224 0.022627714383996789 0 -0.0015313589739785055 0.023235669017493462 0 -0.0010114808236045324 0.023290095205454865 0 -0.0014042754140926224 0.022627714383996789 0 -0.00072858469098483999 0.022685262029780419 0 -0.0010114808236045324 0.023290095205454865 0 -0.00034705628956135676 0.02316390528643866 0 -0.00072858469098483999 0.022685262029780419 0 -0.0010114808236045324 0.023290095205454865 0 -0.00054738475983499987 0.023781604881490528 0 -0.0014324463643392469 0.023962149165833495 0 -0.00057778270790802093 0.024226761387079285 0 -0.00054738475983499987 0.023781604881490528 0 -0.0010114808236045324 0.023290095205454865 0 -0.0014324463643392469 0.023962149165833495 0 -0.00054738475983499987 0.023781604881490528 0 -0.00034705628956135676 0.02316390528643866 0 -0.0010114808236045324 0.023290095205454865 0 0.00066990799241368343 0.017655250311545977 0 7.1525033515819261e-05 0.018311812355231331 0 -1.9217376931406727e-05 0.017080610048415011 0 0.00066990799241368343 0.017655250311545977 0 -1.9217376931406727e-05 0.017080610048415011 0 -4.7345413887920337e-05 0.016986603876999552 0 -0.0015313589739785055 0.023235669017493462 0 -0.0014324463643392469 0.023962149165833495 0 -0.0022779400920119649 0.023066292858153092 0 -0.0015313589739785055 0.023235669017493462 0 -0.0010114808236045324 0.023290095205454865 0 -0.0014324463643392469 0.023962149165833495 0 -0.00032713034526271416 0.020856481344896226 0 -0.0010565583728181953 0.019207338450789823 0 0.00072247164467557988 0.018682374403480324 0 0.00066990799241368343 0.017655250311545977 0 7.1525033515819261e-05 0.018311812355231331 0 -0.000538530175297916 0.024839057775901396 0 -0.0014324463643392469 0.023962149165833495 0 -0.00063598611628991038 0.0246000118085083 0 0.0015478161786618815 0.018561355391569487 0 0.00072247164467557988 0.018682374403480324 0 0.00066990799241368343 0.017655250311545977 0 -0.0014324463643392469 0.023962149165833495 0 -0.00063598611628991038 0.0246000118085083 0 -0.00057778270790802093 0.024226761387079285 0 0.00014596287697872992 0.022324787488554012 0 -0.00032713034526271416 0.020856481344896226 0 8.8097793300151407e-05 0.016843135894010805 0 0.00018022112847559507 0.016955597620611804 0 0.00021234890325465652 0.016713100358172597 0 9.8471061073473183e-05 0.016726208853195 0 8.8097793300151407e-05 0.016843135894010805 0 0.00021234890325465652 0.016713100358172597 0 8.8097793300151407e-05 0.016843135894010805 0 -3.6379320732914957e-05 0.016751431468136381 0 -1.9217376931406727e-05 0.017080610048415011 0 3.9509923369877681e-05 0.017648862713705232 0 -3.0159248461817673e-05 0.017061955319662248 0 9.8471061073473183e-05 0.016726208853195 0 8.8097793300151407e-05 0.016843135894010805 0 -3.6379320732914957e-05 0.016751431468136381 0 -1.9217376931406727e-05 0.017080610048415011 0 0.00018022112847559507 0.016955597620611804 0 -4.7345413887920337e-05 0.016986603876999552 0 8.8097793300151407e-05 0.016843135894010805 0 -1.9217376931406727e-05 0.017080610048415011 0 0.00018022112847559507 0.016955597620611804 0 -0.00014507373781339245 0.016770370588158869 0 -0.0010565583728181953 0.019207338450789823 0 -0.00078037256130627608 0.017201698291869353 0 -0.0010540744878386325 0.017774114107084706 0 -0.001324832975968451 0.017505660810229633 0 -0.00078037256130627608 0.017201698291869353 0 -0.0010540744878386325 0.017774114107084706 0 -0.00069310682624297462 0.017699985591314547 0 -0.00096328960726858219 0.017943862179496006 0 -0.001159724908278473 0.017768794283356912 0 -0.0011894001858143652 0.018051976312305949 0 -0.0011562026752931665 0.017716163532852144 0 -0.0010565583728181953 0.019207338450789823 0 -0.0014039726003119812 0.018196883666213755 0 -0.0011894001858143652 0.018051976312305949 0 -0.0011508667216342725 0.018329630540999575 0 -0.0011894001858143652 0.018051976312305949 0 -0.00098203522992616689 0.018143281043770294 0 -0.0011508667216342725 0.018329630540999575 0 -0.00096328960726858219 0.017943862179496006 0 -0.0011894001858143652 0.018051976312305949 0 -0.00098203522992616689 0.018143281043770294 0 -0.0011562026752931665 0.017716163532852144 0 -0.00073857959037087518 0.018106636389048601 0 -0.0010540744878386325 0.017774114107084706 0 -0.00075694954273795953 0.018076118200359242 0 -0.00069310682624297462 0.017699985591314547 0 -0.00096328960726858219 0.017943862179496006 0 -0.00098203522992616689 0.018143281043770294 0 -0.00075694954273795953 0.018076118200359242 0 -0.00098203522992616689 0.018143281043770294 0 -0.00084295141546427538 0.018351090200238687 0 -0.0011508667216342725 0.018329630540999575 0 -0.00084295141546427538 0.018351090200238687 0 -0.00093111419921039962 0.018669892110814941 0 -0.0011508667216342725 0.018329630540999575 0 -0.00098203522992616689 0.018143281043770294 0 -0.00075694954273795953 0.018076118200359242 0 -0.00084295141546427538 0.018351090200238687 0 -0.00093111419921039962 0.018669892110814941 0 -0.00071975189711696386 0.018866332370809067 0 -0.00056691811557707278 0.018590866517970282 0 -0.00084295141546427538 0.018351090200238687 0 -0.00093111419921039962 0.018669892110814941 0 -0.00056691811557707278 0.018590866517970282 0 -0.00093111419921039962 0.018669892110814941 0 -0.0012444447955868381 0.018641656181717901 0 -0.0011508667216342725 0.018329630540999575 0 -0.00093111419921039962 0.018669892110814941 0 -0.0012444447955868381 0.018641656181717901 0 -0.0012956365250571303 0.019004729833312316 0 -0.0012444447955868381 0.018641656181717901 0 -0.0011508667216342725 0.018329630540999575 0 -0.0013878432358052353 0.018403429947494172 0 -0.0014039726003119812 0.018196883666213755 0 -0.0011508667216342725 0.018329630540999575 0 -0.0013878432358052353 0.018403429947494172 0 -0.0014039726003119812 0.018196883666213755 0 -0.0013878432358052353 0.018403429947494172 0 -0.0015770727489104375 0.018308288633662729 0 -0.0013878432358052353 0.018403429947494172 0 -0.0015770727489104375 0.018308288633662729 0 -0.0015416504234749646 0.018561979786804631 0 -0.0012821205101360281 0.019442176143811322 0 -0.0011685545167449012 0.019278497014228128 0 -0.00065810933266376517 0.020345219994067611 0 -0.00065334856871408211 0.020153794443342133 0 -0.00080880117655313707 0.020045971238923186 0 -0.0017424764442996131 0.018195979351344514 0 -0.0015770727489104375 0.018308288633662729 0 -0.0015416504234749646 0.018561979786804631 0 -0.00060245919203214611 0.020258208011643429 0 -0.00065810933266376517 0.020345219994067611 0 -0.00065334856871408211 0.020153794443342133 0 -0.0012821205101360281 0.019442176143811322 0 -0.0019018047815955528 0.018279765642722472 0 -0.00059234031889809251 0.020034798088960266 0 -0.00065334856871408211 0.020153794443342133 0 -0.00067764654198659911 0.020027010936245298 0 -0.00065334856871408211 0.020153794443342133 0 -0.00067764654198659911 0.020027010936245298 0 -0.00080880117655313707 0.020045971238923186 0 -0.00059234031889809251 0.020034798088960266 0 -0.00067764654198659911 0.020027010936245298 0 -0.00065601940092448337 0.019874446004831986 0 -0.00067764654198659911 0.020027010936245298 0 -0.00080880117655313707 0.020045971238923186 0 -0.00065601940092448337 0.019874446004831986 0 -0.0012444447955868381 0.018641656181717901 0 -0.0013878432358052353 0.018403429947494172 0 -0.0015416504234749646 0.018561979786804631 0 -0.0012444447955868381 0.018641656181717901 0 -0.0015416504234749646 0.018561979786804631 0 -0.0012956365250571303 0.019004729833312316 0 -0.0011685545167449012 0.019278497014228128 0 -0.0010898701403839607 0.019384258890940812 0 -0.00080880117655313707 0.020045971238923186 0 -0.00091472245737920436 0.019753550579132625 0 -0.00076955614523006703 0.019796190587142857 0 -0.00091472245737920436 0.019753550579132625 0 -0.00076955614523006703 0.019796190587142857 0 -0.00081177860646710676 0.019644382163736925 0 -0.00080880117655313707 0.020045971238923186 0 -0.00065601940092448337 0.019874446004831986 0 -0.00076955614523006703 0.019796190587142857 0 -0.00065601940092448337 0.019874446004831986 0 -0.00076955614523006703 0.019796190587142857 0 -0.00068925392379380536 0.019689275036621167 0 -0.00063847621556953533 0.019680265536764999 0 -0.00065601940092448337 0.019874446004831986 0 -0.00068925392379380536 0.019689275036621167 0 -0.00076955614523006703 0.019796190587142857 0 -0.00068925392379380536 0.019689275036621167 0 -0.00081177860646710676 0.019644382163736925 0 -0.00068925392379380536 0.019689275036621167 0 -0.00081177860646710676 0.019644382163736925 0 -0.00083370833232581851 0.019525462765302204 0 -0.00063847621556953533 0.019680265536764999 0 -0.00068925392379380536 0.019689275036621167 0 -0.00069856564926612638 0.019728038433247348 0 -0.00091472245737920436 0.019753550579132625 0 -0.00081177860646710676 0.019644382163736925 0 -0.00085660786978578485 0.019544715221699083 0 -0.00081177860646710676 0.019644382163736925 0 -0.00085660786978578485 0.019544715221699083 0 -0.00083370833232581851 0.019525462765302204 0 -0.00091472245737920436 0.019753550579132625 0 -0.00085660786978578485 0.019544715221699083 0 -0.00091302565606979553 0.019444008335006608 0 -0.0012956365250571303 0.019004729833312316 0 -0.0009352360344406246 0.019111073938323848 0 -0.00091302565606979553 0.019444008335006608 0 -0.0010898701403839607 0.019384258890940812 0 -0.00093876919772894714 0.019450144398361693 0 -0.0009352360344406246 0.019111073938323848 0 -0.0008545830317761825 0.019423685269993888 0 -0.00091302565606979553 0.019444008335006608 0 -0.0009352360344406246 0.019111073938323848 0 -0.00044875322233149564 0.019089972462152192 0 -0.0008545830317761825 0.019423685269993888 0 -0.00071975189711696386 0.018866332370809067 0 -0.0009352360344406246 0.019111073938323848 0 -0.00044875322233149564 0.019089972462152192 0 -0.00093111419921039962 0.018669892110814941 0 -0.00071975189711696386 0.018866332370809067 0 -0.0009352360344406246 0.019111073938323848 0 -0.00093111419921039962 0.018669892110814941 0 -0.0012956365250571303 0.019004729833312316 0 -0.0009352360344406246 0.019111073938323848 0 -0.00021662421270721784 0.018821198058558253 0 0.00023909141514253274 0.018391894316324896 0 -0.00044875322233149564 0.019089972462152192 0 -4.5630353784750643e-05 0.018750704951872952 0 -0.00027035871665032714 0.018534106180817057 0 0.00046062790601518249 0.018464987706151282 0 2.0732977435481461e-05 0.018547396674239155 0 0.00048541301686260855 0.018087335631034037 0 -0.00071975189711696386 0.018866332370809067 0 -0.00044875322233149564 0.019089972462152192 0 -0.00056691811557707278 0.018590866517970282 0 2.0732977435481461e-05 0.018547396674239155 0 0.00030809924161899369 0.018867890349994323 0 -5.3678230759012115e-05 0.018957943523582228 0 -0.00021662421270721784 0.018821198058558253 0 -0.00061750813199895691 0.019196816365876047 0 2.0732977435481461e-05 0.018547396674239155 0 -5.3678230759012115e-05 0.018957943523582228 0 -0.00039915184969796584 0.018973659478578098 0 0.00046062790601518249 0.018464987706151282 0 0.00030809924161899369 0.018867890349994323 0 0.00060412946990217849 0.018645427648814276 0 0.00046062790601518249 0.018464987706151282 0 2.0732977435481461e-05 0.018547396674239155 0 0.00030809924161899369 0.018867890349994323 0 0.00030809924161899369 0.018867890349994323 0 0.00060412946990217849 0.018645427648814276 0 0.00064117580149690705 0.018916005545215071 0 0.00060412946990217849 0.018645427648814276 0 0.00092262560563199046 0.018676396209124736 0 0.00064117580149690705 0.018916005545215071 0 0.00060412946990217849 0.018645427648814276 0 0.00092262560563199046 0.018676396209124736 0 0.00080208787311332995 0.0184792084690511 0 0.00046062790601518249 0.018464987706151282 0 0.00060412946990217849 0.018645427648814276 0 0.00080208787311332995 0.0184792084690511 0 0.00092262560563199046 0.018676396209124736 0 0.0013401432287170098 0.018402013422697382 0 0.0012782249219038748 0.018815639268329024 0 0.00092262560563199046 0.018676396209124736 0 0.00080208787311332995 0.0184792084690511 0 0.0013401432287170098 0.018402013422697382 0 0.00092262560563199046 0.018676396209124736 0 0.0012782249219038748 0.018815639268329024 0 0.00097084748909828525 0.01893823563072175 0 0.00092262560563199046 0.018676396209124736 0 0.00097084748909828525 0.01893823563072175 0 0.00064117580149690705 0.018916005545215071 0 0.00093741449583464084 0.018797686435249875 0 0.0010491741104721591 0.016354206470200021 0 0.00067780323265767648 0.018213766360704337 0 0.0011667564198381162 0.017988317948539924 0 0.0014289279952107822 0.018376046578839737 0 0.00080208787311332995 0.0184792084690511 0 0.00067780323265767648 0.018213766360704337 0 0.0013401432287170098 0.018402013422697382 0 0.00046062790601518249 0.018464987706151282 0 0.00080208787311332995 0.0184792084690511 0 0.00067780323265767648 0.018213766360704337 0 0.00046062790601518249 0.018464987706151282 0 0.00067780323265767648 0.018213766360704337 0 0.00048541301686260855 0.018087335631034037 0 0.00067780323265767648 0.018213766360704337 0 0.00048541301686260855 0.018087335631034037 0 0.0010338593548821773 0.017592994720548746 0 -4.5630353784750643e-05 0.018750704951872952 0 0.0003791921046424389 0.018388809901786242 0 2.928303970656799e-05 0.018360606376992283 0 0.00023909141514253274 0.018391894316324896 0 0.00066328543309785066 0.018140785758193844 0 0.0011667564198381162 0.017988317948539924 0 0.0010338593548821773 0.017592994720548746 0 0.0015233472234475961 0.017760713275198774 0 0.00067780323265767648 0.018213766360704337 0 0.0011667564198381162 0.017988317948539924 0 0.0010338593548821773 0.017592994720548746 0 0.0003791921046424389 0.018388809901786242 0 0.00023538943803091313 0.017974030090793552 0 0.00080893961663736243 0.018012292247015539 0 2.928303970656799e-05 0.018360606376992283 0 -0.00017017031337420636 0.018152888094902859 0 0.00023538943803091313 0.017974030090793552 0 0.0003791921046424389 0.018388809901786242 0 2.928303970656799e-05 0.018360606376992283 0 0.00023538943803091313 0.017974030090793552 0 2.928303970656799e-05 0.018360606376992283 0 -0.00017017031337420636 0.018152888094902859 0 -0.00027035871665032714 0.018534106180817057 0 -0.00017017031337420636 0.018152888094902859 0 -0.00027035871665032714 0.018534106180817057 0 -0.00052717660782282362 0.018277319400419982 0 -0.00017017031337420636 0.018152888094902859 0 -0.00052717660782282362 0.018277319400419982 0 -0.00043290004699041791 0.017961989494735476 0 -4.5630353784750643e-05 0.018750704951872952 0 2.928303970656799e-05 0.018360606376992283 0 -0.00027035871665032714 0.018534106180817057 0 -0.00044875322233149564 0.019089972462152192 0 -0.00027035871665032714 0.018534106180817057 0 -0.00056691811557707278 0.018590866517970282 0 -0.00027035871665032714 0.018534106180817057 0 -0.00056691811557707278 0.018590866517970282 0 -0.00052717660782282362 0.018277319400419982 0 -0.00084295141546427538 0.018351090200238687 0 -0.00056691811557707278 0.018590866517970282 0 -0.00052717660782282362 0.018277319400419982 0 -0.00075694954273795953 0.018076118200359242 0 -0.00084295141546427538 0.018351090200238687 0 -0.00052717660782282362 0.018277319400419982 0 -0.00075694954273795953 0.018076118200359242 0 -0.00052717660782282362 0.018277319400419982 0 -0.00043290004699041791 0.017961989494735476 0 -0.00075694954273795953 0.018076118200359242 0 -0.00043290004699041791 0.017961989494735476 0 -0.00069310682624297462 0.017699985591314547 0 -0.00017017031337420636 0.018152888094902859 0 -0.00043290004699041791 0.017961989494735476 0 -7.3439628257484461e-05 0.017792595091147386 0 -0.00043290004699041791 0.017961989494735476 0 -0.00036908375185056426 0.017619275483197701 0 -7.3439628257484461e-05 0.017792595091147386 0 -0.00036908375185056426 0.017619275483197701 0 -0.00015879863532713279 0.01727860801785246 0 -7.3439628257484461e-05 0.017792595091147386 0 -0.00078037256130627608 0.017201698291869353 0 -0.00036908375185056426 0.017619275483197701 0 -0.00069310682624297462 0.017699985591314547 0 -0.00043290004699041791 0.017961989494735476 0 -0.00036908375185056426 0.017619275483197701 0 -0.00069310682624297462 0.017699985591314547 0 -0.00078037256130627608 0.017201698291869353 0 -0.00036908375185056426 0.017619275483197701 0 -0.00015879863532713279 0.01727860801785246 0 -0.00014507373781339245 0.016770370588158869 0 4.7686178043148038e-07 0.016887711797598556 0 -0.00078037256130627608 0.017201698291869353 0 -0.00015879863532713279 0.01727860801785246 0 -0.00027261765590502589 0.016912201852273323 0 0.00018022112847559507 0.016955597620611804 0 0.00037331585580711705 0.016755171895988991 0 0.00021234890325465652 0.016713100358172597 0 0.00020517033408802863 0.016640839883307973 0 0.00017749239971480508 0.017053130992825388 0 0.00054547196726548435 0.016785877178835878 0 0.00020517033408802863 0.016640839883307973 0 -0.00027261765590502589 0.016912201852273323 0 0.00017749239971480508 0.017053130992825388 0 0.00036053604563153453 0.016593524806274729 0 4.7686178043148038e-07 0.016887711797598556 0 -0.00015879863532713279 0.01727860801785246 0 0.00017749239971480508 0.017053130992825388 0 0.00019578035119156975 0.017489308298049525 0 -0.00015879863532713279 0.01727860801785246 0 -0.00027261765590502589 0.016912201852273323 0 0.00017749239971480508 0.017053130992825388 0 0.00017749239971480508 0.017053130992825388 0 0.00051107555929840538 0.017242177529547445 0 0.00019578035119156975 0.017489308298049525 0 0.00017749239971480508 0.017053130992825388 0 0.00051107555929840538 0.017242177529547445 0 0.00054547196726548435 0.016785877178835878 0 0.00051107555929840538 0.017242177529547445 0 0.00051896116198169636 0.017651846724971169 0 0.00019578035119156975 0.017489308298049525 0 0.00051896116198169636 0.017651846724971169 0 0.00019578035119156975 0.017489308298049525 0 0.00023538943803091313 0.017974030090793552 0 -0.00015879863532713279 0.01727860801785246 0 0.00019578035119156975 0.017489308298049525 0 -7.3439628257484461e-05 0.017792595091147386 0 -0.00017017031337420636 0.018152888094902859 0 -7.3439628257484461e-05 0.017792595091147386 0 0.00023538943803091313 0.017974030090793552 0 0.00019578035119156975 0.017489308298049525 0 -7.3439628257484461e-05 0.017792595091147386 0 0.00023538943803091313 0.017974030090793552 0 0.00051896116198169636 0.017651846724971169 0 0.00023538943803091313 0.017974030090793552 0 0.00080893961663736243 0.018012292247015539 0 0.0011760967763288107 0.016591318384870282 0 0.00081170508867722466 0.017554438080564998 0 0.00051896116198169636 0.017651846724971169 0 0.00080893961663736243 0.018012292247015539 0 0.00085133077493089069 0.017537194232092875 0 0.0011760967763288107 0.016591318384870282 0 0.0008929455416974816 0.01559146954000545 0 0.0008582837508316945 0.017257916595089087 0 0.00097052301286690908 0.017185463974459733 0 0.00086849107447590623 0.017141890968621846 0 0.001141884405050668 0.013963616635412002 0 0.00079302433481345032 0.014229571415480147 0 0.00071279570214905841 0.01368467734342336 0 0.00097052301286690908 0.017185463974459733 0 0.00086849107447590623 0.017141890968621846 0 0.00096333212829088346 0.017074653133611246 0 0.00051107555929840538 0.017242177529547445 0 0.00051896116198169636 0.017651846724971169 0 0.00085133077493089069 0.017537194232092875 0 0.00081170508867722466 0.017554438080564998 0 0.00087227982801561083 0.016962162428319265 0 0.00051107555929840538 0.017242177529547445 0 0.00085133077493089069 0.017537194232092875 0 0.00084834252255754669 0.017015719444660168 0 0.00051107555929840538 0.017242177529547445 0 0.00084834252255754669 0.017015719444660168 0 0.00054547196726548435 0.016785877178835878 0 0.00096333212829088346 0.017074653133611246 0 0.00084834252255754669 0.017015719444660168 0 0.0010258770059197251 0.016913411003519532 0 0.00086849107447590623 0.017141890968621846 0 0.00096333212829088346 0.017074653133611246 0 0.00084834252255754669 0.017015719444660168 0 0.00084834252255754669 0.017015719444660168 0 0.00081472672322022502 0.016739760041448858 0 0.0010258770059197251 0.016913411003519532 0 0.00096582388508555626 0.016517652765773723 0 0.00081472672322022502 0.016739760041448858 0 0.0010258770059197251 0.016913411003519532 0 0.00084834252255754669 0.017015719444660168 0 0.00081472672322022502 0.016739760041448858 0 0.00054547196726548435 0.016785877178835878 0 -0.0010689975478238413 0.014413225218403885 0 -0.0019490745473372971 0.01379884589222192 0 -0.0018505116375893433 0.014475274544492467 0 9.7270148470693729e-05 0.015632822136865777 0 -0.00050791641394260022 0.015105076200246014 0 0.0011692664145450508 0.016757095404174801 0 0.0011911339470232981 0.016921708539223455 0 0.0013305238987118585 0.016914511779213992 0 0.00096582388508555626 0.016517652765773723 0 0.0011692664145450508 0.016757095404174801 0 0.0010258770059197251 0.016913411003519532 0 0.0011692664145450508 0.016757095404174801 0 0.0010258770059197251 0.016913411003519532 0 0.0011911339470232981 0.016921708539223455 0 0.0010258770059197251 0.016913411003519532 0 0.0011911339470232981 0.016921708539223455 0 0.0011500510411783906 0.017072241953333699 0 0.00096333212829088346 0.017074653133611246 0 0.0010258770059197251 0.016913411003519532 0 0.0011500510411783906 0.017072241953333699 0 0.00092969993391913645 0.015834307017909697 0 -0.00050791641394260022 0.015105076200246014 0 0.0011911339470232981 0.016921708539223455 0 0.0011500510411783906 0.017072241953333699 0 0.0013305238987118585 0.016914511779213992 0 0.00043540352367866375 0.014509406692957276 0 5.9708211303246905e-05 0.01480024402974449 0 9.4172461438310406e-05 0.014303899810732049 0 0.00043540352367866375 0.014509406692957276 0 0.00040326713721314966 0.014042774227915448 0 9.4172461438310406e-05 0.014303899810732049 0 0.0008929455416974816 0.01559146954000545 0 0.00092969993391913645 0.015834307017909697 0 0.00097052301286690908 0.017185463974459733 0 0.00096333212829088346 0.017074653133611246 0 0.0011500510411783906 0.017072241953333699 0 0.00079302433481345032 0.014229571415480147 0 0.00043540352367866375 0.014509406692957276 0 0.00040326713721314966 0.014042774227915448 0 0.00079302433481345032 0.014229571415480147 0 0.00040326713721314966 0.014042774227915448 0 0.00071279570214905841 0.01368467734342336 0 0.00040326713721314966 0.014042774227915448 0 7.7652940105991909e-05 0.01389349001919978 0 9.4172461438310406e-05 0.014303899810732049 0 0.00040326713721314966 0.014042774227915448 0 0.00029181310478926476 0.013647869275417989 0 7.7652940105991909e-05 0.01389349001919978 0 0.00056118123276386754 0.010224340462711839 0 0.00014282463141621462 0.01079319599870286 0 0.00029181310478926476 0.013647869275417989 0 0.00037289489382711256 0.013161780615589662 0 1.1984036157769567e-05 0.013403880776078016 0 0.00071279570214905841 0.01368467734342336 0 0.00084949029120823596 0.013299046901185598 0 0.00037289489382711256 0.013161780615589662 0 0.00029181310478926476 0.013647869275417989 0 0.00071279570214905841 0.01368467734342336 0 0.00037289489382711256 0.013161780615589662 0 0.00040326713721314966 0.014042774227915448 0 0.00029181310478926476 0.013647869275417989 0 0.00071279570214905841 0.01368467734342336 0 0.001141884405050668 0.013963616635412002 0 0.00071279570214905841 0.01368467734342336 0 0.001201025862240507 0.013530053188510586 0 0.0010338593548821773 0.017592994720548746 0 0.0016112543963436971 0.017113386077766433 0 0.0015233472234475961 0.017760713275198774 0 0.0011760967763288107 0.016591318384870282 0 0.0014292640538655815 0.015310227038109843 0 0.00066328543309785066 0.018140785758193844 0 0.0011760967763288107 0.016591318384870282 0 0.0011667564198381162 0.017988317948539924 0 0.0015233472234475961 0.017760713275198774 0 0.0014289279952107822 0.018376046578839737 0 0.00071279570214905841 0.01368467734342336 0 0.001201025862240507 0.013530053188510586 0 0.00084949029120823596 0.013299046901185598 0 0.00084949029120823596 0.013299046901185598 0 0.0012588316573229508 0.013112908631803304 0 0.00071826491857714624 0.012926254842312681 0 0.0014292640538655815 0.015310227038109843 0 0.0010491741104721591 0.016354206470200021 0 0.001201025862240507 0.013530053188510586 0 0.00084949029120823596 0.013299046901185598 0 0.0012588316573229508 0.013112908631803304 0 0.00050647025379908013 0.015343734290743235 0 0.00041098814936233548 0.016020867152098526 0 0.00098334812129104382 0.016173820903336664 0 0.0010491741104721591 0.016354206470200021 0 0.00081470141658360922 0.017625173442236974 0 0.0010491741104721591 0.016354206470200021 0 0.00090984272520027386 0.012746249531380637 0 0.00090984272520027386 0.012746249531380637 0 0.001048861248226933 0.016285353526524143 0 0.00050647025379908013 0.015343734290743235 0 0.0016444562183913661 0.015640686358256422 0 0.00098334812129104382 0.016173820903336664 0 0.001300944921880568 0.016132915575985424 0 0.0012327404809042355 0.015940636195690912 0 0.0013528580145103354 0.015882540182968075 0 0.001300944921880568 0.016132915575985424 0 0.00066918364812357635 0.016123027666109652 0 0.0012327404809042355 0.015940636195690912 0 0.00090984272520027386 0.012746249531380637 0 0.0005622822177003714 0.011808773555528592 0 0.00062981157520532313 0.0078378356565717462 0 0.00046546211226514031 0.0077245110173205199 0 0.0005166437649606892 0.0078771553565781527 0 0.00046546211226514031 0.0077245110173205199 0 0.0005166437649606892 0.0078771553565781527 0 0.00039332150496780853 0.007815798683846539 0 0.00084949029120823596 0.013299046901185598 0 0.00071826491857714624 0.012926254842312681 0 0.00037289489382711256 0.013161780615589662 0 0.00090984272520027386 0.012746249531380637 0 0.00056118123276386754 0.010224340462711839 0 0.00099615730576601961 0.015590225250984939 0 0.00074396659325210682 0.015173276577792633 0 0.0012289934228875957 0.014854894619447752 0 0.00099615730576601961 0.015590225250984939 0 0.001546477056479139 0.015941804196259422 0 0.0012289934228875957 0.014854894619447752 0 0.00099615730576601961 0.015590225250984939 0 0.00074396659325210682 0.015173276577792633 0 0.00045576472222137602 0.015458508766703039 0 0.00074396659325210682 0.015173276577792633 0 0.00049840411146794472 0.015054097804496763 0 0.00045576472222137602 0.015458508766703039 0 0.00099615730576601961 0.015590225250984939 0 0.00082619344972060995 0.015777765256753448 0 0.00045576472222137602 0.015458508766703039 0 0.00066918364812357635 0.016123027666109652 0 0.00082619344972060995 0.015777765256753448 0 0.0012327404809042355 0.015940636195690912 0 0.00066918364812357635 0.016123027666109652 0 0.00082619344972060995 0.015777765256753448 0 0.00045576472222137602 0.015458508766703039 0 0.00099615730576601961 0.015590225250984939 0 0.0012327404809042355 0.015940636195690912 0 0.001546477056479139 0.015941804196259422 0 0.00099615730576601961 0.015590225250984939 0 0.00082619344972060995 0.015777765256753448 0 0.0012327404809042355 0.015940636195690912 0 0.0013528580145103354 0.015882540182968075 0 0.0011272852041177769 0.016395434583308204 0 0.001546477056479139 0.015941804196259422 0 0.0012327404809042355 0.015940636195690912 0 0.0013528580145103354 0.015882540182968075 0 0.001546477056479139 0.015941804196259422 0 0.00081470141658360922 0.017625173442236974 0 0.00065792806344376923 0.017190417726567597 0 0.001048861248226933 0.016285353526524143 0 0.00065792806344376923 0.017190417726567597 0 0.0013528580145103354 0.015882540182968075 0 0.0011272852041177769 0.016395434583308204 0 0.0006996735237518115 0.016243733911377237 0 0.00041098814936233548 0.016020867152098526 0 0.00098334812129104382 0.016173820903336664 0 0.00031705105713940735 0.016705695645912944 0 0.0011272852041177769 0.016395434583308204 0 0.00061496623004203804 0.016760093506784118 0 0.0006996735237518115 0.016243733911377237 0 0.0011272852041177769 0.016395434583308204 0 0.0009595873630826408 0.016917838806343 0 0.00061496623004203804 0.016760093506784118 0 0.001591493771978582 0.015949030994323675 0 0.00167092777743761 0.015834178776347033 0 0.0011272852041177769 0.016395434583308204 0 0.001546477056479139 0.015941804196259422 0 0.0013771278424652166 0.017266875634132203 0 0.001546477056479139 0.015941804196259422 0 0.0020922849840469791 0.014459031534957588 0 0.0012289934228875957 0.014854894619447752 0 0.0011272852041177769 0.016395434583308204 0 0.0013771278424652166 0.017266875634132203 0 0.0009595873630826408 0.016917838806343 0 0.0020922849840469791 0.014459031534957588 0 0.0017075364365400571 0.014008273325136893 0 0.0012289934228875957 0.014854894619447752 0 0.0009595873630826408 0.016917838806343 0 0.00077958453928652293 0.017277530552916059 0 0.00061496623004203804 0.016760093506784118 0 0.0013771278424652166 0.017266875634132203 0 0.00077958453928652293 0.017277530552916059 0 0.00094901972245868636 0.017593745070905834 0 0.0013771278424652166 0.017266875634132203 0 0.0009595873630826408 0.016917838806343 0 0.00077958453928652293 0.017277530552916059 0 0.00077958453928652293 0.017277530552916059 0 0.00072932218708978303 0.017641617830643209 0 0.00094901972245868636 0.017593745070905834 0 0.00077958453928652293 0.017277530552916059 0 0.00072932218708978303 0.017641617830643209 0 0.00055764203162173053 0.017625182973200561 0 0.00094901972245868636 0.017593745070905834 0 0.00078780119391951009 0.017796674345174852 0 0.00082885323740029381 0.017909848792216066 0 0.00072932218708978303 0.017641617830643209 0 0.00094901972245868636 0.017593745070905834 0 0.00078780119391951009 0.017796674345174852 0 0.00072932218708978303 0.017641617830643209 0 0.00065116361152138503 0.017827055798353541 0 0.00055764203162173053 0.017625182973200561 0 0.00072932218708978303 0.017641617830643209 0 0.00078780119391951009 0.017796674345174852 0 0.00065116361152138503 0.017827055798353541 0 0.00167092777743761 0.015834178776347033 0 0.0013302180244526912 0.015748495261365354 0 0.0020922849840469791 0.014459031534957588 0 0.0020147993912091786 0.013453567272006757 0 0.0017709606438033282 0.013387892911731461 0 0.0020922849840469791 0.014459031534957588 0 0.0017075364365400571 0.014008273325136893 0 0.0020147993912091786 0.013453567272006757 0 0.0013771278424652166 0.017266875634132203 0 0.00094901972245868636 0.017593745070905834 0 0.00082885323740029381 0.017909848792216066 0 0.0015174721102900158 0.013798306401074821 0 0.0020333975612385202 0.013393914046074738 0 0.0017075364365400571 0.014008273325136893 0 0.0011387628488999189 0.013939134385181946 0 0.0012289934228875957 0.014854894619447752 0 0.0017075364365400571 0.014008273325136893 0 0.0011387628488999189 0.013939134385181946 0 0.0020147993912091786 0.013453567272006757 0 0.0011387628488999189 0.013939134385181946 0 0.0012289934228875957 0.014854894619447752 0 0.00068104741270838456 0.0147918288183265 0 0.0011387628488999189 0.013939134385181946 0 0.00068104741270838456 0.0147918288183265 0 0.00021977813102134575 0.014431629409166766 0 0.00074396659325210682 0.015173276577792633 0 0.00049840411146794472 0.015054097804496763 0 0.00068104741270838456 0.0147918288183265 0 0.00049840411146794472 0.015054097804496763 0 0.00068104741270838456 0.0147918288183265 0 0.00044924589301114905 0.014820704802318535 0 0.00074396659325210682 0.015173276577792633 0 0.0012289934228875957 0.014854894619447752 0 0.00068104741270838456 0.0147918288183265 0 0.00068104741270838456 0.0147918288183265 0 0.00037150220206382635 0.014735705451862627 0 0.00044924589301114905 0.014820704802318535 0 0.0011855780474051625 0.014504434646223819 0 0.00040290942348142036 0.011903450138020116 0 0.0019884816484761142 0.013231492416527576 0 0.001437378678996203 0.012990470623251232 0 0.001189003720663547 0.013506242316992044 0 0.0019884816484761142 0.013231492416527576 0 0.001437378678996203 0.012990470623251232 0 0.0019109543959306668 0.012866219168898204 0 0.0015174721102900158 0.013798306401074821 0 0.00040290942348142036 0.011903450138020116 0 0.001437378678996203 0.012990470623251232 0 0.0013722646664852808 0.012456409616809484 0 0.00096266910668225654 0.012559844841710148 0 0.001437378678996203 0.012990470623251232 0 0.0013722646664852808 0.012456409616809484 0 0.0019109543959306668 0.012866219168898204 0 0.0013722646664852808 0.012456409616809484 0 0.0019109543959306668 0.012866219168898204 0 0.0015129940238432843 0.01191241195221485 0 0.0019109543959306668 0.012866219168898204 0 0.0021933246433234375 0.012098364936771617 0 0.0023920932008672392 0.01357012042259694 0 0.0019884816484761142 0.013231492416527576 0 0.0019109543959306668 0.012866219168898204 0 0.0023920932008672392 0.01357012042259694 0 0.0021933246433234375 0.012098364936771617 0 0.0015129940238432843 0.01191241195221485 0 0.0017014171978761996 0.011219696865985496 0 0.0034356712062610321 0.014456662902145413 0 0.0023865886539338396 0.013419097340863486 0 0.0019109543959306668 0.012866219168898204 0 0.0021933246433234375 0.012098364936771617 0 0.0015129940238432843 0.01191241195221485 0 0.0013722646664852808 0.012456409616809484 0 0.0015129940238432843 0.01191241195221485 0 0.00091246883469824503 0.011872073883230753 0 0.0015129940238432843 0.01191241195221485 0 0.00091246883469824503 0.011872073883230753 0 0.0010260198581031139 0.011391958839053664 0 0.0015129940238432843 0.01191241195221485 0 0.0017014171978761996 0.011219696865985496 0 0.0010260198581031139 0.011391958839053664 0 0.00038929979812350599 0.014291425664079484 0 0.00067443347219444207 0.011195209503724742 0 -0.0005386428165156912 0.011325598836001342 0 -0.0006939376879205243 0.011287359458280055 0 1.8414646141613508e-05 0.011197899146682098 0 -0.0005386428165156912 0.011325598836001342 0 -2.085265068775549e-05 0.011529842007762078 0 1.8414646141613508e-05 0.011197899146682098 0 -6.9817507044772352e-05 0.013889134917070133 0 0.00038929979812350599 0.014291425664079484 0 0.00038929979812350599 0.014291425664079484 0 -0.0011229863952002914 0.015816135864501472 0 0.0041388442309830643 0.016220458070979462 0 0.0056082831742501303 0.018398775708211867 0 0.0018574845070392083 0.018056905840185201 0 0.0034356712062610321 0.014456662902145413 0 0.00038929979812350599 0.014291425664079484 0 0.00038929979812350599 0.014291425664079484 0 0.00041085509313176912 0.018220137817226038 0 -3.3261230574895805e-05 0.013624327835916203 0 3.1717867117425494e-07 0.01359628212083345 0 2.307284207533478e-05 0.014268447288232249 0 -3.3261230574895805e-05 0.013624327835916203 0 3.1717867117425494e-07 0.01359628212083345 0 -4.9963759774308725e-07 0.012416729172138843 0 0.00038929979812350599 0.014291425664079484 0 -1.61885223767934e-06 0.012412162792228948 0 -0.0005386428165156912 0.011325598836001342 0 -6.2493100681804777e-07 0.012412408671395449 0 -2.085265068775549e-05 0.011529842007762078 0 -0.0005386428165156912 0.011325598836001342 0 -0.0007132486354458203 0.011311906794501237 0 -6.2493100681804777e-07 0.012412408671395449 0 -0.0011229863952002914 0.015816135864501472 0 8.2382026733481803e-07 0.015960257851323361 0 -0.0016697180778647114 0.016918772888109862 0 -1.8827671802181927e-06 0.015963624150226011 0 -0.00034039054145580612 0.01703001463317403 0 6.4037733332240473e-08 0.014778619436073075 0 2.307284207533478e-05 0.014268447288232249 0 -2.830438716066165e-07 0.015960239974241671 0 -0.0016697180778647114 0.016918772888109862 0 -0.0010117480719050653 0.017292626956906459 0 -0.00034039054145580612 0.01703001463317403 0 3.1717867117425494e-07 0.01359628212083345 0 6.4037733332240473e-08 0.014778619436073075 0 2.307284207533478e-05 0.014268447288232249 0 -0.0025412405994202029 0.017329992946130232 0 -0.0016697180778647114 0.016918772888109862 0 -0.0016717584182982335 0.017479925536815894 0 -0.0016697180778647114 0.016918772888109862 0 -0.0016717584182982335 0.017479925536815894 0 -0.0010117480719050653 0.017292626956906459 0 0.0018574845070392083 0.018056905840185201 0 0.00084792875350045698 0.017563555639296576 0 0.0019539009246316284 0.016799531984074471 0 0.0018574845070392083 0.018056905840185201 0 0.00084792875350045698 0.017563555639296576 0 0.00022825267139238014 0.018056702603538921 0 0.00041085509313176912 0.018220137817226038 0 -0.00015215296925399858 0.017857476591407778 0 -0.0016717584182982335 0.017479925536815894 0 -0.0010117480719050653 0.017292626956906459 0 -0.00040619144271681408 0.017696371276869415 0 -0.0010117480719050653 0.017292626956906459 0 -0.00040619144271681408 0.017696371276869415 0 -0.00034039054145580612 0.01703001463317403 0 0.00084792875350045698 0.017563555639296576 0 0.0005158372026370469 0.01787961083525037 0 0.00022825267139238014 0.018056702603538921 0 0.00086984714193622643 0.017414629638844877 0 0.0013302180244526912 0.015748495261365354 0 0.00084792875350045698 0.017563555639296576 0 0.00074651736019056415 0.017808230015674689 0 0.00082885323740029381 0.017909848792216066 0 0.00084792875350045698 0.017563555639296576 0 0.0017158834534418208 0.015524504763494987 0 0.0017709606438033282 0.013387892911731461 0 0.00074651736019056415 0.017808230015674689 0 0.00054681656412363213 0.017942245828659397 0 0.0005158372026370469 0.01787961083525037 0 0.00084792875350045698 0.017563555639296576 0 0.00074651736019056415 0.017808230015674689 0 0.0005158372026370469 0.01787961083525037 0 0.0041388442309830643 0.016220458070979462 0 0.0019539009246316284 0.016799531984074471 0 0.0025779008744008275 0.015476488165584055 0 0.0041388442309830643 0.016220458070979462 0 0.0025779008744008275 0.015476488165584055 0 0.0023920932008672392 0.01357012042259694 0 0.0041388442309830643 0.016220458070979462 0 0.0018574845070392083 0.018056905840185201 0 0.0019539009246316284 0.016799531984074471 0 0.00084792875350045698 0.017563555639296576 0 0.0019539009246316284 0.016799531984074471 0 0.0017158834534418208 0.015524504763494987 0 0.0019539009246316284 0.016799531984074471 0 0.0017158834534418208 0.015524504763494987 0 0.0025779008744008275 0.015476488165584055 0 0.0017158834534418208 0.015524504763494987 0 0.0025779008744008275 0.015476488165584055 0 0.002037531502703483 0.014203757452323244 0 0.0019884816484761142 0.013231492416527576 0 0.0023920932008672392 0.01357012042259694 0 0.0020147993912091786 0.013453567272006757 0 0.0025779008744008275 0.015476488165584055 0 0.0023920932008672392 0.01357012042259694 0 0.002037531502703483 0.014203757452323244 0 0.0017158834534418208 0.015524504763494987 0 0.002037531502703483 0.014203757452323244 0 0.0017709606438033282 0.013387892911731461 0 0.002037531502703483 0.014203757452323244 0 0.0020147993912091786 0.013453567272006757 0 0.0017709606438033282 0.013387892911731461 0 0.0023920932008672392 0.01357012042259694 0 0.002037531502703483 0.014203757452323244 0 0.0020147993912091786 0.013453567272006757 0 0.00074651736019056415 0.017808230015674689 0 0.00073974290482724464 0.01786450259379482 0 0.00054681656412363213 0.017942245828659397 0 0.00074651736019056415 0.017808230015674689 0 0.00082885323740029381 0.017909848792216066 0 0.00073974290482724464 0.01786450259379482 0 0.00078780119391951009 0.017796674345174852 0 0.00082885323740029381 0.017909848792216066 0 0.00073974290482724464 0.01786450259379482 0 0.00065116361152138503 0.017827055798353541 0 0.00073974290482724464 0.01786450259379482 0 0.00054681656412363213 0.017942245828659397 0 0.00078780119391951009 0.017796674345174852 0 0.00065116361152138503 0.017827055798353541 0 0.00073974290482724464 0.01786450259379482 0 0.00065116361152138503 0.017827055798353541 0 0.00054681656412363213 0.017942245828659397 0 0.00042600898930333724 0.017919554310227532 0 0.00054681656412363213 0.017942245828659397 0 0.00030396969947818329 0.018128274644495977 0 0.00042600898930333724 0.017919554310227532 0 0.00054681656412363213 0.017942245828659397 0 0.00030396969947818329 0.018128274644495977 0 0.0002667801942641763 0.01814681529489142 0 0.0001826637069574439 0.01815751789981359 0 0.00030396969947818329 0.018128274644495977 0 0.00015728956232431753 0.01837608974006286 0 0.0001826637069574439 0.01815751789981359 0 0.00030396969947818329 0.018128274644495977 0 0.00042600898930333724 0.017919554310227532 0 0.00015728956232431753 0.01837608974006286 0 0.0002667801942641763 0.01814681529489142 0 0.00010376465029730899 0.018336529499549378 0 0.0002667801942641763 0.01814681529489142 0 0.00022825267139238014 0.018056702603538921 0 0.00010376465029730899 0.018336529499549378 0 0.00030396969947818329 0.018128274644495977 0 0.00015728956232431753 0.01837608974006286 0 0.0002667801942641763 0.01814681529489142 0 0.00054681656412363213 0.017942245828659397 0 0.0002667801942641763 0.01814681529489142 0 0.0005158372026370469 0.01787961083525037 0 0.0002667801942641763 0.01814681529489142 0 0.0005158372026370469 0.01787961083525037 0 0.00022825267139238014 0.018056702603538921 0 -0.00040619144271681408 0.017696371276869415 0 -1.7951885627520231e-05 0.017405034325582748 0 -0.00034039054145580612 0.01703001463317403 0 0.00010376465029730899 0.018336529499549378 0 -1.7951885627520231e-05 0.017405034325582748 0 5.7080778975670381e-05 0.018375333216529625 0 -0.00040619144271681408 0.017696371276869415 0 0.00010376465029730899 0.018336529499549378 0 -1.7951885627520231e-05 0.017405034325582748 0 -0.00015215296925399858 0.017857476591407778 0 0.00014617092311939103 0.018265857754012189 0 -1.7951885627520231e-05 0.017405034325582748 0 -1.8827671802181927e-06 0.015963624150226011 0 6.7678238721710818e-07 0.017245025853857426 0 -1.7951885627520231e-05 0.017405034325582748 0 -1.8827671802181927e-06 0.015963624150226011 0 -0.00034039054145580612 0.01703001463317403 0 -8.0600472606232543e-08 0.018529516764034765 0 5.7080778975670381e-05 0.018375333216529625 0 -7.3995457061558684e-05 0.019510658538854329 0 -8.0600472606232543e-08 0.018529516764034765 0 6.7678238721710818e-07 0.017245025853857426 0 5.7080778975670381e-05 0.018375333216529625 0 -1.7951885627520231e-05 0.017405034325582748 0 6.7678238721710818e-07 0.017245025853857426 0 5.7080778975670381e-05 0.018375333216529625 0 0.00010376465029730899 0.018336529499549378 0 5.7080778975670381e-05 0.018375333216529625 0 -5.1334463963289554e-05 0.019094820043615891 0 5.7080778975670381e-05 0.018375333216529625 0 -5.1334463963289554e-05 0.019094820043615891 0 -7.3995457061558684e-05 0.019510658538854329 0 -5.1334463963289554e-05 0.019094820043615891 0 -0.00019081224401216925 0.019286019578234063 0 -0.0002236418142294241 0.019781866058346833 0 -5.1334463963289554e-05 0.019094820043615891 0 2.47941676011385e-05 0.018758148404338596 0 -0.00019081224401216925 0.019286019578234063 0 0.00010376465029730899 0.018336529499549378 0 -5.1334463963289554e-05 0.019094820043615891 0 2.47941676011385e-05 0.018758148404338596 0 0.00015728956232431753 0.01837608974006286 0 0.00010376465029730899 0.018336529499549378 0 2.47941676011385e-05 0.018758148404338596 0 0.0001826637069574439 0.01815751789981359 0 0.00015728956232431753 0.01837608974006286 0 2.47941676011385e-05 0.018758148404338596 0 0.0001826637069574439 0.01815751789981359 0 2.47941676011385e-05 0.018758148404338596 0 -0.00024078869366856801 0.018502143764210322 0 2.47941676011385e-05 0.018758148404338596 0 -0.00019081224401216925 0.019286019578234063 0 -0.00024078869366856801 0.018502143764210322 0 -0.00013558040028493259 0.020118036161667144 0 -0.0002040073123343406 0.01985734178183432 0 0.00030590833199796582 0.019878344374483992 0 -0.00013558040028493259 0.020118036161667144 0 -0.0002040073123343406 0.01985734178183432 0 -0.00028461649064119072 0.020087081460686933 0 -0.0002040073123343406 0.01985734178183432 0 0.00030590833199796582 0.019878344374483992 0 2.393680979539175e-05 0.019533597005657932 0 -0.00013618743502716581 0.019303339463926369 0 0.00015006283235315156 0.018777530809422759 0 0.0001826637069574439 0.01815751789981359 0 -0.00024078869366856801 0.018502143764210322 0 -5.2822753070869969e-05 0.01772394909578779 0 0.0001826637069574439 0.01815751789981359 0 0.00029050120419745693 0.017655560187961928 0 0.00042600898930333724 0.017919554310227532 0 0.0001826637069574439 0.01815751789981359 0 -5.2822753070869969e-05 0.01772394909578779 0 0.00029050120419745693 0.017655560187961928 0 0.00065116361152138503 0.017827055798353541 0 0.00042600898930333724 0.017919554310227532 0 0.00055764203162173053 0.017625182973200561 0 0.00029050120419745693 0.017655560187961928 0 0.00042600898930333724 0.017919554310227532 0 0.00055764203162173053 0.017625182973200561 0 0.00077958453928652293 0.017277530552916059 0 0.00047643322129225867 0.01726804343475145 0 0.00061496623004203804 0.016760093506784118 0 0.00029050120419745693 0.017655560187961928 0 0.00047643322129225867 0.01726804343475145 0 0.00022233838926731829 0.017032605643275925 0 0.00077958453928652293 0.017277530552916059 0 0.00055764203162173053 0.017625182973200561 0 0.00047643322129225867 0.01726804343475145 0 0.00029050120419745693 0.017655560187961928 0 0.00055764203162173053 0.017625182973200561 0 0.00047643322129225867 0.01726804343475145 0 0.00015006283235315156 0.018777530809422759 0 0.00051824457210957278 0.018364396856319236 0 -5.2822753070869969e-05 0.01772394909578779 0 0.00029050120419745693 0.017655560187961928 0 0.00022233838926731829 0.017032605643275925 0 0.00030590833199796582 0.019878344374483992 0 0.00076014469393554719 0.019565858900380408 0 0.00041591953550543118 0.019319406173106755 0 0.00076014469393554719 0.019565858900380408 0 0.00079907524307149468 0.019187966079842241 0 0.00041591953550543118 0.019319406173106755 0 0.00076014469393554719 0.019565858900380408 0 0.001214921389184512 0.019222104320791973 0 0.00079907524307149468 0.019187966079842241 0 0.00047643322129225867 0.01726804343475145 0 0.00022233838926731829 0.017032605643275925 0 0.00061496623004203804 0.016760093506784118 0 0.00051824457210957278 0.018364396856319236 0 0.00065792806344376923 0.017190417726567597 0 0.00022233838926731829 0.017032605643275925 0 0.00061496623004203804 0.016760093506784118 0 0.00064681472803649438 0.016452764544185604 0 0.000678170191177111 0.016548614014047964 0 0.00065792806344376923 0.017190417726567597 0 0.001214921389184512 0.019222104320791973 0 0.00097084748909828525 0.01893823563072175 0 0.00079907524307149468 0.019187966079842241 0 0.0012782249219038748 0.018815639268329024 0 0.001214921389184512 0.019222104320791973 0 0.00097084748909828525 0.01893823563072175 0 0.00079907524307149468 0.019187966079842241 0 0.00064117580149690705 0.018916005545215071 0 0.00041591953550543118 0.019319406173106755 0 0.00097084748909828525 0.01893823563072175 0 0.00079907524307149468 0.019187966079842241 0 0.00064117580149690705 0.018916005545215071 0 0.00030809924161899369 0.018867890349994323 0 8.3737991119278081e-05 0.019186977423000264 0 0.00041591953550543118 0.019319406173106755 0 0.00030809924161899369 0.018867890349994323 0 0.00064117580149690705 0.018916005545215071 0 0.00041591953550543118 0.019319406173106755 0 0.00030809924161899369 0.018867890349994323 0 -5.3678230759012115e-05 0.018957943523582228 0 8.3737991119278081e-05 0.019186977423000264 0 -5.3678230759012115e-05 0.018957943523582228 0 -0.00021429300057294732 0.019237834479127004 0 8.3737991119278081e-05 0.019186977423000264 0 -0.0002040073123343406 0.01985734178183432 0 2.393680979539175e-05 0.019533597005657932 0 -0.0002983170889023599 0.019554336512512593 0 -0.00021429300057294732 0.019237834479127004 0 8.3737991119278081e-05 0.019186977423000264 0 2.393680979539175e-05 0.019533597005657932 0 -0.00021429300057294732 0.019237834479127004 0 2.393680979539175e-05 0.019533597005657932 0 -0.0002983170889023599 0.019554336512512593 0 8.3737991119278081e-05 0.019186977423000264 0 2.393680979539175e-05 0.019533597005657932 0 0.00041591953550543118 0.019319406173106755 0 0.00030590833199796582 0.019878344374483992 0 2.393680979539175e-05 0.019533597005657932 0 0.00041591953550543118 0.019319406173106755 0 -0.00081992775178606561 0.019443899120686163 0 -0.00055496957545872916 0.01956387301839373 0 -0.00044997204634240683 0.019355441752387965 0 -0.00081992775178606561 0.019443899120686163 0 -0.00075469593247410227 0.019561231920148046 0 -0.00055496957545872916 0.01956387301839373 0 -0.00075469593247410227 0.019561231920148046 0 -0.00055496957545872916 0.01956387301839373 0 -0.00058073796831615231 0.019722208403447756 0 -0.00055496957545872916 0.01956387301839373 0 -0.0002983170889023599 0.019554336512512593 0 -0.0003913364033697618 0.019751191004435197 0 -0.00021429300057294732 0.019237834479127004 0 -0.0002983170889023599 0.019554336512512593 0 -0.00044997204634240683 0.019355441752387965 0 -0.00055496957545872916 0.01956387301839373 0 -0.0002983170889023599 0.019554336512512593 0 -0.00044997204634240683 0.019355441752387965 0 -5.3678230759012115e-05 0.018957943523582228 0 -0.00021429300057294732 0.019237834479127004 0 -0.00039915184969796584 0.018973659478578098 0 -0.00021429300057294732 0.019237834479127004 0 -0.00044997204634240683 0.019355441752387965 0 -0.00039915184969796584 0.018973659478578098 0 -0.00081517998746450163 0.019421968960449013 0 -0.00061750813199895691 0.019196816365876047 0 -0.00081992775178606561 0.019443899120686163 0 -0.0008545830317761825 0.019423685269993888 0 -0.00091302565606979553 0.019444008335006608 0 -0.00081992775178606561 0.019443899120686163 0 -0.00044997204634240683 0.019355441752387965 0 -0.00039915184969796584 0.018973659478578098 0 -0.00081992775178606561 0.019443899120686163 0 -0.00091302565606979553 0.019444008335006608 0 -0.00084800555695504164 0.019477846645206628 0 -0.00085660786978578485 0.019544715221699083 0 -0.00091302565606979553 0.019444008335006608 0 -0.00084800555695504164 0.019477846645206628 0 -0.00085660786978578485 0.019544715221699083 0 -0.00084800555695504164 0.019477846645206628 0 -0.00083370833232581851 0.019525462765302204 0 -0.00083370833232581851 0.019525462765302204 0 -0.00084134796189994207 0.019445924144416857 0 -0.00083623781969197433 0.019466728927610061 0 -0.00084800555695504164 0.019477846645206628 0 -0.00083370833232581851 0.019525462765302204 0 -0.00083623781969197433 0.019466728927610061 0 -0.00081992775178606561 0.019443899120686163 0 -0.00084800555695504164 0.019477846645206628 0 -0.00083623781969197433 0.019466728927610061 0 -0.00063847621556953533 0.019680265536764999 0 -0.00069856564926612638 0.019728038433247348 0 -0.00076283922629058216 0.019799115232796753 0 -0.00068925392379380536 0.019689275036621167 0 -0.00069856564926612638 0.019728038433247348 0 -0.00070183192928786604 0.019765689828308293 0 -0.00068925392379380536 0.019689275036621167 0 -0.00083370833232581851 0.019525462765302204 0 -0.00084134796189994207 0.019445924144416857 0 -0.00069761485461246548 0.019684609043261629 0 -0.00077570860816150711 0.019616351796917238 0 -0.0003495604498585649 0.022341409235747834 0 -0.00051246851137620698 0.022243620931575506 0 -0.00069856564926612638 0.019728038433247348 0 -0.00076283922629058216 0.019799115232796753 0 -0.00070183192928786604 0.019765689828308293 0 -0.00076283922629058216 0.019799115232796753 0 -0.00070183192928786604 0.019765689828308293 0 -0.00070671040332455294 0.01999585672813331 0 -0.00023984083424930707 0.024716092836364539 0 -0.00023048453096509818 0.024153855503178601 0 -3.3215151368737511e-05 0.02459662983720878 0 -0.00077570860816150711 0.019616351796917238 0 -0.00078910377171806107 0.019901493198037343 0 -0.00084134796189994207 0.019445924144416857 0 -0.00083325570361178578 0.019575849813568674 0 -0.00091158461734140305 0.019770007282958392 0 -0.00075469593247410227 0.019561231920148046 0 -0.00083623781969197433 0.019466728927610061 0 -0.00083325570361178578 0.019575849813568674 0 -0.00081992775178606561 0.019443899120686163 0 -0.00075469593247410227 0.019561231920148046 0 -0.00083623781969197433 0.019466728927610061 0 -0.00084134796189994207 0.019445924144416857 0 -0.00083623781969197433 0.019466728927610061 0 -0.00083325570361178578 0.019575849813568674 0 -0.00075469593247410227 0.019561231920148046 0 -0.00083325570361178578 0.019575849813568674 0 -0.00074729251559198196 0.019683482430529278 0 -0.00083325570361178578 0.019575849813568674 0 -0.00091158461734140305 0.019770007282958392 0 -0.00074729251559198196 0.019683482430529278 0 -0.00076283922629058216 0.019799115232796753 0 -0.00082403747748030737 0.020073538031083596 0 -0.00070671040332455294 0.01999585672813331 0 -0.00091158461734140305 0.019770007282958392 0 -0.00060886398121156704 0.019883565483300197 0 -0.00074729251559198196 0.019683482430529278 0 -0.00023048453096509818 0.024153855503178601 0 -0.00026744943034227343 0.023526620801643919 0 9.481427113931684e-05 0.023337476194997479 0 -0.00051246851137620698 0.022243620931575506 0 -0.00073070768899438318 0.021836283483511746 0 -0.00023984083424930707 0.024716092836364539 0 -0.00075885595904710238 0.023599636655366851 0 -0.00023048453096509818 0.024153855503178601 0 -0.00075885595904710238 0.023599636655366851 0 -0.00023048453096509818 0.024153855503178601 0 -0.00026744943034227343 0.023526620801643919 0 -0.00026744943034227343 0.023526620801643919 0 -0.00028104400537026244 0.022967761465149714 0 9.481427113931684e-05 0.023337476194997479 0 -0.00075885595904710238 0.023599636655366851 0 -0.00026744943034227343 0.023526620801643919 0 -0.00028104400537026244 0.022967761465149714 0 -0.00028104400537026244 0.022967761465149714 0 -2.7680066579020881e-05 0.022839926236198887 0 -0.0002070307087790044 0.022404726145677595 0 -0.00028104400537026244 0.022967761465149714 0 -0.0004445179378212805 0.02228231326174511 0 -0.0002070307087790044 0.022404726145677595 0 -0.00028104400537026244 0.022967761465149714 0 -2.7680066579020881e-05 0.022839926236198887 0 9.481427113931684e-05 0.023337476194997479 0 -0.00078910377171806107 0.019901493198037343 0 -0.00053901700560421808 0.020629168210171484 0 -0.00075885595904710238 0.023599636655366851 0 -0.0004445179378212805 0.02228231326174511 0 -0.00067000083712963083 0.021010525515810303 0 -0.00073070768899438318 0.021836283483511746 0 -0.00070392830879620382 0.021147099933009054 0 -0.00082403747748030737 0.020073538031083596 0 -0.00051552778432824666 0.020682714222904248 0 -0.00067000083712963083 0.021010525515810303 0 -0.00091158461734140305 0.019770007282958392 0 -0.0005837526067510964 0.020137019479984541 0 -0.00051552778432824666 0.020682714222904248 0 -0.00082403747748030737 0.020073538031083596 0 -0.00070671040332455294 0.01999585672813331 0 -0.00051552778432824666 0.020682714222904248 0 -0.00075885595904710238 0.023599636655366851 0 -0.00028104400537026244 0.022967761465149714 0 -0.0004445179378212805 0.02228231326174511 0 -0.00041746313128481757 0.020307186437410696 0 -0.0005837526067510964 0.020137019479984541 0 -0.00051552778432824666 0.020682714222904248 0 -0.00041746313128481757 0.020307186437410696 0 -0.00045449088030949988 0.020102739839765637 0 -0.0005837526067510964 0.020137019479984541 0 -0.00033224563236464996 0.020184723823986634 0 -0.00041746313128481757 0.020307186437410696 0 -0.00045449088030949988 0.020102739839765637 0 -0.00045449088030949988 0.020102739839765637 0 -0.00060886398121156704 0.019883565483300197 0 -0.0003944715905291942 0.019980908007822762 0 -0.00033224563236464996 0.020184723823986634 0 -0.00045449088030949988 0.020102739839765637 0 -0.0003944715905291942 0.019980908007822762 0 -0.00045449088030949988 0.020102739839765637 0 -0.0005837526067510964 0.020137019479984541 0 -0.00060886398121156704 0.019883565483300197 0 -0.00091158461734140305 0.019770007282958392 0 -0.0005837526067510964 0.020137019479984541 0 -0.00060886398121156704 0.019883565483300197 0 -0.00060886398121156704 0.019883565483300197 0 -0.00058073796831615231 0.019722208403447756 0 -0.0003944715905291942 0.019980908007822762 0 -0.00058073796831615231 0.019722208403447756 0 -0.0003913364033697618 0.019751191004435197 0 -0.0003944715905291942 0.019980908007822762 0 -0.00055496957545872916 0.01956387301839373 0 -0.00058073796831615231 0.019722208403447756 0 -0.0003913364033697618 0.019751191004435197 0 -0.00060886398121156704 0.019883565483300197 0 -0.00058073796831615231 0.019722208403447756 0 -0.00074729251559198196 0.019683482430529278 0 -0.00075469593247410227 0.019561231920148046 0 -0.00058073796831615231 0.019722208403447756 0 -0.00074729251559198196 0.019683482430529278 0 -0.0002040073123343406 0.01985734178183432 0 -0.0003913364033697618 0.019751191004435197 0 -0.0003944715905291942 0.019980908007822762 0 -0.0002040073123343406 0.01985734178183432 0 -0.0002983170889023599 0.019554336512512593 0 -0.0003913364033697618 0.019751191004435197 0 -0.00033224563236464996 0.020184723823986634 0 -0.00028461649064119072 0.020087081460686933 0 -0.0003390415704399688 0.019907070256995688 0 -0.0002040073123343406 0.01985734178183432 0 -0.0003944715905291942 0.019980908007822762 0 -0.00028461649064119072 0.020087081460686933 0 -0.00013558040028493259 0.020118036161667144 0 -0.00028461649064119072 0.020087081460686933 0 -0.0003390415704399688 0.019907070256995688 0 -0.00033224563236464996 0.020184723823986634 0 -0.0003944715905291942 0.019980908007822762 0 -0.00028461649064119072 0.020087081460686933 0 -0.00013618743502716581 0.019303339463926369 0 -0.00030170657693340887 0.019768213699888754 0 -0.00019081224401216925 0.019286019578234063 0 -0.00024078869366856801 0.018502143764210322 0 -0.0003390415704399688 0.019907070256995688 0 -0.00019081224401216925 0.019286019578234063 0 -0.0003390415704399688 0.019907070256995688 0 -0.0002236418142294241 0.019781866058346833 0 -0.00041746313128481757 0.020307186437410696 0 -0.00051552778432824666 0.020682714222904248 0 -0.00036942428603667425 0.020317870761253187 0 -0.00033224563236464996 0.020184723823986634 0 -0.00041746313128481757 0.020307186437410696 0 -0.00036942428603667425 0.020317870761253187 0 -0.00033224563236464996 0.020184723823986634 0 -0.0003390415704399688 0.019907070256995688 0 -0.00036942428603667425 0.020317870761253187 0 -0.0003390415704399688 0.019907070256995688 0 -0.00036942428603667425 0.020317870761253187 0 -0.00037833623628116554 0.020497408525504371 0 -0.00051552778432824666 0.020682714222904248 0 -0.00036942428603667425 0.020317870761253187 0 -0.00037833623628116554 0.020497408525504371 0 -0.00051552778432824666 0.020682714222904248 0 -0.00037833623628116554 0.020497408525504371 0 -0.00067000083712963083 0.021010525515810303 0 -0.00037833623628116554 0.020497408525504371 0 -0.00067000083712963083 0.021010525515810303 0 -0.00048569181595042415 0.020886643212603331 0 -0.00037833623628116554 0.020497408525504371 0 -0.00036742579559830474 0.020868382089832598 0 -0.00048569181595042415 0.020886643212603331 0 -0.00037833623628116554 0.020497408525504371 0 -0.00022646148233102276 0.020252112801463436 0 -0.00036742579559830474 0.020868382089832598 0 -0.00037833623628116554 0.020497408525504371 0 -0.00022646148233102276 0.020252112801463436 0 -0.0002236418142294241 0.019781866058346833 0 -0.0003390415704399688 0.019907070256995688 0 -0.00037833623628116554 0.020497408525504371 0 -0.0002236418142294241 0.019781866058346833 0 -0.00022646148233102276 0.020252112801463436 0 -0.0002236418142294241 0.019781866058346833 0 -7.3995457061558684e-05 0.019510658538854329 0 -5.1334463963289554e-05 0.019094820043615891 0 -0.0002236418142294241 0.019781866058346833 0 -7.3995457061558684e-05 0.019510658538854329 0 -0.00022646148233102276 0.020252112801463436 0 -0.00012557736136236636 0.020526241776721195 0 -0.00036742579559830474 0.020868382089832598 0 -0.00022646148233102276 0.020252112801463436 0 -7.3995457061558684e-05 0.019510658538854329 0 -0.00012557736136236636 0.020526241776721195 0 -7.3995457061558684e-05 0.019510658538854329 0 -2.2089815476999711e-08 0.019813593283498784 0 -0.00012557736136236636 0.020526241776721195 0 -8.0600472606232543e-08 0.018529516764034765 0 -7.3995457061558684e-05 0.019510658538854329 0 -2.2089815476999711e-08 0.019813593283498784 0 4.9751597913863101e-08 0.021097674948359148 0 7.5663655877313612e-06 0.022020413089307123 0 -3.3607711049933596e-07 0.021096184386987325 0 -6.9585421373519687e-05 0.021509887569972307 0 -0.00010474181043470215 0.021148617577889984 0 -3.3607711049933596e-07 0.021096184386987325 0 -6.9585421373519687e-05 0.021509887569972307 0 -2.5826073552845716e-05 0.021618624737138572 0 -3.3607711049933596e-07 0.021096184386987325 0 -0.00012557736136236636 0.020526241776721195 0 -0.00010474181043470215 0.021148617577889984 0 -2.2089815476999711e-08 0.019813593283498784 0 -3.3607711049933596e-07 0.021096184386987325 0 -0.00012557736136236636 0.020526241776721195 0 -0.00012557736136236636 0.020526241776721195 0 -0.00017446764191224095 0.021191642100059291 0 -0.00010474181043470215 0.021148617577889984 0 -0.00012557736136236636 0.020526241776721195 0 -0.00017446764191224095 0.021191642100059291 0 -0.00036742579559830474 0.020868382089832598 0 -0.00017446764191224095 0.021191642100059291 0 -8.580523337950536e-05 0.021568155018894409 0 -0.00010779014406281358 0.021638184759405935 0 -0.00017446764191224095 0.021191642100059291 0 -0.00010474181043470215 0.021148617577889984 0 -8.580523337950536e-05 0.021568155018894409 0 -6.9585421373519687e-05 0.021509887569972307 0 -0.00010474181043470215 0.021148617577889984 0 -8.580523337950536e-05 0.021568155018894409 0 -6.9585421373519687e-05 0.021509887569972307 0 -8.580523337950536e-05 0.021568155018894409 0 6.493673509498775e-06 0.021920381532761685 0 -8.580523337950536e-05 0.021568155018894409 0 -0.00010779014406281358 0.021638184759405935 0 1.8362811316573121e-06 0.0219806509745205 0 -0.00010779014406281358 0.021638184759405935 0 -1.7986610021096591e-05 0.022010900237545466 0 -0.0001195557705252563 0.021792871973348379 0 -0.00010779014406281358 0.021638184759405935 0 -1.7986610021096591e-05 0.022010900237545466 0 1.8362811316573121e-06 0.0219806509745205 0 -0.00017446764191224095 0.021191642100059291 0 -0.00010779014406281358 0.021638184759405935 0 -0.00021383899852121726 0.021423990787519869 0 -0.00010779014406281358 0.021638184759405935 0 -0.00021383899852121726 0.021423990787519869 0 -0.0001195557705252563 0.021792871973348379 0 -0.0001195557705252563 0.021792871973348379 0 -0.00028448455515986247 0.021543252232387393 0 -8.4221688787338233e-05 0.022094535404455964 0 -0.00021383899852121726 0.021423990787519869 0 -0.0001195557705252563 0.021792871973348379 0 -0.00028448455515986247 0.021543252232387393 0 -8.4839762010159456e-07 0.02215370395641475 0 -8.4221688787338233e-05 0.022094535404455964 0 9.3386189544419999e-05 0.022488987245142426 0 -8.4839762010159456e-07 0.02215370395641475 0 -0.0001195557705252563 0.021792871973348379 0 -8.4221688787338233e-05 0.022094535404455964 0 -1.7986610021096591e-05 0.022010900237545466 0 -8.4839762010159456e-07 0.02215370395641475 0 -0.0001195557705252563 0.021792871973348379 0 -0.00017446764191224095 0.021191642100059291 0 -0.00021383899852121726 0.021423990787519869 0 -0.00036742579559830474 0.020868382089832598 0 -0.00021383899852121726 0.021423990787519869 0 -0.00028448455515986247 0.021543252232387393 0 -0.00036742579559830474 0.020868382089832598 0 -0.00028448455515986247 0.021543252232387393 0 -0.00036742579559830474 0.020868382089832598 0 -0.00045634805571235566 0.021173764411945878 0 -0.00036742579559830474 0.020868382089832598 0 -0.00048569181595042415 0.020886643212603331 0 -0.00045634805571235566 0.021173764411945878 0 -0.00067000083712963083 0.021010525515810303 0 -0.00045634805571235566 0.021173764411945878 0 -0.00040682449433503316 0.021690804272171679 0 -0.00067000083712963083 0.021010525515810303 0 -0.00048569181595042415 0.020886643212603331 0 -0.00045634805571235566 0.021173764411945878 0 -0.00028448455515986247 0.021543252232387393 0 -0.00045634805571235566 0.021173764411945878 0 -0.00040682449433503316 0.021690804272171679 0 -0.00028448455515986247 0.021543252232387393 0 -0.00040682449433503316 0.021690804272171679 0 -0.00022198106278657626 0.022022587436308978 0 -0.0004445179378212805 0.02228231326174511 0 -0.00067000083712963083 0.021010525515810303 0 -0.00040682449433503316 0.021690804272171679 0 -0.0004445179378212805 0.02228231326174511 0 -0.00040682449433503316 0.021690804272171679 0 -0.00031129160169436295 0.022091377260070186 0 -8.4221688787338233e-05 0.022094535404455964 0 -0.00022198106278657626 0.022022587436308978 0 8.8712122157759074e-06 0.022509675513416347 0 -8.4221688787338233e-05 0.022094535404455964 0 8.8712122157759074e-06 0.022509675513416347 0 9.3386189544419999e-05 0.022488987245142426 0 -0.00028448455515986247 0.021543252232387393 0 -8.4221688787338233e-05 0.022094535404455964 0 -0.00022198106278657626 0.022022587436308978 0 -0.00022198106278657626 0.022022587436308978 0 -0.0002070307087790044 0.022404726145677595 0 8.8712122157759074e-06 0.022509675513416347 0 -0.00040682449433503316 0.021690804272171679 0 -0.00022198106278657626 0.022022587436308978 0 -0.00031129160169436295 0.022091377260070186 0 -0.00022198106278657626 0.022022587436308978 0 -0.00031129160169436295 0.022091377260070186 0 -0.0002070307087790044 0.022404726145677595 0 -0.0004445179378212805 0.02228231326174511 0 -0.00031129160169436295 0.022091377260070186 0 -0.0002070307087790044 0.022404726145677595 0 -2.7680066579020881e-05 0.022839926236198887 0 -0.0002070307087790044 0.022404726145677595 0 8.8712122157759074e-06 0.022509675513416347 0 -2.7680066579020881e-05 0.022839926236198887 0 8.8712122157759074e-06 0.022509675513416347 0 0.00014888058475098082 0.022998891176404867 0 -4.427019798703652e-07 0.021099498959570057 0 -1.0576289903021682e-05 0.022347456164316219 0 3.2678252911808696e-07 0.024999100163590509 0 8.8712122157759074e-06 0.022509675513416347 0 0.00020531402901029499 0.02289445452283502 0 0.00014888058475098082 0.022998891176404867 0 0.00020531402901029499 0.02289445452283502 0 0.00031319637627934445 0.023261561960183287 0 0.00038300893624341445 0.02345190164592963 0 0.00020531402901029499 0.02289445452283502 0 0.00031319637627934445 0.023261561960183287 0 0.0002083368981181935 0.022830280482780661 0 0.00020531402901029499 0.02289445452283502 0 9.3386189544419999e-05 0.022488987245142426 0 0.0002083368981181935 0.022830280482780661 0 8.8712122157759074e-06 0.022509675513416347 0 0.00020531402901029499 0.02289445452283502 0 9.3386189544419999e-05 0.022488987245142426 0 0.00037131989600843552 0.023672274493425495 0 0.00031319637627934445 0.023261561960183287 0 0.00032647607361665425 0.023544165393645934 0 0.00037131989600843552 0.023672274493425495 0 0.00032647607361665425 0.023544165393645934 0 0.00030741469977812444 0.024004923553781508 0 0.00037131989600843552 0.023672274493425495 0 0.00031319637627934445 0.023261561960183287 0 0.00038300893624341445 0.02345190164592963 0 0.00031319637627934445 0.023261561960183287 0 0.00027645694456786144 0.023150975895450541 0 0.0002083368981181935 0.022830280482780661 0 0.00031319637627934445 0.023261561960183287 0 0.00032647607361665425 0.023544165393645934 0 0.00027645694456786144 0.023150975895450541 0 0.00032647607361665425 0.023544165393645934 0 0.00029675973135743258 0.023364274500147091 0 0.00027645694456786144 0.023150975895450541 0 0.00032647607361665425 0.023544165393645934 0 0.00029675973135743258 0.023364274500147091 0 0.00030443873462735187 0.023805756233043103 0 0.00029675973135743258 0.023364274500147091 0 0.00027645694456786144 0.023150975895450541 0 0.00026237498963575036 0.023088569700263933 0 0.00027645694456786144 0.023150975895450541 0 0.00020949859344504109 0.022818221793683147 0 0.0002083368981181935 0.022830280482780661 0 0.00027645694456786144 0.023150975895450541 0 0.00020949859344504109 0.022818221793683147 0 0.00026237498963575036 0.023088569700263933 0 0.00020949859344504109 0.022818221793683147 0 0.00023674610672645095 0.022910493508738927 0 0.00017441949927493117 0.0226328212674324 0 0.00020949859344504109 0.022818221793683147 0 0.00023674610672645095 0.022910493508738927 0 0.00026237498963575036 0.023088569700263933 0 0.00023674610672645095 0.022910493508738927 0 0.00026237498963575036 0.023088569700263933 0 0.00028168605203664166 0.023199878573293586 0 0.00029675973135743258 0.023364274500147091 0 0.00026237498963575036 0.023088569700263933 0 0.00028168605203664166 0.023199878573293586 0 0.00023674610672645095 0.022910493508738927 0 0.00028168605203664166 0.023199878573293586 0 0.00026836647202095712 0.023016311336691971 0 0.00028168605203664166 0.023199878573293586 0 0.00029899904275919927 0.023253529203150554 0 0.00030566190657170934 0.023562961636114561 0 0.00029675973135743258 0.023364274500147091 0 0.00028168605203664166 0.023199878573293586 0 0.00030566190657170934 0.023562961636114561 0 -8.4839762010159456e-07 0.02215370395641475 0 9.3386189544419999e-05 0.022488987245142426 0 0.00010021159467808284 0.022407878548801777 0 0.00020949859344504109 0.022818221793683147 0 0.0002083368981181935 0.022830280482780661 0 0.00010021159467808284 0.022407878548801777 0 9.3386189544419999e-05 0.022488987245142426 0 0.0002083368981181935 0.022830280482780661 0 0.00010021159467808284 0.022407878548801777 0 0.00017441949927493117 0.0226328212674324 0 0.00010021159467808284 0.022407878548801777 0 9.5656334383198614e-05 0.022319445600959942 0 0.00020949859344504109 0.022818221793683147 0 0.00017441949927493117 0.0226328212674324 0 0.00010021159467808284 0.022407878548801777 0 -1.7986610021096591e-05 0.022010900237545466 0 -8.4839762010159456e-07 0.02215370395641475 0 0.00010021159467808284 0.022407878548801777 0 -1.7986610021096591e-05 0.022010900237545466 0 0.00010021159467808284 0.022407878548801777 0 1.8362811316573121e-06 0.0219806509745205 0 0.00010021159467808284 0.022407878548801777 0 1.8362811316573121e-06 0.0219806509745205 0 9.5656334383198614e-05 0.022319445600959942 0 -8.580523337950536e-05 0.021568155018894409 0 1.8362811316573121e-06 0.0219806509745205 0 6.493673509498775e-06 0.021920381532761685 0 8.9123539225007968e-05 0.022100223895530801 0 0.00028604550818817369 0.022568053194854071 0 -2.782840388943865e-05 0.021689550169916756 0 7.141331692273035e-06 0.023520735213889039 0 -1.0576289903021682e-05 0.022347456164316219 0 3.2678252911808696e-07 0.024999100163590509 0 1.8362811316573121e-06 0.0219806509745205 0 6.493673509498775e-06 0.021920381532761685 0 7.7969964055530445e-05 0.022191836621635763 0 1.8362811316573121e-06 0.0219806509745205 0 7.7969964055530445e-05 0.022191836621635763 0 9.5656334383198614e-05 0.022319445600959942 0 -6.9585421373519687e-05 0.021509887569972307 0 6.493673509498775e-06 0.021920381532761685 0 5.5146668409505267e-06 0.02186465294633877 0 6.493673509498775e-06 0.021920381532761685 0 5.9884296958437269e-05 0.022072726483708661 0 7.7969964055530445e-05 0.022191836621635763 0 6.493673509498775e-06 0.021920381532761685 0 5.5146668409505267e-06 0.02186465294633877 0 5.9884296958437269e-05 0.022072726483708661 0 8.9123539225007968e-05 0.022100223895530801 0 0.00012592465183973233 0.022286794982184575 0 0.00018274290675565852 0.022405550574361173 0 5.5146668409505267e-06 0.02186465294633877 0 8.9123539225007968e-05 0.022100223895530801 0 5.9884296958437269e-05 0.022072726483708661 0 8.9123539225007968e-05 0.022100223895530801 0 5.9884296958437269e-05 0.022072726483708661 0 0.00012592465183973233 0.022286794982184575 0 5.9884296958437269e-05 0.022072726483708661 0 0.00012592465183973233 0.022286794982184575 0 7.7969964055530445e-05 0.022191836621635763 0 0.00012592465183973233 0.022286794982184575 0 0.00015172053412745843 0.022461960451380159 0 0.00019707982466739659 0.02252510644355674 0 0.00012592465183973233 0.022286794982184575 0 0.00015172053412745843 0.022461960451380159 0 7.7969964055530445e-05 0.022191836621635763 0 0.00015172053412745843 0.022461960451380159 0 7.7969964055530445e-05 0.022191836621635763 0 9.5656334383198614e-05 0.022319445600959942 0 0.00017441949927493117 0.0226328212674324 0 0.00015172053412745843 0.022461960451380159 0 9.5656334383198614e-05 0.022319445600959942 0 1.65056739078343e-05 0.022757176513292308 0 4.2640148462841106e-05 0.022775209205342286 0 3.8340441585335303e-05 0.02426449223590741 0 0.00023674610672645095 0.022910493508738927 0 0.00017441949927493117 0.0226328212674324 0 0.00022640127652857994 0.022751837354079301 0 0.00017441949927493117 0.0226328212674324 0 0.00015172053412745843 0.022461960451380159 0 0.00022640127652857994 0.022751837354079301 0 0.00023674610672645095 0.022910493508738927 0 0.00022640127652857994 0.022751837354079301 0 0.00026836647202095712 0.023016311336691971 0 0.00022640127652857994 0.022751837354079301 0 0.00027708051353792754 0.022902964117091997 0 0.00024214640116614308 0.022663086796548517 0 0.00022640127652857994 0.022751837354079301 0 0.00019707982466739659 0.02252510644355674 0 0.00024214640116614308 0.022663086796548517 0 0.00015172053412745843 0.022461960451380159 0 0.00022640127652857994 0.022751837354079301 0 0.00019707982466739659 0.02252510644355674 0 0.00028168605203664166 0.023199878573293586 0 0.00029899904275919927 0.023253529203150554 0 0.00026836647202095712 0.023016311336691971 0 0.00022640127652857994 0.022751837354079301 0 0.00026836647202095712 0.023016311336691971 0 0.00027708051353792754 0.022902964117091997 0 0.00029899904275919927 0.023253529203150554 0 0.00026836647202095712 0.023016311336691971 0 0.00027708051353792754 0.022902964117091997 0 0.00029899904275919927 0.023253529203150554 0 0.00027708051353792754 0.022902964117091997 0 0.00030775771072805185 0.023168863704431671 0 0.00027708051353792754 0.022902964117091997 0 0.00028604550818817369 0.022568053194854071 0 0.00030775771072805185 0.023168863704431671 0 0.00027708051353792754 0.022902964117091997 0 0.00028604550818817369 0.022568053194854071 0 0.00024214640116614308 0.022663086796548517 0 8.9123539225007968e-05 0.022100223895530801 0 0.00028604550818817369 0.022568053194854071 0 0.00018274290675565852 0.022405550574361173 0 0.00012592465183973233 0.022286794982184575 0 0.00018274290675565852 0.022405550574361173 0 0.00019707982466739659 0.02252510644355674 0 0.00018274290675565852 0.022405550574361173 0 0.00019707982466739659 0.02252510644355674 0 0.0002255498961147581 0.022537855698276654 0 0.00019707982466739659 0.02252510644355674 0 0.00024214640116614308 0.022663086796548517 0 0.0002255498961147581 0.022537855698276654 0 0.00028604550818817369 0.022568053194854071 0 0.00024214640116614308 0.022663086796548517 0 0.0002255498961147581 0.022537855698276654 0 0.00028604550818817369 0.022568053194854071 0 0.00018274290675565852 0.022405550574361173 0 0.0002255498961147581 0.022537855698276654 0 1.65056739078343e-05 0.022757176513292308 0 4.2640148462841106e-05 0.022775209205342286 0 -2.5826073552845716e-05 0.021618624737138572 0 1.65056739078343e-05 0.022757176513292308 0 -2.5826073552845716e-05 0.021618624737138572 0 -2.782840388943865e-05 0.021689550169916756 0 0.00015703183491750619 0.022709602103607698 0 -4.2832135689641908e-05 0.021926231352688768 0 -2.6600867437765903e-06 0.023171857226199282 0 7.5663655877313612e-06 0.022020413089307123 0 -6.9585421373519687e-05 0.021509887569972307 0 5.5146668409505267e-06 0.02186465294633877 0 -2.782840388943865e-05 0.021689550169916756 0 -6.9585421373519687e-05 0.021509887569972307 0 -2.5826073552845716e-05 0.021618624737138572 0 -2.782840388943865e-05 0.021689550169916756 0 5.5146668409505267e-06 0.02186465294633877 0 8.9123539225007968e-05 0.022100223895530801 0 -2.782840388943865e-05 0.021689550169916756 0 7.141331692273035e-06 0.023520735213889039 0 3.2678252911808696e-07 0.024999100163590509 0 4.02982804024856e-05 0.024419624372793453 0 0.00028604550818817369 0.022568053194854071 0 0.00030775771072805185 0.023168863704431671 0 0.000346359971387584 0.023756150258912635 0 4.2640148462841106e-05 0.022775209205342286 0 4.02982804024856e-05 0.024419624372793453 0 3.8340441585335303e-05 0.02426449223590741 0 0.00015703183491750619 0.022709602103607698 0 0.00017664172168897662 0.023964605660514244 0 -2.6600867437765903e-06 0.023171857226199282 0 6.1099286803408096e-05 0.024122828336923814 0 0.00030775771072805185 0.023168863704431671 0 0.00032053598245796697 0.02347322605623944 0 0.000346359971387584 0.023756150258912635 0 0.00030775771072805185 0.023168863704431671 0 0.00031104954375655057 0.023354942647672825 0 0.00032053598245796697 0.02347322605623944 0 0.00029899904275919927 0.023253529203150554 0 0.00030775771072805185 0.023168863704431671 0 0.00031104954375655057 0.023354942647672825 0 0.00031104954375655057 0.023354942647672825 0 0.00032053598245796697 0.02347322605623944 0 0.00031215414223083728 0.023520018126947598 0 0.00032053598245796697 0.02347322605623944 0 0.00031215414223083728 0.023520018126947598 0 0.00031921034078718537 0.02371731128049626 0 0.00031215414223083728 0.023520018126947598 0 0.00031921034078718537 0.02371731128049626 0 0.00030359821370788616 0.023787870507766599 0 0.00029899904275919927 0.023253529203150554 0 0.00031104954375655057 0.023354942647672825 0 0.00031215414223083728 0.023520018126947598 0 0.00029899904275919927 0.023253529203150554 0 0.00031215414223083728 0.023520018126947598 0 0.00030566190657170934 0.023562961636114561 0 0.000346359971387584 0.023756150258912635 0 0.00031921034078718537 0.02371731128049626 0 0.00026330624173321346 0.024125090188638731 0 0.00032053598245796697 0.02347322605623944 0 0.000346359971387584 0.023756150258912635 0 0.00031921034078718537 0.02371731128049626 0 0.00031921034078718537 0.02371731128049626 0 0.00030359821370788616 0.023787870507766599 0 0.00026330624173321346 0.024125090188638731 0 0.000346359971387584 0.023756150258912635 0 4.1191231307103775e-07 0.024998466187121572 0 0.00026330624173321346 0.024125090188638731 0 3.2678252911808696e-07 0.024999100163590509 0 4.02982804024856e-05 0.024419624372793453 0 -1.040674367632165e-07 0.02499916609412664 0 4.02982804024856e-05 0.024419624372793453 0 3.8340441585335303e-05 0.02426449223590741 0 -1.040674367632165e-07 0.02499916609412664 0 0.00017664172168897662 0.023964605660514244 0 6.1022834135040436e-09 0.024999493804821537 0 4.1191231307103775e-07 0.024998466187121572 0 0.00017320440322945676 0.024497378522174176 0 1.3402890716704254e-07 0.024999382749781206 0 4.1191231307103775e-07 0.024998466187121572 0 0.00017320440322945676 0.024497378522174176 0 0.00026330624173321346 0.024125090188638731 0 0.00017320440322945676 0.024497378522174176 0 0.00027876683931181797 0.024008633942606036 0 0.00026330624173321346 0.024125090188638731 0 0.00017320440322945676 0.024497378522174176 0 1.3402890716704254e-07 0.024999382749781206 0 0.0002250731379029533 0.0243156272422527 0 0.00017320440322945676 0.024497378522174176 0 0.00027876683931181797 0.024008633942606036 0 0.0002250731379029533 0.0243156272422527 0 0.00030566190657170934 0.023562961636114561 0 0.00027876683931181797 0.024008633942606036 0 0.00030359821370788616 0.023787870507766599 0 0.00031215414223083728 0.023520018126947598 0 0.00030566190657170934 0.023562961636114561 0 0.00030359821370788616 0.023787870507766599 0 0.00027876683931181797 0.024008633942606036 0 0.00030359821370788616 0.023787870507766599 0 0.00026330624173321346 0.024125090188638731 0 0.00027876683931181797 0.024008633942606036 0 0.00030443873462735187 0.023805756233043103 0 0.0002250731379029533 0.0243156272422527 0 0.00029675973135743258 0.023364274500147091 0 0.00030566190657170934 0.023562961636114561 0 0.00030443873462735187 0.023805756233043103 0 0.00030566190657170934 0.023562961636114561 0 0.00027876683931181797 0.024008633942606036 0 0.00030443873462735187 0.023805756233043103 0 0.00032647607361665425 0.023544165393645934 0 0.00030443873462735187 0.023805756233043103 0 0.00030741469977812444 0.024004923553781508 0 0.00030443873462735187 0.023805756233043103 0 0.00030741469977812444 0.024004923553781508 0 0.0002250731379029533 0.0243156272422527 0 0.00030741469977812444 0.024004923553781508 0 0.0002250731379029533 0.0243156272422527 0 0.00016398001222086208 0.024484053562092656 0 1.3402890716704254e-07 0.024999382749781206 0 0.00016398001222086208 0.024484053562092656 0 1.329508900266316e-07 0.02499830628444228 0 1.3402890716704254e-07 0.024999382749781206 0 0.0002250731379029533 0.0243156272422527 0 0.00016398001222086208 0.024484053562092656 0 0.00016398001222086208 0.024484053562092656 0 1.329508900266316e-07 0.02499830628444228 0 0.00034270598846298318 0.023908519428946607 0 1.6059319280687191e-07 0.024999709703212438 0 0.00022369993882795876 0.024416131405379099 0 1.8812304060689491e-05 0.024882189350511588 0 2.6321614699413428e-05 0.024805982325478475 0 1.999783582757956e-08 0.024999805100796146 0 5.1811061009108864e-09 0.024999932425866202 0 1.8812304060689491e-05 0.024882189350511588 0 1.999783582757956e-08 0.024999805100796146 0 0.00037131989600843552 0.023672274493425495 0 0.00030741469977812444 0.024004923553781508 0 0.00034270598846298318 0.023908519428946607 0 0.00030741469977812444 0.024004923553781508 0 0.00016398001222086208 0.024484053562092656 0 0.00034270598846298318 0.023908519428946607 0 0.00037131989600843552 0.023672274493425495 0 0.00034270598846298318 0.023908519428946607 0 0.00038300893624341445 0.02345190164592963 0 0.00034270598846298318 0.023908519428946607 0 0.00038300893624341445 0.02345190164592963 0 0.00043586811159789315 0.023642420893697641 0 0.00038300893624341445 0.02345190164592963 0 0.00014888058475098082 0.022998891176404867 0 9.481427113931684e-05 0.023337476194997479 0 0.00038300893624341445 0.02345190164592963 0 9.481427113931684e-05 0.023337476194997479 0 0.00043586811159789315 0.023642420893697641 0 -2.7680066579020881e-05 0.022839926236198887 0 0.00014888058475098082 0.022998891176404867 0 9.481427113931684e-05 0.023337476194997479 0 0.00020531402901029499 0.02289445452283502 0 0.00038300893624341445 0.02345190164592963 0 0.00014888058475098082 0.022998891176404867 0 -0.00023827329147306972 0.024182079566233774 0 0.00018026901463952808 0.024171142175922776 0 -0.00023048453096509818 0.024153855503178601 0 2.293377008843841e-05 0.024662354048791732 0 -3.3215151368737511e-05 0.02459662983720878 0 -0.00023048453096509818 0.024153855503178601 0 9.481427113931684e-05 0.023337476194997479 0 0.00043586811159789315 0.023642420893697641 0 2.293377008843841e-05 0.024662354048791732 0 2.6321614699413428e-05 0.024805982325478475 0 -3.3215151368737511e-05 0.02459662983720878 0 0.00022369993882795876 0.024416131405379099 0 0.00018026901463952808 0.024171142175922776 0 1.8812304060689491e-05 0.024882189350511588 0 2.293377008843841e-05 0.024662354048791732 0 2.6321614699413428e-05 0.024805982325478475 0 2.6321614699413428e-05 0.024805982325478475 0 -6.7748413218314748e-06 0.024790336365273846 0 1.9230766933858157e-05 0.024901128205142287 0 2.6321614699413428e-05 0.024805982325478475 0 -6.7748413218314748e-06 0.024790336365273846 0 -3.3215151368737511e-05 0.02459662983720878 0 -6.7748413218314748e-06 0.024790336365273846 0 -3.3215151368737511e-05 0.02459662983720878 0 -0.00010116123616252141 0.024770085813191664 0 -0.00023984083424930707 0.024716092836364539 0 -3.3215151368737511e-05 0.02459662983720878 0 -0.00010116123616252141 0.024770085813191664 0 -8.5685452060561921e-05 0.02490602270459517 0 -0.00023984083424930707 0.024716092836364539 0 -0.00010116123616252141 0.024770085813191664 0 -8.5685452060561921e-05 0.02490602270459517 0 -0.00010116123616252141 0.024770085813191664 0 -5.3074789627662573e-05 0.024839558223419642 0 -6.7748413218314748e-06 0.024790336365273846 0 -0.00010116123616252141 0.024770085813191664 0 -5.3074789627662573e-05 0.024839558223419642 0 -8.5685452060561921e-05 0.02490602270459517 0 -5.3074789627662573e-05 0.024839558223419642 0 -2.0051301959640253e-05 0.024884720576006124 0 9.8249482234644852e-07 0.024938497630966706 0 -2.0051301959640253e-05 0.024884720576006124 0 1.9230766933858157e-05 0.024901128205142287 0 -6.7748413218314748e-06 0.024790336365273846 0 -2.0051301959640253e-05 0.024884720576006124 0 1.9230766933858157e-05 0.024901128205142287 0 -6.7748413218314748e-06 0.024790336365273846 0 -5.3074789627662573e-05 0.024839558223419642 0 -2.0051301959640253e-05 0.024884720576006124 0 2.6321614699413428e-05 0.024805982325478475 0 1.9230766933858157e-05 0.024901128205142287 0 1.999783582757956e-08 0.024999805100796146 0 2.7268626640803414e-08 0.024999931204629292 0 1.9230766933858157e-05 0.024901128205142287 0 1.999783582757956e-08 0.024999805100796146 0 -0.00038433149902331422 0.0058229747983093039 0 -0.00067972683370320019 0.0056742034610716046 0 -0.00046027295180724707 0.0058734478908938547 0 -0.00037421833223168379 0.0059628298776699066 0 -0.00075119502947596493 0.0055948953607676474 0 -0.00064091967875359477 0.0055860702823092353 0 -0.00065228126676649268 0.0056032541732032063 0 -0.00067972683370320019 0.0056742034610716046 0 -0.00064091967875359477 0.0055860702823092353 0 -0.00065228126676649268 0.0056032541732032063 0 -0.00065304920319228196 0.0056023955484904601 0 -0.0017341728266954013 0.0040999467537542649 0 -0.001426842062687024 0.004264256791577996 0 -0.0025837488089386282 0.0026958444700208857 0 -0.0026184810036536687 0.0029219214028343827 0 -0.0022833315484174226 0.0029551479221212019 0 -0.00065228126676649268 0.0056032541732032063 0 -0.00065304920319228196 0.0056023955484904601 0 -0.00065348995125291437 0.0055229719845703781 0 -0.00065228126676649268 0.0056032541732032063 0 -0.00067972683370320019 0.0056742034610716046 0 -0.00076493205630269283 0.0055236727221348895 0 -0.00065228126676649268 0.0056032541732032063 0 -0.00065348995125291437 0.0055229719845703781 0 -0.00076493205630269283 0.0055236727221348895 0 -0.00081767600055709716 0.0056580136584759733 0 -0.00067972683370320019 0.0056742034610716046 0 -0.00076493205630269283 0.0055236727221348895 0 -0.00087743442253324371 0.0055792538091161701 0 -0.00081767600055709716 0.0056580136584759733 0 -0.00076493205630269283 0.0055236727221348895 0 -0.00087743442253324371 0.0055792538091161701 0 -0.00081767600055709716 0.0056580136584759733 0 -0.00092673612185772676 0.0056716556256552267 0 -0.00081767600055709716 0.0056580136584759733 0 -0.00088352348986093219 0.005753215054953317 0 -0.00078716062331838645 0.0057948680439130771 0 -0.00081767600055709716 0.0056580136584759733 0 -0.00088352348986093219 0.005753215054953317 0 -0.00092673612185772676 0.0056716556256552267 0 -0.00081767600055709716 0.0056580136584759733 0 -0.00067972683370320019 0.0056742034610716046 0 -0.00078716062331838645 0.0057948680439130771 0 -0.00067972683370320019 0.0056742034610716046 0 -0.00078716062331838645 0.0057948680439130771 0 -0.00058116235182337163 0.0059563975448748566 0 -0.00078716062331838645 0.0057948680439130771 0 -0.00081594683457666788 0.0059358173860344626 0 -0.00058116235182337163 0.0059563975448748566 0 -0.00078716062331838645 0.0057948680439130771 0 -0.00081594683457666788 0.0059358173860344626 0 -0.00092024354437121028 0.00585049063068148 0 -0.00081594683457666788 0.0059358173860344626 0 -0.00092024354437121028 0.00585049063068148 0 -0.0010014177646474986 0.00592235507838898 0 -0.00088352348986093219 0.005753215054953317 0 -0.00078716062331838645 0.0057948680439130771 0 -0.00092024354437121028 0.00585049063068148 0 0.00026500852773980878 0.0060272345937786142 0 0.00029927828344959479 0.0060324308077728626 0 0.00017220371879474758 0.0060997580878224154 0 -0.00028537761708832577 0.0059618657291703224 0 -0.00044173881594922415 0.0062209409058006189 0 0.00026500852773980878 0.0060272345937786142 0 9.0459745090806174e-05 0.0060076872617483143 0 0.00017220371879474758 0.0060997580878224154 0 0.00026500852773980878 0.0060272345937786142 0 0.00029927828344959479 0.0060324308077728626 0 7.5083351880470385e-05 0.0060730958149504246 0 -0.00028537761708832577 0.0059618657291703224 0 -0.00025625696263784282 0.0059999311858564656 0 0.00029927828344959479 0.0060324308077728626 0 7.5083351880470385e-05 0.0060730958149504246 0 -0.00015349702327128634 0.0057458382510872973 0 -0.00067972683370320019 0.0056742034610716046 0 -0.00058116235182337163 0.0059563975448748566 0 -0.00046027295180724707 0.0058734478908938547 0 -0.00058116235182337163 0.0059563975448748566 0 -0.00046027295180724707 0.0058734478908938547 0 -0.00037038233416783554 0.0059092333510053505 0 -0.00038433149902331422 0.0058229747983093039 0 -0.00046027295180724707 0.0058734478908938547 0 -0.00040608621833058544 0.005860651102193748 0 -0.00046027295180724707 0.0058734478908938547 0 -0.00037038233416783554 0.0059092333510053505 0 -0.00040608621833058544 0.005860651102193748 0 -0.00025625696263784282 0.0059999311858564656 0 -0.00035511551039684353 0.0059340281808256167 0 7.5083351880470385e-05 0.0060730958149504246 0 -0.00037038233416783554 0.0059092333510053505 0 -0.00015349702327128634 0.0057458382510872973 0 -0.00037038233416783554 0.0059092333510053505 0 -0.00048741291676810886 0.0057812830053171702 0 -0.00047191366101931439 0.00567788532510942 0 -0.00037038233416783554 0.0059092333510053505 0 -0.00043853606282663295 0.0058377841746368956 0 -0.00048741291676810886 0.0057812830053171702 0 -0.00043853606282663295 0.0058377841746368956 0 -0.00048741291676810886 0.0057812830053171702 0 -0.00049927390028544434 0.0057977903848799106 0 -0.00048741291676810886 0.0057812830053171702 0 -0.00057033065822945854 0.0057565392406788672 0 -0.00049927390028544434 0.0057977903848799106 0 -0.00082533681454601774 0.0050589671665790849 0 -0.00049927390028544434 0.0057977903848799106 0 -0.0013411734579788844 0.0053800830596314932 0 -0.00068784232125524466 0.0054111625663265835 0 -0.00052136985902131495 0.0057459534994897827 0 -0.0011769396526338525 0.0040813733422596808 0 -0.0023710350611293803 0.0022625521515356921 0 -0.0005800699171648598 0.0059926177055890772 0 -0.00049927390028544434 0.0057977903848799106 0 -0.0013411734579788844 0.0053800830596314932 0 -0.00038433149902331422 0.0058229747983093039 0 -0.0005800699171648598 0.0059926177055890772 0 -0.00040608621833058544 0.005860651102193748 0 -0.0005800699171648598 0.0059926177055890772 0 -0.00049927390028544434 0.0057977903848799106 0 -0.00040608621833058544 0.005860651102193748 0 -0.00037421833223168379 0.0059628298776699066 0 -0.0011769396526338525 0.0040813733422596808 0 -0.00037038233416783554 0.0059092333510053505 0 -0.00043853606282663295 0.0058377841746368956 0 -0.00040608621833058544 0.005860651102193748 0 -0.00043853606282663295 0.0058377841746368956 0 -0.00049927390028544434 0.0057977903848799106 0 -0.00040608621833058544 0.005860651102193748 0 -0.0022795678788996993 -0.0021749097369481432 0 -0.0020487984507623581 0.00069013284327177108 0 -0.0013232330990606809 0.0037065255410791732 0 -0.0020487984507623581 0.00069013284327177108 0 -0.0026985068432803308 0.0014860947567787348 0 -0.0021451526226979553 0.0015001350326258648 0 -0.0025311450143541032 0.00043895213759593404 0 -0.0021451526226979553 0.0015001350326258648 0 -0.0015706134257035321 0.0014293041977057291 0 -0.0025311450143541032 0.00043895213759593404 0 -0.0027191691530306455 -0.001869972019650617 0 -0.0022364825444964901 -0.0010912678548353823 0 -0.0028182252521519323 -0.0012357797586596447 0 -0.0026985068432803308 0.0014860947567787348 0 -0.0021451526226979553 0.0015001350326258648 0 -0.002411135581945474 0.0019579625176563476 0 -0.0022795678788996993 -0.0021749097369481432 0 -0.002458709022418658 0.00019950534963843224 0 -0.0022795678788996993 -0.0021749097369481432 0 -0.0023808844744824609 -0.0024980709045620514 0 -0.0021451526226979553 0.0015001350326258648 0 -0.0015706134257035321 0.0014293041977057291 0 -0.0015118960952526794 0.0021984626348711639 0 -0.00082533681454601774 0.0050589671665790849 0 -0.0013411734579788844 0.0053800830596314932 0 -0.0013077482341347811 0.0048106208872059188 0 -0.00060749715826677049 0.0024369465704842355 0 -0.0015706134257035321 0.0014293041977057291 0 -0.0015118960952526794 0.0021984626348711639 0 -0.0011769396526338525 0.0040813733422596808 0 -0.0013232330990606809 0.0037065255410791732 0 -0.0027996687106571646 0.0024633085659197763 0 -0.0029875214738290666 0.0023957962321359831 0 -0.002918704823990868 0.0025393270417611701 0 -0.0030273614445177123 0.0024926602509680721 0 -0.0029875214738290666 0.0023957962321359831 0 -0.002918704823990868 0.0025393270417611701 0 -0.0030273614445177123 0.0024926602509680721 0 -0.0029875214738290666 0.0023957962321359831 0 -0.0031056333546649615 0.0024296351826407895 0 -0.0027630387827515188 -0.0009412471824093117 0 -0.0026822946798694528 -0.00092599997838008739 0 -0.0026538446234011192 -0.0011274152802875006 0 -0.0029875214738290666 0.0023957962321359831 0 -0.0031056333546649615 0.0024296351826407895 0 -0.0031902023866332177 0.0023215224612130516 0 -0.0021451526226979553 0.0015001350326258648 0 -0.0015118960952526794 0.0021984626348711639 0 -0.002411135581945474 0.0019579625176563476 0 -0.0023710350611293803 0.0022625521515356921 0 -0.002458709022418658 0.00019950534963843224 0 -0.0030601415863562137 0.00098590555719447765 0 -0.002458709022418658 0.00019950534963843224 0 -0.0031281938733939488 0.002437770977054699 0 -0.0031056333546649615 0.0024296351826407895 0 -0.0031902023866332177 0.0023215224612130516 0 -0.0030273614445177123 0.0024926602509680721 0 -0.0031269604549680717 0.0024390307342321994 0 -0.0031056333546649615 0.0024296351826407895 0 -0.0030601415863562137 0.00098590555719447765 0 -0.0031170666981454498 0.0010608035778331493 0 -0.0028289693399069552 -0.0010410700182912215 0 -0.0027630387827515188 -0.0009412471824093117 0 -0.0026538446234011192 -0.0011274152802875006 0 -0.0030601415863562137 0.00098590555719447765 0 -0.0032316535737258426 -0.0023603174039966705 0 -0.002458709022418658 0.00019950534963843224 0 -0.0023808844744824609 -0.0024980709045620514 0 -0.0034476058926977255 0.0016452364955542175 0 -0.0035579887610928248 0.0020892012318948624 0 -0.0037939279849371985 0.0017859006932292288 0 -0.0034476058926977255 0.0016452364955542175 0 -0.0035579887610928248 0.0020892012318948624 0 -0.0031988398971526158 0.0021056659548620497 0 -0.0029998338216179745 0.0026579008345909497 0 -0.002918704823990868 0.0025393270417611701 0 -0.0027982616751335261 0.0026739819097647828 0 -0.0030273614445177123 0.0024926602509680721 0 -0.0031269604549680717 0.0024390307342321994 0 -0.0029998338216179745 0.0026579008345909497 0 -0.0030601415863562137 0.00098590555719447765 0 -0.0030575428423732704 0.0025303173757481798 0 -0.0030273614445177123 0.0024926602509680721 0 -0.0029998338216179745 0.0026579008345909497 0 -0.002918704823990868 0.0025393270417611701 0 -0.0031988398971526158 0.0021056659548620497 0 -0.0034546583890181473 0.0024385897362865024 0 -0.0029896070763611609 0.0025664125220454955 0 -0.0030575428423732704 0.0025303173757481798 0 -0.0029584219346129354 0.0026884688483364894 0 -0.0035579887610928248 0.0020892012318948624 0 -0.0034546583890181473 0.0024385897362865024 0 -0.0038695797572731241 0.002449643264729563 0 -0.0035579887610928248 0.0020892012318948624 0 -0.0031988398971526158 0.0021056659548620497 0 -0.0034546583890181473 0.0024385897362865024 0 -0.00064091967875359477 0.0055860702823092353 0 -0.00073442111426494524 0.0055270833980463957 0 -0.00065304920319228196 0.0056023955484904601 0 -0.0027996687106571646 0.0024633085659197763 0 -0.0027982616751335261 0.0026739819097647828 0 -0.0025837488089386282 0.0026958444700208857 0 -0.0011769396526338525 0.0040813733422596808 0 -0.0017341728266954013 0.0040999467537542649 0 -0.0027996687106571646 0.0024633085659197763 0 -0.002918704823990868 0.0025393270417611701 0 -0.0027982616751335261 0.0026739819097647828 0 -0.0027982616751335261 0.0026739819097647828 0 -0.0028936024807924491 0.0028586094829109641 0 -0.0026184810036536687 0.0029219214028343827 0 -0.0029998338216179745 0.0026579008345909497 0 -0.0027982616751335261 0.0026739819097647828 0 -0.0028936024807924491 0.0028586094829109641 0 -0.0027982616751335261 0.0026739819097647828 0 -0.0025837488089386282 0.0026958444700208857 0 -0.0026184810036536687 0.0029219214028343827 0 -0.0026184810036536687 0.0029219214028343827 0 -0.0028107527838544554 0.0030430461322244187 0 -0.0025334991786299089 0.0031960955959885449 0 -0.0028936024807924491 0.0028586094829109641 0 -0.0026184810036536687 0.0029219214028343827 0 -0.0028107527838544554 0.0030430461322244187 0 -0.0029896070763611609 0.0025664125220454955 0 -0.0028107527838544554 0.0030430461322244187 0 -0.003118607234321186 0.0030916011431298728 0 -0.0029584219346129354 0.0026884688483364894 0 -0.0028088843354034552 0.0030141987343120162 0 -0.0028107527838544554 0.0030430461322244187 0 -0.003118607234321186 0.0030916011431298728 0 -0.0029994134357108132 0.0034300241933418519 0 -0.0028107527838544554 0.0030430461322244187 0 -0.0026565451390497563 0.003458441065488831 0 -0.0025334991786299089 0.0031960955959885449 0 -0.0034546583890181473 0.0024385897362865024 0 -0.0034803661874597664 0.0029197084419500794 0 -0.0038695797572731241 0.002449643264729563 0 -0.0029896070763611609 0.0025664125220454955 0 -0.003118607234321186 0.0030916011431298728 0 -0.0034803661874597664 0.0029197084419500794 0 -0.0034546583890181473 0.0024385897362865024 0 -0.0029896070763611609 0.0025664125220454955 0 -0.0034803661874597664 0.0029197084419500794 0 -0.003118607234321186 0.0030916011431298728 0 -0.0034803661874597664 0.0029197084419500794 0 -0.0033184916695012507 0.0033887809446109126 0 -0.0034803661874597664 0.0029197084419500794 0 -0.0036631701333558358 0.0033404958971898846 0 -0.0038970816713420381 0.0030270853252435457 0 -0.0034803661874597664 0.0029197084419500794 0 -0.0036631701333558358 0.0033404958971898846 0 -0.0033184916695012507 0.0033887809446109126 0 -0.003118607234321186 0.0030916011431298728 0 -0.0033184916695012507 0.0033887809446109126 0 -0.0029994134357108132 0.0034300241933418519 0 -0.0033184916695012507 0.0033887809446109126 0 -0.0031882641729691088 0.0037155767666550328 0 -0.0029994134357108132 0.0034300241933418519 0 -0.0035263070553805407 0.003836358555986602 0 -0.0033184916695012507 0.0033887809446109126 0 -0.0031882641729691088 0.0037155767666550328 0 -0.0035263070553805407 0.003836358555986602 0 -0.0036631701333558358 0.0033404958971898846 0 -0.0033184916695012507 0.0033887809446109126 0 -0.0028107527838544554 0.0030430461322244187 0 -0.0026565451390497563 0.003458441065488831 0 -0.0029994134357108132 0.0034300241933418519 0 -0.0028699437365206013 0.003868094711308018 0 -0.0031882641729691088 0.0037155767666550328 0 -0.0029994134357108132 0.0034300241933418519 0 -0.0028699437365206013 0.003868094711308018 0 -0.0026565451390497563 0.003458441065488831 0 -0.0024604886626100777 0.0037616313315106125 0 -0.0028699437365206013 0.003868094711308018 0 -0.0026565451390497563 0.003458441065488831 0 -0.0029994134357108132 0.0034300241933418519 0 -0.0024604886626100777 0.0037616313315106125 0 -0.0022904667304730056 0.0035286957672222268 0 -0.0021267351388306417 0.0039089253539235222 0 -0.0024515527239248112 0.0040649376282894277 0 -0.0024604886626100777 0.0037616313315106125 0 -0.0021267351388306417 0.0039089253539235222 0 -0.0022904667304730056 0.0035286957672222268 0 -0.0020851438137713817 0.0037267034935915032 0 -0.0021267351388306417 0.0039089253539235222 0 -0.0023759674530526975 0.0034138089927442149 0 -0.0014409694507601001 0.0043362331032059014 0 -0.0026565451390497563 0.003458441065488831 0 -0.0024604886626100777 0.0037616313315106125 0 -0.0022904667304730056 0.0035286957672222268 0 -0.0026565451390497563 0.003458441065488831 0 -0.0022904667304730056 0.0035286957672222268 0 -0.0025334991786299089 0.0031960955959885449 0 -0.0022904667304730056 0.0035286957672222268 0 -0.0025334991786299089 0.0031960955959885449 0 -0.0022833315484174226 0.0029551479221212019 0 -0.0022904667304730056 0.0035286957672222268 0 -0.0022833315484174226 0.0029551479221212019 0 -0.0018929540893356275 0.0033597187958152521 0 -0.001426842062687024 0.004264256791577996 0 -0.0014409694507601001 0.0043362331032059014 0 -0.0026184810036536687 0.0029219214028343827 0 -0.0025334991786299089 0.0031960955959885449 0 -0.0022833315484174226 0.0029551479221212019 0 -0.00087743442253324371 0.0055792538091161701 0 -0.00076493205630269283 0.0055236727221348895 0 -0.00091949898016126447 0.0055084034345314553 0 -0.00076493205630269283 0.0055236727221348895 0 -0.00087781076699493851 0.0054338082071971466 0 -0.00091949898016126447 0.0055084034345314553 0 -0.00065348995125291437 0.0055229719845703781 0 -0.00076493205630269283 0.0055236727221348895 0 -0.00076093306021094603 0.0053809552583861464 0 -0.00076493205630269283 0.0055236727221348895 0 -0.00076093306021094603 0.0053809552583861464 0 -0.00087781076699493851 0.0054338082071971466 0 -0.0014409694507601001 0.0043362331032059014 0 -0.0011099580091717615 0.0054179580977611035 0 -0.00095694307857433815 0.0051335858698604124 0 -0.0015375298678631329 0.0054137178548297532 0 -0.0014115230690078893 0.004668531789213142 0 -0.0015375298678631329 0.0054137178548297532 0 -0.0014115230690078893 0.004668531789213142 0 -0.0017416500375237868 0.0049142945997038149 0 -0.0020652437012812128 0.0035392969093166176 0 -0.0019259213053529488 0.0037937444203439211 0 -0.0020851438137713817 0.0037267034935915032 0 -0.0022904667304730056 0.0035286957672222268 0 -0.0020652437012812128 0.0035392969093166176 0 -0.0020851438137713817 0.0037267034935915032 0 -0.0014409694507601001 0.0043362331032059014 0 -0.0017030335474104161 0.0042236645270888103 0 -0.0020851438137713817 0.0037267034935915032 0 -0.0021267351388306417 0.0039089253539235222 0 -0.0019595027105264872 0.0039687829829582674 0 -0.0018808781525067953 0.0040949667241343898 0 -0.0019595027105264872 0.0039687829829582674 0 -0.0019744221492945997 0.0041311127768730218 0 -0.0019259213053529488 0.0037937444203439211 0 -0.0019595027105264872 0.0039687829829582674 0 -0.0019744221492945997 0.0041311127768730218 0 -0.0019259213053529488 0.0037937444203439211 0 -0.0020851438137713817 0.0037267034935915032 0 -0.0019595027105264872 0.0039687829829582674 0 -0.0017030335474104161 0.0042236645270888103 0 -0.0019365027367705871 0.0041126268657776747 0 -0.0014115230690078893 0.004668531789213142 0 -0.0019744221492945997 0.0041311127768730218 0 -0.0019764903406985141 0.004479130002166971 0 -0.0021914252416180839 0.0041155330508436377 0 -0.0019764903406985141 0.004479130002166971 0 -0.0024982635476878687 0.0050757906428191332 0 -0.0018808781525067953 0.0040949667241343898 0 -0.0019744221492945997 0.0041311127768730218 0 -0.0021914252416180839 0.0041155330508436377 0 -0.0019744221492945997 0.0041311127768730218 0 -0.0021914252416180839 0.0041155330508436377 0 -0.0019764903406985141 0.004479130002166971 0 -0.0019764903406985141 0.004479130002166971 0 -0.0017416500375237868 0.0049142945997038149 0 -0.0020448377558175022 0.0050887062880748037 0 -0.0019658545799989689 0.0045633357340059055 0 -0.0020511962086953088 0.0053836020839288616 0 -0.0019764903406985141 0.004479130002166971 0 -0.0024982635476878687 0.0050757906428191332 0 -0.0020048473943889392 0.0056361107522114352 0 -0.0014115230690078893 0.004668531789213142 0 -0.0019764903406985141 0.004479130002166971 0 -0.0017416500375237868 0.0049142945997038149 0 -0.0021914252416180839 0.0041155330508436377 0 -0.0024982635476878687 0.0050757906428191332 0 -0.0036185248118076529 0.005126472033212843 0 -0.0024982635476878687 0.0050757906428191332 0 -0.0036185248118076529 0.005126472033212843 0 -0.0027541424436851596 0.0061263497116477335 0 -0.0032145669982731385 0.0092871696505215685 0 -0.0039693995036059063 0.0095548447687290542 0 -0.0042677345133102784 0.014441486735194764 0 -0.0041449577492635101 0.014404206748654081 0 -0.0041490652751224669 0.014044040544564006 0 -0.0040727955879917583 0.014547060240324702 0 -0.0041449577492635101 0.014404206748654081 0 -0.0039287928279534302 0.014228071140279139 0 -0.0041449577492635101 0.014404206748654081 0 -0.0039287928279534302 0.014228071140279139 0 -0.0041490652751224669 0.014044040544564006 0 -0.0038174727519402758 0.014459553628950786 0 -0.0040727955879917583 0.014547060240324702 0 -0.0039287928279534302 0.014228071140279139 0 -0.0039287928279534302 0.014228071140279139 0 -0.0041490652751224669 0.014044040544564006 0 -0.0037241069970192536 0.013897951120875074 0 -0.0036185248118076529 0.005126472033212843 0 -0.0037973752812094251 0.0065990657260203336 0 -0.0027541424436851596 0.0061263497116477335 0 -0.0039693995036059063 0.0095548447687290542 0 -0.0037576437073964359 0.010193139634127714 0 -0.0036185248118076529 0.005126472033212843 0 -0.0049503100718565046 0.0062106937341740156 0 -0.0037973752812094251 0.0065990657260203336 0 -0.0041490652751224669 0.014044040544564006 0 -0.0037473183790129681 0.013568200419176994 0 -0.0037241069970192536 0.013897951120875074 0 -0.0037576437073964359 0.010193139634127714 0 -0.0033115376434242061 0.007344107933155322 0 -0.0023588313891750282 0.0085248716496634479 0 -0.0019126478229221549 0.0078153840586535645 0 -0.002289292227959855 0.0085653697746864051 0 -0.0022788973191181948 0.0084610885173944505 0 -0.0025171462003945257 0.0084701798177076702 0 -0.0022788973191181948 0.0084610885173944505 0 -0.0025171462003945257 0.0084701798177076702 0 -0.0024465968494789686 0.0082441496004062101 0 -0.0033115376434242061 0.007344107933155322 0 -0.0022282314516501888 0.0071744771704282491 0 -0.0025171462003945257 0.0084701798177076702 0 -0.0027423727136593034 0.0083724780022118479 0 -0.0024465968494789686 0.0082441496004062101 0 -0.0037973752812094251 0.0065990657260203336 0 -0.0026363756282056371 0.0070076084455901874 0 -0.0027541424436851596 0.0061263497116477335 0 -0.0026363756282056371 0.0070076084455901874 0 -0.0021473550341471431 0.0067767967388241146 0 -0.0027541424436851596 0.0061263497116477335 0 -0.0016075536663934099 0.0069252412105823575 0 -0.0015962827055687025 0.0069269207159997227 0 -0.0016136628479276596 0.0069440136907760169 0 -0.0022282314516501888 0.0071744771704282491 0 -0.0017148571922713852 0.0061006050241124675 0 -0.0019370633765172663 0.0065625275097301785 0 -0.0016804959738607027 0.0066543982750006982 0 -0.0016498967796658701 0.006426869414688092 0 -0.0022282314516501888 0.0071744771704282491 0 -0.0014007758415108134 0.0062393479771333292 0 -0.0010140306284989835 0.0055419509753213483 0 -0.00091949898016126447 0.0055084034345314553 0 -0.0010082960619199038 0.0054951263062335484 0 -0.00087743442253324371 0.0055792538091161701 0 -0.0010140306284989835 0.0055419509753213483 0 -0.00091949898016126447 0.0055084034345314553 0 -0.00087781076699493851 0.0054338082071971466 0 -0.00091949898016126447 0.0055084034345314553 0 -0.0010082960619199038 0.0054951263062335484 0 -0.0011099580091717615 0.0054179580977611035 0 -0.0017148571922713852 0.0061006050241124675 0 -0.0014007758415108134 0.0062393479771333292 0 -0.0017148571922713852 0.0061006050241124675 0 -0.0017148571922713852 0.0061006050241124675 0 -0.0020511962086953088 0.0053836020839288616 0 -0.0015375298678631329 0.0054137178548297532 0 -0.0017416500375237868 0.0049142945997038149 0 -0.0020448377558175022 0.0050887062880748037 0 -0.0015375298678631329 0.0054137178548297532 0 -0.0021217875666791827 0.005692384457621805 0 -0.0020448377558175022 0.0050887062880748037 0 -0.0024982635476878687 0.0050757906428191332 0 -0.0020048473943889392 0.0056361107522114352 0 -0.0027541424436851596 0.0061263497116477335 0 -0.0021473550341471431 0.0067767967388241146 0 -0.0020048473943889392 0.0056361107522114352 0 -0.0027541424436851596 0.0061263497116477335 0 5.9708211303246905e-05 0.01480024402974449 0 -0.00030324737547113826 0.014509491805873248 0 9.4172461438310406e-05 0.014303899810732049 0 -0.00050791641394260022 0.015105076200246014 0 -0.0015729971571416383 0.013851317033640523 0 -0.001980669387326185 0.013825228823726879 0 -0.0025580804264447804 0.013809678757166837 0 -0.0026392360792505142 0.013405394871100913 0 -0.0020891707380355845 0.013908725007312476 0 -0.001980669387326185 0.013825228823726879 0 -0.0025580804264447804 0.013809678757166837 0 -0.00082219784335852916 0.015017911478172939 0 -0.00050791641394260022 0.015105076200246014 0 -0.0020891707380355845 0.013908725007312476 0 -0.0019490745473372971 0.01379884589222192 0 -0.0018505116375893433 0.014475274544492467 0 -0.0020891707380355845 0.013908725007312476 0 -0.0018505116375893433 0.014475274544492467 0 -0.0024808646101835185 0.014356170391746097 0 -0.0020891707380355845 0.013908725007312476 0 -0.0024808646101835185 0.014356170391746097 0 -0.0025580804264447804 0.013809678757166837 0 -0.0024808646101835185 0.014356170391746097 0 -0.0030147959345754199 0.014095011922496011 0 -0.0025580804264447804 0.013809678757166837 0 -0.0032672789759471553 0.01475614001958319 0 -0.0024808646101835185 0.014356170391746097 0 -0.0030147959345754199 0.014095011922496011 0 -0.0030147959345754199 0.014095011922496011 0 -0.0025580804264447804 0.013809678757166837 0 -0.003095568915340251 0.013561817896442292 0 -0.0025580804264447804 0.013809678757166837 0 -0.003095568915340251 0.013561817896442292 0 -0.0026392360792505142 0.013405394871100913 0 -0.0030147959345754199 0.014095011922496011 0 -0.003095568915340251 0.013561817896442292 0 -0.0036212515884671581 0.013796293209157805 0 -0.0030147959345754199 0.014095011922496011 0 -0.003480349102653968 0.014333614537614931 0 -0.0036212515884671581 0.013796293209157805 0 -0.0032672789759471553 0.01475614001958319 0 -0.0030147959345754199 0.014095011922496011 0 -0.003480349102653968 0.014333614537614931 0 -0.0038174727519402758 0.014459553628950786 0 -0.0039287928279534302 0.014228071140279139 0 -0.0034651910126142133 0.014056907821669051 0 -0.0037513553553897346 0.014409783781829133 0 -0.0037043102535541219 0.013918121803710087 0 -0.0038174727519402758 0.014459553628950786 0 -0.003480349102653968 0.014333614537614931 0 -0.0036212515884671581 0.013796293209157805 0 -0.0039287928279534302 0.014228071140279139 0 -0.0034651910126142133 0.014056907821669051 0 -0.0037241069970192536 0.013897951120875074 0 -0.0034651910126142133 0.014056907821669051 0 -0.0037241069970192536 0.013897951120875074 0 -0.0034929659871814011 0.01362719204684361 0 -0.003818955471505743 0.01348754810561705 0 -0.0034929659871814011 0.01362719204684361 0 -0.00336348213697619 0.013147527250616266 0 -0.0037473183790129681 0.013568200419176994 0 -0.0037241069970192536 0.013897951120875074 0 -0.0034929659871814011 0.01362719204684361 0 -0.0037576437073964359 0.010193139634127714 0 -0.0030546315806781695 0.012829297539767703 0 -0.0022788973191181948 0.0084610885173944505 0 -0.0021481062514659044 0.0084513044013813394 0 -0.002288204727576305 0.008339120715942467 0 -0.0018719119911858556 0.010174770019534178 0 -0.0011883396057885197 0.0079791207486256781 0 -0.0037576437073964359 0.010193139634127714 0 -0.0018719119911858556 0.010174770019534178 0 -0.002289292227959855 0.0085653697746864051 0 -0.0022788973191181948 0.0084610885173944505 0 -0.0021481062514659044 0.0084513044013813394 0 -0.0019449390415072953 0.011324426498119504 0 -0.0011830092037234505 0.011929741061022152 0 -0.0010648375618514062 0.010647266668433483 0 -0.0011830092037234505 0.011929741061022152 0 -0.00018516497497731679 0.0099686849260879114 0 -0.0010648375618514062 0.010647266668433483 0 -0.0018719119911858556 0.010174770019534178 0 -0.0019415136983169791 0.013451203449282632 0 -0.0018719119911858556 0.010174770019534178 0 -0.00022383576212650267 0.0092510828157928437 0 -0.0034651910126142133 0.014056907821669051 0 -0.0034929659871814011 0.01362719204684361 0 -0.0030618945693419459 0.013411774155512769 0 -0.0034929659871814011 0.01362719204684361 0 -0.00336348213697619 0.013147527250616266 0 -0.0030618945693419459 0.013411774155512769 0 -0.0037043102535541219 0.013918121803710087 0 -0.0019415136983169791 0.013451203449282632 0 -0.003095568915340251 0.013561817896442292 0 -0.0036212515884671581 0.013796293209157805 0 -0.0032250426980504222 0.012971344431649063 0 -0.00066956307782339527 0.01421425775776216 0 -0.00030324737547113826 0.014509491805873248 0 -0.00023595784087445328 0.014127975751850807 0 -0.003095568915340251 0.013561817896442292 0 -0.0032250426980504222 0.012971344431649063 0 -0.0026392360792505142 0.013405394871100913 0 -0.0019415136983169791 0.013451203449282632 0 -0.0015729971571416383 0.013851317033640523 0 -0.00066956307782339527 0.01421425775776216 0 -0.00023595784087445328 0.014127975751850807 0 -0.0003623160834547905 0.013658825952060845 0 -0.0019415136983169791 0.013451203449282632 0 -0.00011119331242500846 0.010296496804717068 0 -0.00023595784087445328 0.014127975751850807 0 7.7652940105991909e-05 0.01389349001919978 0 -0.0003623160834547905 0.013658825952060845 0 -0.00023595784087445328 0.014127975751850807 0 7.7652940105991909e-05 0.01389349001919978 0 9.4172461438310406e-05 0.014303899810732049 0 -0.00030324737547113826 0.014509491805873248 0 -0.00023595784087445328 0.014127975751850807 0 9.4172461438310406e-05 0.014303899810732049 0 0.00014282463141621462 0.01079319599870286 0 -0.00011119331242500846 0.010296496804717068 0 0.00039758706599262947 0.0079517128773730541 0 0.00029015816410427585 0.0079810851199505536 0 0.00032326777129303396 0.007871563061830858 0 0.00029181310478926476 0.013647869275417989 0 7.7652940105991909e-05 0.01389349001919978 0 1.1984036157769567e-05 0.013403880776078016 0 7.7652940105991909e-05 0.01389349001919978 0 1.1984036157769567e-05 0.013403880776078016 0 -0.0003623160834547905 0.013658825952060845 0 -0.00011119331242500846 0.010296496804717068 0 0.00062821581624814449 0.0077933102499599949 0 -0.00011119331242500846 0.010296496804717068 0 -0.00022383576212650267 0.0092510828157928437 0 0.0002540867523641953 0.0080538722882879145 0 0.00022216131810113285 0.0079770937709454474 0 0.00016794986624952133 0.0080271600469263345 0 0.00039758706599262947 0.0079517128773730541 0 0.00024600097529004747 0.0080906788738946429 0 0.00029015816410427585 0.0079810851199505536 0 0.00022216131810113285 0.0079770937709454474 0 0.00029015816410427585 0.0079810851199505536 0 0.00023506051683732076 0.0078916308001825558 0 0.00022216131810113285 0.0079770937709454474 0 0.00023506051683732076 0.0078916308001825558 0 0.00014790738094172417 0.0079273372501083676 0 0.0002540867523641953 0.0080538722882879145 0 0.00022216131810113285 0.0079770937709454474 0 0.00029015816410427585 0.0079810851199505536 0 0.00029015816410427585 0.0079810851199505536 0 0.00023506051683732076 0.0078916308001825558 0 0.00032326777129303396 0.007871563061830858 0 0.00010456560371542649 0.0078516273220587129 0 0.00014790738094172417 0.0079273372501083676 0 0.00016712205998286605 0.0078186302493291841 0 0.00023506051683732076 0.0078916308001825558 0 0.00014790738094172417 0.0079273372501083676 0 0.00016712205998286605 0.0078186302493291841 0 0.00010456560371542649 0.0078516273220587129 0 0.00014790738094172417 0.0079273372501083676 0 2.8229548916481134e-05 0.0078955011276511649 0 0.00014790738094172417 0.0079273372501083676 0 5.0286873295251488e-05 0.0080392768342051474 0 2.8229548916481134e-05 0.0078955011276511649 0 0.00022216131810113285 0.0079770937709454474 0 0.00014790738094172417 0.0079273372501083676 0 0.00016794986624952133 0.0080271600469263345 0 2.9508537962771731e-05 0.0082359631307508622 0 0.00015175277373320441 0.0081398257326530145 0 5.0286873295251488e-05 0.0080392768342051474 0 0.0002540867523641953 0.0080538722882879145 0 0.00016794986624952133 0.0080271600469263345 0 0.00015175277373320441 0.0081398257326530145 0 0.00016794986624952133 0.0080271600469263345 0 0.00015175277373320441 0.0081398257326530145 0 5.0286873295251488e-05 0.0080392768342051474 0 0.00014790738094172417 0.0079273372501083676 0 0.00016794986624952133 0.0080271600469263345 0 5.0286873295251488e-05 0.0080392768342051474 0 2.9508537962771731e-05 0.0082359631307508622 0 5.0286873295251488e-05 0.0080392768342051474 0 -0.00012745175733388421 0.0080932865969188025 0 5.0286873295251488e-05 0.0080392768342051474 0 -0.00012745175733388421 0.0080932865969188025 0 -8.9788651172813575e-05 0.007961768621806543 0 2.8229548916481134e-05 0.0078955011276511649 0 -2.7153421013021543e-05 0.0077422317718108466 0 -0.0001242521021262224 0.0078299895219625607 0 2.8229548916481134e-05 0.0078955011276511649 0 -8.9788651172813575e-05 0.007961768621806543 0 -0.0001242521021262224 0.0078299895219625607 0 5.0286873295251488e-05 0.0080392768342051474 0 2.8229548916481134e-05 0.0078955011276511649 0 -8.9788651172813575e-05 0.007961768621806543 0 0.00010456560371542649 0.0078516273220587129 0 2.8229548916481134e-05 0.0078955011276511649 0 6.9765470961646804e-05 0.0077659467352936646 0 2.8229548916481134e-05 0.0078955011276511649 0 -2.7153421013021543e-05 0.0077422317718108466 0 6.9765470961646804e-05 0.0077659467352936646 0 -2.7153421013021543e-05 0.0077422317718108466 0 6.9765470961646804e-05 0.0077659467352936646 0 3.919292811558562e-05 0.0076646989984292336 0 -2.7153421013021543e-05 0.0077422317718108466 0 3.919292811558562e-05 0.0076646989984292336 0 -4.1869528376665048e-05 0.007616617120418891 0 -7.5058345272837135e-06 0.0075684693880867463 0 7.8132814309419608e-05 0.0075654272968993779 0 -7.1214467787372788e-05 0.0074791694828017655 0 -4.1869528376665048e-05 0.007616617120418891 0 -7.5058345272837135e-06 0.0075684693880867463 0 -0.00010760840627663946 0.0075165662508824048 0 3.919292811558562e-05 0.0076646989984292336 0 -4.1869528376665048e-05 0.007616617120418891 0 -7.5058345272837135e-06 0.0075684693880867463 0 -7.5058345272837135e-06 0.0075684693880867463 0 8.600058892681422e-05 0.0076202311532175965 0 7.8132814309419608e-05 0.0075654272968993779 0 3.919292811558562e-05 0.0076646989984292336 0 -7.5058345272837135e-06 0.0075684693880867463 0 8.600058892681422e-05 0.0076202311532175965 0 7.8132814309419608e-05 0.0075654272968993779 0 0.00018539813883066271 0.0076561011870624977 0 0.00025721520715807491 0.0075877894579963736 0 3.919292811558562e-05 0.0076646989984292336 0 8.600058892681422e-05 0.0076202311532175965 0 0.00013606632569693544 0.0077122744126507476 0 8.600058892681422e-05 0.0076202311532175965 0 7.8132814309419608e-05 0.0075654272968993779 0 0.00018539813883066271 0.0076561011870624977 0 8.600058892681422e-05 0.0076202311532175965 0 0.00018539813883066271 0.0076561011870624977 0 0.00013606632569693544 0.0077122744126507476 0 0.00018539813883066271 0.0076561011870624977 0 0.00013606632569693544 0.0077122744126507476 0 0.00025228916244225051 0.007777090556710122 0 0.00013606632569693544 0.0077122744126507476 0 0.00016712205998286605 0.0078186302493291841 0 0.00025228916244225051 0.007777090556710122 0 6.9765470961646804e-05 0.0077659467352936646 0 3.919292811558562e-05 0.0076646989984292336 0 0.00013606632569693544 0.0077122744126507476 0 6.9765470961646804e-05 0.0077659467352936646 0 0.00013606632569693544 0.0077122744126507476 0 0.00016712205998286605 0.0078186302493291841 0 0.00010456560371542649 0.0078516273220587129 0 6.9765470961646804e-05 0.0077659467352936646 0 0.00016712205998286605 0.0078186302493291841 0 0.00032326777129303396 0.007871563061830858 0 0.00025228916244225051 0.007777090556710122 0 0.00039332150496780853 0.007815798683846539 0 0.00025228916244225051 0.007777090556710122 0 0.00031275062941527482 0.0077121492800333495 0 0.00039332150496780853 0.007815798683846539 0 0.00023506051683732076 0.0078916308001825558 0 0.00016712205998286605 0.0078186302493291841 0 0.00025228916244225051 0.007777090556710122 0 0.00023506051683732076 0.0078916308001825558 0 0.00032326777129303396 0.007871563061830858 0 0.00025228916244225051 0.007777090556710122 0 0.00018539813883066271 0.0076561011870624977 0 0.00025228916244225051 0.007777090556710122 0 0.00031275062941527482 0.0077121492800333495 0 0.00018539813883066271 0.0076561011870624977 0 0.00031275062941527482 0.0077121492800333495 0 0.00025721520715807491 0.0075877894579963736 0 0.00046546211226514031 0.0077245110173205199 0 0.00031275062941527482 0.0077121492800333495 0 0.00025721520715807491 0.0075877894579963736 0 0.00046546211226514031 0.0077245110173205199 0 0.00031275062941527482 0.0077121492800333495 0 0.00039332150496780853 0.007815798683846539 0 0.0005166437649606892 0.0078771553565781527 0 0.00039758706599262947 0.0079517128773730541 0 0.00039332150496780853 0.007815798683846539 0 0.00039758706599262947 0.0079517128773730541 0 0.00032326777129303396 0.007871563061830858 0 0.00039332150496780853 0.007815798683846539 0 -0.0015965247955890187 0.0069530028295942811 0 -0.0015956350450645918 0.0069776899917493706 0 -0.001604577422975756 0.0069733640892123798 0 -0.0013246701156684536 0.0062952056685024772 0 -0.0011273925369762446 0.0065152259810948489 0 -0.0015965247955890187 0.0069530028295942811 0 -0.0016094606219393694 0.0069577679463661913 0 -0.001604577422975756 0.0069733640892123798 0 -0.0016094606219393694 0.0069577679463661913 0 -0.0016232145236177197 0.0069606011281532106 0 -0.001604577422975756 0.0069733640892123798 0 -0.0014786198513309242 0.0072183419027036866 0 -0.0010021597192731422 0.0072515567637744848 0 -0.0010471478037051608 0.0056754679430982072 0 -0.00097392890688007352 0.0057801844819989128 0 -0.001071325419871975 0.005831586745238761 0 -0.00088352348986093219 0.005753215054953317 0 -0.00097392890688007352 0.0057801844819989128 0 -0.00092673612185772676 0.0056716556256552267 0 -0.0010471478037051608 0.0056754679430982072 0 -0.00097392890688007352 0.0057801844819989128 0 -0.00092673612185772676 0.0056716556256552267 0 -0.00082223061101887132 0.0055169769055635667 0 -0.0014007758415108134 0.0062393479771333292 0 -0.0010259031475876158 0.005530352465723861 0 -0.0010471478037051608 0.0056754679430982072 0 -0.00097485655845970217 0.0056122071164540713 0 -0.00087743442253324371 0.0055792538091161701 0 -0.0010259031475876158 0.005530352465723861 0 -0.00097485655845970217 0.0056122071164540713 0 -0.0010471478037051608 0.0056754679430982072 0 -0.00092673612185772676 0.0056716556256552267 0 -0.00097485655845970217 0.0056122071164540713 0 -0.00087743442253324371 0.0055792538091161701 0 -0.00092673612185772676 0.0056716556256552267 0 -0.00097485655845970217 0.0056122071164540713 0 -0.0014007758415108134 0.0062393479771333292 0 -0.0013246701156684536 0.0062952056685024772 0 -0.0015962827055687025 0.0069269207159997227 0 -0.0015965247955890187 0.0069530028295942811 0 -0.0016136628479276596 0.0069440136907760169 0 -0.0016094606219393694 0.0069577679463661913 0 -0.0016136628479276596 0.0069440136907760169 0 -0.0016232145236177197 0.0069606011281532106 0 -0.0015965247955890187 0.0069530028295942811 0 -0.0016094606219393694 0.0069577679463661913 0 -0.0016136628479276596 0.0069440136907760169 0 -0.0022282314516501888 0.0071744771704282491 0 -0.0019126478229221549 0.0078153840586535645 0 -0.0016136628479276596 0.0069440136907760169 0 -0.001641453197722067 0.0069486146374711216 0 -0.0016232145236177197 0.0069606011281532106 0 -0.0016075536663934099 0.0069252412105823575 0 -0.0016136628479276596 0.0069440136907760169 0 -0.001641453197722067 0.0069486146374711216 0 -0.0019126478229221549 0.0078153840586535645 0 -0.0014786198513309242 0.0072183419027036866 0 -0.001257648893646106 0.0075532304914689881 0 -0.0012450506443306211 0.0075608533348326974 0 -0.001250468831683571 0.0075617408396405905 0 -0.0022788973191181948 0.0084610885173944505 0 -0.002288204727576305 0.008339120715942467 0 -0.002374166204229187 0.008324158646566323 0 -0.00018840154370338311 0.0080441601674722217 0 -8.9788651172813575e-05 0.007961768621806543 0 -0.00030770658482925765 0.0079510928801615564 0 -0.0011883396057885197 0.0079791207486256781 0 -0.0013137511390852845 0.007841870340727683 0 -0.002288204727576305 0.008339120715942467 0 -0.002374166204229187 0.008324158646566323 0 -0.0023282937199814195 0.0083037741988429194 0 -0.0019126478229221549 0.0078153840586535645 0 -0.0013137511390852845 0.007841870340727683 0 -0.001257648893646106 0.0075532304914689881 0 -0.0012626944767080038 0.0075563538501749001 0 -0.001250468831683571 0.0075617408396405905 0 -0.0013137511390852845 0.007841870340727683 0 -0.00071180262967981956 0.0078684201412558587 0 -0.00012745175733388421 0.0080932865969188025 0 -0.00018840154370338311 0.0080441601674722217 0 -8.9788651172813575e-05 0.007961768621806543 0 -8.9788651172813575e-05 0.007961768621806543 0 -0.0001242521021262224 0.0078299895219625607 0 -0.00030770658482925765 0.0079510928801615564 0 -0.0001242521021262224 0.0078299895219625607 0 -0.00030770658482925765 0.0079510928801615564 0 -0.00025308149933751101 0.0077662117099865698 0 -0.00030770658482925765 0.0079510928801615564 0 -0.00039732977527101717 0.0077405671056681828 0 -0.00055710804179343542 0.0077726334267409596 0 -0.0012450506443306211 0.0075608533348326974 0 -0.001250468831683571 0.0075617408396405905 0 -0.0012328622305890599 0.0075652422820531627 0 -0.00071180262967981956 0.0078684201412558587 0 -0.0010021597192731422 0.0072515567637744848 0 -0.00030770658482925765 0.0079510928801615564 0 -0.00039732977527101717 0.0077405671056681828 0 -0.00025308149933751101 0.0077662117099865698 0 -0.00039732977527101717 0.0077405671056681828 0 -0.00028352900135516774 0.0076662588028384377 0 -0.00042820420217755986 0.0076142595256416031 0 -0.00022152738324447485 0.0075405525665712039 0 -0.00042820420217755986 0.0076142595256416031 0 -0.00063650149361890664 0.0075172863118536711 0 -0.00039732977527101717 0.0077405671056681828 0 -0.00042820420217755986 0.0076142595256416031 0 -0.00053757019124501886 0.007665800879048907 0 -0.00039732977527101717 0.0077405671056681828 0 -0.00028352900135516774 0.0076662588028384377 0 -0.00025308149933751101 0.0077662117099865698 0 -0.00028352900135516774 0.0076662588028384377 0 -0.00022152738324447485 0.0075405525665712039 0 -0.00042820420217755986 0.0076142595256416031 0 -2.7153421013021543e-05 0.0077422317718108466 0 -0.0001242521021262224 0.0078299895219625607 0 -0.00014408135982773025 0.0076629486388206988 0 -0.00028352900135516774 0.0076662588028384377 0 -0.00025308149933751101 0.0077662117099865698 0 -0.00014408135982773025 0.0076629486388206988 0 -0.0001242521021262224 0.0078299895219625607 0 -0.00025308149933751101 0.0077662117099865698 0 -0.00014408135982773025 0.0076629486388206988 0 -0.00022152738324447485 0.0075405525665712039 0 -0.00014408135982773025 0.0076629486388206988 0 -0.00010760840627663946 0.0075165662508824048 0 -0.00028352900135516774 0.0076662588028384377 0 -0.00022152738324447485 0.0075405525665712039 0 -0.00014408135982773025 0.0076629486388206988 0 -4.1869528376665048e-05 0.007616617120418891 0 -0.00014408135982773025 0.0076629486388206988 0 -0.00010760840627663946 0.0075165662508824048 0 -2.7153421013021543e-05 0.0077422317718108466 0 -4.1869528376665048e-05 0.007616617120418891 0 -0.00014408135982773025 0.0076629486388206988 0 -0.00022152738324447485 0.0075405525665712039 0 -0.00010760840627663946 0.0075165662508824048 0 -0.00021786791570479395 0.0073721800784697419 0 -0.00021786791570479395 0.0073721800784697419 0 -0.00011083003499750139 0.0070903659811061932 0 -0.00019270979085683412 0.0071390568605972735 0 -0.00010760840627663946 0.0075165662508824048 0 -0.00021786791570479395 0.0073721800784697419 0 -7.1214467787372788e-05 0.0074791694828017655 0 -0.0003423895928479371 0.007450467321822675 0 0.00024660414216689912 0.0070806641073692493 0 -7.5058345272837135e-06 0.0075684693880867463 0 -0.00010760840627663946 0.0075165662508824048 0 -7.1214467787372788e-05 0.0074791694828017655 0 -0.00022152738324447485 0.0075405525665712039 0 -0.00038739764763281141 0.007324642019288191 0 -0.00059082709856781649 0.0074381517855072127 0 -0.0002776413554935811 0.0076543596211071539 0 -0.00050688625129662003 0.0069125789997093508 0 -0.00022152738324447485 0.0075405525665712039 0 -0.00021786791570479395 0.0073721800784697419 0 -0.00038739764763281141 0.007324642019288191 0 -0.00021786791570479395 0.0073721800784697419 0 -0.00029403770534558731 0.0071443588930298948 0 -0.00019270979085683412 0.0071390568605972735 0 -0.00021786791570479395 0.0073721800784697419 0 -0.00038739764763281141 0.007324642019288191 0 -0.00029403770534558731 0.0071443588930298948 0 -0.00038739764763281141 0.007324642019288191 0 -0.00052287709121071903 0.0071187356077115158 0 -0.00029403770534558731 0.0071443588930298948 0 -0.00038739764763281141 0.007324642019288191 0 -0.00059082709856781649 0.0074381517855072127 0 -0.00052287709121071903 0.0071187356077115158 0 -0.000135114786271329 0.0062529005671182704 0 -0.0001940316157721434 0.0061494900427230999 0 -0.00022903701836275104 0.0063824455620741013 0 -0.00050688625129662003 0.0069125789997093508 0 -0.00035798098236791373 0.0067361556423071864 0 -0.000135114786271329 0.0062529005671182704 0 -5.3406481830797161e-05 0.0063273588795759129 0 -0.00022903701836275104 0.0063824455620741013 0 -0.000135114786271329 0.0062529005671182704 0 -0.0001940316157721434 0.0061494900427230999 0 -6.9061575210254124e-05 0.0061559702154469556 0 -0.00050688625129662003 0.0069125789997093508 0 -0.00044173881594922415 0.0062209409058006189 0 -0.00042820420217755986 0.0076142595256416031 0 -0.00063650149361890664 0.0075172863118536711 0 -0.00053757019124501886 0.007665800879048907 0 -0.00063650149361890664 0.0075172863118536711 0 -0.00065385719168833544 0.0076683056235470962 0 -0.00053757019124501886 0.007665800879048907 0 -0.00062227239713220797 0.0066135198098161317 0 -0.0006239093946455186 0.006619184623740294 0 -0.00062769291414356771 0.0066120207122753807 0 -0.0010456773915518806 0.0058664473278241492 0 -0.0010444734316004069 0.0058571117379086013 0 -0.00099427524446670163 0.0058905715375962737 0 -0.00050688625129662003 0.0069125789997093508 0 -0.00096447032734461164 0.0067295287693575961 0 -0.00096447032734461164 0.0067295287693575961 0 -0.0011273925369762446 0.0065152259810948489 0 -0.0011273925369762446 0.0065152259810948489 0 -0.0010021597192731422 0.0072515567637744848 0 -0.00096447032734461164 0.0067295287693575961 0 -0.0010021597192731422 0.0072515567637744848 0 -0.0011763384083201083 0.0066709315501224135 0 -0.001190871679994935 0.0067786409876785291 0 -0.00085288037685120051 0.0070440456898988998 0 -0.00039732977527101717 0.0077405671056681828 0 -0.00055710804179343542 0.0077726334267409596 0 -0.00053757019124501886 0.007665800879048907 0 -0.00065385719168833544 0.0076683056235470962 0 -0.00055710804179343542 0.0077726334267409596 0 -0.00053757019124501886 0.007665800879048907 0 -0.00088352348986093219 0.005753215054953317 0 -0.00097392890688007352 0.0057801844819989128 0 -0.00092024354437121028 0.00585049063068148 0 -0.00097392890688007352 0.0057801844819989128 0 -0.00092024354437121028 0.00585049063068148 0 -0.00096757639446898216 0.0058416321648286484 0 -0.00097392890688007352 0.0057801844819989128 0 -0.001071325419871975 0.005831586745238761 0 -0.00099888919436548484 0.0058372803810237753 0 -0.001071325419871975 0.005831586745238761 0 -0.00099888919436548484 0.0058372803810237753 0 -0.00099427524446670163 0.0058905715375962737 0 -0.00097392890688007352 0.0057801844819989128 0 -0.00096757639446898216 0.0058416321648286484 0 -0.00099888919436548484 0.0058372803810237753 0 -0.0011273925369762446 0.0065152259810948489 0 -0.0011580233477778337 0.0059693737803593406 0 -0.00096447032734461164 0.0067295287693575961 0 -0.00044173881594922415 0.0062209409058006189 0 -0.0010456773915518806 0.0058664473278241492 0 -0.00099427524446670163 0.0058905715375962737 0 -0.0010014177646474986 0.00592235507838898 0 -0.00096757639446898216 0.0058416321648286484 0 -0.00099888919436548484 0.0058372803810237753 0 -0.00099427524446670163 0.0058905715375962737 0 -0.00092024354437121028 0.00585049063068148 0 -0.00099427524446670163 0.0058905715375962737 0 -0.0010014177646474986 0.00592235507838898 0 -0.00092024354437121028 0.00585049063068148 0 -0.00096757639446898216 0.0058416321648286484 0 -0.00099427524446670163 0.0058905715375962737 0 -0.00044173881594922415 0.0062209409058006189 0 0.00020162179968146089 0.0062397663302659074 0 -6.9061575210254124e-05 0.0061559702154469556 0 -5.3406481830797161e-05 0.0063273588795759129 0 0.00011398444895762876 0.0063524506191935184 0 -0.000135114786271329 0.0062529005671182704 0 -6.9061575210254124e-05 0.0061559702154469556 0 -5.3406481830797161e-05 0.0063273588795759129 0 -5.3406481830797161e-05 0.0063273588795759129 0 1.7554394969379629e-06 0.006557604754359049 0 0.00011398444895762876 0.0063524506191935184 0 -5.3406481830797161e-05 0.0063273588795759129 0 1.7554394969379629e-06 0.006557604754359049 0 -0.00022903701836275104 0.0063824455620741013 0 1.7554394969379629e-06 0.006557604754359049 0 5.7797132327283316e-05 0.0067520461641136734 0 -0.00010397399558360475 0.0067803396401717852 0 1.7554394969379629e-06 0.006557604754359049 0 5.7797132327283316e-05 0.0067520461641136734 0 0.0001721197874773195 0.0066112272355703305 0 1.7554394969379629e-06 0.006557604754359049 0 -0.00027368267783209186 0.0067343643057365217 0 -0.00010397399558360475 0.0067803396401717852 0 -0.00030843543316947834 0.0067565998384462485 0 -0.00035798098236791373 0.0067361556423071864 0 1.7554394969379629e-06 0.006557604754359049 0 -0.00027368267783209186 0.0067343643057365217 0 -0.00022903701836275104 0.0063824455620741013 0 -0.00027368267783209186 0.0067343643057365217 0 -0.00052287709121071903 0.0071187356077115158 0 -0.0002677858234283235 0.0069296591223002085 0 -0.00052287709121071903 0.0071187356077115158 0 -0.00029403770534558731 0.0071443588930298948 0 -0.0002677858234283235 0.0069296591223002085 0 -0.00029403770534558731 0.0071443588930298948 0 -0.00021355047548595276 0.0070274584034816087 0 -0.00019270979085683412 0.0071390568605972735 0 -0.00029403770534558731 0.0071443588930298948 0 -0.00021355047548595276 0.0070274584034816087 0 -0.0002677858234283235 0.0069296591223002085 0 -0.00021355047548595276 0.0070274584034816087 0 -0.0002677858234283235 0.0069296591223002085 0 -0.00020983238089516786 0.0069361586574731623 0 -0.00011083003499750139 0.0070903659811061932 0 -0.00016169323597044601 0.0070502592599436999 0 -0.00014674941367313186 0.0069968893114429314 0 -0.00011083003499750139 0.0070903659811061932 0 -0.00016169323597044601 0.0070502592599436999 0 -0.00019270979085683412 0.0071390568605972735 0 -0.00021355047548595276 0.0070274584034816087 0 -0.00016169323597044601 0.0070502592599436999 0 -0.00019270979085683412 0.0071390568605972735 0 -0.00021355047548595276 0.0070274584034816087 0 -0.00018090889079623728 0.00698724799444248 0 -0.00020983238089516786 0.0069361586574731623 0 -0.00018090889079623728 0.00698724799444248 0 -0.00019158457880468117 0.0069440829733977659 0 -0.00020983238089516786 0.0069361586574731623 0 -0.00021355047548595276 0.0070274584034816087 0 -0.00016169323597044601 0.0070502592599436999 0 -0.00018090889079623728 0.00698724799444248 0 -0.00016169323597044601 0.0070502592599436999 0 -0.00018090889079623728 0.00698724799444248 0 -0.00014674941367313186 0.0069968893114429314 0 -0.00018090889079623728 0.00698724799444248 0 -0.00017472694806490945 0.0069628111497674556 0 -0.00014674941367313186 0.0069968893114429314 0 -0.00018090889079623728 0.00698724799444248 0 -0.00017472694806490945 0.0069628111497674556 0 -0.00019158457880468117 0.0069440829733977659 0 -0.00017472694806490945 0.0069628111497674556 0 -0.0001591843347259701 0.0069678698562927327 0 -0.00015520292184257559 0.0069475361682251663 0 -0.00017472694806490945 0.0069628111497674556 0 -0.0001591843347259701 0.0069678698562927327 0 -0.00014674941367313186 0.0069968893114429314 0 -0.00017472694806490945 0.0069628111497674556 0 -0.00017744609888440768 0.0069431067356332497 0 -0.00015520292184257559 0.0069475361682251663 0 -0.0001591843347259701 0.0069678698562927327 0 -0.00014674941367313186 0.0069968893114429314 0 -0.00015520292184257559 0.0069475361682251663 0 -0.00020764642658938767 0.0069291359153251259 0 -0.00020004199241445512 0.0069393800803534984 0 -0.00022512799976368735 0.0069389338190917662 0 -0.00020764642658938767 0.0069291359153251259 0 -0.00018754114244124399 0.0069383228828087977 0 -0.00019017206151339684 0.0069342140905739452 0 -0.00020764642658938767 0.0069291359153251259 0 -0.00018754114244124399 0.0069383228828087977 0 -0.00020004199241445512 0.0069393800803534984 0 -0.00018754114244124399 0.0069383228828087977 0 -0.00017878876040567941 0.0069433651661217873 0 -0.00020004199241445512 0.0069393800803534984 0 -0.00018754114244124399 0.0069383228828087977 0 -0.00017744609888440768 0.0069431067356332497 0 -0.00017878876040567941 0.0069433651661217873 0 -0.00017744609888440768 0.0069431067356332497 0 -0.00015520292184257559 0.0069475361682251663 0 -0.00017878876040567941 0.0069433651661217873 0 -0.00018754114244124399 0.0069383228828087977 0 -0.00017744609888440768 0.0069431067356332497 0 -0.00019017206151339684 0.0069342140905739452 0 -0.00019017206151339684 0.0069342140905739452 0 -0.0002063994166074925 0.0069139719349794789 0 -0.00019158457880468117 0.0069440829733977659 0 -0.00017472694806490945 0.0069628111497674556 0 -0.00017744609888440768 0.0069431067356332497 0 -0.00019017206151339684 0.0069342140905739452 0 -0.00017472694806490945 0.0069628111497674556 0 -0.00019017206151339684 0.0069342140905739452 0 -0.00019158457880468117 0.0069440829733977659 0 -0.00020764642658938767 0.0069291359153251259 0 -0.00019017206151339684 0.0069342140905739452 0 -0.0002063994166074925 0.0069139719349794789 0 -0.0002063994166074925 0.0069139719349794789 0 -0.00020983238089516786 0.0069361586574731623 0 -0.0002270883779830591 0.0068552722685913453 0 -0.0002063994166074925 0.0069139719349794789 0 -0.00019158457880468117 0.0069440829733977659 0 -0.00020983238089516786 0.0069361586574731623 0 -0.00023102934953782474 0.0069163884896627989 0 -0.0002270883779830591 0.0068552722685913453 0 -0.00022868488534878004 0.0068932947232444898 0 -0.0002063994166074925 0.0069139719349794789 0 -0.00023102934953782474 0.0069163884896627989 0 -0.0002270883779830591 0.0068552722685913453 0 -0.00020764642658938767 0.0069291359153251259 0 -0.0002063994166074925 0.0069139719349794789 0 -0.00023102934953782474 0.0069163884896627989 0 -0.00023102934953782474 0.0069163884896627989 0 -0.00023641278513814474 0.0069345180927162546 0 -0.00027512446891643651 0.0069533122638117499 0 -0.00020764642658938767 0.0069291359153251259 0 -0.00023102934953782474 0.0069163884896627989 0 -0.00023641278513814474 0.0069345180927162546 0 -0.00020764642658938767 0.0069291359153251259 0 -0.00023641278513814474 0.0069345180927162546 0 -0.00022512799976368735 0.0069389338190917662 0 -0.00027368267783209186 0.0067343643057365217 0 -0.0002677858234283235 0.0069296591223002085 0 -0.0002270883779830591 0.0068552722685913453 0 -0.00027368267783209186 0.0067343643057365217 0 -0.0002270883779830591 0.0068552722685913453 0 -0.00018249216725558072 0.0068495497278057427 0 -0.0002677858234283235 0.0069296591223002085 0 -0.00020983238089516786 0.0069361586574731623 0 -0.0002270883779830591 0.0068552722685913453 0 -0.0002270883779830591 0.0068552722685913453 0 -0.00018249216725558072 0.0068495497278057427 0 -0.00022868488534878004 0.0068932947232444898 0 -0.00018249216725558072 0.0068495497278057427 0 -0.00022868488534878004 0.0068932947232444898 0 -0.0002329763676377291 0.0069393167716027297 0 -0.00023102934953782474 0.0069163884896627989 0 -0.00026425140184652645 0.0069432293173813811 0 -0.00027512446891643651 0.0069533122638117499 0 -0.00023102934953782474 0.0069163884896627989 0 -0.00022868488534878004 0.0068932947232444898 0 -0.00026425140184652645 0.0069432293173813811 0 -0.00022868488534878004 0.0068932947232444898 0 -0.00026425140184652645 0.0069432293173813811 0 -0.0002329763676377291 0.0069393167716027297 0 -0.00026425140184652645 0.0069432293173813811 0 -0.00029882914354156911 0.0069909121514997721 0 -0.0002329763676377291 0.0069393167716027297 0 -0.0002329763676377291 0.0069393167716027297 0 -0.00028685418422282728 0.0070381416919422625 0 -0.00013717117704951871 0.0069658235997744362 0 -0.00029882914354156911 0.0069909121514997721 0 -0.00028685418422282728 0.0070381416919422625 0 -0.00038526481161169649 0.007057083679194838 0 -0.00029882914354156911 0.0069909121514997721 0 -0.0002329763676377291 0.0069393167716027297 0 -0.00028685418422282728 0.0070381416919422625 0 -0.00018249216725558072 0.0068495497278057427 0 -0.0002329763676377291 0.0069393167716027297 0 -0.00013717117704951871 0.0069658235997744362 0 -0.00013717117704951871 0.0069658235997744362 0 4.7214560998081352e-06 0.0068981619286982597 0 1.4903139000067008e-05 0.0069802131581103268 0 -0.00018249216725558072 0.0068495497278057427 0 -0.00013717117704951871 0.0069658235997744362 0 4.7214560998081352e-06 0.0068981619286982597 0 4.7214560998081352e-06 0.0068981619286982597 0 0.00010162342730079414 0.0068595063744680586 0 0.00015570317509106099 0.0069378825567649165 0 4.7214560998081352e-06 0.0068981619286982597 0 0.00010162342730079414 0.0068595063744680586 0 5.7797132327283316e-05 0.0067520461641136734 0 4.7214560998081352e-06 0.0068981619286982597 0 5.7797132327283316e-05 0.0067520461641136734 0 -0.00010397399558360475 0.0067803396401717852 0 -0.00018249216725558072 0.0068495497278057427 0 4.7214560998081352e-06 0.0068981619286982597 0 -0.00010397399558360475 0.0067803396401717852 0 -0.00027368267783209186 0.0067343643057365217 0 -0.00018249216725558072 0.0068495497278057427 0 -0.00010397399558360475 0.0067803396401717852 0 0.00032956964082066063 0.015000558230823448 0 9.4704042474595191e-05 0.015141201484339771 0 0.00045576472222137602 0.015458508766703039 0 0.00049840411146794472 0.015054097804496763 0 0.00032956964082066063 0.015000558230823448 0 0.00045576472222137602 0.015458508766703039 0 9.4704042474595191e-05 0.015141201484339771 0 0.00045576472222137602 0.015458508766703039 0 9.6424695349564072e-05 0.015553160166057789 0 0.00066918364812357635 0.016123027666109652 0 0.00045576472222137602 0.015458508766703039 0 9.6424695349564072e-05 0.015553160166057789 0 0.0005622822177003714 0.011808773555528592 0 -4.0190369962076924e-05 0.011741879460067361 0 0.00066918364812357635 0.016123027666109652 0 9.6424695349564072e-05 0.015553160166057789 0 -0.00022547978987979886 0.015834182937198116 0 9.6424695349564072e-05 0.015553160166057789 0 -0.00022547978987979886 0.015834182937198116 0 -0.0003709403816809523 0.015182205276785066 0 0.00035290280613345973 0.014401791057352153 0 0.00046983945046697242 0.01433085264403308 0 0.00033957378987669326 0.014547127730541735 0 9.4704042474595191e-05 0.015141201484339771 0 -0.0003709403816809523 0.015182205276785066 0 0.00034586066602851817 0.014698569939383604 0 9.4704042474595191e-05 0.015141201484339771 0 9.6424695349564072e-05 0.015553160166057789 0 -0.0003709403816809523 0.015182205276785066 0 7.0837136328494812e-05 0.010580919254540685 0 -0.00012791904470764191 0.010733281425054435 0 -0.00018125659753156435 0.015319625225796737 0 -0.00017238551559902113 0.011344433602317381 0 -0.00038583446620520583 0.0069417380419712982 0 -0.00041385485603698821 0.0070063298956046455 0 -0.0004938501879865971 0.0070562913778595918 0 0.00035290280613345973 0.014401791057352153 0 0.00046983945046697242 0.01433085264403308 0 0.00055427735551842865 0.014129351473277348 0 -0.00022547978987979886 0.015834182937198116 0 -0.0003709403816809523 0.015182205276785066 0 -0.00099673861037234452 0.015552836973094888 0 -4.0190369962076924e-05 0.011741879460067361 0 -0.00017238551559902113 0.011344433602317381 0 7.8132814309419608e-05 0.0075654272968993779 0 0.00025721520715807491 0.0075877894579963736 0 3.828333091620252e-05 0.0074719357930899937 0 7.8132814309419608e-05 0.0075654272968993779 0 -7.1214467787372788e-05 0.0074791694828017655 0 3.828333091620252e-05 0.0074719357930899937 0 0.00024660414216689912 0.0070806641073692493 0 -0.00017238551559902113 0.011344433602317381 0 -0.00014674941367313186 0.0069968893114429314 0 -2.3166338530153428e-05 0.0070141695215872176 0 -0.00015520292184257559 0.0069475361682251663 0 -0.00017238551559902113 0.011344433602317381 0 0.00032744215358437254 0.011287671059480815 0 -0.00011083003499750139 0.0070903659811061932 0 -0.00014674941367313186 0.0069968893114429314 0 -2.3166338530153428e-05 0.0070141695215872176 0 -0.00015520292184257559 0.0069475361682251663 0 -0.00017878876040567941 0.0069433651661217873 0 -0.00020202760093136657 0.0069424715293665432 0 7.0837136328494812e-05 0.010580919254540685 0 0.00032744215358437254 0.011287671059480815 0 0.00046983945046697242 0.01433085264403308 0 0.00055427735551842865 0.014129351473277348 0 0.00069774984596359139 0.01414628882550102 0 -0.00015520292184257559 0.0069475361682251663 0 -0.00020202760093136657 0.0069424715293665432 0 -0.00024929876169325769 0.0069460325831138987 0 -0.00038583446620520583 0.0069417380419712982 0 -0.00015520292184257559 0.0069475361682251663 0 -0.00024929876169325769 0.0069460325831138987 0 -0.00017878876040567941 0.0069433651661217873 0 -0.00020202760093136657 0.0069424715293665432 0 -0.00020004199241445512 0.0069393800803534984 0 -0.00020202760093136657 0.0069424715293665432 0 -0.00024929876169325769 0.0069460325831138987 0 -0.00022512799976368735 0.0069389338190917662 0 -0.00020202760093136657 0.0069424715293665432 0 -0.00020004199241445512 0.0069393800803534984 0 -0.00022512799976368735 0.0069389338190917662 0 -0.00038583446620520583 0.0069417380419712982 0 -0.00024929876169325769 0.0069460325831138987 0 -0.00030045992132237233 0.0069587429393031669 0 -0.00038583446620520583 0.0069417380419712982 0 -0.00030045992132237233 0.0069587429393031669 0 -0.00035448040325892154 0.0069966337582705318 0 -0.00030045992132237233 0.0069587429393031669 0 -0.00025865347644094016 0.0069467509753875197 0 -0.00027512446891643651 0.0069533122638117499 0 -0.00023641278513814474 0.0069345180927162546 0 -0.00025865347644094016 0.0069467509753875197 0 -0.00027512446891643651 0.0069533122638117499 0 -0.00023641278513814474 0.0069345180927162546 0 -0.00022512799976368735 0.0069389338190917662 0 -0.00025865347644094016 0.0069467509753875197 0 -0.00024929876169325769 0.0069460325831138987 0 -0.00030045992132237233 0.0069587429393031669 0 -0.00025865347644094016 0.0069467509753875197 0 -0.00024929876169325769 0.0069460325831138987 0 -0.00022512799976368735 0.0069389338190917662 0 -0.00025865347644094016 0.0069467509753875197 0 -0.00026425140184652645 0.0069432293173813811 0 -0.00027512446891643651 0.0069533122638117499 0 -0.00032726256609089669 0.0069953985372223065 0 -0.00027512446891643651 0.0069533122638117499 0 -0.00035448040325892154 0.0069966337582705318 0 -0.00032726256609089669 0.0069953985372223065 0 -0.00030045992132237233 0.0069587429393031669 0 -0.00027512446891643651 0.0069533122638117499 0 -0.00035448040325892154 0.0069966337582705318 0 -0.00035448040325892154 0.0069966337582705318 0 -0.00032726256609089669 0.0069953985372223065 0 -0.00038970408874531339 0.0070416302484079948 0 -0.00026425140184652645 0.0069432293173813811 0 -0.00029882914354156911 0.0069909121514997721 0 -0.00032726256609089669 0.0069953985372223065 0 -0.00038526481161169649 0.007057083679194838 0 -0.00044770670619391392 0.0071035853321606019 0 -0.00043032800892460807 0.0071421628378868542 0 -0.00028685418422282728 0.0070381416919422625 0 -0.00038526481161169649 0.007057083679194838 0 -0.00043032800892460807 0.0071421628378868542 0 -0.00029882914354156911 0.0069909121514997721 0 -0.00032726256609089669 0.0069953985372223065 0 -0.00038526481161169649 0.007057083679194838 0 -0.00032726256609089669 0.0069953985372223065 0 -0.00038526481161169649 0.007057083679194838 0 -0.00038970408874531339 0.0070416302484079948 0 -0.00038970408874531339 0.0070416302484079948 0 -0.00044770670619391392 0.0071035853321606019 0 -0.00042717243640639119 0.0070513567258369261 0 -0.00038526481161169649 0.007057083679194838 0 -0.00038970408874531339 0.0070416302484079948 0 -0.00044770670619391392 0.0071035853321606019 0 -0.00044770670619391392 0.0071035853321606019 0 -0.00042717243640639119 0.0070513567258369261 0 -0.00047391086015024538 0.0070904215009465659 0 -0.00042717243640639119 0.0070513567258369261 0 -0.00041385485603698821 0.0070063298956046455 0 -0.00045253594548177431 0.0070525530314584249 0 -0.00042717243640639119 0.0070513567258369261 0 -0.00045253594548177431 0.0070525530314584249 0 -0.00047391086015024538 0.0070904215009465659 0 -0.00035448040325892154 0.0069966337582705318 0 -0.00038970408874531339 0.0070416302484079948 0 -0.00042717243640639119 0.0070513567258369261 0 -0.00035448040325892154 0.0069966337582705318 0 -0.00042717243640639119 0.0070513567258369261 0 -0.00041385485603698821 0.0070063298956046455 0 -0.00038583446620520583 0.0069417380419712982 0 -0.00035448040325892154 0.0069966337582705318 0 -0.00041385485603698821 0.0070063298956046455 0 -0.00018125659753156435 0.015319625225796737 0 0.0004437389726047334 0.014515373811674873 0 0.00035290280613345973 0.014401791057352153 0 0.00033957378987669326 0.014547127730541735 0 0.00034586066602851817 0.014698569939383604 0 -0.00041385485603698821 0.0070063298956046455 0 -0.0004938501879865971 0.0070562913778595918 0 -0.00045253594548177431 0.0070525530314584249 0 -0.0004938501879865971 0.0070562913778595918 0 -0.0004983259194390635 0.0071046380885382817 0 -0.00047391086015024538 0.0070904215009465659 0 -0.0004938501879865971 0.0070562913778595918 0 -0.00045253594548177431 0.0070525530314584249 0 -0.00047391086015024538 0.0070904215009465659 0 -0.00044770670619391392 0.0071035853321606019 0 -0.00047391086015024538 0.0070904215009465659 0 -0.00048679672723741564 0.0071301436723817304 0 -0.0004983259194390635 0.0071046380885382817 0 -0.00047391086015024538 0.0070904215009465659 0 -0.00048679672723741564 0.0071301436723817304 0 -0.00014526095259537259 0.0096234962992567813 0 0.00040290942348142036 0.011903450138020116 0 0.00032415357227784668 0.012611789463710794 0 0.001189003720663547 0.013506242316992044 0 0.00096266910668225654 0.012559844841710148 0 -0.0004983259194390635 0.0071046380885382817 0 -0.00048679672723741564 0.0071301436723817304 0 -0.00052570226819873749 0.0071345525556476231 0 0.001437378678996203 0.012990470623251232 0 0.001189003720663547 0.013506242316992044 0 0.00096266910668225654 0.012559844841710148 0 -0.00012791904470764191 0.010733281425054435 0 0.00040290942348142036 0.011903450138020116 0 -0.0004938501879865971 0.0070562913778595918 0 -0.0004983259194390635 0.0071046380885382817 0 -0.00052570226819873749 0.0071345525556476231 0 0.00033957378987669326 0.014547127730541735 0 0.00037150220206382635 0.014735705451862627 0 0.00034586066602851817 0.014698569939383604 0 0.00037150220206382635 0.014735705451862627 0 0.00034586066602851817 0.014698569939383604 0 0.00044924589301114905 0.014820704802318535 0 0.00032956964082066063 0.015000558230823448 0 9.4704042474595191e-05 0.015141201484339771 0 0.00034586066602851817 0.014698569939383604 0 0.00032956964082066063 0.015000558230823448 0 0.00034586066602851817 0.014698569939383604 0 0.00044924589301114905 0.014820704802318535 0 0.00049840411146794472 0.015054097804496763 0 0.00032956964082066063 0.015000558230823448 0 0.00044924589301114905 0.014820704802318535 0 0.00091246883469824503 0.011872073883230753 0 0.00034861538240268399 0.011274221651648446 0 0.0010260198581031139 0.011391958839053664 0 0.00026954880847719165 0.011336419491957329 0 0.00067443347219444207 0.011195209503724742 0 0.00091246883469824503 0.011872073883230753 0 0.00043176351086457454 0.011932401652210852 0 0.00034861538240268399 0.011274221651648446 0 0.0013722646664852808 0.012456409616809484 0 0.00091246883469824503 0.011872073883230753 0 0.00096266910668225654 0.012559844841710148 0 0.00091246883469824503 0.011872073883230753 0 0.00096266910668225654 0.012559844841710148 0 0.00043176351086457454 0.011932401652210852 0 0.00032415357227784668 0.012611789463710794 0 0.00096266910668225654 0.012559844841710148 0 0.00043176351086457454 0.011932401652210852 0 0.00032415357227784668 0.012611789463710794 0 0.00043176351086457454 0.011932401652210852 0 -0.00014848079478934245 0.011382668572615834 0 0.00043176351086457454 0.011932401652210852 0 0.00034861538240268399 0.011274221651648446 0 -0.00014848079478934245 0.011382668572615834 0 0.00034861538240268399 0.011274221651648446 0 -0.00014848079478934245 0.011382668572615834 0 6.7897180632175711e-05 0.010606246141505101 0 -0.00044770670619391392 0.0071035853321606019 0 -0.00048679672723741564 0.0071301436723817304 0 -0.00048187337916193184 0.0071819425281721937 0 -0.00014526095259537259 0.0096234962992567813 0 -0.00024809780508241064 0.0093544764219006971 0 -0.00044770670619391392 0.0071035853321606019 0 -0.00048187337916193184 0.0071819425281721937 0 -0.00043032800892460807 0.0071421628378868542 0 -0.00014848079478934245 0.011382668572615834 0 6.7897180632175711e-05 0.010606246141505101 0 -0.00022339998596516628 0.010148201225426843 0 -0.00024809780508241064 0.0093544764219006971 0 -0.00030521636196093716 0.008801721691914113 0 -0.00048187337916193184 0.0071819425281721937 0 -0.00043032800892460807 0.0071421628378868542 0 -0.00052874276075770435 0.0074086533609258095 0 -3.7656798829725324e-07 0.0094319879473152707 0 6.7897180632175711e-05 0.010606246141505101 0 -0.00022339998596516628 0.010148201225426843 0 -3.7656798829725324e-07 0.0094319879473152707 0 7.4137262353050172e-07 0.010923780669098354 0 6.7897180632175711e-05 0.010606246141505101 0 0.00034861538240268399 0.011274221651648446 0 6.7897180632175711e-05 0.010606246141505101 0 0.00020681505434087816 0.011200871295739781 0 7.4137262353050172e-07 0.010923780669098354 0 0.00020681505434087816 0.011200871295739781 0 -6.2493100681804777e-07 0.012412408671395449 0 7.4137262353050172e-07 0.010923780669098354 0 6.7897180632175711e-05 0.010606246141505101 0 0.00020681505434087816 0.011200871295739781 0 0.00020681505434087816 0.011200871295739781 0 -6.2493100681804777e-07 0.012412408671395449 0 -2.085265068775549e-05 0.011529842007762078 0 0.00034861538240268399 0.011274221651648446 0 0.00020681505434087816 0.011200871295739781 0 1.8414646141613508e-05 0.011197899146682098 0 0.00020681505434087816 0.011200871295739781 0 -2.085265068775549e-05 0.011529842007762078 0 1.8414646141613508e-05 0.011197899146682098 0 0.00010801807146689112 0.0070861519812720087 0 -6.0070227078173538e-05 0.0074722299914642505 0 0.00014981708008621037 0.0072405470937624769 0 0.00010801807146689112 0.0070861519812720087 0 0.00019030745320084449 0.0067281371958267545 0 0.00014981708008621037 0.0072405470937624769 0 0.00010801807146689112 0.0070861519812720087 0 0.00019030745320084449 0.0067281371958267545 0 0.00013945163319942566 0.0069458918096124492 0 0.00019030745320084449 0.0067281371958267545 0 0.00013945163319942566 0.0069458918096124492 0 0.00015570317509106099 0.0069378825567649165 0 4.7214560998081352e-06 0.0068981619286982597 0 0.00013945163319942566 0.0069458918096124492 0 0.00015570317509106099 0.0069378825567649165 0 0.00010801807146689112 0.0070861519812720087 0 0.00013945163319942566 0.0069458918096124492 0 1.4903139000067008e-05 0.0069802131581103268 0 0.00010801807146689112 0.0070861519812720087 0 1.4903139000067008e-05 0.0069802131581103268 0 -0.0001813918916519853 0.0071310190669736607 0 4.7214560998081352e-06 0.0068981619286982597 0 0.00013945163319942566 0.0069458918096124492 0 1.4903139000067008e-05 0.0069802131581103268 0 -0.00028685418422282728 0.0070381416919422625 0 -0.00013717117704951871 0.0069658235997744362 0 -0.0001813918916519853 0.0071310190669736607 0 -0.00013717117704951871 0.0069658235997744362 0 1.4903139000067008e-05 0.0069802131581103268 0 -0.0001813918916519853 0.0071310190669736607 0 -0.00028685418422282728 0.0070381416919422625 0 -0.00043032800892460807 0.0071421628378868542 0 -0.0001813918916519853 0.0071310190669736607 0 -0.00043032800892460807 0.0071421628378868542 0 -0.0001813918916519853 0.0071310190669736607 0 -0.00052874276075770435 0.0074086533609258095 0 -0.0001813918916519853 0.0071310190669736607 0 -0.00052874276075770435 0.0074086533609258095 0 -6.0070227078173538e-05 0.0074722299914642505 0 0.00010801807146689112 0.0070861519812720087 0 -0.0001813918916519853 0.0071310190669736607 0 -6.0070227078173538e-05 0.0074722299914642505 0 -3.7656798829725324e-07 0.0094319879473152707 0 -0.00022339998596516628 0.010148201225426843 0 -0.00016698956195583168 0.008322057931899083 0 -6.0070227078173538e-05 0.0074722299914642505 0 -0.00016698956195583168 0.008322057931899083 0 0.00014981708008621037 0.0072405470937624769 0 -0.00052874276075770435 0.0074086533609258095 0 -6.0070227078173538e-05 0.0074722299914642505 0 -0.00016698956195583168 0.008322057931899083 0 -0.00030521636196093716 0.008801721691914113 0 -0.0001336892498167898 0.0084668339052205843 0 -0.00016698956195583168 0.008322057931899083 0 -8.5525974733440342e-08 0.0079410952585684032 0 0.00014981708008621037 0.0072405470937624769 0 -3.7656798829725324e-07 0.0094319879473152707 0 -0.00016698956195583168 0.008322057931899083 0 -8.5525974733440342e-08 0.0079410952585684032 0 -8.5525974733440342e-08 0.0079410952585684032 0 0.00014981708008621037 0.0072405470937624769 0 2.428030027823729e-07 0.0064499330219588997 0 0.00019030745320084449 0.0067281371958267545 0 0.00014981708008621037 0.0072405470937624769 0 0.00013426559820170112 0.0064156990904729039 0 0.00014981708008621037 0.0072405470937624769 0 2.428030027823729e-07 0.0064499330219588997 0 0.00013426559820170112 0.0064156990904729039 0 2.428030027823729e-07 0.0064499330219588997 0 8.0274286775792669e-07 0.0049585172712588981 0 0.00013426559820170112 0.0064156990904729039 0 8.0274286775792669e-07 0.0049585172712588981 0 7.4651880049999279e-05 0.0061682292351741552 0 -3.6246283584795435e-05 0.0050835641940165949 0 8.0274286775792669e-07 0.0049585172712588981 0 7.4651880049999279e-05 0.0061682292351741552 0 0.00013426559820170112 0.0064156990904729039 0 0.00019030745320084449 0.0067281371958267545 0 7.4651880049999279e-05 0.0061682292351741552 0 0.00013426559820170112 0.0064156990904729039 0 -1.1888761845305605e-07 0.0034672934147445128 0 -0.00037419231991657367 0.0041579923913705862 0 -6.2046773386299431e-07 0.0034654870804230182 0 6.3801182874245147e-05 0.0025330075908087603 0 0.00010929099510015055 0.0027632421925840697 0 8.0274286775792669e-07 0.0049585172712588981 0 -2.1678559692719271e-06 0.003470164420306157 0 -3.6246283584795435e-05 0.0050835641940165949 0 7.4651880049999279e-05 0.0061682292351741552 0 -3.6246283584795435e-05 0.0050835641940165949 0 -0.00012992556375123423 0.0059606161623404746 0 -2.1678559692719271e-06 0.003470164420306157 0 -3.6246283584795435e-05 0.0050835641940165949 0 -0.00083015765780406533 0.0055874898107770177 0 -3.6246283584795435e-05 0.0050835641940165949 0 -0.00083015765780406533 0.0055874898107770177 0 -0.00012992556375123423 0.0059606161623404746 0 -0.00083015765780406533 0.0055874898107770177 0 -0.00050586853648165297 0.0061074223030587104 0 -0.00084032945087816337 0.0064408291748385867 0 -0.00083015765780406533 0.0055874898107770177 0 -0.00050586853648165297 0.0061074223030587104 0 -0.00012992556375123423 0.0059606161623404746 0 0.00025672411871854682 0.0044064712440090607 0 0.00088820716719720315 0.0044026990172402703 0 0.00051098096041529543 0.0047378525563923227 0 -0.00050586853648165297 0.0061074223030587104 0 -0.00012992556375123423 0.0059606161623404746 0 -0.0002768420064742059 0.0063725918251656515 0 -3.8418711573348215e-05 0.0053976369811489676 0 0.00017693789420297759 0.0061188939828615927 0 -0.00012992556375123423 0.0059606161623404746 0 -0.0002768420064742059 0.0063725918251656515 0 7.2717525594334198e-05 0.0063003777500228817 0 -3.8418711573348215e-05 0.0053976369811489676 0 -0.00018928395773190983 0.0045123846286144135 0 -0.00050586853648165297 0.0061074223030587104 0 -0.0002768420064742059 0.0063725918251656515 0 -0.00084032945087816337 0.0064408291748385867 0 0.00019030745320084449 0.0067281371958267545 0 7.4651880049999279e-05 0.0061682292351741552 0 0.00015570317509106099 0.0069378825567649165 0 -2.3385023540807406e-05 0.0064067330867920158 0 0.00017693789420297759 0.0061188939828615927 0 7.4651880049999279e-05 0.0061682292351741552 0 -0.00012992556375123423 0.0059606161623404746 0 7.2717525594334198e-05 0.0063003777500228817 0 0.00017693789420297759 0.0061188939828615927 0 0.00010243567459548869 0.0070341056057841916 0 7.4651880049999279e-05 0.0061682292351741552 0 -0.00022012994222021313 0.0068839604890049821 0 0.00015570317509106099 0.0069378825567649165 0 0.00010162342730079414 0.0068595063744680586 0 0.00015570317509106099 0.0069378825567649165 0 0.00021000404162482326 0.0068307362739852412 0 0.00031566273434928518 0.0069617031610812652 0 0.00015570317509106099 0.0069378825567649165 0 0.00021000404162482326 0.0068307362739852412 0 0.00010162342730079414 0.0068595063744680586 0 5.7797132327283316e-05 0.0067520461641136734 0 0.00021000404162482326 0.0068307362739852412 0 5.7797132327283316e-05 0.0067520461641136734 0 0.00021000404162482326 0.0068307362739852412 0 0.0001721197874773195 0.0066112272355703305 0 0.00021000404162482326 0.0068307362739852412 0 0.0001721197874773195 0.0066112272355703305 0 0.00040542198905407014 0.0067151257785878693 0 0.00088820716719720315 0.0044026990172402703 0 0.00076465921752078209 0.0051962541871187363 0 0.00051098096041529543 0.0047378525563923227 0 0.00017693789420297759 0.0061188939828615927 0 0.00063432436932599982 0.0058435241393905903 0 0.00031566273434928518 0.0069617031610812652 0 0.00021000404162482326 0.0068307362739852412 0 0.00040542198905407014 0.0067151257785878693 0 0.00025672411871854682 0.0044064712440090607 0 0.00051098096041529543 0.0047378525563923227 0 0.0001451207450319021 0.0049567542708697232 0 0.00076465921752078209 0.0051962541871187363 0 0.00051098096041529543 0.0047378525563923227 0 0.0001451207450319021 0.0049567542708697232 0 0.00025672411871854682 0.0044064712440090607 0 0.0001451207450319021 0.0049567542708697232 0 -0.00034088868907715793 0.0044015572590346917 0 0.0001451207450319021 0.0049567542708697232 0 -0.00043919295195094139 0.0049525936057939332 0 -0.00034088868907715793 0.0044015572590346917 0 0.0001451207450319021 0.0049567542708697232 0 0.00030105389788905409 0.0055622827630636218 0 -3.973656488597073e-05 0.0055309446314240921 0 0.0001451207450319021 0.0049567542708697232 0 -3.973656488597073e-05 0.0055309446314240921 0 -0.00043919295195094139 0.0049525936057939332 0 0.00076465921752078209 0.0051962541871187363 0 0.0001451207450319021 0.0049567542708697232 0 0.00030105389788905409 0.0055622827630636218 0 0.00076465921752078209 0.0051962541871187363 0 0.00030105389788905409 0.0055622827630636218 0 0.00045463545146867717 0.0061528870473943767 0 0.00030105389788905409 0.0055622827630636218 0 0.00019926808979319285 0.0059318553919334967 0 0.00045463545146867717 0.0061528870473943767 0 -3.973656488597073e-05 0.0055309446314240921 0 -0.00012361055615320413 0.0059266484816503243 0 -0.00047197974121580583 0.0056645970215427428 0 0.00030105389788905409 0.0055622827630636218 0 0.00019926808979319285 0.0059318553919334967 0 -3.973656488597073e-05 0.0055309446314240921 0 0.00019926808979319285 0.0059318553919334967 0 -3.973656488597073e-05 0.0055309446314240921 0 -0.00012361055615320413 0.0059266484816503243 0 -0.00037038233416783554 0.0059092333510053505 0 -0.00015349702327128634 0.0057458382510872973 0 -0.00047191366101931439 0.00567788532510942 0 -0.00012361055615320413 0.0059266484816503243 0 0.00026172450831883902 0.0062573911606793311 0 -0.00066442273296023506 0.0062253991422698976 0 2.9830951051855088e-05 0.0059876138335666629 0 -0.00056683314766128087 0.006058760127367049 0 0.00019926808979319285 0.0059318553919334967 0 -0.00012361055615320413 0.0059266484816503243 0 0.00026172450831883902 0.0062573911606793311 0 0.00029927828344959479 0.0060324308077728626 0 0.00026172450831883902 0.0062573911606793311 0 0.00045463545146867717 0.0061528870473943767 0 0.00027065050887960978 0.0060320187367462648 0 2.9830951051855088e-05 0.0059876138335666629 0 0.00019926808979319285 0.0059318553919334967 0 0.00026172450831883902 0.0062573911606793311 0 0.00045463545146867717 0.0061528870473943767 0 0.00029927828344959479 0.0060324308077728626 0 0.00045463545146867717 0.0061528870473943767 0 0.00026376313736558893 0.0063510597680911324 0 1.7554394969379629e-06 0.006557604754359049 0 0.00011398444895762876 0.0063524506191935184 0 0.00013671810669308547 0.0064551008564612405 0 0.00029927828344959479 0.0060324308077728626 0 0.00017220371879474758 0.0060997580878224154 0 0.00026376313736558893 0.0063510597680911324 0 0.00011398444895762876 0.0063524506191935184 0 0.00013671810669308547 0.0064551008564612405 0 0.00026376313736558893 0.0063510597680911324 0 0.00020162179968146089 0.0062397663302659074 0 0.00024815417048244511 0.0063447407909465441 0 1.7554394969379629e-06 0.006557604754359049 0 0.0001721197874773195 0.0066112272355703305 0 0.00013671810669308547 0.0064551008564612405 0 0.0001721197874773195 0.0066112272355703305 0 0.00013671810669308547 0.0064551008564612405 0 0.00026376313736558893 0.0063510597680911324 0 0.00063432436932599982 0.0058435241393905903 0 0.00045753097562301477 0.0061889557523950398 0 0.00040542198905407014 0.0067151257785878693 0 0.00045463545146867717 0.0061528870473943767 0 0.00026376313736558893 0.0063510597680911324 0 0.0001721197874773195 0.0066112272355703305 0 0.00040542198905407014 0.0067151257785878693 0 0.00026376313736558893 0.0063510597680911324 0 -0.0011545034219318968 0.0049871334972318706 0 -0.0021542226210284126 0.001869729423474645 0 -0.0019406060803946984 0.0010898216967818973 0 -0.0011545034219318968 0.0049871334972318706 0 -0.0020606309435259591 -0.0019334316023124235 0 -0.001744496855893296 -0.0010096682505052028 0 -0.0022718445677843151 -0.000596194167312683 0 -0.0022163206020817394 0.0030876061205391556 0 -0.0011045355327660264 0.0033184940499522302 0 -0.0020113424731587086 0.0017648489848879631 0 -0.0019406060803946984 0.0010898216967818973 0 -0.0021542226210284126 0.001869729423474645 0 -0.0020606309435259591 -0.0019334316023124235 0 -0.001744496855893296 -0.0010096682505052028 0 -0.0014430214286437362 -0.0013408159530633231 0 -0.0015936249650075557 -5.0955717224644524e-06 0 -0.0016507746478205082 0.00035698118893363157 0 -0.0021031761623299785 -0.00011313179810183341 0 -0.002165872830722775 0.004007563248018116 0 -0.002239020789044273 0.0044825230279537083 0 -0.001237126077145172 0.0042251657628249737 0 -0.0019406060803946984 0.0010898216967818973 0 -0.0020487984507623581 0.00069013284327177108 0 -0.0013411734579788844 0.0053800830596314932 0 -0.002239020789044273 0.0044825230279537083 0 -0.0013077482341347811 0.0048106208872059188 0 -0.00068784232125524466 0.0054111625663265835 0 -0.0011545034219318968 0.0049871334972318706 0 -0.002239020789044273 0.0044825230279537083 0 -0.001237126077145172 0.0042251657628249737 0 -0.0013077482341347811 0.0048106208872059188 0 -0.00082533681454601774 0.0050589671665790849 0 -0.001237126077145172 0.0042251657628249737 0 -0.0013077482341347811 0.0048106208872059188 0 -0.00057033065822945854 0.0057565392406788672 0 -0.00064005013676331809 0.0056431914232640719 0 -0.00047191366101931439 0.00567788532510942 0 -0.00048741291676810886 0.0057812830053171702 0 -0.00057033065822945854 0.0057565392406788672 0 -0.00047191366101931439 0.00567788532510942 0 -0.0011545034219318968 0.0049871334972318706 0 -0.00056683314766128087 0.006058760127367049 0 -0.00066442273296023506 0.0062253991422698976 0 -0.00047197974121580583 0.0056645970215427428 0 -0.0010847507062579516 0.0055452081759082153 0 -0.00012361055615320413 0.0059266484816503243 0 -0.00066442273296023506 0.0062253991422698976 0 -0.00047197974121580583 0.0056645970215427428 0 -0.001781114658141653 0.0060726142683968738 0 -0.0010847507062579516 0.0055452081759082153 0 -0.0015352644897139933 0.004953578496323793 0 -0.001781114658141653 0.0060726142683968738 0 -0.00066442273296023506 0.0062253991422698976 0 -0.0010847507062579516 0.0055452081759082153 0 -0.0010847507062579516 0.0055452081759082153 0 -0.0010273716776815298 0.0045888271395318914 0 -0.0015352644897139933 0.004953578496323793 0 -0.0010847507062579516 0.0055452081759082153 0 -0.00043919295195094139 0.0049525936057939332 0 -0.0010273716776815298 0.0045888271395318914 0 -0.00047197974121580583 0.0056645970215427428 0 -0.0010847507062579516 0.0055452081759082153 0 -0.00043919295195094139 0.0049525936057939332 0 -3.973656488597073e-05 0.0055309446314240921 0 -0.00047197974121580583 0.0056645970215427428 0 -0.00043919295195094139 0.0049525936057939332 0 -0.00043919295195094139 0.0049525936057939332 0 -0.00069189670697018411 0.0042885962341713 0 -0.00019302950448545517 0.0038067505667065782 0 -0.00041974021136448791 0.004734652606727105 0 -0.00018928395773190983 0.0045123846286144135 0 -0.00043919295195094139 0.0049525936057939332 0 -0.00069189670697018411 0.0042885962341713 0 -0.0010273716776815298 0.0045888271395318914 0 -0.0010273716776815298 0.0045888271395318914 0 -0.0015781148143396305 0.0043562234957641261 0 -0.001090919941202156 0.0037985191604606957 0 -0.00069189670697018411 0.0042885962341713 0 -0.0010273716776815298 0.0045888271395318914 0 -0.001090919941202156 0.0037985191604606957 0 -0.0010273716776815298 0.0045888271395318914 0 -0.0015781148143396305 0.0043562234957641261 0 -0.0015352644897139933 0.004953578496323793 0 -0.0015781148143396305 0.0043562234957641261 0 -0.0025223338039748245 0.0049416125673717969 0 -0.001917603092420019 0.0036639991705446919 0 -0.0015781148143396305 0.0043562234957641261 0 -0.001917603092420019 0.0036639991705446919 0 -0.001090919941202156 0.0037985191604606957 0 -0.001781114658141653 0.0060726142683968738 0 -0.0015352644897139933 0.004953578496323793 0 -0.0025223338039748245 0.0049416125673717969 0 -0.0015781148143396305 0.0043562234957641261 0 -0.0015352644897139933 0.004953578496323793 0 -0.0025223338039748245 0.0049416125673717969 0 -0.0021542226210284126 0.001869729423474645 0 -0.0024074472553250177 -0.00030885770922469888 0 -0.001744496855893296 -0.0010096682505052028 0 -0.0022718445677843151 -0.000596194167312683 0 -0.0015758855673381411 -0.00037731162630524391 0 -0.0022718445677843151 -0.000596194167312683 0 -0.0018754625411765635 6.0476047384912558e-05 0 -0.0015758855673381411 -0.00037731162630524391 0 -0.0025223338039748245 0.0049416125673717969 0 -0.0023843596882716419 0.0035815985284575118 0 -0.001917603092420019 0.0036639991705446919 0 -0.0018754625411765635 6.0476047384912558e-05 0 -0.0024508085892135513 0.00092391439111889722 0 -0.0014420684446504149 0.00022441939470089139 0 -0.0021542226210284126 0.001869729423474645 0 -0.0020290513352217115 0.0011707896418622602 0 -0.0022127788313389411 -0.0005123494172250819 0 -0.0018754625411765635 6.0476047384912558e-05 0 -0.0024508085892135513 0.00092391439111889722 0 -0.0020290513352217115 0.0011707896418622602 0 -0.0011495234896193478 -0.0016501871854147495 0 -0.0014820893587723181 -0.0027462742213409086 0 -0.0013183975345032678 -0.0024847033011617036 0 -0.0011937162856200615 -0.002731442073194265 0 -0.0014820893587723181 -0.0027462742213409086 0 -0.0011937162856200615 -0.002731442073194265 0 -0.0011524282707087977 -0.0029938520703485789 0 -0.0023843596882716419 0.0035815985284575118 0 -0.001917603092420019 0.0036639991705446919 0 -0.0016697989454459068 0.0028948279123170674 0 -0.001917603092420019 0.0036639991705446919 0 -0.0016697989454459068 0.0028948279123170674 0 -0.00053575108393456806 0.0032734092067784343 0 -0.0025259415035280325 0.0034947345462189908 0 -0.0016697989454459068 0.0028948279123170674 0 -0.002239036338766689 0.0016272565249922789 0 -0.0020290513352217115 0.0011707896418622602 0 -0.0022882426591957702 0.0030310506938229908 0 -0.0016697989454459068 0.0028948279123170674 0 -0.002239036338766689 0.0016272565249922789 0 -0.00084098585000688729 0.0020603280422451667 0 -0.0020290513352217115 0.0011707896418622602 0 -0.0011679974078156463 -0.00027633567971899843 0 -0.0011679974078156463 -0.00027633567971899843 0 -0.00032358336917559391 0.0021062923938978744 0 -0.0015397717917403333 -0.0023392602754622612 0 -0.0013183975345032678 -0.0024847033011617036 0 -0.0012406778797280993 -0.0022424576068533287 0 -0.0014820893587723181 -0.0027462742213409086 0 -0.0015397717917403333 -0.0023392602754622612 0 -0.0013183975345032678 -0.0024847033011617036 0 -0.00018928395773190983 0.0045123846286144135 0 -0.00077739582932574074 0.0035926485114565285 0 0.00021405088362802183 0.0032471581370632071 0 -0.00017150466925610204 0.003152759088613598 0 -0.00042122846207671478 0.0034747369641773534 0 -0.00069189670697018411 0.0042885962341713 0 -0.00019302950448545517 0.0038067505667065782 0 -0.001090919941202156 0.0037985191604606957 0 0.00021405088362802183 0.0032471581370632071 0 -0.00017150466925610204 0.003152759088613598 0 -7.8793125692626178e-05 0.002819268041050886 0 -0.00035645263852347178 0.0029656528530295815 0 -0.00053575108393456806 0.0032734092067784343 0 -0.00066077653460703883 0.0026108374157745393 0 -0.0016697989454459068 0.0028948279123170674 0 -0.00053575108393456806 0.0032734092067784343 0 -0.00084098585000688729 0.0020603280422451667 0 -0.00053610856025817567 0.0032006006105907794 0 -0.00032358336917559391 0.0021062923938978744 0 -0.001917603092420019 0.0036639991705446919 0 -0.00042122846207671478 0.0034747369641773534 0 -0.00053575108393456806 0.0032734092067784343 0 -0.0018304804368642874 0.0036613630359090244 0 -0.00077739582932574074 0.0035926485114565285 0 -0.00017150466925610204 0.003152759088613598 0 -0.00035645263852347178 0.0029656528530295815 0 -0.00053575108393456806 0.0032734092067784343 0 -0.00017150466925610204 0.003152759088613598 0 -0.00035645263852347178 0.0029656528530295815 0 -7.8793125692626178e-05 0.002819268041050886 0 -0.00017150466925610204 0.003152759088613598 0 -0.00042122846207671478 0.0034747369641773534 0 -0.00053575108393456806 0.0032734092067784343 0 -0.00013689426951413527 0.0027501674184732859 0 -7.8793125692626178e-05 0.002819268041050886 0 2.0754323232067117e-05 0.0026145160342749708 0 -0.00035645263852347178 0.0029656528530295815 0 -0.00066077653460703883 0.0026108374157745393 0 -7.8793125692626178e-05 0.002819268041050886 0 -0.00032358336917559391 0.0021062923938978744 0 -7.5652065224610028e-05 0.0027296418243261955 0 6.3801182874245147e-05 0.0025330075908087603 0 -7.8793125692626178e-05 0.002819268041050886 0 2.0754323232067117e-05 0.0026145160342749708 0 6.3801182874245147e-05 0.0025330075908087603 0 0.00021405088362802183 0.0032471581370632071 0 -7.8793125692626178e-05 0.002819268041050886 0 -0.00037419231991657367 0.0041579923913705862 0 -0.00018928395773190983 0.0045123846286144135 0 6.3801182874245147e-05 0.0025330075908087603 0 2.0754323232067117e-05 0.0026145160342749708 0 0.00010929099510015055 0.0027632421925840697 0 -0.00032358336917559391 0.0021062923938978744 0 -7.853126619907946e-05 0.0016669600648277973 0 -0.00013689426951413527 0.0027501674184732859 0 2.0754323232067117e-05 0.0026145160342749708 0 -0.00010880280424587329 0.0023693640370482105 0 2.0754323232067117e-05 0.0026145160342749708 0 8.7971386823664548e-07 0.0023848287075548089 0 -0.00010880280424587329 0.0023693640370482105 0 8.7971386823664548e-07 0.0023848287075548089 0 -0.00010880280424587329 0.0023693640370482105 0 -1.2003717656334002e-06 0.001304533570918523 0 -6.2046773386299431e-07 0.0034654870804230182 0 8.7971386823664548e-07 0.0023848287075548089 0 0.00010929099510015055 0.0027632421925840697 0 2.0754323232067117e-05 0.0026145160342749708 0 8.7971386823664548e-07 0.0023848287075548089 0 0.00010929099510015055 0.0027632421925840697 0 -0.00031284064034024241 -0.00080457224994351698 0 -0.00015675474496309967 -0.00059211817700454339 0 1.2140010797161326e-05 -0.00079120073658325472 0 -0.0011679974078156463 -0.00027633567971899843 0 -0.00056701825355233058 -0.0016688073765901037 0 -0.00015675474496309967 -0.00059211817700454339 0 -0.00039329751202483385 -0.00031888214312460027 0 -1.2503544378718641e-06 -0.00040620065565918646 0 -0.00015675474496309967 -0.00059211817700454339 0 -1.2503544378718641e-06 -0.00040620065565918646 0 1.2140010797161326e-05 -0.00079120073658325472 0 4.9612828952840844e-05 0.00090199876467872127 0 -8.6962576417876021e-05 0.0010602832531572046 0 3.3364905874565635e-05 0.0010891790162804078 0 4.9612828952840844e-05 0.00090199876467872127 0 -0.00014072594112020032 0.00085369504720186125 0 -8.6962576417876021e-05 0.0010602832531572046 0 -0.0011679974078156463 -0.00027633567971899843 0 -0.00013638267071118814 0.00041034572412767661 0 -0.00031284064034024241 -0.00080457224994351698 0 -0.00015675474496309967 -0.00059211817700454339 0 -0.00039329751202483385 -0.00031888214312460027 0 3.3364905874565635e-05 0.0010891790162804078 0 4.5851794477776001e-08 0.0012999852039203459 0 -6.1331949556640893e-08 0.001145200803866403 0 -7.853126619907946e-05 0.0016669600648277973 0 -4.6358824578203479e-08 0.0013027311498902405 0 -0.00013638267071118814 0.00041034572412767661 0 -1.0999480549243734e-07 0.0011422873166568553 0 -0.00039329751202483385 -0.00031888214312460027 0 -1.3807736472942385e-06 0.001140563928265314 0 -1.2503544378718641e-06 -0.00040620065565918646 0 -8.6962576417876021e-05 0.0010602832531572046 0 3.3364905874565635e-05 0.0010891790162804078 0 4.5851794477776001e-08 0.0012999852039203459 0 -1.3807736472942385e-06 0.001140563928265314 0 -1.2503544378718641e-06 -0.00040620065565918646 0 3.001786176055467e-07 -0.00035280500350854679 0 -1.2503544378718641e-06 -0.00040620065565918646 0 -7.9053927175876755e-05 -0.0010611336265246879 0 3.001786176055467e-07 -0.00035280500350854679 0 -1.2503544378718641e-06 -0.00040620065565918646 0 -7.9053927175876755e-05 -0.0010611336265246879 0 1.2140010797161326e-05 -0.00079120073658325472 0 -0.00092567107276698404 -0.0022391654837924891 0 -0.0012406778797280993 -0.0022424576068533287 0 -0.00021541399163072233 -0.0019263214387337008 0 -0.00056701825355233058 -0.0016688073765901037 0 -0.00019882427041119992 -0.0017704260745986923 0 -7.9053927175876755e-05 -0.0010611336265246879 0 1.2140010797161326e-05 -0.00079120073658325472 0 -0.00021541399163072233 -0.0019263214387337008 0 -7.9053927175876755e-05 -0.0010611336265246879 0 -0.00021541399163072233 -0.0019263214387337008 0 -1.9636860406412095e-07 -0.0018481396383579075 0 -7.9053927175876755e-05 -0.0010611336265246879 0 3.001786176055467e-07 -0.00035280500350854679 0 -1.9636860406412095e-07 -0.0018481396383579075 0 -0.00021541399163072233 -0.0019263214387337008 0 -1.9636860406412095e-07 -0.0018481396383579075 0 0.00011011560752907904 -0.0030191736746627783 0 -1.9636860406412095e-07 -0.0018481396383579075 0 0.00011011560752907904 -0.0030191736746627783 0 3.5649403967993809e-07 -0.0033431657954970002 0 0.00011011560752907904 -0.0030191736746627783 0 0.00017047496630373277 -0.0038554136817592483 0 0.00012494896385641081 -0.0039321532063941343 0 -0.00021541399163072233 -0.0019263214387337008 0 0.00011011560752907904 -0.0030191736746627783 0 -2.7027628137754861e-05 -0.0028919748239929232 0 -2.7027628137754861e-05 -0.0028919748239929232 0 5.5117934187205668e-05 -0.0035140973052639707 0 -0.00046320669290121549 -0.003412059445658611 0 0.00011011560752907904 -0.0030191736746627783 0 -2.7027628137754861e-05 -0.0028919748239929232 0 5.5117934187205668e-05 -0.0035140973052639707 0 0.00011011560752907904 -0.0030191736746627783 0 5.5117934187205668e-05 -0.0035140973052639707 0 0.00012494896385641081 -0.0039321532063941343 0 0.00010776173061567678 -0.003940028683191479 0 -7.1003575586849055e-05 -0.004328512128377743 0 5.5117934187205668e-05 -0.0035140973052639707 0 0.00012494896385641081 -0.0039321532063941343 0 0.00014506776981007706 -0.0037849147345375899 0 5.5117934187205668e-05 -0.0035140973052639707 0 -0.0001537311778878328 -0.0038271107523678684 0 0.00014506776981007706 -0.0037849147345375899 0 5.5117934187205668e-05 -0.0035140973052639707 0 -0.00046320669290121549 -0.003412059445658611 0 -0.0001537311778878328 -0.0038271107523678684 0 -0.00062240118875208728 -0.0029842214290665024 0 -0.00041597397309892597 -0.0032449461000621915 0 -0.00094948001653284069 -0.0027820549826226702 0 -0.00082100367673298275 -0.0025782997134322022 0 -0.000616435121727843 -0.0028944032247787028 0 -0.00094948001653284069 -0.0027820549826226702 0 -0.0011937162856200615 -0.002731442073194265 0 -0.0010600156207465493 -0.0028687555311326897 0 -0.00094948001653284069 -0.0027820549826226702 0 -0.0011937162856200615 -0.002731442073194265 0 -0.0010777404327395866 -0.0025222244018824102 0 -0.00094948001653284069 -0.0027820549826226702 0 -0.0010777404327395866 -0.0025222244018824102 0 -0.00082100367673298275 -0.0025782997134322022 0 -0.0013183975345032678 -0.0024847033011617036 0 -0.0011937162856200615 -0.002731442073194265 0 -0.0010777404327395866 -0.0025222244018824102 0 -0.00092567107276698404 -0.0022391654837924891 0 -0.0010777404327395866 -0.0025222244018824102 0 -0.00082100367673298275 -0.0025782997134322022 0 -0.00092567107276698404 -0.0022391654837924891 0 -0.0012406778797280993 -0.0022424576068533287 0 -0.0010777404327395866 -0.0025222244018824102 0 -0.0013183975345032678 -0.0024847033011617036 0 -0.0012406778797280993 -0.0022424576068533287 0 -0.0010777404327395866 -0.0025222244018824102 0 -0.00092567107276698404 -0.0022391654837924891 0 -0.00021541399163072233 -0.0019263214387337008 0 -0.00046320669290121549 -0.003412059445658611 0 -0.00021541399163072233 -0.0019263214387337008 0 -2.7027628137754861e-05 -0.0028919748239929232 0 -0.00046320669290121549 -0.003412059445658611 0 -0.00092541685344112634 -0.0023188754131368305 0 -0.00062240118875208728 -0.0029842214290665024 0 0.00018193623026378005 -0.0054052012637389518 0 0.00031007228550315892 -0.0051287804870970132 0 0.0001556928823080964 -0.005975354280926647 0 0.00018193623026378005 -0.0054052012637389518 0 4.0494712311903505e-07 -0.0048380173898822576 0 3.6752746034334285e-07 -0.0063331268866632841 0 0.00018193623026378005 -0.0054052012637389518 0 3.6752746034334285e-07 -0.0063331268866632841 0 0.0001556928823080964 -0.005975354280926647 0 0.00018193623026378005 -0.0054052012637389518 0 4.0494712311903505e-07 -0.0048380173898822576 0 0.00024078202704649678 -0.0047316782542314246 0 0.00018193623026378005 -0.0054052012637389518 0 0.00024078202704649678 -0.0047316782542314246 0 0.00031007228550315892 -0.0051287804870970132 0 4.0494712311903505e-07 -0.0048380173898822576 0 0.00024078202704649678 -0.0047316782542314246 0 0.00017047496630373277 -0.0038554136817592483 0 4.0494712311903505e-07 -0.0048380173898822576 0 3.5649403967993809e-07 -0.0033431657954970002 0 0.00017047496630373277 -0.0038554136817592483 0 0.00011011560752907904 -0.0030191736746627783 0 3.5649403967993809e-07 -0.0033431657954970002 0 0.00017047496630373277 -0.0038554136817592483 0 0.00017047496630373277 -0.0038554136817592483 0 0.00012494896385641081 -0.0039321532063941343 0 0.00034408138828260473 -0.0045365071846693991 0 0.00019166972316047483 -0.0044877009878849256 0 0.00032588436089492102 -0.0047587471733574263 0 -0.00029899390356247766 -0.0047865352034831788 0 0.00012494896385641081 -0.0039321532063941343 0 0.00019166972316047483 -0.0044877009878849256 0 -0.00029899390356247766 -0.0047865352034831788 0 0.00012494896385641081 -0.0039321532063941343 0 0.00019166972316047483 -0.0044877009878849256 0 0.00034408138828260473 -0.0045365071846693991 0 0.00019166972316047483 -0.0044877009878849256 0 0.00034408138828260473 -0.0045365071846693991 0 0.00032588436089492102 -0.0047587471733574263 0 0.00034408138828260473 -0.0045365071846693991 0 0.00037570361290850435 -0.0048311393275429215 0 0.00032588436089492102 -0.0047587471733574263 0 0.00024078202704649678 -0.0047316782542314246 0 0.00017047496630373277 -0.0038554136817592483 0 0.00034408138828260473 -0.0045365071846693991 0 0.00024078202704649678 -0.0047316782542314246 0 0.00034408138828260473 -0.0045365071846693991 0 0.00031007228550315892 -0.0051287804870970132 0 0.00034408138828260473 -0.0045365071846693991 0 0.00037570361290850435 -0.0048311393275429215 0 0.00031007228550315892 -0.0051287804870970132 0 0.00037570361290850435 -0.0048311393275429215 0 0.00031007228550315892 -0.0051287804870970132 0 0.00019526254307826712 -0.0052913535785747562 0 0.00015340052749559499 -0.0051474839454578635 0 8.0034603070775392e-05 -0.0054824415953792323 0 0.00031007228550315892 -0.0051287804870970132 0 0.00019526254307826712 -0.0052913535785747562 0 0.0001556928823080964 -0.005975354280926647 0 -6.8858688328010648e-05 -0.0055062756772128827 0 -0.00010833560506825785 -0.0054188206317177957 0 -9.2045964295142546e-05 -0.0054565240969916013 0 -8.2484095823487686e-05 -0.0054392170594706234 0 -6.8858688328010648e-05 -0.0055062756772128827 0 -5.3679366165055347e-05 -0.005641938386823175 0 -8.2484095823487686e-05 -0.0054392170594706234 0 -6.8858688328010648e-05 -0.0055062756772128827 0 -0.00010833560506825785 -0.0054188206317177957 0 -0.00010833560506825785 -0.0054188206317177957 0 -0.00017617258417831214 -0.0052887527232801284 0 -0.00019849844641175719 -0.005384961880924662 0 0.00015340052749559499 -0.0051474839454578635 0 4.8334622885776495e-05 -0.0050370191173223543 0 -8.2484095823487686e-05 -0.0054392170594706234 0 -0.00010833560506825785 -0.0054188206317177957 0 -0.00017617258417831214 -0.0052887527232801284 0 4.8334622885776495e-05 -0.0050370191173223543 0 -0.00032970975069412098 -0.0050999323940158761 0 -0.00017617258417831214 -0.0052887527232801284 0 -0.00026003993740051772 -0.0053122950709737137 0 -0.00034058668889755855 -0.00509547934492122 0 -0.00017617258417831214 -0.0052887527232801284 0 -0.00026003993740051772 -0.0053122950709737137 0 -0.00019849844641175719 -0.005384961880924662 0 -0.00010833560506825785 -0.0054188206317177957 0 -0.00016842813268474007 -0.0054648309335630892 0 -0.00019849844641175719 -0.005384961880924662 0 -0.00027433258519176968 -0.0053891023428258395 0 -0.00025552911503943929 -0.0054361619471137278 0 -0.00019849844641175719 -0.005384961880924662 0 -0.00026003993740051772 -0.0053122950709737137 0 -0.00027433258519176968 -0.0053891023428258395 0 -0.00032371433047672743 -0.0053535427536518425 0 -0.00026003993740051772 -0.0053122950709737137 0 -0.00027433258519176968 -0.0053891023428258395 0 -0.00019849844641175719 -0.005384961880924662 0 -0.00027433258519176968 -0.0053891023428258395 0 -0.0003203112548463383 -0.0054220289347851423 0 -0.00036297720860153221 -0.0053804688225678344 0 -0.00027433258519176968 -0.0053891023428258395 0 -0.0003203112548463383 -0.0054220289347851423 0 -0.00025552911503943929 -0.0054361619471137278 0 -0.0003203112548463383 -0.0054220289347851423 0 -0.00031611185236839098 -0.0054634734345271642 0 -0.00025552911503943929 -0.0054361619471137278 0 -0.00031611185236839098 -0.0054634734345271642 0 -0.00025552911503943929 -0.0054361619471137278 0 -0.0003094544293016414 -0.0055180784476357601 0 -0.0011591755732422424 -0.0065349815075489625 0 -0.0013088563511770809 -0.0066128002306879386 0 -0.00025552911503943929 -0.0054361619471137278 0 -0.00016842813268474007 -0.0054648309335630892 0 -0.0003094544293016414 -0.0055180784476357601 0 -0.00025552911503943929 -0.0054361619471137278 0 -0.00016842813268474007 -0.0054648309335630892 0 -0.00019849844641175719 -0.005384961880924662 0 -0.00010833560506825785 -0.0054188206317177957 0 -0.00016842813268474007 -0.0054648309335630892 0 -9.2045964295142546e-05 -0.0054565240969916013 0 -0.0011591755732422424 -0.0065349815075489625 0 -0.00095026368926404256 -0.0063972188985810773 0 -0.0021236812816836899 -0.0075863051200263003 0 -0.0017926205873365774 -0.0076762325436127371 0 -0.0018183463190674656 -0.0073480729317598175 0 -0.0017926205873365774 -0.0076762325436127371 0 -0.0018183463190674656 -0.0073480729317598175 0 -0.0015258643068238233 -0.0074760739141839236 0 -0.00032109309050701464 -0.00055694519985500883 0 0.00089414373481816868 -0.0014135973497212374 0 8.3557549108314889e-05 -0.0016303929702435604 0 -0.00032109309050701464 -0.00055694519985500883 0 -0.00047975826899718672 -0.0012342117433752173 0 8.3557549108314889e-05 -0.0016303929702435604 0 -0.0008312034375065724 -0.0032277540742191909 0 -0.00066124856249717473 -0.0031286255210619643 0 -0.0006000425903275534 -0.0032633626658535955 0 -0.00032109309050701464 -0.00055694519985500883 0 -0.0010217354684207223 -0.00072657897642853326 0 -0.00047975826899718672 -0.0012342117433752173 0 -0.0010217354684207223 -0.00072657897642853326 0 -0.00047975826899718672 -0.0012342117433752173 0 -0.00088655193851786311 -0.0012008175930045015 0 -0.00032109309050701464 -0.00055694519985500883 0 -0.0010217354684207223 -0.00072657897642853326 0 -0.0014420684446504149 0.00022441939470089139 0 -0.0011213730261948665 -0.001110136433829315 0 -0.0010217354684207223 -0.00072657897642853326 0 -0.00088655193851786311 -0.0012008175930045015 0 -0.0011213730261948665 -0.001110136433829315 0 -0.0010217354684207223 -0.00072657897642853326 0 -0.0013625071985028582 -0.00078633435746325124 0 -0.001744496855893296 -0.0010096682505052028 0 -0.0013625071985028582 -0.00078633435746325124 0 -0.0015758855673381411 -0.00037731162630524391 0 -0.0011213730261948665 -0.001110136433829315 0 -0.0013625071985028582 -0.00078633435746325124 0 -0.0014430214286437362 -0.0013408159530633231 0 -0.001744496855893296 -0.0010096682505052028 0 -0.0013625071985028582 -0.00078633435746325124 0 -0.0014430214286437362 -0.0013408159530633231 0 -0.0010217354684207223 -0.00072657897642853326 0 -0.0013625071985028582 -0.00078633435746325124 0 -0.0015758855673381411 -0.00037731162630524391 0 -0.0010217354684207223 -0.00072657897642853326 0 -0.0015758855673381411 -0.00037731162630524391 0 -0.0014420684446504149 0.00022441939470089139 0 -0.0008312034375065724 -0.0032277540742191909 0 -0.0011524282707087977 -0.0029938520703485789 0 -0.0008934972136442846 -0.0029950071310304274 0 -0.00060963307846849445 -0.0017415934370973252 0 -0.0011495234896193478 -0.0016501871854147495 0 -0.0018754625411765635 6.0476047384912558e-05 0 -0.0015758855673381411 -0.00037731162630524391 0 -0.0014420684446504149 0.00022441939470089139 0 -0.0011937162856200615 -0.002731442073194265 0 -0.0011524282707087977 -0.0029938520703485789 0 -0.0010600156207465493 -0.0028687555311326897 0 -0.0011524282707087977 -0.0029938520703485789 0 -0.0010600156207465493 -0.0028687555311326897 0 -0.0008934972136442846 -0.0029950071310304274 0 -0.00094948001653284069 -0.0027820549826226702 0 -0.0010600156207465493 -0.0028687555311326897 0 -0.0008934972136442846 -0.0029950071310304274 0 -0.0008934972136442846 -0.0029950071310304274 0 -0.000616435121727843 -0.0028944032247787028 0 -0.00066124856249717473 -0.0031286255210619643 0 -0.00094948001653284069 -0.0027820549826226702 0 -0.0008934972136442846 -0.0029950071310304274 0 -0.000616435121727843 -0.0028944032247787028 0 -0.0008312034375065724 -0.0032277540742191909 0 -0.0008934972136442846 -0.0029950071310304274 0 -0.00066124856249717473 -0.0031286255210619643 0 -0.00041597397309892597 -0.0032449461000621915 0 -0.00035285700246239513 -0.0044207970633796745 0 -0.000616435121727843 -0.0028944032247787028 0 -0.00066124856249717473 -0.0031286255210619643 0 -0.00039999860491483083 -0.0032302338307862396 0 -0.0001537311778878328 -0.0038271107523678684 0 0.00014506776981007706 -0.0037849147345375899 0 1.2903083133367327e-05 -0.0040878899327179931 0 0.00032588436089492102 -0.0047587471733574263 0 -0.00029899390356247766 -0.0047865352034831788 0 -0.00034058668889755855 -0.00509547934492122 0 -0.00029899390356247766 -0.0047865352034831788 0 -0.00034058668889755855 -0.00509547934492122 0 -0.00049496093292668536 -0.0052976965399980291 0 -7.1003575586849055e-05 -0.004328512128377743 0 -0.00035285700246239513 -0.0044207970633796745 0 -0.00026003993740051772 -0.0053122950709737137 0 -0.00034058668889755855 -0.00509547934492122 0 -0.00035387285371254025 -0.005303030813813169 0 -0.00034058668889755855 -0.00509547934492122 0 -0.00035387285371254025 -0.005303030813813169 0 -0.00049496093292668536 -0.0052976965399980291 0 -0.00042894082422234028 -0.0052165666207019913 0 -0.00036713724035648029 -0.0053400403064272229 0 -0.00042184513273784747 -0.0053116802618741596 0 -0.00035387285371254025 -0.005303030813813169 0 -0.00049496093292668536 -0.0052976965399980291 0 -0.00036713724035648029 -0.0053400403064272229 0 -0.00035285700246239513 -0.0044207970633796745 0 -0.0002511393024823831 -0.0054560193932434034 0 -0.00026003993740051772 -0.0053122950709737137 0 -0.00035387285371254025 -0.005303030813813169 0 -0.00032371433047672743 -0.0053535427536518425 0 -0.00035387285371254025 -0.005303030813813169 0 -0.00032371433047672743 -0.0053535427536518425 0 -0.00036713724035648029 -0.0053400403064272229 0 -0.00060963307846849445 -0.0017415934370973252 0 -0.00027767268034115155 -0.0036645160117295978 0 -0.0008312034375065724 -0.0032277540742191909 0 -0.0006000425903275534 -0.0032633626658535955 0 -0.00050703588144441602 -0.00346686043142821 0 -0.00066124856249717473 -0.0031286255210619643 0 -0.0006000425903275534 -0.0032633626658535955 0 -0.00039999860491483083 -0.0032302338307862396 0 -0.00035285700246239513 -0.0044207970633796745 0 -0.00027767268034115155 -0.0036645160117295978 0 -0.00042894082422234028 -0.0052165666207019913 0 -0.0004681531474036937 -0.0053221061298616831 0 -0.00042184513273784747 -0.0053116802618741596 0 -0.0006000425903275534 -0.0032633626658535955 0 -0.00039999860491483083 -0.0032302338307862396 0 -0.00050703588144441602 -0.00346686043142821 0 -0.00046912255557769549 -0.0053010020061393303 0 -0.00054717346244064575 -0.0053774616232035669 0 -0.00046110496880154365 -0.0053715540987170221 0 0.00089414373481816868 -0.0014135973497212374 0 0.00035152080178567466 -0.002728415649994449 0 8.3557549108314889e-05 -0.0016303929702435604 0 -0.00027767268034115155 -0.0036645160117295978 0 -5.2327691378011891e-05 -0.0039782234626197024 0 -0.00027767268034115155 -0.0036645160117295978 0 -2.2395396856193275e-05 -0.0047788929433372563 0 -0.0004681531474036937 -0.0053221061298616831 0 -0.00042184513273784747 -0.0053116802618741596 0 -0.00042305947844999592 -0.0053446892230600796 0 -0.00046912255557769549 -0.0053010020061393303 0 -0.00042305947844999592 -0.0053446892230600796 0 -0.00046110496880154365 -0.0053715540987170221 0 -0.00032371433047672743 -0.0053535427536518425 0 -0.00036713724035648029 -0.0053400403064272229 0 -0.00036297720860153221 -0.0053804688225678344 0 -0.00036713724035648029 -0.0053400403064272229 0 -0.00042305947844999592 -0.0053446892230600796 0 -0.00036297720860153221 -0.0053804688225678344 0 -0.00036713724035648029 -0.0053400403064272229 0 -0.00042184513273784747 -0.0053116802618741596 0 -0.00042305947844999592 -0.0053446892230600796 0 -0.00042305947844999592 -0.0053446892230600796 0 -0.00041013334209066588 -0.0053830674204439436 0 -0.00036297720860153221 -0.0053804688225678344 0 -0.00042305947844999592 -0.0053446892230600796 0 -0.00041013334209066588 -0.0053830674204439436 0 -0.00046110496880154365 -0.0053715540987170221 0 -0.00041013334209066588 -0.0053830674204439436 0 -0.00036297720860153221 -0.0053804688225678344 0 -0.00037709493968644602 -0.0054078528972682748 0 -0.00027433258519176968 -0.0053891023428258395 0 -0.00032371433047672743 -0.0053535427536518425 0 -0.00036297720860153221 -0.0053804688225678344 0 -0.0003203112548463383 -0.0054220289347851423 0 -0.00037709493968644602 -0.0054078528972682748 0 -0.00037490821821410165 -0.0054527329911921571 0 -0.0003203112548463383 -0.0054220289347851423 0 -0.00036297720860153221 -0.0053804688225678344 0 -0.00037709493968644602 -0.0054078528972682748 0 -0.00037709493968644602 -0.0054078528972682748 0 -0.00042719673180908731 -0.0054103958935069517 0 -0.00037490821821410165 -0.0054527329911921571 0 -0.00041013334209066588 -0.0053830674204439436 0 -0.00037709493968644602 -0.0054078528972682748 0 -0.00042719673180908731 -0.0054103958935069517 0 -0.00041013334209066588 -0.0053830674204439436 0 -0.00042719673180908731 -0.0054103958935069517 0 -0.00046110496880154365 -0.0053715540987170221 0 -0.00042719673180908731 -0.0054103958935069517 0 -0.00037490821821410165 -0.0054527329911921571 0 -0.0004483549451723856 -0.0054627715047999657 0 -0.0003203112548463383 -0.0054220289347851423 0 -0.00031611185236839098 -0.0054634734345271642 0 -0.00037490821821410165 -0.0054527329911921571 0 -0.00031611185236839098 -0.0054634734345271642 0 -0.00037490821821410165 -0.0054527329911921571 0 -0.00034592863745991657 -0.0054872346977785716 0 -0.00054717346244064575 -0.0053774616232035669 0 -0.00048907075444763488 -0.0054152788238424534 0 -0.00055872337005319188 -0.0054611376308589974 0 -0.00042719673180908731 -0.0054103958935069517 0 -0.00046110496880154365 -0.0053715540987170221 0 -0.00048907075444763488 -0.0054152788238424534 0 -0.00054717346244064575 -0.0053774616232035669 0 -0.00046110496880154365 -0.0053715540987170221 0 -0.00048907075444763488 -0.0054152788238424534 0 -0.00042719673180908731 -0.0054103958935069517 0 -0.00048907075444763488 -0.0054152788238424534 0 -0.0004483549451723856 -0.0054627715047999657 0 -5.2327691378011891e-05 -0.0039782234626197024 0 -0.00050259371136551192 -0.0048114070811013749 0 0.00035152080178567466 -0.002728415649994449 0 -0.00049218939089415079 -0.0031550116773311938 0 -0.00024928377881154091 -0.0041241035526338246 0 -0.00049218939089415079 -0.0031550116773311938 0 -0.00045184571577112291 -0.0023737942999296044 0 -0.0010690768719327913 -0.0025445122287764831 0 0.00035152080178567466 -0.002728415649994449 0 -0.00049218939089415079 -0.0031550116773311938 0 -0.00045184571577112291 -0.0023737942999296044 0 0.00035152080178567466 -0.002728415649994449 0 -0.00045184571577112291 -0.0023737942999296044 0 8.3557549108314889e-05 -0.0016303929702435604 0 7.0394645170954574e-05 -0.0017173558186226192 0 -0.0016282256521429736 -0.0013031636035165969 0 -0.00047975826899718672 -0.0012342117433752173 0 8.3557549108314889e-05 -0.0016303929702435604 0 -0.0010245290415267937 -0.0015741512192445552 0 -0.00045184571577112291 -0.0023737942999296044 0 8.3557549108314889e-05 -0.0016303929702435604 0 -0.0014001790257773983 -0.0019753926410745518 0 8.3557549108314889e-05 -0.0016303929702435604 0 -0.0010245290415267937 -0.0015741512192445552 0 -0.0012760357430212268 -0.0018117707013941802 0 -0.0014430214286437362 -0.0013408159530633231 0 -0.0010245290415267937 -0.0015741512192445552 0 -0.0012605219816564542 -0.0017952206764242913 0 -0.0011213730261948665 -0.001110136433829315 0 -0.00088655193851786311 -0.0012008175930045015 0 -0.0010245290415267937 -0.0015741512192445552 0 -0.00047975826899718672 -0.0012342117433752173 0 -0.00088655193851786311 -0.0012008175930045015 0 -0.0010245290415267937 -0.0015741512192445552 0 -0.0011213730261948665 -0.001110136433829315 0 -0.0014430214286437362 -0.0013408159530633231 0 -0.0010245290415267937 -0.0015741512192445552 0 -0.00045184571577112291 -0.0023737942999296044 0 -0.0014001790257773983 -0.0019753926410745518 0 -0.0010690768719327913 -0.0025445122287764831 0 -0.0014575005628201714 -0.0013573499829839207 0 -0.0016282256521429736 -0.0013031636035165969 0 -0.0020606309435259591 -0.0019334316023124235 0 -0.0014430214286437362 -0.0013408159530633231 0 -0.0012605219816564542 -0.0017952206764242913 0 -0.0019406060803946984 0.0010898216967818973 0 -0.0016282256521429736 -0.0013031636035165969 0 -0.0020487984507623581 0.00069013284327177108 0 -0.0016282256521429736 -0.0013031636035165969 0 -0.00049218939089415079 -0.0031550116773311938 0 -0.0010690768719327913 -0.0025445122287764831 0 -0.0011883748303037377 -0.0039016154727184176 0 -0.0018813627885013078 -0.0037330993996853119 0 -0.0020485275826589585 -0.0026912052633277423 0 -0.0010690768719327913 -0.0025445122287764831 0 -0.0020485275826589585 -0.0026912052633277423 0 -0.0014001790257773983 -0.0019753926410745518 0 -0.0010690768719327913 -0.0025445122287764831 0 -0.0022795678788996993 -0.0021749097369481432 0 -0.0011818195008736676 -0.0032682759912778625 0 -0.0020926668026812582 -0.0042813381796068146 0 -0.0010690768719327913 -0.0025445122287764831 0 -0.0011883748303037377 -0.0039016154727184176 0 -0.0011883748303037377 -0.0039016154727184176 0 -0.0015427690031154277 -0.0043374232858478514 0 -0.00095894058647123847 -0.0055001463372754836 0 -0.0020926668026812582 -0.0042813381796068146 0 -0.0011883748303037377 -0.0039016154727184176 0 -0.0015427690031154277 -0.0043374232858478514 0 -0.0020926668026812582 -0.0042813381796068146 0 -0.0019911719072958252 -0.0048043139542205179 0 -0.0016935020767072564 -0.0047344192052021705 0 -0.0020926668026812582 -0.0042813381796068146 0 -0.0015427690031154277 -0.0043374232858478514 0 -0.0016935020767072564 -0.0047344192052021705 0 -0.0006878783301139099 -0.0054326510482888262 0 -0.00064536354572940842 -0.0055696719352474281 0 -0.00055872337005319188 -0.0054611376308589974 0 -0.0011883748303037377 -0.0039016154727184176 0 -0.00024928377881154091 -0.0041241035526338246 0 -0.00095894058647123847 -0.0055001463372754836 0 -0.00054717346244064575 -0.0053774616232035669 0 -0.0006878783301139099 -0.0054326510482888262 0 -0.00055872337005319188 -0.0054611376308589974 0 -0.00049218939089415079 -0.0031550116773311938 0 -0.0011883748303037377 -0.0039016154727184176 0 -0.00024928377881154091 -0.0041241035526338246 0 -0.00050259371136551192 -0.0048114070811013749 0 -0.00088915323538473184 -0.0054473084182468257 0 -0.0006878783301139099 -0.0054326510482888262 0 -0.00064536354572940842 -0.0055696719352474281 0 -0.00095894058647123847 -0.0055001463372754836 0 -0.0023808844744824609 -0.0024980709045620514 0 -0.0032316535737258426 -0.0023603174039966705 0 -0.0019245969560963631 -0.0048162016627023557 0 -0.0014948609885142091 -0.0052525437582744685 0 -0.001581349343059294 -0.0057321464211349546 0 -0.0015427690031154277 -0.0043374232858478514 0 -0.0016935020767072564 -0.0047344192052021705 0 -0.00095894058647123847 -0.0055001463372754836 0 -0.0019245969560963631 -0.0048162016627023557 0 -0.0016935020767072564 -0.0047344192052021705 0 -0.0014948609885142091 -0.0052525437582744685 0 -0.0023808844744824609 -0.0024980709045620514 0 -0.0022805699090904922 -0.0028046228104297004 0 -0.0016935020767072564 -0.0047344192052021705 0 -0.00095894058647123847 -0.0055001463372754836 0 -0.0014948609885142091 -0.0052525437582744685 0 -0.00095894058647123847 -0.0055001463372754836 0 -0.0014948609885142091 -0.0052525437582744685 0 -0.001581349343059294 -0.0057321464211349546 0 -0.0032316535737258426 -0.0023603174039966705 0 -0.0019801871588899728 -0.0054124949827484767 0 -0.0035579887610928248 0.0020892012318948624 0 -0.0037939279849371985 0.0017859006932292288 0 -0.0038695797572731241 0.002449643264729563 0 -0.0032316535737258426 -0.0023603174039966705 0 -0.0043368693029340235 -0.0010521979314983292 0 -0.0046874017289385492 -0.00395784346662804 0 -0.0036234094919361118 -0.0044528615014309868 0 -0.0045178456533591259 -0.0051469704332566812 0 -0.00095894058647123847 -0.0055001463372754836 0 -0.001581349343059294 -0.0057321464211349546 0 -0.00069946802434634912 -0.005918192966395063 0 -0.00064536354572940842 -0.0055696719352474281 0 -0.00095894058647123847 -0.0055001463372754836 0 -0.00069946802434634912 -0.005918192966395063 0 -0.0036234094919361118 -0.0044528615014309868 0 -0.0045178456533591259 -0.0051469704332566812 0 -0.0036265405500506679 -0.0053927756417513142 0 -0.0021281596004537689 -0.0064212232523660701 0 -0.0027140788483209191 -0.0076903662795616929 0 -0.0019801871588899728 -0.0054124949827484767 0 -0.0021281596004537689 -0.0064212232523660701 0 -0.0036234094919361118 -0.0044528615014309868 0 -0.0025532010499568839 -0.004938747911732628 0 -0.0036265405500506679 -0.0053927756417513142 0 -0.00069946802434634912 -0.005918192966395063 0 -0.00041456504119418466 -0.006004410096855246 0 -0.0005099788995682901 -0.0057853429397159211 0 -0.00064536354572940842 -0.0055696719352474281 0 -0.00069946802434634912 -0.005918192966395063 0 -0.0005099788995682901 -0.0057853429397159211 0 -0.0026487608285183902 -0.0084083262966226022 0 -0.0025670311019238773 -0.0081390205659057063 0 -0.0024077665965457008 -0.0083150786378261635 0 -0.0021281596004537689 -0.0064212232523660701 0 -0.0014710163783472267 -0.0071222039060015504 0 -0.00041456504119418466 -0.006004410096855246 0 -0.0005099788995682901 -0.0057853429397159211 0 -0.00033126589188828829 -0.0057281674074271963 0 -0.0014710163783472267 -0.0071222039060015504 0 -0.00097316368937897272 -0.0063792164964111414 0 -0.00016289718407377855 -0.0052993422913242385 0 -0.00097316368937897272 -0.0063792164964111414 0 -0.00033126589188828829 -0.0057281674074271963 0 -0.000494352071266364 -0.0056007396664776799 0 -0.00027248124481430791 -0.0054807584532267847 0 -0.0005099788995682901 -0.0057853429397159211 0 -0.00033126589188828829 -0.0057281674074271963 0 -0.000494352071266364 -0.0056007396664776799 0 -0.00064536354572940842 -0.0055696719352474281 0 -0.000494352071266364 -0.0056007396664776799 0 -0.00055872337005319188 -0.0054611376308589974 0 -0.00064536354572940842 -0.0055696719352474281 0 -0.0005099788995682901 -0.0057853429397159211 0 -0.000494352071266364 -0.0056007396664776799 0 -0.000494352071266364 -0.0056007396664776799 0 -0.00047058541448630886 -0.0055067397734991051 0 -0.00055872337005319188 -0.0054611376308589974 0 -0.00048907075444763488 -0.0054152788238424534 0 -0.00055872337005319188 -0.0054611376308589974 0 -0.0004483549451723856 -0.0054627715047999657 0 -0.00047058541448630886 -0.0055067397734991051 0 -0.00055872337005319188 -0.0054611376308589974 0 -0.0004483549451723856 -0.0054627715047999657 0 -0.000494352071266364 -0.0056007396664776799 0 -0.00038815565538347633 -0.0055076183759777209 0 -0.00033531869080323068 -0.0055273556329965895 0 -0.000494352071266364 -0.0056007396664776799 0 -0.00047058541448630886 -0.0055067397734991051 0 -0.00038815565538347633 -0.0055076183759777209 0 -0.00037490821821410165 -0.0054527329911921571 0 -0.00038815565538347633 -0.0055076183759777209 0 -0.0004483549451723856 -0.0054627715047999657 0 -0.00047058541448630886 -0.0055067397734991051 0 -0.00038815565538347633 -0.0055076183759777209 0 -0.0004483549451723856 -0.0054627715047999657 0 -0.00038815565538347633 -0.0055076183759777209 0 -0.00034592863745991657 -0.0054872346977785716 0 -0.0003094544293016414 -0.0055180784476357601 0 -0.00037490821821410165 -0.0054527329911921571 0 -0.00038815565538347633 -0.0055076183759777209 0 -0.00034592863745991657 -0.0054872346977785716 0 -0.00031611185236839098 -0.0054634734345271642 0 -0.00034592863745991657 -0.0054872346977785716 0 -0.0003094544293016414 -0.0055180784476357601 0 -0.00038815565538347633 -0.0055076183759777209 0 -0.0003094544293016414 -0.0055180784476357601 0 -0.00033531869080323068 -0.0055273556329965895 0 -0.0024818235757226199 -0.0078382607910818733 0 -0.0023996531258208879 -0.007886126523272011 0 -0.0024339688331838968 -0.0079888472250371663 0 -0.0013088563511770809 -0.0066128002306879386 0 -0.00097316368937897272 -0.0063792164964111414 0 -0.0024329769684296168 -0.0078068049300232265 0 -0.0024818235757226199 -0.0078382607910818733 0 -0.0023996531258208879 -0.007886126523272011 0 -0.0024329769684296168 -0.0078068049300232265 0 -0.0023996531258208879 -0.007886126523272011 0 -0.0022886298806811863 -0.0078222428580602323 0 -0.0023996531258208879 -0.007886126523272011 0 -0.0022886298806811863 -0.0078222428580602323 0 -0.0023327858000111979 -0.0079555258197324587 0 -0.0021236812816836899 -0.0075863051200263003 0 -0.0024329769684296168 -0.0078068049300232265 0 -0.0022886298806811863 -0.0078222428580602323 0 -0.0021236812816836899 -0.0075863051200263003 0 -0.0021463381271768921 -0.0078738201967680777 0 -0.0022886298806811863 -0.0078222428580602323 0 -0.0021463381271768921 -0.0078738201967680777 0 -0.0022886298806811863 -0.0078222428580602323 0 -0.0023327858000111979 -0.0079555258197324587 0 -0.0021463381271768921 -0.0078738201967680777 0 -0.0022303921771691065 -0.008050648484206141 0 -0.0023327858000111979 -0.0079555258197324587 0 -0.0022303921771691065 -0.008050648484206141 0 -0.0023923348575314199 -0.0081170062938851588 0 -0.0021840262967209091 -0.0082483808688972385 0 -0.0021463381271768921 -0.0078738201967680777 0 -0.0022303921771691065 -0.008050648484206141 0 -0.0020531135080108813 -0.0080800627202623175 0 -0.0022303921771691065 -0.008050648484206141 0 -0.0020531135080108813 -0.0080800627202623175 0 -0.0021840262967209091 -0.0082483808688972385 0 -0.0025670311019238773 -0.0081390205659057063 0 -0.0024818235757226199 -0.0078382607910818733 0 -0.0024339688331838968 -0.0079888472250371663 0 -0.0022303921771691065 -0.008050648484206141 0 -0.0023923348575314199 -0.0081170062938851588 0 -0.0023327858000111979 -0.0079555258197324587 0 -0.0025670311019238773 -0.0081390205659057063 0 -0.0023923348575314199 -0.0081170062938851588 0 -0.0024339688331838968 -0.0079888472250371663 0 -0.0023996531258208879 -0.007886126523272011 0 -0.0024339688331838968 -0.0079888472250371663 0 -0.0023327858000111979 -0.0079555258197324587 0 -0.0023923348575314199 -0.0081170062938851588 0 -0.0024339688331838968 -0.0079888472250371663 0 -0.0023327858000111979 -0.0079555258197324587 0 -0.0017926205873365774 -0.0076762325436127371 0 -0.0019236920472990441 -0.0079174793600673352 0 -0.0017090690002181251 -0.0079733429973273384 0 -0.0021236812816836899 -0.0075863051200263003 0 -0.0021463381271768921 -0.0078738201967680777 0 -0.0019236920472990441 -0.0079174793600673352 0 -0.0021236812816836899 -0.0075863051200263003 0 -0.0017926205873365774 -0.0076762325436127371 0 -0.0019236920472990441 -0.0079174793600673352 0 -0.0021463381271768921 -0.0078738201967680777 0 -0.0019236920472990441 -0.0079174793600673352 0 -0.0020531135080108813 -0.0080800627202623175 0 -0.0019236920472990441 -0.0079174793600673352 0 -0.0020531135080108813 -0.0080800627202623175 0 -0.0018479326349292735 -0.0081379421852984281 0 -0.0017090690002181251 -0.0079733429973273384 0 -0.0018479326349292735 -0.0081379421852984281 0 -0.0016438977967236366 -0.0082452708836061143 0 -0.0019236920472990441 -0.0079174793600673352 0 -0.0017090690002181251 -0.0079733429973273384 0 -0.0018479326349292735 -0.0081379421852984281 0 -0.0018479326349292735 -0.0081379421852984281 0 -0.0018120782776843702 -0.0083723629300278112 0 -0.0016438977967236366 -0.0082452708836061143 0 -0.0018120782776843702 -0.0083723629300278112 0 -0.0015746446642285008 -0.0085085781333356213 0 -0.0016438977967236366 -0.0082452708836061143 0 -0.0018479326349292735 -0.0081379421852984281 0 -0.0018120782776843702 -0.0083723629300278112 0 -0.0019855716813188071 -0.0082547256608309742 0 -0.0018120782776843702 -0.0083723629300278112 0 -0.0019855716813188071 -0.0082547256608309742 0 -0.0020166577569881053 -0.0084713357500869491 0 -0.0020531135080108813 -0.0080800627202623175 0 -0.0018479326349292735 -0.0081379421852984281 0 -0.0019855716813188071 -0.0082547256608309742 0 -0.0020531135080108813 -0.0080800627202623175 0 -0.0019855716813188071 -0.0082547256608309742 0 -0.0021840262967209091 -0.0082483808688972385 0 -0.0019855716813188071 -0.0082547256608309742 0 -0.0020166577569881053 -0.0084713357500869491 0 -0.0021840262967209091 -0.0082483808688972385 0 -0.0018120782776843702 -0.0083723629300278112 0 -0.0020166577569881053 -0.0084713357500869491 0 -0.0018119643813214498 -0.00862228712818538 0 -0.0018119643813214498 -0.00862228712818538 0 -0.0016259313749616333 -0.0087376309354245882 0 -0.0015746446642285008 -0.0085085781333356213 0 -0.0018120782776843702 -0.0083723629300278112 0 -0.0018119643813214498 -0.00862228712818538 0 -0.0015746446642285008 -0.0085085781333356213 0 -0.0023923348575314199 -0.0081170062938851588 0 -0.0024077665965457008 -0.0083150786378261635 0 -0.0021840262967209091 -0.0082483808688972385 0 -0.0025670311019238773 -0.0081390205659057063 0 -0.0023923348575314199 -0.0081170062938851588 0 -0.0024077665965457008 -0.0083150786378261635 0 -0.0024077665965457008 -0.0083150786378261635 0 -0.0021840262967209091 -0.0082483808688972385 0 -0.0022411237078114959 -0.0084228460192234834 0 -0.0020166577569881053 -0.0084713357500869491 0 -0.0022411237078114959 -0.0084228460192234834 0 -0.002129682296405133 -0.0087580139201318113 0 -0.0022411237078114959 -0.0084228460192234834 0 -0.0023931156063577252 -0.008532889843119432 0 -0.0021656605955138364 -0.0086269024549445166 0 -0.0021994328392470571 -0.0085911341412680461 0 -0.0021505809519885722 -0.0082798682458569087 0 -0.0020166577569881053 -0.0084713357500869491 0 -0.0021840262967209091 -0.0082483808688972385 0 -0.0022411237078114959 -0.0084228460192234834 0 -0.0024077665965457008 -0.0083150786378261635 0 -0.0022411237078114959 -0.0084228460192234834 0 -0.0023931156063577252 -0.008532889843119432 0 -0.0026487608285183902 -0.0084083262966226022 0 -0.0024077665965457008 -0.0083150786378261635 0 -0.0023931156063577252 -0.008532889843119432 0 -0.0028310138949785681 -0.0067716104721500707 0 -0.0030255498147826881 -0.007006724329950577 0 -0.0026206754820654573 -0.0072583653625168595 0 -0.0028310138949785681 -0.0067716104721500707 0 -0.0021365928984799555 -0.0070328725107058438 0 -0.0026206754820654573 -0.0072583653625168595 0 -0.0027140788483209191 -0.0076903662795616929 0 -0.0021505809519885722 -0.0082798682458569087 0 -0.0021365928984799555 -0.0070328725107058438 0 -0.0023374458181030905 -0.0077213957324826638 0 -0.0026206754820654573 -0.0072583653625168595 0 -0.0021365928984799555 -0.0070328725107058438 0 -0.0023374458181030905 -0.0077213957324826638 0 -0.0018168212523281191 -0.0080694383173788888 0 -0.0023374458181030905 -0.0077213957324826638 0 -0.0026206754820654573 -0.0072583653625168595 0 -0.0028421062332341929 -0.0080189380678938015 0 -0.0030092450986588626 -0.0070609640742612355 0 -0.0027991701993948922 -0.0075864367580849752 0 -0.0030255498147826881 -0.007006724329950577 0 -0.0027800779453059292 -0.0071419821383309854 0 -0.0030759339537770494 -0.0070652699192446109 0 -0.0030255498147826881 -0.007006724329950577 0 -0.0026206754820654573 -0.0072583653625168595 0 -0.0028421062332341929 -0.0080189380678938015 0 -0.0017709990375693754 -0.0089101274471213316 0 -0.0015591480266364665 -0.0089412347844118212 0 -0.0016259313749616333 -0.0087376309354245882 0 -0.0018119643813214498 -0.00862228712818538 0 -0.0017709990375693754 -0.0089101274471213316 0 -0.0016259313749616333 -0.0087376309354245882 0 -0.0018119643813214498 -0.00862228712818538 0 -0.002129682296405133 -0.0087580139201318113 0 -0.0017709990375693754 -0.0089101274471213316 0 -0.0020166577569881053 -0.0084713357500869491 0 -0.0018119643813214498 -0.00862228712818538 0 -0.002129682296405133 -0.0087580139201318113 0 -0.0021505809519885722 -0.0082798682458569087 0 -0.001699715636972791 -0.0090211288773727957 0 -0.0021505809519885722 -0.0082798682458569087 0 -0.0018138603774639763 -0.0084849490541391345 0 -0.0019242037291113815 -0.0088371589660143704 0 -0.0017709990375693754 -0.0089101274471213316 0 -0.001808241159407686 -0.0090579668162705292 0 -0.0017709990375693754 -0.0089101274471213316 0 -0.0016925562783944353 -0.0090799082462737751 0 -0.0015591480266364665 -0.0089412347844118212 0 -0.0017709990375693754 -0.0089101274471213316 0 -0.0016925562783944353 -0.0090799082462737751 0 -0.001808241159407686 -0.0090579668162705292 0 -0.0016925562783944353 -0.0090799082462737751 0 -0.001808241159407686 -0.0090579668162705292 0 -0.001684934034685376 -0.0091141582270172009 0 -0.0018138603774639763 -0.0084849490541391345 0 -0.0016854180534756305 -0.0090998643803005628 0 -0.0018168212523281191 -0.0080694383173788888 0 -0.002313319381351949 -0.0082549813319681576 0 -0.001684934034685376 -0.0091141582270172009 0 -0.002313319381351949 -0.0082549813319681576 0 -0.0024657652854975839 -0.0088855548092981497 0 -0.001684934034685376 -0.0091141582270172009 0 -0.0016925562783944353 -0.0090799082462737751 0 -0.0015706858624088848 -0.0091730670137388608 0 -0.001684934034685376 -0.0091141582270172009 0 -0.0028421062332341929 -0.0080189380678938015 0 -0.002313319381351949 -0.0082549813319681576 0 -0.0024657652854975839 -0.0088855548092981497 0 -0.0023374458181030905 -0.0077213957324826638 0 -0.0028421062332341929 -0.0080189380678938015 0 -0.002313319381351949 -0.0082549813319681576 0 -0.0023374458181030905 -0.0077213957324826638 0 -0.0018168212523281191 -0.0080694383173788888 0 -0.002313319381351949 -0.0082549813319681576 0 -0.0027800779453059292 -0.0071419821383309854 0 -0.0024680814467699279 -0.0076078224618068109 0 -0.002994241654020036 -0.0074975139230217779 0 -0.0027991701993948922 -0.0075864367580849752 0 -0.0024710444605685554 -0.0082412414710626939 0 -0.002994241654020036 -0.0074975139230217779 0 -0.0033539689736082085 -0.0070477909940601623 0 -0.0030759339537770494 -0.0070652699192446109 0 -0.0027800779453059292 -0.0071419821383309854 0 -0.002994241654020036 -0.0074975139230217779 0 -0.0030759339537770494 -0.0070652699192446109 0 -0.002994241654020036 -0.0074975139230217779 0 -0.0033539689736082085 -0.0070477909940601623 0 -0.0034265460193507562 -0.0077601731242393484 0 -0.0033539689736082085 -0.0070477909940601623 0 -0.0040262811291335862 -0.007315221332726554 0 -0.0034265460193507562 -0.0077601731242393484 0 -0.0035263070553805407 0.003836358555986602 0 -0.0036631701333558358 0.0033404958971898846 0 -0.0038961847131782864 0.0035088713709216348 0 -0.003977642858951325 -0.0018180144413804517 0 -0.0040710857257833331 -0.0017417738094362522 0 -0.0036631701333558358 0.0033404958971898846 0 -0.0038961847131782864 0.0035088713709216348 0 -0.0038970816713420381 0.0030270853252435457 0 -0.0033539689736082085 -0.0070477909940601623 0 -0.0040262811291335862 -0.007315221332726554 0 -0.0043042104449811146 -0.0063506807794493532 0 -0.0033539689736082085 -0.0070477909940601623 0 -0.0035819229190423014 -0.0061833558694293928 0 -0.0043042104449811146 -0.0063506807794493532 0 -0.0043368693029340235 -0.0010521979314983292 0 -0.0040710857257833331 -0.0017417738094362522 0 -0.0045178456533591259 -0.0051469704332566812 0 -0.0043042104449811146 -0.0063506807794493532 0 -0.0036265405500506679 -0.0053927756417513142 0 -0.0034803661874597664 0.0029197084419500794 0 -0.0038695797572731241 0.002449643264729563 0 -0.0038970816713420381 0.0030270853252435457 0 -0.0035819229190423014 -0.0061833558694293928 0 -0.0043042104449811146 -0.0063506807794493532 0 -0.0036265405500506679 -0.0053927756417513142 0 -0.0025532010499568839 -0.004938747911732628 0 -0.0036265405500506679 -0.0053927756417513142 0 -0.0029090838897121306 -0.0059793264867460142 0 -0.0021281596004537689 -0.0064212232523660701 0 -0.0031328952321900143 -0.0063682137892626467 0 -0.0035819229190423014 -0.0061833558694293928 0 -0.0036265405500506679 -0.0053927756417513142 0 -0.0029090838897121306 -0.0059793264867460142 0 -0.0031604712556750872 -0.0066895471890569963 0 -0.0028310138949785681 -0.0067716104721500707 0 -0.0030255498147826881 -0.007006724329950577 0 -0.0031604712556750872 -0.0066895471890569963 0 -0.0030255498147826881 -0.007006724329950577 0 -0.0032025060532171567 -0.0069647063126579778 0 -0.0030255498147826881 -0.007006724329950577 0 -0.0032025060532171567 -0.0069647063126579778 0 -0.0030759339537770494 -0.0070652699192446109 0 -0.0033539689736082085 -0.0070477909940601623 0 -0.0035819229190423014 -0.0061833558694293928 0 -0.0029090838897121306 -0.0059793264867460142 0 -0.0033539689736082085 -0.0070477909940601623 0 -0.0032025060532171567 -0.0069647063126579778 0 -0.0030759339537770494 -0.0070652699192446109 0 -0.0033119059891020862 -0.0070564127835212129 0 -0.0031328952321900143 -0.0063682137892626467 0 -0.00052576529966523369 -0.0091030629711947794 0 -0.00033966074989863991 -0.0088716876475370739 0 -0.00015900591446956156 -0.0090745826941787712 0 -0.00052576529966523369 -0.0091030629711947794 0 -0.00015900591446956156 -0.0090745826941787712 0 -0.00025811061003277845 -0.0093161944198852098 0 -0.00052576529966523369 -0.0091030629711947794 0 -0.00083414748014565873 -0.0091884937239008601 0 -0.00081568383692171638 -0.0088222964583192301 0 -0.00052576529966523369 -0.0091030629711947794 0 -0.00053569522448109255 -0.0087230688689511147 0 -0.00081568383692171638 -0.0088222964583192301 0 -0.00053569522448109255 -0.0087230688689511147 0 -0.00081568383692171638 -0.0088222964583192301 0 -0.00073696132317849564 -0.0085672323831878418 0 -0.00052576529966523369 -0.0091030629711947794 0 -0.00053569522448109255 -0.0087230688689511147 0 -0.00033966074989863991 -0.0088716876475370739 0 -0.00053569522448109255 -0.0087230688689511147 0 -0.00033966074989863991 -0.0088716876475370739 0 -0.00029917566436249714 -0.008668182245350934 0 -0.00033966074989863991 -0.0088716876475370739 0 -0.00015608505565586095 -0.0088433342700782892 0 -0.00029917566436249714 -0.008668182245350934 0 -0.00015608505565586095 -0.0088433342700782892 0 9.9212345733710878e-05 -0.0090093329167123329 0 -7.2441429943933259e-05 -0.0086257008453754797 0 -0.00015608505565586095 -0.0088433342700782892 0 -0.00029917566436249714 -0.008668182245350934 0 -7.2441429943933259e-05 -0.0086257008453754797 0 -0.00033966074989863991 -0.0088716876475370739 0 -0.00015608505565586095 -0.0088433342700782892 0 -0.00015900591446956156 -0.0090745826941787712 0 -4.4828651453145197e-05 -0.0092607837420134263 0 -0.00015892194862271176 -0.0089368604203995429 0 -0.00014453279661089227 -0.0093997245205144041 0 -0.00012030470954885636 -0.0094822569313467286 0 8.2228872046715898e-05 -0.0092019371587901289 0 -0.00014453279661089227 -0.0093997245205144041 0 -0.00015114229902961037 -0.009570985960071483 0 -0.00027637420911825583 -0.0092450764141923918 0 -0.00014453279661089227 -0.0093997245205144041 0 -0.00012030470954885636 -0.0094822569313467286 0 -0.00015114229902961037 -0.009570985960071483 0 -0.00012030470954885636 -0.0094822569313467286 0 8.2228872046715898e-05 -0.0092019371587901289 0 -0.00010853798881622586 -0.0095050618867294281 0 -0.00012030470954885636 -0.0094822569313467286 0 -0.0001333448203648239 -0.0095652366365122921 0 -0.00010853798881622586 -0.0095050618867294281 0 -0.00015114229902961037 -0.009570985960071483 0 -0.00014083556581029829 -0.009527238161795239 0 -0.00010826202185872814 -0.0094601037038801634 0 -0.00012030470954885636 -0.0094822569313467286 0 -0.0001333448203648239 -0.0095652366365122921 0 -0.00015114229902961037 -0.009570985960071483 0 -0.0001333448203648239 -0.0095652366365122921 0 -0.00015114229902961037 -0.009570985960071483 0 -0.00014083556581029829 -0.009527238161795239 0 -0.0001333448203648239 -0.0095652366365122921 0 -0.00014083556581029829 -0.009527238161795239 0 -0.00017621050243993381 -0.0095370718077184662 0 9.9212345733710878e-05 -0.0090093329167123329 0 -0.00015900591446956156 -0.0090745826941787712 0 -1.9431120865851054e-05 -0.0093531919468280485 0 -0.00015608505565586095 -0.0088433342700782892 0 9.9212345733710878e-05 -0.0090093329167123329 0 -0.00015900591446956156 -0.0090745826941787712 0 -1.9431120865851054e-05 -0.0093531919468280485 0 0.00025800403050329622 -0.0094774574812360006 0 0.00010850054742862935 -0.0097062142908202909 0 -0.00015900591446956156 -0.0090745826941787712 0 -1.9431120865851054e-05 -0.0093531919468280485 0 -0.00025811061003277845 -0.0093161944198852098 0 -1.9431120865851054e-05 -0.0093531919468280485 0 -0.00016636429975386407 -0.0095831909764610215 0 -0.00025811061003277845 -0.0093161944198852098 0 -4.4828651453145197e-05 -0.0092607837420134263 0 0.00019233637007619187 -0.0095855681815440723 0 -0.00014083556581029829 -0.009527238161795239 0 -0.00010826202185872814 -0.0094601037038801634 0 -0.00015134694340926833 -0.0094884483466891687 0 9.9212345733710878e-05 -0.0090093329167123329 0 -1.9431120865851054e-05 -0.0093531919468280485 0 0.00025800403050329622 -0.0094774574812360006 0 0.00019233637007619187 -0.0095855681815440723 0 0.00019906298448564702 -0.0097196592587149369 0 0.00051875904325123759 -0.0099086686676640653 0 0.00043861912586208585 -0.0098758487822341763 0 0.00057567391277734423 -0.0099336944639735626 0 0.00019233637007619187 -0.0095855681815440723 0 0.00041979803750073834 -0.0098854037572000033 0 0.00019233637007619187 -0.0095855681815440723 0 0.00016541626687737558 -0.0096341493909369285 0 0.00037785183293560049 -0.0094379384957237571 0 0.00043861912586208585 -0.0098758487822341763 0 0.00010850054742862935 -0.0097062142908202909 0 0.00043861912586208585 -0.0098758487822341763 0 0.00010850054742862935 -0.0097062142908202909 0 0.0002070680258955042 -0.0099642949729599629 0 -1.9431120865851054e-05 -0.0093531919468280485 0 -0.00016636429975386407 -0.0095831909764610215 0 0.00010850054742862935 -0.0097062142908202909 0 -0.00016636429975386407 -0.0095831909764610215 0 0.00010850054742862935 -0.0097062142908202909 0 -5.500556571722476e-05 -0.0098638779362751321 0 -0.00016636429975386407 -0.0095831909764610215 0 -0.00033127025911156542 -0.0097567267859203031 0 -5.500556571722476e-05 -0.0098638779362751321 0 -0.00033127025911156542 -0.0097567267859203031 0 -0.00041648376127509742 -0.0094712396911798124 0 -0.00055612706262772073 -0.0096522533997290324 0 -0.00016636429975386407 -0.0095831909764610215 0 -0.00033127025911156542 -0.0097567267859203031 0 -0.00041648376127509742 -0.0094712396911798124 0 -0.00016636429975386407 -0.0095831909764610215 0 -0.00041648376127509742 -0.0094712396911798124 0 -0.00025811061003277845 -0.0093161944198852098 0 -0.00052576529966523369 -0.0091030629711947794 0 -0.00041648376127509742 -0.0094712396911798124 0 -0.00025811061003277845 -0.0093161944198852098 0 -0.00052576529966523369 -0.0091030629711947794 0 -0.00041648376127509742 -0.0094712396911798124 0 -0.00066013791426479168 -0.0094279361213574758 0 -0.00052576529966523369 -0.0091030629711947794 0 -0.00066013791426479168 -0.0094279361213574758 0 -0.00083414748014565873 -0.0091884937239008601 0 -0.00055612706262772073 -0.0096522533997290324 0 -0.00092096372493188266 -0.0095599179260118256 0 -0.0006029723525860758 -0.009914905683427247 0 -0.00066013791426479168 -0.0094279361213574758 0 -0.00055612706262772073 -0.0096522533997290324 0 -0.00092096372493188266 -0.0095599179260118256 0 -0.00041648376127509742 -0.0094712396911798124 0 -0.00066013791426479168 -0.0094279361213574758 0 -0.00055612706262772073 -0.0096522533997290324 0 -0.00092096372493188266 -0.0095599179260118256 0 -0.0011063657717021143 -0.0091965008267621533 0 -0.0012690554661027571 -0.0094027394301790194 0 -0.00092096372493188266 -0.0095599179260118256 0 -0.0012690554661027571 -0.0094027394301790194 0 -0.001396554640667161 -0.0097760806573186105 0 -0.0011063657717021143 -0.0091965008267621533 0 -0.0012690554661027571 -0.0094027394301790194 0 -0.0013328826591923254 -0.0090235343443838753 0 -0.00066013791426479168 -0.0094279361213574758 0 -0.00092096372493188266 -0.0095599179260118256 0 -0.00083414748014565873 -0.0091884937239008601 0 -0.00092096372493188266 -0.0095599179260118256 0 -0.0011063657717021143 -0.0091965008267621533 0 -0.00083414748014565873 -0.0091884937239008601 0 -0.0015706858624088848 -0.0091730670137388608 0 -0.001684934034685376 -0.0091141582270172009 0 -0.0014486367198590846 -0.0092486673444302676 0 -0.0012690554661027571 -0.0094027394301790194 0 -0.0015706858624088848 -0.0091730670137388608 0 -0.001396554640667161 -0.0097760806573186105 0 -0.0015738787435353992 -0.0091843564452048516 0 -0.001387786666496184 -0.0095438939818907314 0 -0.0012690554661027571 -0.0094027394301790194 0 -0.0015706858624088848 -0.0091730670137388608 0 -0.0013328826591923254 -0.0090235343443838753 0 -0.0016925562783944353 -0.0090799082462737751 0 -0.0015706858624088848 -0.0091730670137388608 0 -0.0015591480266364665 -0.0089412347844118212 0 -0.0015706858624088848 -0.0091730670137388608 0 -0.0015591480266364665 -0.0089412347844118212 0 -0.0013328826591923254 -0.0090235343443838753 0 -0.0015591480266364665 -0.0089412347844118212 0 -0.0013328826591923254 -0.0090235343443838753 0 -0.0013702230308383376 -0.0087034612293022083 0 -0.0013328826591923254 -0.0090235343443838753 0 -0.0013702230308383376 -0.0087034612293022083 0 -0.0010984367247700434 -0.0088807275644943659 0 -0.0015591480266364665 -0.0089412347844118212 0 -0.0013702230308383376 -0.0087034612293022083 0 -0.0016259313749616333 -0.0087376309354245882 0 -0.0013702230308383376 -0.0087034612293022083 0 -0.0016259313749616333 -0.0087376309354245882 0 -0.0015746446642285008 -0.0085085781333356213 0 -0.00083414748014565873 -0.0091884937239008601 0 -0.0010984367247700434 -0.0088807275644943659 0 -0.00081568383692171638 -0.0088222964583192301 0 -0.0011063657717021143 -0.0091965008267621533 0 -0.0013328826591923254 -0.0090235343443838753 0 -0.0010984367247700434 -0.0088807275644943659 0 -0.0011063657717021143 -0.0091965008267621533 0 -0.00083414748014565873 -0.0091884937239008601 0 -0.0010984367247700434 -0.0088807275644943659 0 -0.0013702230308383376 -0.0087034612293022083 0 -0.0010984367247700434 -0.0088807275644943659 0 -0.0010637486258230631 -0.008561446722970165 0 -0.0010984367247700434 -0.0088807275644943659 0 -0.00081568383692171638 -0.0088222964583192301 0 -0.0010637486258230631 -0.008561446722970165 0 -0.00081568383692171638 -0.0088222964583192301 0 -0.0010637486258230631 -0.008561446722970165 0 -0.00073696132317849564 -0.0085672323831878418 0 -0.0010637486258230631 -0.008561446722970165 0 -0.00084983962447144094 -0.0083526745744991783 0 -0.00073696132317849564 -0.0085672323831878418 0 -0.0011005340008139351 -0.0083113650496377308 0 -0.0013344277718694627 -0.008343668607689406 0 -0.00112759782976077 -0.0080689806271624902 0 -0.0010637486258230631 -0.008561446722970165 0 -0.0011005340008139351 -0.0083113650496377308 0 -0.00084983962447144094 -0.0083526745744991783 0 -0.0010637486258230631 -0.008561446722970165 0 -0.0011005340008139351 -0.0083113650496377308 0 -0.0013344277718694627 -0.008343668607689406 0 -0.00084983962447144094 -0.0083526745744991783 0 -0.00084797667172963466 -0.0081277857294119304 0 -0.00060657958543831241 -0.0083299730421879884 0 -0.0011005340008139351 -0.0083113650496377308 0 -0.00084983962447144094 -0.0083526745744991783 0 -0.00084797667172963466 -0.0081277857294119304 0 -0.0013702230308383376 -0.0087034612293022083 0 -0.0015746446642285008 -0.0085085781333356213 0 -0.0013344277718694627 -0.008343668607689406 0 -0.0013702230308383376 -0.0087034612293022083 0 -0.0010637486258230631 -0.008561446722970165 0 -0.0013344277718694627 -0.008343668607689406 0 -0.0015746446642285008 -0.0085085781333356213 0 -0.0013344277718694627 -0.008343668607689406 0 -0.0016438977967236366 -0.0082452708836061143 0 -0.0013344277718694627 -0.008343668607689406 0 -0.0016438977967236366 -0.0082452708836061143 0 -0.0014860897757789902 -0.0080768978594676997 0 -0.0017090690002181251 -0.0079733429973273384 0 -0.0016438977967236366 -0.0082452708836061143 0 -0.0014860897757789902 -0.0080768978594676997 0 -0.0013344277718694627 -0.008343668607689406 0 -0.0014860897757789902 -0.0080768978594676997 0 -0.00112759782976077 -0.0080689806271624902 0 -0.0014860897757789902 -0.0080768978594676997 0 -0.0013341967071964973 -0.0079114525299533722 0 -0.00112759782976077 -0.0080689806271624902 0 -0.0013341967071964973 -0.0079114525299533722 0 -0.0015520357604388575 -0.0077893400315623548 0 -0.0012372144215667584 -0.0076979706873632715 0 -0.0014860897757789902 -0.0080768978594676997 0 -0.0013341967071964973 -0.0079114525299533722 0 -0.0015520357604388575 -0.0077893400315623548 0 -0.0017926205873365774 -0.0076762325436127371 0 -0.0017090690002181251 -0.0079733429973273384 0 -0.0015520357604388575 -0.0077893400315623548 0 -0.0017090690002181251 -0.0079733429973273384 0 -0.0014860897757789902 -0.0080768978594676997 0 -0.0015520357604388575 -0.0077893400315623548 0 -0.00084797667172963466 -0.0081277857294119304 0 -0.00112759782976077 -0.0080689806271624902 0 -0.00096275317438366116 -0.0078698641809935369 0 -0.0011005340008139351 -0.0083113650496377308 0 -0.00084797667172963466 -0.0081277857294119304 0 -0.00112759782976077 -0.0080689806271624902 0 -0.00112759782976077 -0.0080689806271624902 0 -0.00096275317438366116 -0.0078698641809935369 0 -0.0012372144215667584 -0.0076979706873632715 0 -0.0013341967071964973 -0.0079114525299533722 0 -0.00112759782976077 -0.0080689806271624902 0 -0.0012372144215667584 -0.0076979706873632715 0 -0.00084797667172963466 -0.0081277857294119304 0 -0.00096275317438366116 -0.0078698641809935369 0 -0.00068924828216184602 -0.007883256602228177 0 -0.00068924828216184602 -0.007883256602228177 0 -0.00049037860460754987 -0.0080363343794297715 0 -0.00046397630521743813 -0.0078051793880490839 0 -0.00068924828216184602 -0.007883256602228177 0 -0.00049037860460754987 -0.0080363343794297715 0 -0.00061604973134073116 -0.0081199815986242336 0 -0.00030508467100185066 -0.0078832082998396592 0 -0.00036058519090870282 -0.0080055433283698404 0 -0.00046397630521743813 -0.0078051793880490839 0 -0.00049037860460754987 -0.0080363343794297715 0 -0.00036058519090870282 -0.0080055433283698404 0 -0.00046397630521743813 -0.0078051793880490839 0 -0.00049037860460754987 -0.0080363343794297715 0 -0.00036058519090870282 -0.0080055433283698404 0 -0.00036044450822834663 -0.0081395809371149087 0 -0.00036058519090870282 -0.0080055433283698404 0 -0.00036044450822834663 -0.0081395809371149087 0 -0.0002475913561881788 -0.008058409037440482 0 -0.00030508467100185066 -0.0078832082998396592 0 -0.00036058519090870282 -0.0080055433283698404 0 -0.0002475913561881788 -0.008058409037440482 0 -0.00049037860460754987 -0.0080363343794297715 0 -0.00047091699022721028 -0.0082208444197745846 0 -0.00061604973134073116 -0.0081199815986242336 0 -0.00049037860460754987 -0.0080363343794297715 0 -0.00036044450822834663 -0.0081395809371149087 0 -0.00047091699022721028 -0.0082208444197745846 0 -0.00036044450822834663 -0.0081395809371149087 0 -0.00047091699022721028 -0.0082208444197745846 0 -0.00035523689546126637 -0.0082763301806384228 0 -0.00036044450822834663 -0.0081395809371149087 0 -0.00035523689546126637 -0.0082763301806384228 0 -0.00025664972684664842 -0.0082652875274373018 0 -0.00047091699022721028 -0.0082208444197745846 0 -0.00035523689546126637 -0.0082763301806384228 0 -0.00039777855154366875 -0.0083729917470942369 0 -0.00084797667172963466 -0.0081277857294119304 0 -0.00068924828216184602 -0.007883256602228177 0 -0.00061604973134073116 -0.0081199815986242336 0 -0.00047091699022721028 -0.0082208444197745846 0 -0.00061604973134073116 -0.0081199815986242336 0 -0.00060657958543831241 -0.0083299730421879884 0 -0.00084797667172963466 -0.0081277857294119304 0 -0.00061604973134073116 -0.0081199815986242336 0 -0.00060657958543831241 -0.0083299730421879884 0 -0.00084983962447144094 -0.0083526745744991783 0 -0.00060657958543831241 -0.0083299730421879884 0 -0.00073696132317849564 -0.0085672323831878418 0 -0.00060657958543831241 -0.0083299730421879884 0 -0.00046269891660537325 -0.0085225468220132775 0 -0.00073696132317849564 -0.0085672323831878418 0 -0.00047091699022721028 -0.0082208444197745846 0 -0.00060657958543831241 -0.0083299730421879884 0 -0.00039777855154366875 -0.0083729917470942369 0 -0.00039777855154366875 -0.0083729917470942369 0 -0.00046269891660537325 -0.0085225468220132775 0 -0.00024469553638588223 -0.0085023306722900194 0 -0.00035523689546126637 -0.0082763301806384228 0 -0.00039777855154366875 -0.0083729917470942369 0 -0.00029204695445192181 -0.0083697181869675178 0 -0.00039777855154366875 -0.0083729917470942369 0 -0.00024469553638588223 -0.0085023306722900194 0 -0.00029204695445192181 -0.0083697181869675178 0 -0.00060657958543831241 -0.0083299730421879884 0 -0.00039777855154366875 -0.0083729917470942369 0 -0.00046269891660537325 -0.0085225468220132775 0 -0.00046269891660537325 -0.0085225468220132775 0 -0.00029917566436249714 -0.008668182245350934 0 -0.00024469553638588223 -0.0085023306722900194 0 -0.00053569522448109255 -0.0087230688689511147 0 -0.00046269891660537325 -0.0085225468220132775 0 -0.00029917566436249714 -0.008668182245350934 0 -0.00053569522448109255 -0.0087230688689511147 0 -0.00046269891660537325 -0.0085225468220132775 0 -0.00073696132317849564 -0.0085672323831878418 0 -0.00027637420911825583 -0.0092450764141923918 0 -7.0253630697325169e-05 -0.0088462514773192946 0 -0.00014097508746040898 -0.0087157848066770367 0 -0.00014453279661089227 -0.0093997245205144041 0 8.2228872046715898e-05 -0.0092019371587901289 0 -0.00027637420911825583 -0.0092450764141923918 0 8.2228872046715898e-05 -0.0092019371587901289 0 -0.00027637420911825583 -0.0092450764141923918 0 -7.0253630697325169e-05 -0.0088462514773192946 0 -0.00029917566436249714 -0.008668182245350934 0 -7.2441429943933259e-05 -0.0086257008453754797 0 -0.00024469553638588223 -0.0085023306722900194 0 -7.2441429943933259e-05 -0.0086257008453754797 0 -0.00024469553638588223 -0.0085023306722900194 0 -0.00022106859604089445 -0.0084031710966571537 0 -0.00027637420911825583 -0.0092450764141923918 0 -0.00022106859604089445 -0.0084031710966571537 0 -0.00014097508746040898 -0.0087157848066770367 0 -0.00015892194862271176 -0.0089368604203995429 0 -0.00022412392598564944 -0.008453361976683697 0 -0.00024469553638588223 -0.0085023306722900194 0 -0.00029204695445192181 -0.0083697181869675178 0 -0.00022106859604089445 -0.0084031710966571537 0 -0.00022106859604089445 -0.0084031710966571537 0 -0.00014097508746040898 -0.0087157848066770367 0 -6.8723193522398155e-06 -0.0083874432428123844 0 0.00034928499213903542 -0.011843055908067491 0 0.00063506903698720631 -0.013702249674226827 0 -0.00018350705156442508 -0.012495376189513919 0 8.2228872046715898e-05 -0.0092019371587901289 0 -7.0253630697325169e-05 -0.0088462514773192946 0 -6.8723193522398155e-06 -0.0083874432428123844 0 0.00038814185758773867 -0.014867244548673731 0 0.00036623510370947777 -0.013939720728149155 0 0.00018046643449124572 -0.010476247459039497 0 0.00028883820355958225 -0.011024369187741988 0 0.00063506903698720631 -0.013702249674226827 0 0.00033853837744525429 -0.014155351978014969 0 -0.00018350705156442508 -0.012495376189513919 0 -7.0253630697325169e-05 -0.0088462514773192946 0 -0.00014097508746040898 -0.0087157848066770367 0 -6.8723193522398155e-06 -0.0083874432428123844 0 0.00063506903698720631 -0.013702249674226827 0 0.00033853837744525429 -0.014155351978014969 0 0.00048535162020291444 -0.015033057774248614 0 0.00047730131989161446 -0.015519741696794369 0 0.00049096088116299091 -0.015398140693038827 0 0.00055549929214336916 -0.015514642731157944 0 0.00028883820355958225 -0.011024369187741988 0 0.00016333531985349527 -0.011439481597488305 0 -6.8723193522398155e-06 -0.0083874432428123844 0 -0.0001432288263063523 -0.008169826781021905 0 -0.00014151087505866265 -0.0079327948917982706 0 -0.00035523689546126637 -0.0082763301806384228 0 -0.00029204695445192181 -0.0083697181869675178 0 -0.00025664972684664842 -0.0082652875274373018 0 -0.00029204695445192181 -0.0083697181869675178 0 -0.00022106859604089445 -0.0084031710966571537 0 -0.00025664972684664842 -0.0082652875274373018 0 -0.00022106859604089445 -0.0084031710966571537 0 -6.8723193522398155e-06 -0.0083874432428123844 0 -0.00016452712351403898 -0.0083049976872758367 0 -0.00025664972684664842 -0.0082652875274373018 0 -0.00016452712351403898 -0.0083049976872758367 0 -0.0001432288263063523 -0.008169826781021905 0 -6.8723193522398155e-06 -0.0083874432428123844 0 -0.00016452712351403898 -0.0083049976872758367 0 -0.0001432288263063523 -0.008169826781021905 0 -0.00022106859604089445 -0.0084031710966571537 0 -0.00025664972684664842 -0.0082652875274373018 0 -0.00016452712351403898 -0.0083049976872758367 0 -0.00036044450822834663 -0.0081395809371149087 0 -0.00025664972684664842 -0.0082652875274373018 0 -0.0002475913561881788 -0.008058409037440482 0 -0.00025664972684664842 -0.0082652875274373018 0 -0.0001432288263063523 -0.008169826781021905 0 -0.0002475913561881788 -0.008058409037440482 0 0.00033853837744525429 -0.014155351978014969 0 0.00048535162020291444 -0.015033057774248614 0 0.00036315563323765138 -0.015202398971194362 0 -0.0001432288263063523 -0.008169826781021905 0 -0.0002475913561881788 -0.008058409037440482 0 -0.00014151087505866265 -0.0079327948917982706 0 -0.00030508467100185066 -0.0078832082998396592 0 -0.0002475913561881788 -0.008058409037440482 0 -0.00014151087505866265 -0.0079327948917982706 0 0.00038814185758773867 -0.014867244548673731 0 0.00040749742220092786 -0.015192965611959314 0 0.00047730131989161446 -0.015519741696794369 0 0.00049096088116299091 -0.015398140693038827 0 0.00036315563323765138 -0.015202398971194362 0 0.00049096088116299091 -0.015398140693038827 0 0.00051680360864751068 -0.015360020718869574 0 0.00057207933977787529 -0.01546757370289838 0 0.00049096088116299091 -0.015398140693038827 0 0.00044261741827436395 -0.015295321434821466 0 0.00036315563323765138 -0.015202398971194362 0 0.00049096088116299091 -0.015398140693038827 0 0.00044261741827436395 -0.015295321434821466 0 0.00051680360864751068 -0.015360020718869574 0 0.00044261741827436395 -0.015295321434821466 0 0.00051680360864751068 -0.015360020718869574 0 0.00042335347159564286 -0.015262017919225396 0 0.00051680360864751068 -0.015360020718869574 0 0.00042335347159564286 -0.015262017919225396 0 0.00055179665372973009 -0.015283494275734468 0 0.00042335347159564286 -0.015262017919225396 0 0.00030568526417402986 -0.015197727137032314 0 0.00036315563323765138 -0.015202398971194362 0 0.00044261741827436395 -0.015295321434821466 0 0.00042335347159564286 -0.015262017919225396 0 0.00036315563323765138 -0.015202398971194362 0 0.00042335347159564286 -0.015262017919225396 0 0.00045100166773525378 -0.015127881204315328 0 0.00055179665372973009 -0.015283494275734468 0 0.00042335347159564286 -0.015262017919225396 0 0.00045100166773525378 -0.015127881204315328 0 0.00030568526417402986 -0.015197727137032314 0 0.00045100166773525378 -0.015127881204315328 0 0.00022445842552001131 -0.014996805248997516 0 0.00030568526417402986 -0.015197727137032314 0 0.00022445842552001131 -0.014996805248997516 0 0.00030568526417402986 -0.015197727137032314 0 6.323858835280649e-05 -0.015224488276475667 0 0.00016333531985349527 -0.011439481597488305 0 -9.7270403591656144e-05 -0.011334876466520852 0 0.00048535162020291444 -0.015033057774248614 0 0.00036315563323765138 -0.015202398971194362 0 6.323858835280649e-05 -0.015224488276475667 0 0.00030568526417402986 -0.015197727137032314 0 0.00036315563323765138 -0.015202398971194362 0 6.323858835280649e-05 -0.015224488276475667 0 -0.00030508467100185066 -0.0078832082998396592 0 -0.00014151087505866265 -0.0079327948917982706 0 -0.00026140102296425292 -0.0074947469491230684 0 -0.00046397630521743813 -0.0078051793880490839 0 -0.00060470735564037382 -0.0075002016175729829 0 -0.00026140102296425292 -0.0074947469491230684 0 -0.00030508467100185066 -0.0078832082998396592 0 -0.00046397630521743813 -0.0078051793880490839 0 -0.00026140102296425292 -0.0074947469491230684 0 -0.00068924828216184602 -0.007883256602228177 0 -0.00060470735564037382 -0.0075002016175729829 0 -0.00091808336617236997 -0.0075360288334620877 0 -0.00068924828216184602 -0.007883256602228177 0 -0.00046397630521743813 -0.0078051793880490839 0 -0.00060470735564037382 -0.0075002016175729829 0 -0.00060470735564037382 -0.0075002016175729829 0 -0.00080340995979837505 -0.0071752981495466625 0 -0.00091808336617236997 -0.0075360288334620877 0 -0.00060470735564037382 -0.0075002016175729829 0 -0.00026140102296425292 -0.0074947469491230684 0 -0.00042692375074040572 -0.0069859084769197137 0 0.00022445842552001131 -0.014996805248997516 0 6.323858835280649e-05 -0.015224488276475667 0 -0.00037456170409943905 -0.014589451631332436 0 -9.7270403591656144e-05 -0.011334876466520852 0 -0.00040569992171245726 -0.010775019857830475 0 -0.00060470735564037382 -0.0075002016175729829 0 -0.00042692375074040572 -0.0069859084769197137 0 -0.00080340995979837505 -0.0071752981495466625 0 -0.00042692375074040572 -0.0069859084769197137 0 -0.00080340995979837505 -0.0071752981495466625 0 -0.00093977554529891801 -0.0066693758304386778 0 -0.00040569992171245726 -0.010775019857830475 0 -0.00081116524449597683 -0.0099336458869574654 0 -0.00042692375074040572 -0.0069859084769197137 0 -0.00093977554529891801 -0.0066693758304386778 0 -0.00076185068497720582 -0.0062945654850009719 0 -0.00037456170409943905 -0.014589451631332436 0 -5.9074812838089518e-06 -0.013946843685861758 0 -0.00036804295442885128 -0.013870490448907919 0 -0.00037456170409943905 -0.014589451631332436 0 -0.00036804295442885128 -0.013870490448907919 0 -0.00086516402526570064 -0.013537391581991217 0 -0.00037456170409943905 -0.014589451631332436 0 0.00033545729686066333 -0.014622787131975953 0 -5.9074812838089518e-06 -0.013946843685861758 0 0.00033545729686066333 -0.014622787131975953 0 0.00037969943350043791 -0.013965573293675853 0 -5.9074812838089518e-06 -0.013946843685861758 0 0.00033545729686066333 -0.014622787131975953 0 0.00037969943350043791 -0.013965573293675853 0 0.00056353366502187488 -0.014638299486225066 0 0.00045100166773525378 -0.015127881204315328 0 0.00022445842552001131 -0.014996805248997516 0 0.00033545729686066333 -0.014622787131975953 0 0.00045100166773525378 -0.015127881204315328 0 0.00033545729686066333 -0.014622787131975953 0 0.00057738428043197128 -0.015007668901207112 0 0.00022445842552001131 -0.014996805248997516 0 -0.00037456170409943905 -0.014589451631332436 0 0.00033545729686066333 -0.014622787131975953 0 -0.0018183463190674656 -0.0073480729317598175 0 -0.0015258643068238233 -0.0074760739141839236 0 -0.0015244328917278938 -0.0070708112354667561 0 -0.0017926205873365774 -0.0076762325436127371 0 -0.0015520357604388575 -0.0077893400315623548 0 -0.0015258643068238233 -0.0074760739141839236 0 -0.0015520357604388575 -0.0077893400315623548 0 -0.0015258643068238233 -0.0074760739141839236 0 -0.0012372144215667584 -0.0076979706873632715 0 -0.0015258643068238233 -0.0074760739141839236 0 -0.0012715287916429288 -0.0073721446972504863 0 -0.0012372144215667584 -0.0076979706873632715 0 -0.0015258643068238233 -0.0074760739141839236 0 -0.0012715287916429288 -0.0073721446972504863 0 -0.0015244328917278938 -0.0070708112354667561 0 -0.0012715287916429288 -0.0073721446972504863 0 -0.00091808336617236997 -0.0075360288334620877 0 -0.0011056520787961148 -0.0070976347807814632 0 -0.0012715287916429288 -0.0073721446972504863 0 -0.0012372144215667584 -0.0076979706873632715 0 -0.00091808336617236997 -0.0075360288334620877 0 -0.00096275317438366116 -0.0078698641809935369 0 -0.0012372144215667584 -0.0076979706873632715 0 -0.00091808336617236997 -0.0075360288334620877 0 -0.00096275317438366116 -0.0078698641809935369 0 -0.00068924828216184602 -0.007883256602228177 0 -0.00091808336617236997 -0.0075360288334620877 0 -0.00080340995979837505 -0.0071752981495466625 0 -0.00091808336617236997 -0.0075360288334620877 0 -0.0011056520787961148 -0.0070976347807814632 0 -0.00080340995979837505 -0.0071752981495466625 0 -0.00093977554529891801 -0.0066693758304386778 0 -0.0011056520787961148 -0.0070976347807814632 0 -0.00093977554529891801 -0.0066693758304386778 0 -0.0012132319683740352 -0.0067187479324279523 0 -0.0011056520787961148 -0.0070976347807814632 0 -0.00093977554529891801 -0.0066693758304386778 0 -0.0012132319683740352 -0.0067187479324279523 0 -0.00085638872681362136 -0.006277469204066217 0 -0.0012715287916429288 -0.0073721446972504863 0 -0.0011056520787961148 -0.0070976347807814632 0 -0.0015244328917278938 -0.0070708112354667561 0 -0.0012132319683740352 -0.0067187479324279523 0 -0.0011056520787961148 -0.0070976347807814632 0 -0.0015244328917278938 -0.0070708112354667561 0 -0.0003753851374400654 -0.0056880530206088169 0 -0.00012147373049810414 -0.0055038324414911173 0 -0.00011207786028154938 -0.0056691894478353485 0 -0.00078424476145209834 -0.0062056366800626638 0 -0.00082311602898318438 -0.0062837082631073248 0 -6.8858688328010648e-05 -0.0055062756772128827 0 -0.00012147373049810414 -0.0055038324414911173 0 -0.00011207786028154938 -0.0056691894478353485 0 -6.8858688328010648e-05 -0.0055062756772128827 0 -0.00011207786028154938 -0.0056691894478353485 0 -5.3679366165055347e-05 -0.005641938386823175 0 -0.00095026368926404256 -0.0063972188985810773 0 -0.00082311602898318438 -0.0062837082631073248 0 -6.8858688328010648e-05 -0.0055062756772128827 0 -9.2045964295142546e-05 -0.0054565240969916013 0 -0.00012147373049810414 -0.0055038324414911173 0 0.00019526254307826712 -0.0052913535785747562 0 -0.00010826981802184734 -0.0059421490967356575 0 0.0001556928823080964 -0.005975354280926647 0 8.0034603070775392e-05 -0.0054824415953792323 0 -9.8171792414741509e-05 -0.0058549549803711331 0 -0.00011207786028154938 -0.0056691894478353485 0 -5.3679366165055347e-05 -0.005641938386823175 0 -0.00010826981802184734 -0.0059421490967356575 0 -0.0003753851374400654 -0.0056880530206088169 0 -0.00011207786028154938 -0.0056691894478353485 0 -0.00010826981802184734 -0.0059421490967356575 0 -0.00010826981802184734 -0.0059421490967356575 0 -7.786151742149552e-05 -0.0066410598330335436 0 0.0001556928823080964 -0.005975354280926647 0 -0.00010826981802184734 -0.0059421490967356575 0 -0.00049450936929408811 -0.0062848588348187557 0 -7.786151742149552e-05 -0.0066410598330335436 0 -0.0003753851374400654 -0.0056880530206088169 0 -0.00010826981802184734 -0.0059421490967356575 0 -0.00049450936929408811 -0.0062848588348187557 0 -0.0003753851374400654 -0.0056880530206088169 0 -0.00049450936929408811 -0.0062848588348187557 0 -0.00085638872681362136 -0.006277469204066217 0 -0.00078424476145209834 -0.0062056366800626638 0 -0.00083862238357718599 -0.0062583998171669509 0 -0.00049450936929408811 -0.0062848588348187557 0 -0.0010852705183831881 -0.0065857404222533153 0 -0.00033691941944776328 -0.007088628189781847 0 -0.00049450936929408811 -0.0062848588348187557 0 -0.0010852705183831881 -0.0065857404222533153 0 -0.00085638872681362136 -0.006277469204066217 0 -0.0010852705183831881 -0.0065857404222533153 0 -0.00035035959646724773 -0.008751270927398417 0 -0.00033691941944776328 -0.007088628189781847 0 -0.0011014883320380666 -0.011747652269887826 0 -0.00035035959646724773 -0.008751270927398417 0 -0.00033400776109729222 -0.010443707570166756 0 -0.0009763178249736483 -0.0092125784344353999 0 -0.00046534209878732954 -0.0089072753902936057 0 -0.00035035959646724773 -0.008751270927398417 0 -2.0449276253687268e-06 -0.0093243601853600592 0 -2.8424850695888606e-08 -0.0078279047717553524 0 -0.00035035959646724773 -0.008751270927398417 0 -2.0449276253687268e-06 -0.0093243601853600592 0 -0.00033400776109729222 -0.010443707570166756 0 -0.00035035959646724773 -0.008751270927398417 0 -6.3210810340282519e-05 -0.0074255582799891339 0 -0.00033691941944776328 -0.007088628189781847 0 -0.00035035959646724773 -0.008751270927398417 0 -2.8424850695888606e-08 -0.0078279047717553524 0 -6.3210810340282519e-05 -0.0074255582799891339 0 -6.3210810340282519e-05 -0.0074255582799891339 0 -0.00033691941944776328 -0.007088628189781847 0 -7.786151742149552e-05 -0.0066410598330335436 0 -0.00049450936929408811 -0.0062848588348187557 0 -0.00033691941944776328 -0.007088628189781847 0 -7.786151742149552e-05 -0.0066410598330335436 0 -6.3210810340282519e-05 -0.0074255582799891339 0 -7.786151742149552e-05 -0.0066410598330335436 0 7.0184063416551054e-05 -0.0068264514551773688 0 -7.786151742149552e-05 -0.0066410598330335436 0 7.0184063416551054e-05 -0.0068264514551773688 0 0.0001556928823080964 -0.005975354280926647 0 -2.8424850695888606e-08 -0.0078279047717553524 0 -6.3210810340282519e-05 -0.0074255582799891339 0 7.0184063416551054e-05 -0.0068264514551773688 0 -2.8424850695888606e-08 -0.0078279047717553524 0 7.0184063416551054e-05 -0.0068264514551773688 0 3.6752746034334285e-07 -0.0063331268866632841 0 7.0184063416551054e-05 -0.0068264514551773688 0 3.6752746034334285e-07 -0.0063331268866632841 0 0.0001556928823080964 -0.005975354280926647 0 0.00013945394345647432 -0.013236841044683612 0 0.00034782757564718816 -0.013254911251210453 0 9.4602320678589125e-05 -0.012199817994429193 0 0.00013945394345647432 -0.013236841044683612 0 0.00034782757564718816 -0.013254911251210453 0 0.00037969943350043791 -0.013965573293675853 0 0.00034782757564718816 -0.013254911251210453 0 0.00037969943350043791 -0.013965573293675853 0 0.00046794255859691173 -0.014061170105718512 0 0.00034782757564718816 -0.013254911251210453 0 0.000172925380763815 -0.01308988247251412 0 0.00046794255859691173 -0.014061170105718512 0 0.00013945394345647432 -0.013236841044683612 0 0.00037969943350043791 -0.013965573293675853 0 -5.9074812838089518e-06 -0.013946843685861758 0 0.00013945394345647432 -0.013236841044683612 0 -5.9074812838089518e-06 -0.013946843685861758 0 -0.0002360545182299789 -0.013309859692583751 0 -5.9074812838089518e-06 -0.013946843685861758 0 -0.00036804295442885128 -0.013870490448907919 0 -0.0002360545182299789 -0.013309859692583751 0 -0.00036804295442885128 -0.013870490448907919 0 -0.0002360545182299789 -0.013309859692583751 0 -0.00086516402526570064 -0.013537391581991217 0 -0.00093977554529891801 -0.0066693758304386778 0 -0.00085638872681362136 -0.006277469204066217 0 -0.00076185068497720582 -0.0062945654850009719 0 -0.0002360545182299789 -0.013309859692583751 0 -0.00086516402526570064 -0.013537391581991217 0 -0.00052107555895186002 -0.012585131143059839 0 -0.0009763178249736483 -0.0092125784344353999 0 -0.00081116524449597683 -0.0099336458869574654 0 -0.0011014883320380666 -0.011747652269887826 0 -0.00086516402526570064 -0.013537391581991217 0 -0.00052107555895186002 -0.012585131143059839 0 -0.0010852705183831881 -0.0065857404222533153 0 -0.00085638872681362136 -0.006277469204066217 0 -0.00076185068497720582 -0.0062945654850009719 0 -0.0011014883320380666 -0.011747652269887826 0 -0.00052107555895186002 -0.012585131143059839 0 -0.00028253625180429959 -0.011657389308147158 0 -0.00014076391727063027 -0.01256753191454244 0 9.4602320678589125e-05 -0.012199817994429193 0 -0.00028253625180429959 -0.011657389308147158 0 0.00013945394345647432 -0.013236841044683612 0 -0.0002360545182299789 -0.013309859692583751 0 -0.00014076391727063027 -0.01256753191454244 0 -0.0002360545182299789 -0.013309859692583751 0 -0.00052107555895186002 -0.012585131143059839 0 -0.00014076391727063027 -0.01256753191454244 0 -0.00052107555895186002 -0.012585131143059839 0 -0.00014076391727063027 -0.01256753191454244 0 -0.00028253625180429959 -0.011657389308147158 0 0.00013945394345647432 -0.013236841044683612 0 -0.00014076391727063027 -0.01256753191454244 0 9.4602320678589125e-05 -0.012199817994429193 0 9.4602320678589125e-05 -0.012199817994429193 0 -6.969291902030053e-05 -0.010882348859832311 0 0.00044891461790224008 -0.011505556511833203 0 9.4602320678589125e-05 -0.012199817994429193 0 -0.00028253625180429959 -0.011657389308147158 0 -6.969291902030053e-05 -0.010882348859832311 0 -0.0011014883320380666 -0.011747652269887826 0 -0.00028253625180429959 -0.011657389308147158 0 -0.00033400776109729222 -0.010443707570166756 0 -0.00028253625180429959 -0.011657389308147158 0 -0.00033400776109729222 -0.010443707570166756 0 -6.969291902030053e-05 -0.010882348859832311 0 -2.0449276253687268e-06 -0.0093243601853600592 0 -0.00033400776109729222 -0.010443707570166756 0 -6.969291902030053e-05 -0.010882348859832311 0 -2.0449276253687268e-06 -0.0093243601853600592 0 1.6412167105569306e-06 -0.010817960962951324 0 -6.969291902030053e-05 -0.010882348859832311 0 1.6412167105569306e-06 -0.010817960962951324 0 -6.969291902030053e-05 -0.010882348859832311 0 0.00044891461790224008 -0.011505556511833203 0 5.1300685042919199e-08 -0.010819488727950362 0 0.00017955733623021685 -0.01206671020061187 0 -1.5659597479430157e-06 -0.010821155882647022 0 -0.00011576931336761157 -0.01255896469839343 0 9.4729133465895111e-07 -0.012287414826677166 0 0.00035442695942771303 -0.013034798201390063 0 0.00017955733623021685 -0.01206671020061187 0 0.00034782757564718816 -0.013254911251210453 0 9.4602320678589125e-05 -0.012199817994429193 0 0.00044891461790224008 -0.011505556511833203 0 0.00034782757564718816 -0.013254911251210453 0 -0.00011576931336761157 -0.01255896469839343 0 0.000172925380763815 -0.01308988247251412 0 -0.00011576931336761157 -0.01255896469839343 0 0.000172925380763815 -0.01308988247251412 0 9.4729133465895111e-07 -0.012287414826677166 0 0.000172925380763815 -0.01308988247251412 0 9.4729133465895111e-07 -0.012287414826677166 0 0.00030311335620206533 -0.013728647010891826 0 9.4729133465895111e-07 -0.012287414826677166 0 0.00030311335620206533 -0.013728647010891826 0 6.8111287461608977e-07 -0.014246439339628131 0 0.00030311335620206533 -0.013728647010891826 0 0.00057035830769958757 -0.014842292010341469 0 6.8111287461608977e-07 -0.014246439339628131 0 0.000172925380763815 -0.01308988247251412 0 0.00030311335620206533 -0.013728647010891826 0 0.00046794255859691173 -0.014061170105718512 0 0.00030311335620206533 -0.013728647010891826 0 0.00046794255859691173 -0.014061170105718512 0 0.00057035830769958757 -0.014842292010341469 0 0.00046794255859691173 -0.014061170105718512 0 0.00072433018349709179 -0.014974398101220556 0 0.00057035830769958757 -0.014842292010341469 0 0.00046794255859691173 -0.014061170105718512 0 0.00072433018349709179 -0.014974398101220556 0 0.00056353366502187488 -0.014638299486225066 0 0.00037969943350043791 -0.013965573293675853 0 0.00046794255859691173 -0.014061170105718512 0 0.00056353366502187488 -0.014638299486225066 0 0.00092885582587092582 -0.015621137455618437 0 0.00072433018349709179 -0.014974398101220556 0 0.00057035830769958757 -0.014842292010341469 0 0.00092885582587092582 -0.015621137455618437 0 0.00057035830769958757 -0.014842292010341469 0 0.00095627696278829943 -0.015925374895968753 0 0.00056372388779910986 -0.014990888407216902 0 0.00055043127446010058 -0.015796363008038442 0 0.00057035830769958757 -0.014842292010341469 0 0.00020269146297121043 -0.015407427021611523 0 0.00015226925065160683 -0.015679266662075531 0 6.8111287461608977e-07 -0.014246439339628131 0 0.00020269146297121043 -0.015407427021611523 0 8.833271813153564e-07 -0.016859446969828232 0 0.00057035830769958757 -0.014842292010341469 0 6.8111287461608977e-07 -0.014246439339628131 0 0.00020269146297121043 -0.015407427021611523 0 0.00020269146297121043 -0.015407427021611523 0 8.833271813153564e-07 -0.016859446969828232 0 0.00015226925065160683 -0.015679266662075531 0 8.833271813153564e-07 -0.016859446969828232 0 6.9732672327847952e-05 -0.016967461864739002 0 0.00015226925065160683 -0.015679266662075531 0 8.833271813153564e-07 -0.016859446969828232 0 -1.0562871141331824e-06 -0.0203471352266918 0 0.00025987869312189653 -0.018160879764081563 0 0.00044723462145082002 -0.017016043982984563 0 0.00055043127446010058 -0.015796363008038442 0 8.833271813153564e-07 -0.016859446969828232 0 6.9732672327847952e-05 -0.016967461864739002 0 0.00025987869312189653 -0.018160879764081563 0 0.00080726743089287636 -0.017021736380406161 0 0.00058082468361128734 -0.01714421584034697 0 0.00025987869312189653 -0.018160879764081563 0 0.00044723462145082002 -0.017016043982984563 0 0.00025672763786116346 -0.017981309188349566 0 0.00058082468361128734 -0.01714421584034697 0 0.00025987869312189653 -0.018160879764081563 0 0.00032485668579267687 -0.017497242699111619 0 0.00080726743089287636 -0.017021736380406161 0 0.00058082468361128734 -0.01714421584034697 0 0.00086631978516571461 -0.016406088984185666 0 0.00050915450758880698 -0.016820950033736595 0 0.00086631978516571461 -0.016406088984185666 0 0.0008673247246907249 -0.016037915016231388 0 0.00058082468361128734 -0.01714421584034697 0 0.00050915450758880698 -0.016820950033736595 0 0.00086631978516571461 -0.016406088984185666 0 0.00058082468361128734 -0.01714421584034697 0 0.00050915450758880698 -0.016820950033736595 0 0.00032485668579267687 -0.017497242699111619 0 0.00092885582587092582 -0.015621137455618437 0 0.00095627696278829943 -0.015925374895968753 0 0.00086631978516571461 -0.016406088984185666 0 0.00080726743089287636 -0.017021736380406161 0 0.00095627696278829943 -0.015925374895968753 0 0.00086631978516571461 -0.016406088984185666 0 0.00092885582587092582 -0.015621137455618437 0 0.00086631978516571461 -0.016406088984185666 0 0.0008673247246907249 -0.016037915016231388 0 0.00075075704324675341 -0.016233153120638982 0 0.00083512224189376163 -0.015720194779163983 0 0.00092885582587092582 -0.015621137455618437 0 0.0008673247246907249 -0.016037915016231388 0 0.00094733191411367802 -0.015529400587691467 0 0.00062112047117347617 -0.016392443467578385 0 0.00063878687076843112 -0.016048128106476389 0 0.00056174983279492423 -0.016320986908478139 0 0.00062112047117347617 -0.016392443467578385 0 0.00063878687076843112 -0.016048128106476389 0 0.00074622743307586653 -0.01592545208009865 0 0.00063878687076843112 -0.016048128106476389 0 0.00074739773905794344 -0.015734817756060952 0 0.00074622743307586653 -0.01592545208009865 0 0.00050915450758880698 -0.016820950033736595 0 0.00043002609299249285 -0.01651498710841421 0 0.0003051189889111942 -0.016969110287099791 0 0.00050915450758880698 -0.016820950033736595 0 0.00062112047117347617 -0.016392443467578385 0 0.00056174983279492423 -0.016320986908478139 0 0.00051929366539052414 -0.016729549485311291 0 0.00075075704324675341 -0.016233153120638982 0 0.00056174983279492423 -0.016320986908478139 0 0.00043002609299249285 -0.01651498710841421 0 0.00055023488677987493 -0.016178619336869416 0 0.00050915450758880698 -0.016820950033736595 0 0.00056174983279492423 -0.016320986908478139 0 0.00043002609299249285 -0.01651498710841421 0 0.00043002609299249285 -0.01651498710841421 0 0.00030391698489417007 -0.01637467303658606 0 0.0004464837615681316 -0.016259971413090171 0 0.00043002609299249285 -0.01651498710841421 0 0.00030391698489417007 -0.01637467303658606 0 0.00020905650911176579 -0.016558999224251074 0 0.00043002609299249285 -0.01651498710841421 0 0.0004464837615681316 -0.016259971413090171 0 0.00055023488677987493 -0.016178619336869416 0 0.0004464837615681316 -0.016259971413090171 0 0.00055023488677987493 -0.016178619336869416 0 0.00049415047674832295 -0.016160824091500464 0 0.00055023488677987493 -0.016178619336869416 0 0.00049415047674832295 -0.016160824091500464 0 0.00057332330927044762 -0.016065750727137243 0 0.00052174805737013582 -0.016104439253496122 0 0.00049415047674832295 -0.016160824091500464 0 0.00057332330927044762 -0.016065750727137243 0 0.00052174805737013582 -0.016104439253496122 0 0.00057332330927044762 -0.016065750727137243 0 0.00057131939095726963 -0.016079277286201649 0 0.00052174805737013582 -0.016104439253496122 0 0.00049415047674832295 -0.016160824091500464 0 0.00043513459271879998 -0.016137254094161068 0 0.00030391698489417007 -0.01637467303658606 0 0.00039161088553852123 -0.016228651936832712 0 0.00029522095944029767 -0.016185773537555497 0 0.0004464837615681316 -0.016259971413090171 0 0.00049415047674832295 -0.016160824091500464 0 0.00039161088553852123 -0.016228651936832712 0 0.00030391698489417007 -0.01637467303658606 0 0.0004464837615681316 -0.016259971413090171 0 0.00039161088553852123 -0.016228651936832712 0 0.00039161088553852123 -0.016228651936832712 0 0.00043513459271879998 -0.016137254094161068 0 0.00029522095944029767 -0.016185773537555497 0 0.00049415047674832295 -0.016160824091500464 0 0.00039161088553852123 -0.016228651936832712 0 0.00043513459271879998 -0.016137254094161068 0 0.00063878687076843112 -0.016048128106476389 0 0.00061598220137053955 -0.015857953531682057 0 0.00074739773905794344 -0.015734817756060952 0 0.00063878687076843112 -0.016048128106476389 0 0.00055023488677987493 -0.016178619336869416 0 0.0005952203663555617 -0.016033255236709416 0 0.00063878687076843112 -0.016048128106476389 0 0.0005952203663555617 -0.016033255236709416 0 0.00061598220137053955 -0.015857953531682057 0 0.00063878687076843112 -0.016048128106476389 0 0.00056174983279492423 -0.016320986908478139 0 0.00055023488677987493 -0.016178619336869416 0 0.00055023488677987493 -0.016178619336869416 0 0.0005952203663555617 -0.016033255236709416 0 0.00057332330927044762 -0.016065750727137243 0 0.00057332330927044762 -0.016065750727137243 0 0.00061598220137053955 -0.015857953531682057 0 0.00057131939095726963 -0.016079277286201649 0 0.00061598220137053955 -0.015857953531682057 0 0.00046500753134691317 -0.015646848643219361 0 0.00033592921789872679 -0.015620342875829023 0 0.0006012388609802292 -0.015878197438767575 0 0.00046750746705042387 -0.015840579357401744 0 0.0005952203663555617 -0.016033255236709416 0 0.00057332330927044762 -0.016065750727137243 0 0.00061598220137053955 -0.015857953531682057 0 0.00061598220137053955 -0.015857953531682057 0 0.00063001788591545837 -0.015654155129017615 0 0.00046500753134691317 -0.015646848643219361 0 0.00061598220137053955 -0.015857953531682057 0 0.00063001788591545837 -0.015654155129017615 0 0.00071578262256167017 -0.015675457140962173 0 0.00071578262256167017 -0.015675457140962173 0 0.00076639018413321013 -0.01554588894637198 0 0.00070737694335362689 -0.015551198929338759 0 0.00063001788591545837 -0.015654155129017615 0 0.00071578262256167017 -0.015675457140962173 0 0.00070737694335362689 -0.015551198929338759 0 0.00071578262256167017 -0.015675457140962173 0 0.00074739773905794344 -0.015734817756060952 0 0.00076639018413321013 -0.01554588894637198 0 0.00061598220137053955 -0.015857953531682057 0 0.00071578262256167017 -0.015675457140962173 0 0.00074739773905794344 -0.015734817756060952 0 0.00074739773905794344 -0.015734817756060952 0 0.00076639018413321013 -0.01554588894637198 0 0.00076727056890397885 -0.01531103797124579 0 0.00076639018413321013 -0.01554588894637198 0 0.00072279379447764405 -0.015461469012049601 0 0.00066518215661040547 -0.015294427053218798 0 0.00072279379447764405 -0.015461469012049601 0 0.00062732842540925396 -0.015384488402790058 0 0.00066518215661040547 -0.015294427053218798 0 0.00055179665372973009 -0.015283494275734468 0 0.00062732842540925396 -0.015384488402790058 0 0.00066518215661040547 -0.015294427053218798 0 0.00051680360864751068 -0.015360020718869574 0 0.00055179665372973009 -0.015283494275734468 0 0.00062732842540925396 -0.015384488402790058 0 0.00045100166773525378 -0.015127881204315328 0 0.00055179665372973009 -0.015283494275734468 0 0.00066518215661040547 -0.015294427053218798 0 0.00045100166773525378 -0.015127881204315328 0 0.00066518215661040547 -0.015294427053218798 0 0.00057738428043197128 -0.015007668901207112 0 0.00076639018413321013 -0.01554588894637198 0 0.00066518215661040547 -0.015294427053218798 0 0.00076727056890397885 -0.01531103797124579 0 0.00066518215661040547 -0.015294427053218798 0 0.00057738428043197128 -0.015007668901207112 0 0.00076727056890397885 -0.01531103797124579 0 0.00057738428043197128 -0.015007668901207112 0 0.00056353366502187488 -0.014638299486225066 0 0.00076727056890397885 -0.01531103797124579 0 0.00033545729686066333 -0.014622787131975953 0 0.00057738428043197128 -0.015007668901207112 0 0.00056353366502187488 -0.014638299486225066 0 0.00072433018349709179 -0.014974398101220556 0 0.00056353366502187488 -0.014638299486225066 0 0.00076727056890397885 -0.01531103797124579 0 0.00072433018349709179 -0.014974398101220556 0 0.00094733191411367802 -0.015529400587691467 0 0.00076727056890397885 -0.01531103797124579 0 0.00092885582587092582 -0.015621137455618437 0 0.00072433018349709179 -0.014974398101220556 0 0.00094733191411367802 -0.015529400587691467 0 0.00074739773905794344 -0.015734817756060952 0 0.00074622743307586653 -0.01592545208009865 0 0.00076727056890397885 -0.01531103797124579 0 0.00083512224189376163 -0.015720194779163983 0 0.00076737738387497583 -0.01538095387166504 0 -3.3967248663657417e-08 -0.02499881476620204 0 5.6293888583974675e-05 -0.024263741515343745 0 -0.00024282042905797159 -0.021731757790249447 0 -3.3967248663657417e-08 -0.02499881476620204 0 -0.00024282042905797159 -0.021731757790249447 0 -1.0562871141331824e-06 -0.0203471352266918 0 -3.3967248663657417e-08 -0.02499881476620204 0 5.6293888583974675e-05 -0.024263741515343745 0 2.9333786515185669e-07 -0.02499892951453463 0 -2.0915725321008e-05 -0.024699728423727002 0 5.6293888583974675e-05 -0.024263741515343745 0 2.9333786515185669e-07 -0.02499892951453463 0 0.00011482664516523667 -0.025047737912157624 0 -2.0092136207149918e-07 -0.024999808639298477 0 -2.0915725321008e-05 -0.024699728423727002 0 5.6293888583974675e-05 -0.024263741515343745 0 -0.0002736785943689182 -0.024482836381209978 0 5.6293888583974675e-05 -0.024263741515343745 0 -0.00046345774638598765 -0.023613272315680622 0 -0.00024282042905797159 -0.021731757790249447 0 -0.0012295948874958046 -0.021287855296174957 0 -0.00035719087821125493 -0.021885450931228383 0 -0.0019256943682510891 -0.019404310100354445 0 -0.0007210015175234543 -0.019700668749148768 0 -0.00024282042905797159 -0.021731757790249447 0 -0.0019256943682510891 -0.019404310100354445 0 -0.0013091483922967242 -0.018849505848947495 0 -0.0007210015175234543 -0.019700668749148768 0 -0.0012295948874958046 -0.021287855296174957 0 -0.00072865871343532457 -0.022078311115985474 0 -0.0013091483922967242 -0.018849505848947495 0 -0.0026102050097875653 -0.017835961131201873 0 -0.0013240831594655915 -0.018131863467731511 0 -0.0019256943682510891 -0.019404310100354445 0 -0.0013091483922967242 -0.018849505848947495 0 -0.0026102050097875653 -0.017835961131201873 0 5.6293888583974675e-05 -0.024263741515343745 0 -0.00046345774638598765 -0.023613272315680622 0 -0.0002736785943689182 -0.024482836381209978 0 -0.00030038629951225282 -0.020929681273555562 0 -0.0017243530031591258 -0.021889044735007843 0 0.00044559754845321562 -0.022468794708815364 0 -7.767371730364072e-05 -0.024912716294343384 0 -0.0002583480637630912 -0.024826585968091772 0 -0.000194174062250838 -0.024962678477561437 0 0.00011482664516523667 -0.025047737912157624 0 -0.00072865871343532457 -0.022078311115985474 0 -0.00072865871343532457 -0.022078311115985474 0 0.00012073746660171356 -0.024153372277841961 0 -0.00030038629951225282 -0.020929681273555562 0 -0.0017243530031591258 -0.021889044735007843 0 -0.0021972457616358911 -0.020452677996956794 0 -0.00072865871343532457 -0.022078311115985474 0 -0.0019726344794695665 -0.019086381464966579 0 -0.0011373743466220822 -0.020253347479474829 0 -0.0019726344794695665 -0.019086381464966579 0 -0.0014950178105557451 -0.017380895919000883 0 -0.0012298994504058439 -0.018161835989722725 0 -0.0010050534235495363 -0.017843005810983557 0 -0.00058612910279771762 -0.017998510644060328 0 -0.00099271120632763127 -0.018208550029299077 0 -0.0010050534235495363 -0.017843005810983557 0 -0.00058612910279771762 -0.017998510644060328 0 -0.0010050534235495363 -0.017843005810983557 0 -0.0006816509949643505 -0.017565295953174152 0 -0.0019726344794695665 -0.019086381464966579 0 -0.0015597749001856284 -0.0189627614429092 0 -0.0012298994504058439 -0.018161835989722725 0 -0.00099271120632763127 -0.018208550029299077 0 -0.0010050534235495363 -0.017843005810983557 0 -0.0014950178105557451 -0.017380895919000883 0 -0.0010050534235495363 -0.017843005810983557 0 -0.0006816509949643505 -0.017565295953174152 0 -0.0011373743466220822 -0.020253347479474829 0 -0.0010320106084150216 -0.017986188164166368 0 -0.00058612910279771762 -0.017998510644060328 0 -0.0006816509949643505 -0.017565295953174152 0 -0.00039797647289735363 -0.017584771681993034 0 -0.0006816509949643505 -0.017565295953174152 0 -0.00039797647289735363 -0.017584771681993034 0 -0.00057502126792096568 -0.017214261973211884 0 -0.00039797647289735363 -0.017584771681993034 0 -0.00011134790809006524 -0.017771686395858851 0 -0.0002173827205132595 -0.01731895379086474 0 -0.00058612910279771762 -0.017998510644060328 0 -0.00039797647289735363 -0.017584771681993034 0 -0.00023502006358501053 -0.018282543296845255 0 -0.00039797647289735363 -0.017584771681993034 0 -0.00011134790809006524 -0.017771686395858851 0 -0.00023502006358501053 -0.018282543296845255 0 -0.00023502006358501053 -0.018282543296845255 0 -0.00061581286939933093 -0.018743639820678067 0 -0.00015265304730959373 -0.019543573257334985 0 -0.00011134790809006524 -0.017771686395858851 0 -0.00023502006358501053 -0.018282543296845255 0 9.4696841849097421e-05 -0.018345888359457295 0 -0.00023502006358501053 -0.018282543296845255 0 -0.00015265304730959373 -0.019543573257334985 0 9.4696841849097421e-05 -0.018345888359457295 0 -0.00058612910279771762 -0.017998510644060328 0 -0.00023502006358501053 -0.018282543296845255 0 -0.00061581286939933093 -0.018743639820678067 0 -0.00058612910279771762 -0.017998510644060328 0 -0.00099271120632763127 -0.018208550029299077 0 -0.00061581286939933093 -0.018743639820678067 0 -0.0013091483922967242 -0.018849505848947495 0 -0.00099271120632763127 -0.018208550029299077 0 -0.00061581286939933093 -0.018743639820678067 0 -0.0013091483922967242 -0.018849505848947495 0 -0.0013240831594655915 -0.018131863467731511 0 -0.00099271120632763127 -0.018208550029299077 0 -0.0013091483922967242 -0.018849505848947495 0 -0.00061581286939933093 -0.018743639820678067 0 -0.0007210015175234543 -0.019700668749148768 0 -1.0562871141331824e-06 -0.0203471352266918 0 -0.00015265304730959373 -0.019543573257334985 0 9.4696841849097421e-05 -0.018345888359457295 0 -0.0007210015175234543 -0.019700668749148768 0 -0.00024282042905797159 -0.021731757790249447 0 -0.00015265304730959373 -0.019543573257334985 0 -0.00061581286939933093 -0.018743639820678067 0 -0.0007210015175234543 -0.019700668749148768 0 -0.00015265304730959373 -0.019543573257334985 0 -0.00024282042905797159 -0.021731757790249447 0 -1.0562871141331824e-06 -0.0203471352266918 0 -0.00015265304730959373 -0.019543573257334985 0 -1.0562871141331824e-06 -0.0203471352266918 0 0.00025987869312189653 -0.018160879764081563 0 9.4696841849097421e-05 -0.018345888359457295 0 0.00025987869312189653 -0.018160879764081563 0 9.4696841849097421e-05 -0.018345888359457295 0 0.00032485668579267687 -0.017497242699111619 0 9.4696841849097421e-05 -0.018345888359457295 0 0.00012491386875723172 -0.017373994416732652 0 0.00032485668579267687 -0.017497242699111619 0 -0.00011134790809006524 -0.017771686395858851 0 9.4696841849097421e-05 -0.018345888359457295 0 0.00012491386875723172 -0.017373994416732652 0 -0.00011134790809006524 -0.017771686395858851 0 0.00012491386875723172 -0.017373994416732652 0 -0.0002173827205132595 -0.01731895379086474 0 0.00012491386875723172 -0.017373994416732652 0 0.00032485668579267687 -0.017497242699111619 0 0.0003051189889111942 -0.016969110287099791 0 0.00050915450758880698 -0.016820950033736595 0 0.00032485668579267687 -0.017497242699111619 0 0.0003051189889111942 -0.016969110287099791 0 0.0003051189889111942 -0.016969110287099791 0 -2.3836117759200625e-05 -0.016970252665250245 0 0.00023076780262549257 -0.016733904114155249 0 0.00012491386875723172 -0.017373994416732652 0 0.0003051189889111942 -0.016969110287099791 0 -2.3836117759200625e-05 -0.016970252665250245 0 0.00012491386875723172 -0.017373994416732652 0 -2.3836117759200625e-05 -0.016970252665250245 0 -0.0002173827205132595 -0.01731895379086474 0 -2.3836117759200625e-05 -0.016970252665250245 0 1.3918829343775979e-05 -0.016678703114597557 0 -0.00028618084938471461 -0.016801832861574093 0 -2.3836117759200625e-05 -0.016970252665250245 0 0.00023076780262549257 -0.016733904114155249 0 1.3918829343775979e-05 -0.016678703114597557 0 0.00023076780262549257 -0.016733904114155249 0 0.00020905650911176579 -0.016558999224251074 0 1.3918829343775979e-05 -0.016678703114597557 0 0.00043002609299249285 -0.01651498710841421 0 0.00023076780262549257 -0.016733904114155249 0 0.00020905650911176579 -0.016558999224251074 0 0.00043002609299249285 -0.01651498710841421 0 0.0003051189889111942 -0.016969110287099791 0 0.00023076780262549257 -0.016733904114155249 0 0.00020905650911176579 -0.016558999224251074 0 0.00011672793969534707 -0.016421042117597383 0 1.3918829343775979e-05 -0.016678703114597557 0 0.00030391698489417007 -0.01637467303658606 0 0.00020905650911176579 -0.016558999224251074 0 0.00011672793969534707 -0.016421042117597383 0 0.00030391698489417007 -0.01637467303658606 0 0.00029522095944029767 -0.016185773537555497 0 0.00011672793969534707 -0.016421042117597383 0 0.00029522095944029767 -0.016185773537555497 0 0.00011672793969534707 -0.016421042117597383 0 0.00011518279670748046 -0.016191552538407834 0 0.00011672793969534707 -0.016421042117597383 0 -2.7242759508777852e-05 -0.016332559756051673 0 0.00011518279670748046 -0.016191552538407834 0 0.00011672793969534707 -0.016421042117597383 0 -2.7242759508777852e-05 -0.016332559756051673 0 -0.00015109117509103047 -0.01657725512512187 0 -0.00019064682550749194 -0.016332898987515564 0 -2.7242759508777852e-05 -0.016332559756051673 0 -0.00015109117509103047 -0.01657725512512187 0 -0.00015109117509103047 -0.01657725512512187 0 1.3918829343775979e-05 -0.016678703114597557 0 -0.00028618084938471461 -0.016801832861574093 0 0.00011672793969534707 -0.016421042117597383 0 -0.00015109117509103047 -0.01657725512512187 0 1.3918829343775979e-05 -0.016678703114597557 0 -0.00028618084938471461 -0.016801832861574093 0 -0.00049073677452438015 -0.016692133354793529 0 -0.00045113346741902806 -0.016801895576255062 0 -0.00015109117509103047 -0.01657725512512187 0 -0.00028618084938471461 -0.016801832861574093 0 -0.00049073677452438015 -0.016692133354793529 0 -0.00019064682550749194 -0.016332898987515564 0 -0.00015109117509103047 -0.01657725512512187 0 -0.00049073677452438015 -0.016692133354793529 0 -0.00049073677452438015 -0.016692133354793529 0 -0.00053366401375990532 -0.016962977789073009 0 -0.00077129101544213706 -0.01722551985427153 0 -0.00019064682550749194 -0.016332898987515564 0 -0.00049073677452438015 -0.016692133354793529 0 -0.00033584202833942818 -0.016005459834106575 0 -0.00050652020070149535 -0.016699420097719856 0 -0.0005391507713640441 -0.016639366330200439 0 -0.00053366401375990532 -0.016962977789073009 0 -0.00047654616660383273 -0.016837517741442883 0 -0.00040157543785435216 -0.016981844372714574 0 -0.00049073677452438015 -0.016692133354793529 0 -0.00053366401375990532 -0.016962977789073009 0 -0.00047654616660383273 -0.016837517741442883 0 -0.00047654616660383273 -0.016837517741442883 0 -0.00045113346741902806 -0.016801895576255062 0 -0.00048775075475903843 -0.01693680642806315 0 -0.00049073677452438015 -0.016692133354793529 0 -0.00047654616660383273 -0.016837517741442883 0 -0.00045113346741902806 -0.016801895576255062 0 -0.00048775075475903843 -0.01693680642806315 0 -0.00057502126792096568 -0.017214261973211884 0 -0.00061230906931828484 -0.016964213321393945 0 -0.00048775075475903843 -0.01693680642806315 0 -0.00031989683067446602 -0.017029691845209048 0 -0.00057502126792096568 -0.017214261973211884 0 -2.3836117759200625e-05 -0.016970252665250245 0 -0.00028618084938471461 -0.016801832861574093 0 -0.00031989683067446602 -0.017029691845209048 0 -0.00028618084938471461 -0.016801832861574093 0 -0.00045113346741902806 -0.016801895576255062 0 -0.00048775075475903843 -0.01693680642806315 0 -0.00028618084938471461 -0.016801832861574093 0 -0.00048775075475903843 -0.01693680642806315 0 -0.00031989683067446602 -0.017029691845209048 0 -2.3836117759200625e-05 -0.016970252665250245 0 -0.00031989683067446602 -0.017029691845209048 0 -0.0002173827205132595 -0.01731895379086474 0 -0.00031989683067446602 -0.017029691845209048 0 -0.0002173827205132595 -0.01731895379086474 0 -0.00057502126792096568 -0.017214261973211884 0 -0.00039797647289735363 -0.017584771681993034 0 -0.0002173827205132595 -0.01731895379086474 0 -0.00057502126792096568 -0.017214261973211884 0 -0.00076876325438209958 -0.017395923316020787 0 -0.0006816509949643505 -0.017565295953174152 0 -0.00057502126792096568 -0.017214261973211884 0 -0.0011373743466220822 -0.020253347479474829 0 -0.00044948290320376809 -0.020738730698335022 0 -0.00076876325438209958 -0.017395923316020787 0 -0.00057502126792096568 -0.017214261973211884 0 -0.00061230906931828484 -0.016964213321393945 0 -0.000647728399953101 -0.023749876374521771 0 -0.00016036326861785952 -0.023919030895072944 0 -0.00043175448780356736 -0.024334066187690347 0 0.00012073746660171356 -0.024153372277841961 0 1.8228730922261134e-05 -0.02473534054883304 0 -0.0011373743466220822 -0.020253347479474829 0 0.00012073746660171356 -0.024153372277841961 0 -0.00043175448780356736 -0.024334066187690347 0 -7.2708024103578829e-05 -0.024659636148489185 0 8.2047394178310102e-06 -0.024398658657577933 0 -0.00016036326861785952 -0.023919030895072944 0 -0.00043175448780356736 -0.024334066187690347 0 8.2047394178310102e-06 -0.024398658657577933 0 -0.00047654616660383273 -0.016837517741442883 0 -0.00048775075475903843 -0.01693680642806315 0 -0.00061230906931828484 -0.016964213321393945 0 -0.00047654616660383273 -0.016837517741442883 0 -0.00061230906931828484 -0.016964213321393945 0 -0.00024374545901618744 -0.016876740549861279 0 -0.00047654616660383273 -0.016837517741442883 0 -0.00040157543785435216 -0.016981844372714574 0 -0.00024374545901618744 -0.016876740549861279 0 -0.00040157543785435216 -0.016981844372714574 0 -0.00024374545901618744 -0.016876740549861279 0 -0.0003047630026216176 -0.01726842773312082 0 -0.00053366401375990532 -0.016962977789073009 0 -0.00040157543785435216 -0.016981844372714574 0 -0.0003047630026216176 -0.01726842773312082 0 -0.00020737694230163546 -0.020816393729310965 0 7.6082144540600349e-05 -0.020805808080497024 0 -0.00017178147754993555 -0.024716504929397219 0 -7.1213594376815436e-05 -0.02471711085032343 0 5.5136518636997244e-06 -0.024572371914160951 0 -0.00024374545901618744 -0.016876740549861279 0 0.00020466712074544103 -0.017320153136212605 0 -0.0003047630026216176 -0.01726842773312082 0 -0.00044948290320376809 -0.020738730698335022 0 -0.00020737694230163546 -0.020816393729310965 0 -0.00043175448780356736 -0.024334066187690347 0 -0.00017178147754993555 -0.024716504929397219 0 -7.2708024103578829e-05 -0.024659636148489185 0 -0.00017178147754993555 -0.024716504929397219 0 -7.2708024103578829e-05 -0.024659636148489185 0 -7.1213594376815436e-05 -0.02471711085032343 0 -2.1416264383471878e-05 -0.024826372880722009 0 4.6325796656312578e-06 -0.024958808744769585 0 5.8355394640523723e-05 -0.024986380761627344 0 -1.0086645970229816e-05 -0.02478039544560583 0 1.8228730922261134e-05 -0.02473534054883304 0 -7.2708024103578829e-05 -0.024659636148489185 0 -2.1416264383471878e-05 -0.024826372880722009 0 8.2047394178310102e-06 -0.024398658657577933 0 -2.1416264383471878e-05 -0.024826372880722009 0 -1.4399714245459325e-05 -0.024885272029572622 0 4.6325796656312578e-06 -0.024958808744769585 0 -7.2708024103578829e-05 -0.024659636148489185 0 -2.1416264383471878e-05 -0.024826372880722009 0 -7.1213594376815436e-05 -0.02471711085032343 0 1.9045514533916089e-05 -0.024608648235716131 0 -0.00016531083240085961 -0.02541560960524554 0 -2.1416264383471878e-05 -0.024826372880722009 0 -7.1213594376815436e-05 -0.02471711085032343 0 -0.00014987694201770986 -0.024608986760993184 0 -2.1416264383471878e-05 -0.024826372880722009 0 -1.4399714245459325e-05 -0.024885272029572622 0 -0.00014987694201770986 -0.024608986760993184 0 -7.1213594376815436e-05 -0.02471711085032343 0 -0.00014987694201770986 -0.024608986760993184 0 5.5136518636997244e-06 -0.024572371914160951 0 3.8584237314513237e-06 -0.024979578500242475 0 1.0423129568126901e-08 -0.025000012582631383 0 -1.5831407085373574e-05 -0.025007308354077735 0 1.1384919476439186e-06 -0.024951794708494401 0 3.8584237314513237e-06 -0.024979578500242475 0 -1.5831407085373574e-05 -0.025007308354077735 0 3.8584237314513237e-06 -0.024979578500242475 0 1.8981184075584868e-10 -0.024999817131018707 0 1.0423129568126901e-08 -0.025000012582631383 0 1.1384919476439186e-06 -0.024951794708494401 0 -1.4399714245459325e-05 -0.024885272029572622 0 -1.5831407085373574e-05 -0.025007308354077735 0 1.1384919476439186e-06 -0.024951794708494401 0 3.8584237314513237e-06 -0.024979578500242475 0 1.8981184075584868e-10 -0.024999817131018707 0 1.1384919476439186e-06 -0.024951794708494401 0 1.8981184075584868e-10 -0.024999817131018707 0 -4.7946720230343377e-06 -0.024951494329961892 0 1.1384919476439186e-06 -0.024951794708494401 0 -1.4399714245459325e-05 -0.024885272029572622 0 -4.7946720230343377e-06 -0.024951494329961892 0 -4.7946720230343377e-06 -0.024951494329961892 0 -1.1267797683378856e-05 -0.024941831922315593 0 -7.8721537881390517e-06 -0.024976649779903139 0 -1.4399714245459325e-05 -0.024885272029572622 0 -1.1267797683378856e-05 -0.024941831922315593 0 4.6325796656312578e-06 -0.024958808744769585 0 -1.4399714245459325e-05 -0.024885272029572622 0 -4.7946720230343377e-06 -0.024951494329961892 0 -1.1267797683378856e-05 -0.024941831922315593 0 1.8981184075584868e-10 -0.024999817131018707 0 -4.7946720230343377e-06 -0.024951494329961892 0 -7.8721537881390517e-06 -0.024976649779903139 0 1.8981184075584868e-10 -0.024999817131018707 0 -7.8721537881390517e-06 -0.024976649779903139 0 -3.7180911017798811e-08 -0.025000031149426991 0 -7.8721537881390517e-06 -0.024976649779903139 0 9.0654271954310789e-06 -0.024991836926518237 0 -3.7180911017798811e-08 -0.025000031149426991 0 -7.8721537881390517e-06 -0.024976649779903139 0 9.0654271954310789e-06 -0.024991836926518237 0 4.6325796656312578e-06 -0.024958808744769585 0 -1.1267797683378856e-05 -0.024941831922315593 0 -7.8721537881390517e-06 -0.024976649779903139 0 4.6325796656312578e-06 -0.024958808744769585 0 9.0654271954310789e-06 -0.024991836926518237 0 4.6325796656312578e-06 -0.024958808744769585 0 5.8355394640523723e-05 -0.024986380761627344 0 9.0654271954310789e-06 -0.024991836926518237 0 5.8355394640523723e-05 -0.024986380761627344 0 2.5706848953287082e-05 -0.025013865575630446 0 -7.767371730364072e-05 -0.024912716294343384 0 -0.000194174062250838 -0.024962678477561437 0 -5.6633593741426784e-05 -0.024997605698116043 0 0.00012073746660171356 -0.024153372277841961 0 -1.821385877299023e-05 -0.025029150655663527 0 6.6865122887782528e-05 -0.02501659857252728 0 5.8355394640523723e-05 -0.024986380761627344 0 2.5706848953287082e-05 -0.025013865575630446 0 9.0654271954310789e-06 -0.024991836926518237 0 2.5706848953287082e-05 -0.025013865575630446 0 -3.7180911017798811e-08 -0.025000031149426991 0 -5.6633593741426784e-05 -0.024997605698116043 0 3.2987903082159366e-08 -0.024999849849779456 0 -3.5677801444687205e-08 -0.025000115658408428 0 -7.767371730364072e-05 -0.024912716294343384 0 -5.6633593741426784e-05 -0.024997605698116043 0 3.2987903082159366e-08 -0.024999849849779456 0 -1.821385877299023e-05 -0.025029150655663527 0 -8.4257924771498839e-09 -0.025000000499044023 0 7.0729868334197914e-09 -0.024999934557102026 0 2.1236420415548907e-06 -0.02497946057376986 0 6.3424836801584908e-06 -0.02497324379110847 0 -7.9733270622206644e-07 -0.025000474476039859 0 0.00033342042159804572 -0.023419739121141699 0 0.00051070792746376313 -0.01968645113850288 0 0.00052543709063635293 -0.019633894749709672 0 0.00068215629546817863 -0.019792017746201044 0 0.00024978769470438003 -0.022213456554610586 0 0.00033342042159804572 -0.023419739121141699 0 0.00051070792746376313 -0.01968645113850288 0 0.00050924398518315743 -0.01963413396864952 0 0.00037955557454492797 -0.019720235028918443 0 0.00051070792746376313 -0.01968645113850288 0 0.00050924398518315743 -0.01963413396864952 0 0.00052543709063635293 -0.019633894749709672 0 0.00063088528848916103 -0.018691052302960177 0 0.00020058178739775797 -0.02191049056471589 0 0.00024978769470438003 -0.022213456554610586 0 0.00020058178739775797 -0.02191049056471589 0 0.00050924398518315743 -0.01963413396864952 0 0.00052543709063635293 -0.019633894749709672 0 0.00050820043502581148 -0.019697983627180071 0 7.0729868334197914e-09 -0.024999934557102026 0 2.1236420415548907e-06 -0.02497946057376986 0 -1.4909528726224884e-08 -0.02499998789114543 0 2.1236420415548907e-06 -0.02497946057376986 0 -1.4909528726224884e-08 -0.02499998789114543 0 1.2171751835382303e-07 -0.024976308228592113 0 -6.3044991756689202e-06 -0.024995954396701135 0 -1.4909528726224884e-08 -0.02499998789114543 0 1.0423129568126901e-08 -0.025000012582631383 0 -6.3044991756689202e-06 -0.024995954396701135 0 -1.4909528726224884e-08 -0.02499998789114543 0 1.2171751835382303e-07 -0.024976308228592113 0 -6.3044991756689202e-06 -0.024995954396701135 0 1.0423129568126901e-08 -0.025000012582631383 0 -1.5831407085373574e-05 -0.025007308354077735 0 -0.00014987694201770986 -0.024608986760993184 0 -9.0844056830910813e-05 -0.024173000344375511 0 5.5136518636997244e-06 -0.024572371914160951 0 -0.00016531083240085961 -0.02541560960524554 0 0.00020058178739775797 -0.02191049056471589 0 -6.3044991756689202e-06 -0.024995954396701135 0 -1.5831407085373574e-05 -0.025007308354077735 0 1.2171751835382303e-07 -0.024976308228592113 0 0.00020058178739775797 -0.02191049056471589 0 7.6082144540600349e-05 -0.020805808080497024 0 0.00064247886569313657 -0.018099714027392379 0 -4.2655058805302039e-06 -0.017707787816508763 0 -5.5449668296390514e-05 -0.018362930573987885 0 0.00064247886569313657 -0.018099714027392379 0 -4.2655058805302039e-06 -0.017707787816508763 0 0.00020466712074544103 -0.017320153136212605 0 -4.2655058805302039e-06 -0.017707787816508763 0 0.00020466712074544103 -0.017320153136212605 0 -0.0003047630026216176 -0.01726842773312082 0 -4.2655058805302039e-06 -0.017707787816508763 0 -0.0003047630026216176 -0.01726842773312082 0 -0.00072410401328981894 -0.017748224784465243 0 -4.2655058805302039e-06 -0.017707787816508763 0 -5.5449668296390514e-05 -0.018362930573987885 0 -0.00072410401328981894 -0.017748224784465243 0 -0.00065654163569114422 -0.018714320937254482 0 -5.5449668296390514e-05 -0.018362930573987885 0 -5.3218957060497955e-05 -0.019198391799204413 0 -0.00065654163569114422 -0.018714320937254482 0 -5.5449668296390514e-05 -0.018362930573987885 0 -0.00072410401328981894 -0.017748224784465243 0 0.00055580076525579294 -0.018850453302021494 0 -5.5449668296390514e-05 -0.018362930573987885 0 -5.3218957060497955e-05 -0.019198391799204413 0 0.00055580076525579294 -0.018850453302021494 0 0.00064247886569313657 -0.018099714027392379 0 -5.5449668296390514e-05 -0.018362930573987885 0 0.00063088528848916103 -0.018691052302960177 0 0.00035912457561963041 -0.019886288693987154 0 0.00055580076525579294 -0.018850453302021494 0 -5.3218957060497955e-05 -0.019198391799204413 0 0.00037955557454492797 -0.019720235028918443 0 -0.00038603289913815626 -0.018456367732058339 0 -0.00026840576650326173 -0.018709136060105255 0 -0.00065654163569114422 -0.018714320937254482 0 -5.3218957060497955e-05 -0.019198391799204413 0 -0.00045515852943481586 -0.019700906005771648 0 -0.00016665531098434728 -0.017988336654312299 0 -0.0004368525046529183 -0.01837202539322574 0 3.0914235927818544e-05 -0.018648770540250839 0 -0.00016665531098434728 -0.017988336654312299 0 -0.0004368525046529183 -0.01837202539322574 0 -0.00086940573712380488 -0.017904128966569875 0 -0.00060328473920979759 -0.016765718173693163 0 -0.00018454815330973598 -0.017183856765790935 0 -0.00086940573712380488 -0.017904128966569875 0 -0.00096258307232109197 -0.018699570979755872 0 -0.0007273286528954512 -0.018553655810414335 0 -0.0004368525046529183 -0.01837202539322574 0 -0.00086940573712380488 -0.017904128966569875 0 -0.0007273286528954512 -0.018553655810414335 0 -0.00038603289913815626 -0.018456367732058339 0 -0.00052711108910383263 -0.017562592592601067 0 -0.00016665531098434728 -0.017988336654312299 0 -0.00086940573712380488 -0.017904128966569875 0 -0.00035027228887326146 -0.017395730395890877 0 -0.00054859017491212564 -0.017041071256014211 0 -0.00052711108910383263 -0.017562592592601067 0 -0.00053366401375990532 -0.016962977789073009 0 -0.00035027228887326146 -0.017395730395890877 0 -0.00077129101544213706 -0.01722551985427153 0 -0.00053366401375990532 -0.016962977789073009 0 -0.0003047630026216176 -0.01726842773312082 0 -0.00072410401328981894 -0.017748224784465243 0 -0.00086940573712380488 -0.017904128966569875 0 -0.00035027228887326146 -0.017395730395890877 0 -0.00077129101544213706 -0.01722551985427153 0 -0.00060328473920979759 -0.016765718173693163 0 -0.0005391507713640441 -0.016639366330200439 0 -0.00022823952544151084 -0.01567497078706348 0 -0.00033584202833942818 -0.016005459834106575 0 -8.9374066685694864e-05 -0.015820033248625031 0 -0.00033584202833942818 -0.016005459834106575 0 -8.9374066685694864e-05 -0.015820033248625031 0 -4.002347921277718e-05 -0.01607123482653142 0 -8.9374066685694864e-05 -0.015820033248625031 0 -4.002347921277718e-05 -0.01607123482653142 0 0.00010594140049158503 -0.015842756808841483 0 -0.00019064682550749194 -0.016332898987515564 0 -2.7242759508777852e-05 -0.016332559756051673 0 -4.002347921277718e-05 -0.01607123482653142 0 -2.7242759508777852e-05 -0.016332559756051673 0 -4.002347921277718e-05 -0.01607123482653142 0 0.00011518279670748046 -0.016191552538407834 0 -0.00019064682550749194 -0.016332898987515564 0 -0.00033584202833942818 -0.016005459834106575 0 -4.002347921277718e-05 -0.01607123482653142 0 -4.002347921277718e-05 -0.01607123482653142 0 0.00011518279670748046 -0.016191552538407834 0 0.00019481314291908724 -0.016040328140464025 0 0.00029522095944029767 -0.016185773537555497 0 0.00011518279670748046 -0.016191552538407834 0 0.00019481314291908724 -0.016040328140464025 0 -4.002347921277718e-05 -0.01607123482653142 0 0.00019481314291908724 -0.016040328140464025 0 0.00010594140049158503 -0.015842756808841483 0 0.00019481314291908724 -0.016040328140464025 0 0.00010594140049158503 -0.015842756808841483 0 0.00031085839728161473 -0.01589395565824861 0 0.00010594140049158503 -0.015842756808841483 0 0.00031085839728161473 -0.01589395565824861 0 0.00024566900819113853 -0.015734886787401453 0 0.00043542088336014431 -0.015625171271057753 0 0.00038270493358102075 -0.015759867632365251 0 0.00010594140049158503 -0.015842756808841483 0 1.856653911046545e-06 -0.015548027937023794 0 0.00024566900819113853 -0.015734886787401453 0 -0.00022823952544151084 -0.01567497078706348 0 -8.9374066685694864e-05 -0.015820033248625031 0 1.856653911046545e-06 -0.015548027937023794 0 -8.9374066685694864e-05 -0.015820033248625031 0 0.00010594140049158503 -0.015842756808841483 0 1.856653911046545e-06 -0.015548027937023794 0 -0.00022823952544151084 -0.01567497078706348 0 1.856653911046545e-06 -0.015548027937023794 0 -0.00018637596859109133 -0.0154006345440603 0 0.00043542088336014431 -0.015625171271057753 0 -0.00018454815330973598 -0.017183856765790935 0 0.00081047104809115356 -0.016030195678665957 0 0.0005130661193073631 -0.015734617360974423 0 0.00044722057328570381 -0.016176238829194885 0 0.00081047104809115356 -0.016030195678665957 0 0.00064417188139024402 -0.016346793917149383 0 0.00044722057328570381 -0.016176238829194885 0 0.00081047104809115356 -0.016030195678665957 0 0.00064417188139024402 -0.016346793917149383 0 0.00086124540484706512 -0.016288598304395295 0 0.00064417188139024402 -0.016346793917149383 0 0.00086124540484706512 -0.016288598304395295 0 0.00092241722273143792 -0.016539151416796478 0 0.00081047104809115356 -0.016030195678665957 0 0.00086124540484706512 -0.016288598304395295 0 0.0011136392796044358 -0.016334416319259477 0 0.00086124540484706512 -0.016288598304395295 0 0.00092241722273143792 -0.016539151416796478 0 0.0011136392796044358 -0.016334416319259477 0 0.00092241722273143792 -0.016539151416796478 0 0.0010845579249102644 -0.016786493011737885 0 0.0011136392796044358 -0.016334416319259477 0 0.00092241722273143792 -0.016539151416796478 0 0.00090891019369032633 -0.016814675118607476 0 0.0010845579249102644 -0.016786493011737885 0 0.00092241722273143792 -0.016539151416796478 0 0.00068240284878620509 -0.016614892919907955 0 0.00090891019369032633 -0.016814675118607476 0 0.00064417188139024402 -0.016346793917149383 0 0.00092241722273143792 -0.016539151416796478 0 0.00068240284878620509 -0.016614892919907955 0 0.00068240284878620509 -0.016614892919907955 0 0.00055583733587044387 -0.016757469261481018 0 0.00073628496617779546 -0.016840325206834553 0 0.00064417188139024402 -0.016346793917149383 0 0.00068240284878620509 -0.016614892919907955 0 0.0004482732515550182 -0.01651229094886748 0 0.00068240284878620509 -0.016614892919907955 0 0.00055583733587044387 -0.016757469261481018 0 0.0004482732515550182 -0.01651229094886748 0 0.00062232349315529919 -0.01694120121159436 0 0.00064072404796208164 -0.017083532584132064 0 0.0002940297191624521 -0.01687938249575819 0 0.00055583733587044387 -0.016757469261481018 0 0.00073628496617779546 -0.016840325206834553 0 0.00062232349315529919 -0.01694120121159436 0 0.00068240284878620509 -0.016614892919907955 0 0.00073628496617779546 -0.016840325206834553 0 0.00090891019369032633 -0.016814675118607476 0 0.00077931417722131469 -0.016955962683052248 0 0.0007077455256706489 -0.017004154032360785 0 0.00062232349315529919 -0.01694120121159436 0 0.00073628496617779546 -0.016840325206834553 0 0.00077931417722131469 -0.016955962683052248 0 0.00062232349315529919 -0.01694120121159436 0 0.0007077455256706489 -0.017004154032360785 0 0.00062232349315529919 -0.01694120121159436 0 0.00064072404796208164 -0.017083532584132064 0 0.00077931417722131469 -0.016955962683052248 0 0.0007077455256706489 -0.017004154032360785 0 0.00080533045355796434 -0.017061061954027099 0 0.00087033295426768508 -0.017311663828657033 0 0.0011387124118045042 -0.017816652161392832 0 0.00034562034027632891 -0.018297744787618482 0 0.00058744250581113265 -0.018428312278360778 0 0.00029407831557618489 -0.018626682178233902 0 0.0007077455256706489 -0.017004154032360785 0 0.00064072404796208164 -0.017083532584132064 0 0.00080533045355796434 -0.017061061954027099 0 0.00064072404796208164 -0.017083532584132064 0 0.00099364620252431974 -0.01729073506294863 0 0.00080533045355796434 -0.017061061954027099 0 0.00087033295426768508 -0.017311663828657033 0 0.0001457501239952064 -0.019144731466390189 0 0.0010486786915196048 -0.017255154808815329 0 0.00099364620252431974 -0.01729073506294863 0 0.00097239444896924071 -0.017076236684416556 0 0.0001457501239952064 -0.019144731466390189 0 -9.7363746524293726e-05 -0.019968994068296442 0 -0.00015149536395978554 -0.019379283592151429 0 0.0001457501239952064 -0.019144731466390189 0 -0.00015149536395978554 -0.019379283592151429 0 -9.7363746524293726e-05 -0.019968994068296442 0 -0.00029669838412307793 -0.019422375042154379 0 -0.00015673283334629895 -0.019329208972287452 0 -0.00028415107692700449 -0.019266957356045021 0 0.00099364620252431974 -0.01729073506294863 0 0.00080533045355796434 -0.017061061954027099 0 0.00097239444896924071 -0.017076236684416556 0 0.0010486786915196048 -0.017255154808815329 0 0.00097239444896924071 -0.017076236684416556 0 0.0010845579249102644 -0.016786493011737885 0 0.00097239444896924071 -0.017076236684416556 0 0.00089875973696846765 -0.016956190740575777 0 0.0010845579249102644 -0.016786493011737885 0 0.00080533045355796434 -0.017061061954027099 0 0.00097239444896924071 -0.017076236684416556 0 0.00089875973696846765 -0.016956190740575777 0 0.00077931417722131469 -0.016955962683052248 0 0.00080533045355796434 -0.017061061954027099 0 0.00089875973696846765 -0.016956190740575777 0 0.00077931417722131469 -0.016955962683052248 0 0.00089875973696846765 -0.016956190740575777 0 0.00083556006478634377 -0.016896174771436866 0 0.00073628496617779546 -0.016840325206834553 0 0.00077931417722131469 -0.016955962683052248 0 0.00083556006478634377 -0.016896174771436866 0 0.00073628496617779546 -0.016840325206834553 0 0.00083556006478634377 -0.016896174771436866 0 0.00090891019369032633 -0.016814675118607476 0 0.00089875973696846765 -0.016956190740575777 0 0.00083556006478634377 -0.016896174771436866 0 0.00090891019369032633 -0.016814675118607476 0 0.00089875973696846765 -0.016956190740575777 0 0.00090891019369032633 -0.016814675118607476 0 0.0010845579249102644 -0.016786493011737885 0 -0.0010694851707768651 -0.020191900072963634 0 -0.0010298071304565514 -0.019468542761574517 0 -0.0007207739723052815 -0.019698675466201857 0 -0.00015149536395978554 -0.019379283592151429 0 7.2626961118511945e-05 -0.018056348734893011 0 -0.0010298071304565514 -0.019468542761574517 0 -0.0007207739723052815 -0.019698675466201857 0 -0.00076121265266079383 -0.019369127448766777 0 -0.0007207739723052815 -0.019698675466201857 0 -0.00049946410957899933 -0.019406821283567962 0 -0.00076121265266079383 -0.019369127448766777 0 -0.00083106710538093358 -0.019814116854651381 0 -0.00073916771300059096 -0.021950877321649645 0 -0.00056137018297449293 -0.021512962338879945 0 -0.0005926445059808433 -0.021229422205472605 0 -0.00045083355962875131 -0.021356766282502816 0 -0.00073916771300059096 -0.021950877321649645 0 -0.00033733461806521338 -0.023137844910151677 0 -0.0010694851707768651 -0.020191900072963634 0 -0.0007207739723052815 -0.019698675466201857 0 -0.00069516451571064906 -0.019941558536195534 0 -0.00015149536395978554 -0.019379283592151429 0 -0.00073916771300059096 -0.021950877321649645 0 -0.00041383301839530547 -0.021409027747282761 0 -0.00056137018297449293 -0.021512962338879945 0 -0.00045083355962875131 -0.021356766282502816 0 -0.00041383301839530547 -0.021409027747282761 0 -0.00041080538164837808 -0.021373206563910976 0 -0.00045083355962875131 -0.021356766282502816 0 -9.7363746524293726e-05 -0.019968994068296442 0 -6.1008297395781981e-05 -0.020215004443479137 0 -0.00024043400735558894 -0.024668864758196019 0 -0.00014384891060655901 -0.02458235894654983 0 -0.00011790851171213982 -0.024720365103933564 0 -0.00024043400735558894 -0.024668864758196019 0 -0.00011790851171213982 -0.024720365103933564 0 -0.00014428047162274928 -0.024803862669862481 0 -0.0007207739723052815 -0.019698675466201857 0 -0.00069613171693780871 -0.019965618641051102 0 -0.00024390767674317525 -0.019658535483333555 0 -0.0007207739723052815 -0.019698675466201857 0 -0.00024390767674317525 -0.019658535483333555 0 -0.00049946410957899933 -0.019406821283567962 0 -0.00073916771300059096 -0.021950877321649645 0 -0.00014292984892504427 -0.022093401313953744 0 -0.00024390767674317525 -0.019658535483333555 0 -0.00019615147981140958 -0.019183498825716887 0 -0.00049946410957899933 -0.019406821283567962 0 -0.00019615147981140958 -0.019183498825716887 0 -0.00048204319843878117 -0.019097172377081483 0 -0.00044238657166837775 -0.018785275350040282 0 -0.00048204319843878117 -0.019097172377081483 0 -0.00066752719693927588 -0.019167888608986383 0 -0.00060489914827985215 -0.018943271003065244 0 -0.00048204319843878117 -0.019097172377081483 0 -0.00049946410957899933 -0.019406821283567962 0 -0.00066752719693927588 -0.019167888608986383 0 -0.00019615147981140958 -0.019183498825716887 0 -0.00048204319843878117 -0.019097172377081483 0 -0.00049946410957899933 -0.019406821283567962 0 -0.00076121265266079383 -0.019369127448766777 0 -0.00088894964320996878 -0.019099815166101871 0 -0.00066752719693927588 -0.019167888608986383 0 -0.00049946410957899933 -0.019406821283567962 0 -0.00076121265266079383 -0.019369127448766777 0 -0.00066752719693927588 -0.019167888608986383 0 7.2626961118511945e-05 -0.018056348734893011 0 -0.00018454815330973598 -0.017183856765790935 0 -0.0010298071304565514 -0.019468542761574517 0 -0.00088894964320996878 -0.019099815166101871 0 -0.00097361526949907805 -0.018697549115163879 0 -0.0010298071304565514 -0.019468542761574517 0 -0.00076121265266079383 -0.019369127448766777 0 -0.00088894964320996878 -0.019099815166101871 0 -0.00088894964320996878 -0.019099815166101871 0 -0.00066752719693927588 -0.019167888608986383 0 -0.00076529972425361671 -0.018956259883609012 0 -0.00066752719693927588 -0.019167888608986383 0 -0.00076529972425361671 -0.018956259883609012 0 -0.00060489914827985215 -0.018943271003065244 0 -0.00088894964320996878 -0.019099815166101871 0 -0.00076529972425361671 -0.018956259883609012 0 -0.00087328766396942614 -0.018796292738387566 0 -0.00076529972425361671 -0.018956259883609012 0 -0.00071296940018281769 -0.018780277905863042 0 -0.00060489914827985215 -0.018943271003065244 0 -0.00076529972425361671 -0.018956259883609012 0 -0.00071296940018281769 -0.018780277905863042 0 -0.00087328766396942614 -0.018796292738387566 0 -0.00071296940018281769 -0.018780277905863042 0 -0.00087328766396942614 -0.018796292738387566 0 -0.00081930149836131286 -0.018707065607001715 0 -0.00088894964320996878 -0.019099815166101871 0 -0.00087328766396942614 -0.018796292738387566 0 -0.00097361526949907805 -0.018697549115163879 0 -0.00087328766396942614 -0.018796292738387566 0 -0.00096258307232109197 -0.018699570979755872 0 -0.00081930149836131286 -0.018707065607001715 0 -0.00016898522208673742 -0.017609024466897258 0 -0.00018454815330973598 -0.017183856765790935 0 -0.00096258307232109197 -0.018699570979755872 0 -0.00081930149836131286 -0.018707065607001715 0 -0.0007273286528954512 -0.018553655810414335 0 -0.00071296940018281769 -0.018780277905863042 0 -0.0007273286528954512 -0.018553655810414335 0 -0.00044238657166837775 -0.018785275350040282 0 -0.00071296940018281769 -0.018780277905863042 0 -0.00081930149836131286 -0.018707065607001715 0 -0.0007273286528954512 -0.018553655810414335 0 -0.0004368525046529183 -0.01837202539322574 0 -0.0007273286528954512 -0.018553655810414335 0 -0.00044238657166837775 -0.018785275350040282 0 -0.00019615147981140958 -0.019183498825716887 0 -0.00044238657166837775 -0.018785275350040282 0 3.0914235927818544e-05 -0.018648770540250839 0 -0.0004368525046529183 -0.01837202539322574 0 -0.00044238657166837775 -0.018785275350040282 0 3.0914235927818544e-05 -0.018648770540250839 0 -0.00048204319843878117 -0.019097172377081483 0 -0.00044238657166837775 -0.018785275350040282 0 -0.00060489914827985215 -0.018943271003065244 0 -0.00071296940018281769 -0.018780277905863042 0 -0.00044238657166837775 -0.018785275350040282 0 -0.00060489914827985215 -0.018943271003065244 0 -5.3218957060497955e-05 -0.019198391799204413 0 -0.00045515852943481586 -0.019700906005771648 0 -6.0782348450716799e-06 -0.019984391837434067 0 -0.00045515852943481586 -0.019700906005771648 0 -6.0782348450716799e-06 -0.019984391837434067 0 -0.00021274504303279765 -0.020601641388143566 0 -5.3218957060497955e-05 -0.019198391799204413 0 0.00037955557454492797 -0.019720235028918443 0 -6.0782348450716799e-06 -0.019984391837434067 0 0.00037955557454492797 -0.019720235028918443 0 -6.0782348450716799e-06 -0.019984391837434067 0 0.00042489595270099427 -0.02007940124080082 0 -6.0782348450716799e-06 -0.019984391837434067 0 0.00042489595270099427 -0.02007940124080082 0 -0.00021274504303279765 -0.020601641388143566 0 0.00021426283320297146 -0.022419777517583731 0 -4.1318894080108153e-05 -0.022244274236305858 0 -2.0032401751081818e-05 -0.02487014675328212 0 -4.3410063626200316e-05 -0.024894017177704234 0 -1.6061745800391189e-05 -0.024928658992740944 0 -0.00024390767674317525 -0.019658535483333555 0 -0.00019615147981140958 -0.019183498825716887 0 0.00020894313074067161 -0.019362407135599582 0 -0.00019615147981140958 -0.019183498825716887 0 3.0914235927818544e-05 -0.018648770540250839 0 0.00020894313074067161 -0.019362407135599582 0 -0.00026840576650326173 -0.018709136060105255 0 -4.1318894080108153e-05 -0.022244274236305858 0 -0.00014292984892504427 -0.022093401313953744 0 -4.1318894080108153e-05 -0.022244274236305858 0 -4.1318894080108153e-05 -0.022244274236305858 0 7.2186928954866809e-05 -0.025304798144101401 0 -0.00014384891060655901 -0.02458235894654983 0 -1.7202826622263436e-05 -0.024479595002167152 0 1.2271863138073156e-05 -0.024688672516972356 0 -0.00011790851171213982 -0.024720365103933564 0 1.2271863138073156e-05 -0.024688672516972356 0 -7.5751665408313153e-05 -0.024838149741385526 0 -0.00014384891060655901 -0.02458235894654983 0 -0.00011790851171213982 -0.024720365103933564 0 1.2271863138073156e-05 -0.024688672516972356 0 1.2271863138073156e-05 -0.024688672516972356 0 -5.2276865366357484e-06 -0.024900975752882883 0 -7.5751665408313153e-05 -0.024838149741385526 0 -1.9744538127900353e-05 -0.024937504914370218 0 -1.6061745800391189e-05 -0.024928658992740944 0 -9.3680393282985633e-06 -0.024957656164953754 0 -1.9744538127900353e-05 -0.024937504914370218 0 -9.3680393282985633e-06 -0.024957656164953754 0 -5.2276865366357484e-06 -0.024900975752882883 0 7.2186928954866809e-05 -0.025304798144101401 0 -4.282474720787671e-05 -0.024697851593487884 0 -4.3410063626200316e-05 -0.024894017177704234 0 -1.9744538127900353e-05 -0.024937504914370218 0 -1.6061745800391189e-05 -0.024928658992740944 0 -1.6061745800391189e-05 -0.024928658992740944 0 -9.3680393282985633e-06 -0.024957656164953754 0 -1.5471128758995189e-06 -0.024954901766811369 0 -1.6061745800391189e-05 -0.024928658992740944 0 -1.5471128758995189e-06 -0.024954901766811369 0 2.6688826453069967e-05 -0.024908326329100578 0 -9.3680393282985633e-06 -0.024957656164953754 0 7.8985879622701593e-08 -0.024999839401119869 0 -2.8031363073378886e-08 -0.024999972740915533 0 -9.3680393282985633e-06 -0.024957656164953754 0 7.8985879622701593e-08 -0.024999839401119869 0 -1.5471128758995189e-06 -0.024954901766811369 0 -7.9750161577942396e-08 -0.024999663416264351 0 3.6869533129947255e-05 -0.025216816009206177 0 7.8985879622701593e-08 -0.024999839401119869 0 -1.5471128758995189e-06 -0.024954901766811369 0 2.6688826453069967e-05 -0.024908326329100578 0 -1.3523491448599637e-09 -0.025000003015986368 0 1.8217807233160824e-07 -0.024999693654612267 0 2.7353728766637372e-09 -0.024999995171752096 0 1.8217807233160824e-07 -0.024999693654612267 0 2.7353728766637372e-09 -0.024999995171752096 0 2.4851657608445272e-06 -0.024993319687986609 0 -2.0032401751081818e-05 -0.02487014675328212 0 -1.6061745800391189e-05 -0.024928658992740944 0 2.6688826453069967e-05 -0.024908326329100578 0 0.00037955557454492797 -0.019720235028918443 0 0.00042489595270099427 -0.02007940124080082 0 0.00068215629546817863 -0.019792017746201044 0 -2.0032401751081818e-05 -0.02487014675328212 0 2.6688826453069967e-05 -0.024908326329100578 0 2.1704919149073704e-05 -0.024831345656962944 0 0.00021426283320297146 -0.022419777517583731 0 0.00033342042159804572 -0.023419739121141699 0 0.00051070792746376313 -0.01968645113850288 0 0.00037955557454492797 -0.019720235028918443 0 0.00068215629546817863 -0.019792017746201044 0 2.0241527189322331e-09 -0.02499998732116674 0 2.7353728766637372e-09 -0.024999995171752096 0 2.4851657608445272e-06 -0.024993319687986609 0 3.6869533129947255e-05 -0.025216816009206177 0 0.00033342042159804572 -0.023419739121141699 0 0.0008760266667731931 -0.015293896900010599 0 0.00071932101667883256 -0.015229102988005488 0 0.00086730678885775113 -0.015158237182932069 0 0.0008760266667731931 -0.015293896900010599 0 0.00071932101667883256 -0.015229102988005488 0 0.00072152133276999334 -0.015376049900950848 0 0.00076484560566670733 -0.015397673712186553 0 0.0006564887300573659 -0.015269324008576585 0 0.00071932101667883256 -0.015229102988005488 0 0.00072152133276999334 -0.015376049900950848 0 0.00060666971215153729 -0.015373143155183384 0 0.00089986697457104413 -0.015049481665990102 0 0.00090848598183870745 -0.014771913525355861 0 0.00067579741567466093 -0.014771132355819758 0 0.00089986697457104413 -0.015049481665990102 0 0.00052598816505879727 -0.015045629075874702 0 0.00067579741567466093 -0.014771132355819758 0 0.00076484560566670733 -0.015397673712186553 0 0.00076628812740627168 -0.013334492882627929 0 0.00089986697457104413 -0.015049481665990102 0 0.00090848598183870745 -0.014771913525355861 0 0.0011908563416590039 -0.014710204521531404 0 0.00071932101667883256 -0.015229102988005488 0 0.00086730678885775113 -0.015158237182932069 0 0.00087640255300012191 -0.01501897127773104 0 0.00077103883958023209 -0.015643672696595525 0 0.0005883084266808088 -0.01425874066589841 0 -1.6396666393920131e-06 -0.013054118852459806 0 0.00092908794602261906 -0.013497988820657811 0 0.000297655777854071 -0.012306639067541416 0 0.00066407055550460933 -0.015646194676808348 0 0.00064089607099656416 -0.015621521801858914 0 0.00060007983401205289 -0.015621330959255711 0 0.00071255695449140891 -0.015570947477847461 0 0.00066407055550460933 -0.015646194676808348 0 0.00064089607099656416 -0.015621521801858914 0 0.0005883084266808088 -0.01425874066589841 0 0.00076628812740627168 -0.013334492882627929 0 0.00086730678885775113 -0.015158237182932069 0 0.00097121836591071149 -0.015066783088758485 0 0.00087640255300012191 -0.01501897127773104 0 0.0008760266667731931 -0.015293896900010599 0 0.00086730678885775113 -0.015158237182932069 0 0.00097121836591071149 -0.015066783088758485 0 0.00044881385837363552 -0.013580597700315541 0 0.0002629219261001337 -0.011115575120219752 0 0.0005883084266808088 -0.01425874066589841 0 0.00044881385837363552 -0.013580597700315541 0 0.00034928499213903542 -0.011843055908067491 0 -0.00030235721720641941 -0.01222221141970377 0 -0.00099254126490930976 -0.01048719975417497 0 0.00064089607099656416 -0.015621521801858914 0 0.00060007983401205289 -0.015621330959255711 0 0.00061215212101433899 -0.015609854309954556 0 0.00060007983401205289 -0.015621330959255711 0 0.00059221955312445743 -0.015613623755120079 0 0.00061215212101433899 -0.015609854309954556 0 0.00034928499213903542 -0.011843055908067491 0 -0.00030235721720641941 -0.01222221141970377 0 -0.00018350705156442508 -0.012495376189513919 0 0.00044881385837363552 -0.013580597700315541 0 0.00036623510370947777 -0.013939720728149155 0 0.00047730131989161446 -0.015519741696794369 0 0.00059221955312445743 -0.015613623755120079 0 0.00058196459484004281 -0.015570224360792436 0 0.00059221955312445743 -0.015613623755120079 0 0.00060484843213330576 -0.015594106849079879 0 0.00058196459484004281 -0.015570224360792436 0 0.00060484843213330576 -0.015594106849079879 0 0.00062256067500351194 -0.015597500871733703 0 0.00061955017546342576 -0.015574149310717255 0 0.00060484843213330576 -0.015594106849079879 0 0.00061215212101433899 -0.015609854309954556 0 0.00062256067500351194 -0.015597500871733703 0 0.00059221955312445743 -0.015613623755120079 0 0.00060484843213330576 -0.015594106849079879 0 0.00061215212101433899 -0.015609854309954556 0 0.00064089607099656416 -0.015621521801858914 0 0.00061215212101433899 -0.015609854309954556 0 0.00062256067500351194 -0.015597500871733703 0 0.00061955017546342576 -0.015574149310717255 0 0.00065236925447366022 -0.015573115117734236 0 0.0006252018806504854 -0.015534324738034809 0 0.00061955017546342576 -0.015574149310717255 0 0.00058196459484004281 -0.015570224360792436 0 0.0006252018806504854 -0.015534324738034809 0 0.00062256067500351194 -0.015597500871733703 0 0.00061955017546342576 -0.015574149310717255 0 0.00065236925447366022 -0.015573115117734236 0 0.00060484843213330576 -0.015594106849079879 0 0.00061955017546342576 -0.015574149310717255 0 0.00058196459484004281 -0.015570224360792436 0 0.00064089607099656416 -0.015621521801858914 0 0.00062256067500351194 -0.015597500871733703 0 0.00065236925447366022 -0.015573115117734236 0 0.00071255695449140891 -0.015570947477847461 0 0.00064089607099656416 -0.015621521801858914 0 0.00065236925447366022 -0.015573115117734236 0 0.00071255695449140891 -0.015570947477847461 0 0.00065236925447366022 -0.015573115117734236 0 0.00069297983591430949 -0.015522892614942977 0 0.00069297983591430949 -0.015522892614942977 0 0.00067282008832910496 -0.015468801326126174 0 0.0007698176565606405 -0.015484015132013199 0 0.00065236925447366022 -0.015573115117734236 0 0.00069297983591430949 -0.015522892614942977 0 0.0006252018806504854 -0.015534324738034809 0 0.00069297983591430949 -0.015522892614942977 0 0.0006252018806504854 -0.015534324738034809 0 0.00067282008832910496 -0.015468801326126174 0 0.00058196459484004281 -0.015570224360792436 0 0.0006252018806504854 -0.015534324738034809 0 0.00055549929214336916 -0.015514642731157944 0 0.00047730131989161446 -0.015519741696794369 0 0.00058196459484004281 -0.015570224360792436 0 0.00055549929214336916 -0.015514642731157944 0 0.0006252018806504854 -0.015534324738034809 0 0.00057207933977787529 -0.01546757370289838 0 0.00067282008832910496 -0.015468801326126174 0 0.00049096088116299091 -0.015398140693038827 0 0.00057207933977787529 -0.01546757370289838 0 0.00055549929214336916 -0.015514642731157944 0 0.0006252018806504854 -0.015534324738034809 0 0.00057207933977787529 -0.01546757370289838 0 0.00055549929214336916 -0.015514642731157944 0 0.00051680360864751068 -0.015360020718869574 0 0.00057207933977787529 -0.01546757370289838 0 0.000600795610858337 -0.015419484719335571 0 0.00057207933977787529 -0.01546757370289838 0 0.000600795610858337 -0.015419484719335571 0 0.00067282008832910496 -0.015468801326126174 0 0.00062732842540925396 -0.015384488402790058 0 0.000600795610858337 -0.015419484719335571 0 0.00067282008832910496 -0.015468801326126174 0 0.00051680360864751068 -0.015360020718869574 0 0.00062732842540925396 -0.015384488402790058 0 0.000600795610858337 -0.015419484719335571 0 0.00072279379447764405 -0.015461469012049601 0 0.00067282008832910496 -0.015468801326126174 0 0.0007698176565606405 -0.015484015132013199 0 0.00072279379447764405 -0.015461469012049601 0 0.00062732842540925396 -0.015384488402790058 0 0.00067282008832910496 -0.015468801326126174 0 0.00076639018413321013 -0.01554588894637198 0 0.0007698176565606405 -0.015484015132013199 0 0.00070737694335362689 -0.015551198929338759 0 0.00076639018413321013 -0.01554588894637198 0 0.00072279379447764405 -0.015461469012049601 0 0.0007698176565606405 -0.015484015132013199 0 0.00071255695449140891 -0.015570947477847461 0 0.00069297983591430949 -0.015522892614942977 0 0.0007698176565606405 -0.015484015132013199 0 0.0008760266667731931 -0.015293896900010599 0 0.0007698176565606405 -0.015484015132013199 0 0.00072152133276999334 -0.015376049900950848 0 0.00077103883958023209 -0.015643672696595525 0 0.0007944038888137773 -0.015396599042885317 0 0.00072152133276999334 -0.015376049900950848 0 0.00070737694335362689 -0.015551198929338759 0 0.00060666971215153729 -0.015373143155183384 0 0.0007698176565606405 -0.015484015132013199 0 0.00072152133276999334 -0.015376049900950848 0 0.00070737694335362689 -0.015551198929338759 0 0.00063001788591545837 -0.015654155129017615 0 0.00070737694335362689 -0.015551198929338759 0 0.00057267296047685602 -0.015516873380217755 0 0.00070737694335362689 -0.015551198929338759 0 0.00057267296047685602 -0.015516873380217755 0 0.00060666971215153729 -0.015373143155183384 0 0.00063001788591545837 -0.015654155129017615 0 0.00057267296047685602 -0.015516873380217755 0 0.00046500753134691317 -0.015646848643219361 0 0.00057267296047685602 -0.015516873380217755 0 0.00046500753134691317 -0.015646848643219361 0 0.00034180909861061321 -0.015391047556914672 0 0.00046500753134691317 -0.015646848643219361 0 0.00033592921789872679 -0.015620342875829023 0 0.00036178171953611866 -0.015459042689864795 0 0.00033592921789872679 -0.015620342875829023 0 0.00036178171953611866 -0.015459042689864795 0 0.00028487855850108692 -0.015528770436898199 0 0.00045326086270654334 -0.015653545411683876 0 0.00035433297347051639 -0.015370806625623337 0 0.00036178171953611866 -0.015459042689864795 0 0.00028455319083232645 -0.015437724119030048 0 0.00030896275512109854 -0.015284828238031123 0 0.00036178171953611866 -0.015459042689864795 0 0.00028487855850108692 -0.015528770436898199 0 0.00028455319083232645 -0.015437724119030048 0 0.00057267296047685602 -0.015516873380217755 0 0.00034180909861061321 -0.015391047556914672 0 0.00060666971215153729 -0.015373143155183384 0 0.00034180909861061321 -0.015391047556914672 0 0.00060666971215153729 -0.015373143155183384 0 0.00042009693197789943 -0.015222522193030554 0 0.00029522095944029767 -0.016185773537555497 0 0.00033544065611515982 -0.016026749765194612 0 0.00039961527223433639 -0.01608463407602197 0 0.00029522095944029767 -0.016185773537555497 0 0.00019481314291908724 -0.016040328140464025 0 0.00033544065611515982 -0.016026749765194612 0 0.00043513459271879998 -0.016137254094161068 0 0.00039961527223433639 -0.01608463407602197 0 0.00048156330866290292 -0.016064322614763839 0 0.00043513459271879998 -0.016137254094161068 0 0.00029522095944029767 -0.016185773537555497 0 0.00039961527223433639 -0.01608463407602197 0 0.00039961527223433639 -0.01608463407602197 0 0.00042922641517716413 -0.016012143535870372 0 0.00048156330866290292 -0.016064322614763839 0 0.00033544065611515982 -0.016026749765194612 0 0.00042922641517716413 -0.016012143535870372 0 0.00038688931661989221 -0.015971745328987395 0 0.00033544065611515982 -0.016026749765194612 0 0.00039961527223433639 -0.01608463407602197 0 0.00042922641517716413 -0.016012143535870372 0 0.00046750746705042387 -0.015840579357401744 0 0.00034258085918236061 -0.015708491808736635 0 0.00057131939095726963 -0.016079277286201649 0 0.00049108005343774486 -0.016026478297251723 0 0.00046729959815207308 -0.015950575024876467 0 0.00033592921789872679 -0.015620342875829023 0 0.00028487855850108692 -0.015528770436898199 0 0.00021739720526403781 -0.015459246867360643 0 0.00042922641517716413 -0.016012143535870372 0 0.00049108005343774486 -0.016026478297251723 0 0.00046729959815207308 -0.015950575024876467 0 0.00042922641517716413 -0.016012143535870372 0 0.00049108005343774486 -0.016026478297251723 0 0.00048156330866290292 -0.016064322614763839 0 0.00052174805737013582 -0.016104439253496122 0 0.00043513459271879998 -0.016137254094161068 0 0.00048156330866290292 -0.016064322614763839 0 0.00052174805737013582 -0.016104439253496122 0 0.00057131939095726963 -0.016079277286201649 0 0.00048156330866290292 -0.016064322614763839 0 0.00057131939095726963 -0.016079277286201649 0 0.00049108005343774486 -0.016026478297251723 0 0.00048156330866290292 -0.016064322614763839 0 0.00028455319083232645 -0.015437724119030048 0 0.00020411038325668515 -0.015483344876303887 0 0.00030896275512109854 -0.015284828238031123 0 0.0002509787158840742 -0.01547022463314221 0 0.00028455319083232645 -0.015437724119030048 0 0.00020411038325668515 -0.015483344876303887 0 0.00028487855850108692 -0.015528770436898199 0 0.0002509787158840742 -0.01547022463314221 0 0.00023836124545917578 -0.015481408309520979 0 0.00028487855850108692 -0.015528770436898199 0 0.0002509787158840742 -0.01547022463314221 0 0.00028455319083232645 -0.015437724119030048 0 0.00020411038325668515 -0.015483344876303887 0 0.00021739720526403781 -0.015459246867360643 0 0.00023909411714550702 -0.015700486060162892 0 0.00028487855850108692 -0.015528770436898199 0 0.00021739720526403781 -0.015459246867360643 0 0.00023836124545917578 -0.015481408309520979 0 0.0002509787158840742 -0.01547022463314221 0 0.00020411038325668515 -0.015483344876303887 0 0.00023836124545917578 -0.015481408309520979 0 0.00020411038325668515 -0.015483344876303887 0 0.00021739720526403781 -0.015459246867360643 0 0.00023836124545917578 -0.015481408309520979 0 0.00021739720526403781 -0.015459246867360643 0 0.0005130661193073631 -0.015734617360974423 0 0.00023909411714550702 -0.015700486060162892 0 0.00046729959815207308 -0.015950575024876467 0 0.00031085839728161473 -0.01589395565824861 0 0.00024566900819113853 -0.015734886787401453 0 0.00034258085918236061 -0.015708491808736635 0 0.00038270493358102075 -0.015759867632365251 0 0.00046729959815207308 -0.015950575024876467 0 0.00038688931661989221 -0.015971745328987395 0 0.00031085839728161473 -0.01589395565824861 0 0.00042922641517716413 -0.016012143535870372 0 0.00046729959815207308 -0.015950575024876467 0 0.00038688931661989221 -0.015971745328987395 0 0.00019481314291908724 -0.016040328140464025 0 0.00033544065611515982 -0.016026749765194612 0 0.00031085839728161473 -0.01589395565824861 0 0.00033544065611515982 -0.016026749765194612 0 0.00038688931661989221 -0.015971745328987395 0 0.00031085839728161473 -0.01589395565824861 0 0.0005130661193073631 -0.015734617360974423 0 0.00023909411714550702 -0.015700486060162892 0 0.00025499759644539473 -0.01594288332567044 0 0.00018851476086251436 -0.015524162939367181 0 0.00014907201940373319 -0.015465470817350533 0 0.00020411038325668515 -0.015483344876303887 0 0.00023909411714550702 -0.015700486060162892 0 -2.1656373436163639e-05 -0.015846283313398137 0 0.00023909411714550702 -0.015700486060162892 0 0.00025499759644539473 -0.01594288332567044 0 -2.1656373436163639e-05 -0.015846283313398137 0 7.9007035727324647e-05 -0.01617537131898391 0 0.00014907201940373319 -0.015465470817350533 0 6.1461397674492078e-05 -0.016134232164399142 0 0.00025499759644539473 -0.01594288332567044 0 -2.1656373436163639e-05 -0.015846283313398137 0 6.1461397674492078e-05 -0.016134232164399142 0 0.00044722057328570381 -0.016176238829194885 0 0.00025499759644539473 -0.01594288332567044 0 0.0005130661193073631 -0.015734617360974423 0 0.00044722057328570381 -0.016176238829194885 0 0.00025499759644539473 -0.01594288332567044 0 0.00060666971215153729 -0.015373143155183384 0 0.00052598816505879727 -0.015045629075874702 0 0.00042009693197789943 -0.015222522193030554 0 0.00089986697457104413 -0.015049481665990102 0 0.00060666971215153729 -0.015373143155183384 0 0.00052598816505879727 -0.015045629075874702 0 0.00052598816505879727 -0.015045629075874702 0 0.00020406611158796067 -0.015069775245214018 0 0.00042009693197789943 -0.015222522193030554 0 0.00035433297347051639 -0.015370806625623337 0 0.00014907201940373319 -0.015465470817350533 0 0.00034180909861061321 -0.015391047556914672 0 0.00020406611158796067 -0.015069775245214018 0 0.00042009693197789943 -0.015222522193030554 0 6.3722635046926758e-05 -0.016106431673010943 0 -2.2932182760519792e-05 -0.015804416991782689 0 -0.00022210041349428016 -0.016153154989586239 0 0.00052598816505879727 -0.015045629075874702 0 0.00020406611158796067 -0.015069775245214018 0 0.00036626751238797242 -0.014742332407870366 0 0.00014907201940373319 -0.015465470817350533 0 -2.8724145429290617e-05 -0.015699516984771362 0 0.00052598816505879727 -0.015045629075874702 0 0.00036626751238797242 -0.014742332407870366 0 0.00067579741567466093 -0.014771132355819758 0 0.00036626751238797242 -0.014742332407870366 0 0.00067579741567466093 -0.014771132355819758 0 0.00054646762017032322 -0.014403076967542349 0 -2.8724145429290617e-05 -0.015699516984771362 0 0.00025723837651835975 -0.013972499842472638 0 6.3722635046926758e-05 -0.016106431673010943 0 -0.00022210041349428016 -0.016153154989586239 0 -0.00012482432962543255 -0.016413499253236426 0 -0.00022210041349428016 -0.016153154989586239 0 -0.00012482432962543255 -0.016413499253236426 0 -0.00041207893591365313 -0.016483025219175083 0 -0.00012482432962543255 -0.016413499253236426 0 -5.6141684805272645e-05 -0.016682843636181201 0 -0.00041207893591365313 -0.016483025219175083 0 0.00046524710183031156 -0.016572044748742722 0 0.00025723837651835975 -0.013972499842472638 0 0.00092262190791413438 -0.016037008448220706 0 0.00028492882739047161 -0.015693207460839659 0 0.00045065395639496769 -0.016361571770778221 0 0.00025723837651835975 -0.013972499842472638 0 0.0004269334773307544 -0.012998679470515934 0 0.00044722057328570381 -0.016176238829194885 0 0.00014417590540830586 -0.016414095974604338 0 0.0004482732515550182 -0.01651229094886748 0 0.00064417188139024402 -0.016346793917149383 0 0.00044722057328570381 -0.016176238829194885 0 0.0004482732515550182 -0.01651229094886748 0 6.1461397674492078e-05 -0.016134232164399142 0 0.00044722057328570381 -0.016176238829194885 0 0.00014417590540830586 -0.016414095974604338 0 6.3722635046926758e-05 -0.016106431673010943 0 -0.00012482432962543255 -0.016413499253236426 0 0.00014417590540830586 -0.016414095974604338 0 7.9007035727324647e-05 -0.01617537131898391 0 0.00013055527422955502 -0.016361586877198339 0 -5.6141684805272645e-05 -0.016682843636181201 0 0.00014417590540830586 -0.016414095974604338 0 0.0002940297191624521 -0.01687938249575819 0 -0.00012482432962543255 -0.016413499253236426 0 -5.6141684805272645e-05 -0.016682843636181201 0 0.00014417590540830586 -0.016414095974604338 0 0.00055583733587044387 -0.016757469261481018 0 0.0004482732515550182 -0.01651229094886748 0 0.0002940297191624521 -0.01687938249575819 0 0.00014417590540830586 -0.016414095974604338 0 0.0004482732515550182 -0.01651229094886748 0 0.0002940297191624521 -0.01687938249575819 0 0.00055583733587044387 -0.016757469261481018 0 0.00062232349315529919 -0.01694120121159436 0 0.0002940297191624521 -0.01687938249575819 0 0.00087033295426768508 -0.017311663828657033 0 0.00098197860248822066 -0.016582764440371416 0 0.00046524710183031156 -0.016572044748742722 0 0.00098197860248822066 -0.016582764440371416 0 0.00092262190791413438 -0.016037008448220706 0 0.001550293449307897 -0.016374287550531139 0 0.00085880763609370522 -0.016801002880469245 0 0.001550293449307897 -0.016374287550531139 0 0.0013204737455825102 -0.017085765810856399 0 0.00085880763609370522 -0.016801002880469245 0 0.0021683840289353187 -0.01669847252505802 0 0.001550293449307897 -0.016374287550531139 0 0.0017085551245521566 -0.016851256210130686 0 0.0021683840289353187 -0.01669847252505802 0 0.0017085551245521566 -0.016851256210130686 0 0.0017468911942252314 -0.017351821498449955 0 0.001550293449307897 -0.016374287550531139 0 0.0013204737455825102 -0.017085765810856399 0 0.0017085551245521566 -0.016851256210130686 0 0.00045065395639496769 -0.016361571770778221 0 0.00030641332456310562 -0.0168658349407452 0 -0.00012489475207347385 -0.016411352336154251 0 0.00028492882739047161 -0.015693207460839659 0 0.00045065395639496769 -0.016361571770778221 0 -0.00012489475207347385 -0.016411352336154251 0 0.00092262190791413438 -0.016037008448220706 0 0.00045065395639496769 -0.016361571770778221 0 0.00085880763609370522 -0.016801002880469245 0 0.00045065395639496769 -0.016361571770778221 0 0.00085880763609370522 -0.016801002880469245 0 0.00030641332456310562 -0.0168658349407452 0 0.00085880763609370522 -0.016801002880469245 0 0.00030641332456310562 -0.0168658349407452 0 0.0004298465765238412 -0.01751294939851333 0 0.00030641332456310562 -0.0168658349407452 0 -0.00012489475207347385 -0.016411352336154251 0 -5.2974277174570044e-05 -0.01725644568448222 0 -0.00012489475207347385 -0.016411352336154251 0 -0.00053632317622140629 -0.017150341059274744 0 -5.2974277174570044e-05 -0.01725644568448222 0 0.0004269334773307544 -0.012998679470515934 0 0.0001304855270597874 -0.013692301102127147 0 0.00075178592769114378 -0.010004975285156981 0 0.00076451245869968659 -0.010089647846239457 0 0.00083983739388501549 -0.010118481722624586 0 0.00075178592769114378 -0.010004975285156981 0 0.00079598184565431932 -0.010042059100161118 0 0.00083983739388501549 -0.010118481722624586 0 0.00075178592769114378 -0.010004975285156981 0 0.00079598184565431932 -0.010042059100161118 0 0.00075200222511382752 -0.009994249405341115 0 0.00075178592769114378 -0.010004975285156981 0 0.00075200222511382752 -0.009994249405341115 0 0.00072239879606944015 -0.0099728441664475049 0 0.00079598184565431932 -0.010042059100161118 0 0.00077381017140363206 -0.010011295602534097 0 0.00075200222511382752 -0.009994249405341115 0 0.00078842974488275042 -0.010032421871763082 0 0.00079598184565431932 -0.010042059100161118 0 0.00077381017140363206 -0.010011295602534097 0 0.00078842974488275042 -0.010032421871763082 0 0.00077381017140363206 -0.010011295602534097 0 0.00076551950178854061 -0.0099909458613750488 0 0.00077381017140363206 -0.010011295602534097 0 0.00074098359449613902 -0.0099812550083049831 0 0.00076551950178854061 -0.0099909458613750488 0 0.00075200222511382752 -0.009994249405341115 0 0.00072897551931007821 -0.0099746147638567796 0 0.00072239879606944015 -0.0099728441664475049 0 0.00075200222511382752 -0.009994249405341115 0 0.00072897551931007821 -0.0099746147638567796 0 0.00074098359449613902 -0.0099812550083049831 0 0.00072897551931007821 -0.0099746147638567796 0 0.00074098359449613902 -0.0099812550083049831 0 0.00072199870275913426 -0.0099680939384633026 0 0.00077381017140363206 -0.010011295602534097 0 0.00075200222511382752 -0.009994249405341115 0 0.00074098359449613902 -0.0099812550083049831 0 0.00090848598183870745 -0.014771913525355861 0 0.0011908563416590039 -0.014710204521531404 0 0.00086858037444001023 -0.014556679542855184 0 0.00076628812740627168 -0.013334492882627929 0 0.00077696189636643849 -0.012058974563046583 0 0.00074098359449613902 -0.0099812550083049831 0 0.00072837633293610347 -0.0099764294222516297 0 0.00076551950178854061 -0.0099909458613750488 0 0.00074098359449613902 -0.0099812550083049831 0 0.00072837633293610347 -0.0099764294222516297 0 0.00072316442966089333 -0.0099721559528425322 0 0.00074098359449613902 -0.0099812550083049831 0 0.00072316442966089333 -0.0099721559528425322 0 0.00072199870275913426 -0.0099680939384633026 0 0.00025723837651835975 -0.013972499842472638 0 0.00077696189636643849 -0.012058974563046583 0 0.00067579741567466093 -0.014771132355819758 0 0.00054646762017032322 -0.014403076967542349 0 0.00086858037444001023 -0.014556679542855184 0 0.00090848598183870745 -0.014771913525355861 0 0.00067579741567466093 -0.014771132355819758 0 0.00086858037444001023 -0.014556679542855184 0 0.00018046643449124572 -0.010476247459039497 0 -0.00018508029232857967 -0.0096906437368989348 0 8.2228872046715898e-05 -0.0092019371587901289 0 -0.00010853798881622586 -0.0095050618867294281 0 -0.00020581954523700514 -0.009678602236894155 0 0.00034928499213903542 -0.011843055908067491 0 -0.00099254126490930976 -0.01048719975417497 0 -0.00020581954523700514 -0.009678602236894155 0 0.0002629219261001337 -0.011115575120219752 0 0.00038245353458334384 -0.0099301285592008435 0 -0.0001333448203648239 -0.0095652366365122921 0 -0.00010853798881622586 -0.0095050618867294281 0 -0.00020581954523700514 -0.009678602236894155 0 0.0005883084266808088 -0.01425874066589841 0 0.0002629219261001337 -0.011115575120219752 0 0.0006956169377924003 -0.013144736798980676 0 -0.0001500187939409083 -0.012725062224185688 0 0.001171241873950484 -0.011953523314389725 0 -0.0001500187939409083 -0.012725062224185688 0 0.001171241873950484 -0.011953523314389725 0 0.00093685746829569804 -0.011515159928361721 0 0.00076628812740627168 -0.013334492882627929 0 0.00066243655009542123 -0.0104252466424418 0 0.00072837633293610347 -0.0099764294222516297 0 0.00072316442966089333 -0.0099721559528425322 0 0.00071435825759773417 -0.0099670848782268187 0 0.00072316442966089333 -0.0099721559528425322 0 0.00071435825759773417 -0.0099670848782268187 0 0.00070878500491646315 -0.0099558032534422265 0 0.00072316442966089333 -0.0099721559528425322 0 0.00070878500491646315 -0.0099558032534422265 0 0.00072199870275913426 -0.0099680939384633026 0 0.00030395994241548595 -0.010717199182304194 0 0.00018820368201855582 -0.010500870817894888 0 0.00055111072562780703 -0.010097435705232085 0 0.0002629219261001337 -0.011115575120219752 0 0.00066243655009542123 -0.0104252466424418 0 0.00066243655009542123 -0.0104252466424418 0 0.00060369377349351857 -0.010207693591116377 0 0.00070200908394224125 -0.0099464889223837491 0 0.0006927630120487666 -0.0099508829689434995 0 0.0006705639823376484 -0.0099398654996271929 0 0.00066243655009542123 -0.0104252466424418 0 0.00038245353458334384 -0.0099301285592008435 0 0.00070200908394224125 -0.0099464889223837491 0 0.00070878500491646315 -0.0099558032534422265 0 0.0006927630120487666 -0.0099508829689434995 0 0.00070878500491646315 -0.0099558032534422265 0 0.0006927630120487666 -0.0099508829689434995 0 0.00070977617045275972 -0.0099602659522696722 0 0.00070878500491646315 -0.0099558032534422265 0 0.00072199870275913426 -0.0099680939384633026 0 0.00070977617045275972 -0.0099602659522696722 0 0.00072897551931007821 -0.0099746147638567796 0 0.00072199870275913426 -0.0099680939384633026 0 0.00070977617045275972 -0.0099602659522696722 0 0.00070977617045275972 -0.0099602659522696722 0 0.00072239879606944015 -0.0099728441664475049 0 0.00069306877519613561 -0.0099546841684382669 0 0.00072897551931007821 -0.0099746147638567796 0 0.00070977617045275972 -0.0099602659522696722 0 0.00072239879606944015 -0.0099728441664475049 0 0.0006927630120487666 -0.0099508829689434995 0 0.00067419118824828793 -0.0099433795374883685 0 0.00069306877519613561 -0.0099546841684382669 0 0.0006927630120487666 -0.0099508829689434995 0 0.00067419118824828793 -0.0099433795374883685 0 0.0006705639823376484 -0.0099398654996271929 0 0.0006927630120487666 -0.0099508829689434995 0 0.00070977617045275972 -0.0099602659522696722 0 0.00069306877519613561 -0.0099546841684382669 0 0.00067419118824828793 -0.0099433795374883685 0 0.00069306877519613561 -0.0099546841684382669 0 0.00066429379302589879 -0.0099449039519020743 0 0.00067419118824828793 -0.0099433795374883685 0 0.00065190692526720536 -0.0099308624012392557 0 0.00066429379302589879 -0.0099449039519020743 0 0.00065190692526720536 -0.0099308624012392557 0 0.00066819254044427827 -0.0099289261307417883 0 0.00059827179726647576 -0.0099197417030681741 0 0.00067419118824828793 -0.0099433795374883685 0 0.00065190692526720536 -0.0099308624012392557 0 0.0006705639823376484 -0.0099398654996271929 0 0.00045982797819220757 -0.0098940616349380076 0 0.00038245353458334384 -0.0099301285592008435 0 -0.00099254126490930976 -0.01048719975417497 0 -0.00020581954523700514 -0.009678602236894155 0 -0.00037624720065424871 -0.0094823063457495169 0 -0.00020581954523700514 -0.009678602236894155 0 -0.00037624720065424871 -0.0094823063457495169 0 -0.00017621050243993381 -0.0095370718077184662 0 -0.0001333448203648239 -0.0095652366365122921 0 -0.00020581954523700514 -0.009678602236894155 0 -0.00017621050243993381 -0.0095370718077184662 0 -0.00014083556581029829 -0.009527238161795239 0 -0.00017621050243993381 -0.0095370718077184662 0 -0.00015134694340926833 -0.0094884483466891687 0 -0.00037624720065424871 -0.0094823063457495169 0 -0.00017621050243993381 -0.0095370718077184662 0 -0.00015134694340926833 -0.0094884483466891687 0 0.00038245353458334384 -0.0099301285592008435 0 0.00019906298448564702 -0.0097196592587149369 0 0.00065190692526720536 -0.0099308624012392557 0 0.00059827179726647576 -0.0099197417030681741 0 0.00063277085335396871 -0.0099349006923333556 0 0.00059827179726647576 -0.0099197417030681741 0 0.00063277085335396871 -0.0099349006923333556 0 0.00060096688556149662 -0.0099321151371745808 0 0.00063277085335396871 -0.0099349006923333556 0 0.00065075638108422912 -0.0099504067365439562 0 0.00060096688556149662 -0.0099321151371745808 0 0.00065190692526720536 -0.0099308624012392557 0 0.00063277085335396871 -0.0099349006923333556 0 0.00066429379302589879 -0.0099449039519020743 0 0.00063277085335396871 -0.0099349006923333556 0 0.00065075638108422912 -0.0099504067365439562 0 0.00066429379302589879 -0.0099449039519020743 0 0.00065075638108422912 -0.0099504067365439562 0 0.00069160950114462258 -0.0099916981424095219 0 0.00057567391277734423 -0.0099336944639735626 0 0.00065075638108422912 -0.0099504067365439562 0 0.00060096688556149662 -0.0099321151371745808 0 0.00057567391277734423 -0.0099336944639735626 0 0.00051875904325123759 -0.0099086686676640653 0 0.00060096688556149662 -0.0099321151371745808 0 0.00057567391277734423 -0.0099336944639735626 0 0.00051875904325123759 -0.0099086686676640653 0 0.00059827179726647576 -0.0099197417030681741 0 0.00060096688556149662 -0.0099321151371745808 0 0.00075178592769114378 -0.010004975285156981 0 0.00072239879606944015 -0.0099728441664475049 0 0.00069585066710152151 -0.0099669730549870016 0 0.00072239879606944015 -0.0099728441664475049 0 0.00069306877519613561 -0.0099546841684382669 0 0.00069585066710152151 -0.0099669730549870016 0 0.00065075638108422912 -0.0099504067365439562 0 0.00069585066710152151 -0.0099669730549870016 0 0.00066429379302589879 -0.0099449039519020743 0 0.00069306877519613561 -0.0099546841684382669 0 0.00069585066710152151 -0.0099669730549870016 0 0.00066429379302589879 -0.0099449039519020743 0 0.00065075638108422912 -0.0099504067365439562 0 0.00069585066710152151 -0.0099669730549870016 0 0.00069160950114462258 -0.0099916981424095219 0 0.00075178592769114378 -0.010004975285156981 0 0.00069585066710152151 -0.0099669730549870016 0 0.00069160950114462258 -0.0099916981424095219 0 0.00075178592769114378 -0.010004975285156981 0 0.00069160950114462258 -0.0099916981424095219 0 0.00076451245869968659 -0.010089647846239457 0 0.00069160950114462258 -0.0099916981424095219 0 0.00066925084275393806 -0.010039559502589154 0 0.00076451245869968659 -0.010089647846239457 0 0.00066925084275393806 -0.010039559502589154 0 0.00057567391277734423 -0.0099336944639735626 0 0.00054026551542742714 -0.010035201407325707 0 0.00043861912586208585 -0.0098758487822341763 0 0.00057567391277734423 -0.0099336944639735626 0 0.00054026551542742714 -0.010035201407325707 0 0.00069160950114462258 -0.0099916981424095219 0 0.00066925084275393806 -0.010039559502589154 0 0.00057567391277734423 -0.0099336944639735626 0 0.00066925084275393806 -0.010039559502589154 0 0.00054026551542742714 -0.010035201407325707 0 0.00073030727028381489 -0.01020174201466275 0 0.00054026551542742714 -0.010035201407325707 0 0.00073030727028381489 -0.01020174201466275 0 0.00058402092234960954 -0.010253224729284464 0 0.00054026551542742714 -0.010035201407325707 0 0.00058402092234960954 -0.010253224729284464 0 0.00037530669692675459 -0.010141656292395326 0 0.00076451245869968659 -0.010089647846239457 0 0.00073030727028381489 -0.01020174201466275 0 0.00090446133316915173 -0.01036711484670483 0 0.00066925084275393806 -0.010039559502589154 0 0.00076451245869968659 -0.010089647846239457 0 0.00073030727028381489 -0.01020174201466275 0 0.00073030727028381489 -0.01020174201466275 0 0.00090446133316915173 -0.01036711484670483 0 0.00070610613398644777 -0.010450400148321892 0 0.00070610613398644777 -0.010450400148321892 0 0.00058402092234960954 -0.010253224729284464 0 0.00041446535015186739 -0.01042099657592965 0 0.00073030727028381489 -0.01020174201466275 0 0.00070610613398644777 -0.010450400148321892 0 0.00058402092234960954 -0.010253224729284464 0 0.00070610613398644777 -0.010450400148321892 0 0.00061860699948207084 -0.010805193999637605 0 0.00041446535015186739 -0.01042099657592965 0 0.00070610613398644777 -0.010450400148321892 0 0.00061860699948207084 -0.010805193999637605 0 0.00089582565667350111 -0.0108727703532813 0 -0.00090654847743082618 -0.017937849062997752 0 -0.0010683616261452768 -0.018603078767026514 0 -0.00080898891881639912 -0.018578550705609539 0 8.3041654619431263e-06 -0.014149678141544943 0 -8.545789353508157e-05 -0.014739460773263895 0 0.00090446133316915173 -0.01036711484670483 0 0.00070610613398644777 -0.010450400148321892 0 0.00089582565667350111 -0.0108727703532813 0 -0.0010683616261452768 -0.018603078767026514 0 -0.001008165251911837 -0.018999583464207378 0 -0.00090289252602306959 -0.018889784584070837 0 -0.0010683616261452768 -0.018603078767026514 0 -0.00080898891881639912 -0.018578550705609539 0 -0.00090289252602306959 -0.018889784584070837 0 0.00061860699948207084 -0.010805193999637605 0 0.00089582565667350111 -0.0108727703532813 0 0.0007530018513811328 -0.011571727801723561 0 -8.545789353508157e-05 -0.014739460773263895 0 -0.00013217281916716157 -0.01528382602355749 0 -0.00064878856575952329 -0.018655395128788665 0 -0.0005800553711657456 -0.018269246012334192 0 -0.00048069918982379661 -0.018911361530917669 0 -0.00010216862795402342 -0.018439127850231767 0 0.00010871841063488838 -0.018551067770647679 0 -0.00022953515448244512 -0.019068740746250593 0 -0.0005800553711657456 -0.018269246012334192 0 -0.00010216862795402342 -0.018439127850231767 0 -0.00022953515448244512 -0.019068740746250593 0 -0.00052395666838434365 -0.01820403550162732 0 -0.00060849698877350484 -0.01925060541440839 0 -0.00064000171252788865 -0.018858761201915149 0 -0.00064878856575952329 -0.018655395128788665 0 -0.00048069918982379661 -0.018911361530917669 0 -0.00064000171252788865 -0.018858761201915149 0 -0.00075018431753860737 -0.01887112617331007 0 -0.00064878856575952329 -0.018655395128788665 0 -0.00075018431753860737 -0.01887112617331007 0 -0.00080898891881639912 -0.018578550705609539 0 -0.00090289252602306959 -0.018889784584070837 0 -0.00075018431753860737 -0.01887112617331007 0 -0.00080898891881639912 -0.018578550705609539 0 -0.00064878856575952329 -0.018655395128788665 0 -0.00080898891881639912 -0.018578550705609539 0 -0.00064878856575952329 -0.018655395128788665 0 -0.0005800553711657456 -0.018269246012334192 0 -0.00090654847743082618 -0.017937849062997752 0 -0.00080898891881639912 -0.018578550705609539 0 -0.0005800553711657456 -0.018269246012334192 0 -0.0005800553711657456 -0.018269246012334192 0 -0.00010216862795402342 -0.018439127850231767 0 -0.00017151129601738316 -0.018089836776979187 0 -0.00010216862795402342 -0.018439127850231767 0 -0.00017151129601738316 -0.018089836776979187 0 0.0002276821393558029 -0.018136231065241305 0 -0.00017151129601738316 -0.018089836776979187 0 -0.0003882667098836786 -0.017792256947075601 0 -1.6605102619640441e-05 -0.017812453982284027 0 -0.00017151129601738316 -0.018089836776979187 0 -1.6605102619640441e-05 -0.017812453982284027 0 0.0002276821393558029 -0.018136231065241305 0 -0.0003882667098836786 -0.017792256947075601 0 -1.6605102619640441e-05 -0.017812453982284027 0 -5.2974277174570044e-05 -0.01725644568448222 0 -0.0005800553711657456 -0.018269246012334192 0 -0.00017151129601738316 -0.018089836776979187 0 -0.0003882667098836786 -0.017792256947075601 0 -0.00090654847743082618 -0.017937849062997752 0 -0.0003882667098836786 -0.017792256947075601 0 -0.00053632317622140629 -0.017150341059274744 0 -0.00090654847743082618 -0.017937849062997752 0 -0.0005800553711657456 -0.018269246012334192 0 -0.0003882667098836786 -0.017792256947075601 0 0.00076451245869968659 -0.010089647846239457 0 0.00090446133316915173 -0.01036711484670483 0 0.00083983739388501549 -0.010118481722624586 0 8.3041654619431263e-06 -0.014149678141544943 0 0.0001304855270597874 -0.013692301102127147 0 -0.0003882667098836786 -0.017792256947075601 0 -0.00053632317622140629 -0.017150341059274744 0 -5.2974277174570044e-05 -0.01725644568448222 0 0.00030641332456310562 -0.0168658349407452 0 -5.2974277174570044e-05 -0.01725644568448222 0 0.0004298465765238412 -0.01751294939851333 0 -1.6605102619640441e-05 -0.017812453982284027 0 -5.2974277174570044e-05 -0.01725644568448222 0 0.0004298465765238412 -0.01751294939851333 0 0.00085880763609370522 -0.016801002880469245 0 0.0004298465765238412 -0.01751294939851333 0 0.0010502667328674384 -0.017466282063043539 0 0.0004298465765238412 -0.01751294939851333 0 0.00072236572754303188 -0.017945749151285981 0 0.0010502667328674384 -0.017466282063043539 0 0.0004298465765238412 -0.01751294939851333 0 0.00072236572754303188 -0.017945749151285981 0 0.0002276821393558029 -0.018136231065241305 0 -1.6605102619640441e-05 -0.017812453982284027 0 0.0004298465765238412 -0.01751294939851333 0 0.0002276821393558029 -0.018136231065241305 0 0.0013204737455825102 -0.017085765810856399 0 0.0017085551245521566 -0.016851256210130686 0 0.0017468911942252314 -0.017351821498449955 0 0.0013204737455825102 -0.017085765810856399 0 0.0017468911942252314 -0.017351821498449955 0 0.0010502667328674384 -0.017466282063043539 0 0.0013204737455825102 -0.017085765810856399 0 0.00085880763609370522 -0.016801002880469245 0 0.0010502667328674384 -0.017466282063043539 0 0.00072236572754303188 -0.017945749151285981 0 0.0010502667328674384 -0.017466282063043539 0 0.0013109270177296037 -0.018025461875452977 0 0.0017468911942252314 -0.017351821498449955 0 0.0010502667328674384 -0.017466282063043539 0 0.0013109270177296037 -0.018025461875452977 0 0.00016967841160053722 -0.0185618723014771 0 -9.8154124007955335e-06 -0.018841321782210003 0 0.00029407831557618489 -0.018626682178233902 0 -0.0011287168561123499 -0.020245478287665212 0 -0.00091101918016886529 -0.020277926469758227 0 -0.00076055596541394432 -0.019948490444671833 0 0.0011387124118045042 -0.017816652161392832 0 -9.0384458283924109e-05 -0.019120676576970978 0 -9.0384458283924109e-05 -0.019120676576970978 0 -0.00033935507814295294 -0.019359693595956951 0 -0.0011245917347683951 -0.020238120303240008 0 -0.0011756455733226119 -0.020093864261275372 0 -0.0013315769749845674 -0.020147446907386301 0 -0.0011263417198730497 -0.020252476988186122 0 -0.0010615352462766433 -0.020340039067853293 0 -0.00091101918016886529 -0.020277926469758227 0 -0.0011245917347683951 -0.020238120303240008 0 -0.00081781545302025147 -0.020529202870568728 0 -9.0384458283924109e-05 -0.019120676576970978 0 -0.0010146882540446112 -0.020079277328947286 0 -0.0011287168561123499 -0.020245478287665212 0 -0.0011245917347683951 -0.020238120303240008 0 -0.0010271501681949444 -0.020116445676243742 0 -0.0011287168561123499 -0.020245478287665212 0 -0.00091101918016886529 -0.020277926469758227 0 -0.0011245917347683951 -0.020238120303240008 0 -0.0011245917347683951 -0.020238120303240008 0 -0.0011756455733226119 -0.020093864261275372 0 -0.0010271501681949444 -0.020116445676243742 0 -0.0011262237187164999 -0.020024869017481892 0 -0.0011756455733226119 -0.020093864261275372 0 -0.0010271501681949444 -0.020116445676243742 0 -0.0011262237187164999 -0.020024869017481892 0 -0.0011756455733226119 -0.020093864261275372 0 -0.0012117729241948451 -0.019967610625829732 0 -0.0011756455733226119 -0.020093864261275372 0 -0.0012971119771718227 -0.020027579940969358 0 -0.0013315769749845674 -0.020147446907386301 0 -0.0011756455733226119 -0.020093864261275372 0 -0.0012971119771718227 -0.020027579940969358 0 -0.0012117729241948451 -0.019967610625829732 0 0.00072236572754303188 -0.017945749151285981 0 0.0002276821393558029 -0.018136231065241305 0 0.0005404405010643352 -0.018553008404685649 0 0.00010871841063488838 -0.018551067770647679 0 0.0002276821393558029 -0.018136231065241305 0 0.0005404405010643352 -0.018553008404685649 0 -0.00010216862795402342 -0.018439127850231767 0 0.00010871841063488838 -0.018551067770647679 0 0.0002276821393558029 -0.018136231065241305 0 0.00072236572754303188 -0.017945749151285981 0 0.0013109270177296037 -0.018025461875452977 0 0.0005404405010643352 -0.018553008404685649 0 -9.0384458283924109e-05 -0.019120676576970978 0 -1.7174871688067693e-05 -0.019031036800916071 0 -0.00049155535614222093 -0.019403499052167657 0 -0.00079950168831525623 -0.01962369822773136 0 -0.00069347357412253056 -0.019696613492577536 0 -0.00079950168831525623 -0.01962369822773136 0 -0.00069347357412253056 -0.019696613492577536 0 -0.00081757122045544005 -0.019753119356990107 0 -0.00079950168831525623 -0.01962369822773136 0 -0.00081757122045544005 -0.019753119356990107 0 -0.00086086121034513062 -0.019749113534933888 0 0.00010871841063488838 -0.018551067770647679 0 0.0005404405010643352 -0.018553008404685649 0 -0.00022953515448244512 -0.019068740746250593 0 -0.00079950168831525623 -0.01962369822773136 0 -0.00086086121034513062 -0.019749113534933888 0 -0.00095705788292134149 -0.019788212806728999 0 -1.7174871688067693e-05 -0.019031036800916071 0 -0.00060849698877350484 -0.01925060541440839 0 -0.00081757122045544005 -0.019753119356990107 0 -0.00086086121034513062 -0.019749113534933888 0 -0.0008642715075519215 -0.01979719962780073 0 -0.00086086121034513062 -0.019749113534933888 0 -0.00089308232872706121 -0.019818769825608679 0 -0.0008642715075519215 -0.01979719962780073 0 -0.00086086121034513062 -0.019749113534933888 0 -0.00089308232872706121 -0.019818769825608679 0 -0.00095705788292134149 -0.019788212806728999 0 -0.00089308232872706121 -0.019818769825608679 0 -0.00088267318580151626 -0.01986395133656484 0 -0.00086508534398787315 -0.019837367057463414 0 -0.00089308232872706121 -0.019818769825608679 0 -0.00088267318580151626 -0.01986395133656484 0 -0.0008642715075519215 -0.01979719962780073 0 -0.00081757122045544005 -0.019753119356990107 0 -0.00088267318580151626 -0.01986395133656484 0 -0.0008642715075519215 -0.01979719962780073 0 -0.0010146882540446112 -0.020079277328947286 0 -0.00081411780276398739 -0.019788594113118479 0 -0.00069347357412253056 -0.019696613492577536 0 -0.00081757122045544005 -0.019753119356990107 0 -0.00088267318580151626 -0.01986395133656484 0 -0.0010271501681949444 -0.020116445676243742 0 -0.00088267318580151626 -0.01986395133656484 0 -0.00098979037267446154 -0.019854088036558162 0 -0.0010271501681949444 -0.020116445676243742 0 -0.00098979037267446154 -0.019854088036558162 0 -0.0010880383534765405 -0.019918983600768925 0 -0.00098979037267446154 -0.019854088036558162 0 -0.0010348220005286044 -0.019755370450234087 0 -0.0010880383534765405 -0.019918983600768925 0 -0.00098979037267446154 -0.019854088036558162 0 -0.0010348220005286044 -0.019755370450234087 0 -0.0009329925477477199 -0.01979751224096123 0 -0.0009329925477477199 -0.01979751224096123 0 -0.00086508534398787315 -0.019837367057463414 0 -0.00091355844116261769 -0.019651956094623384 0 -0.00088267318580151626 -0.01986395133656484 0 -0.0009329925477477199 -0.01979751224096123 0 -0.00086508534398787315 -0.019837367057463414 0 -0.00088267318580151626 -0.01986395133656484 0 -0.00098979037267446154 -0.019854088036558162 0 -0.0009329925477477199 -0.01979751224096123 0 -0.0012971119771718227 -0.020027579940969358 0 -0.0012117729241948451 -0.019967610625829732 0 -0.0013616971767896942 -0.019918233421157013 0 -0.0012117729241948451 -0.019967610625829732 0 -0.0012249604114977345 -0.0198227799977213 0 -0.0013616971767896942 -0.019918233421157013 0 -0.0012117729241948451 -0.019967610625829732 0 -0.0010880383534765405 -0.019918983600768925 0 -0.0012249604114977345 -0.0198227799977213 0 -0.0011262237187164999 -0.020024869017481892 0 -0.0010271501681949444 -0.020116445676243742 0 -0.0010880383534765405 -0.019918983600768925 0 -0.0011262237187164999 -0.020024869017481892 0 -0.0012117729241948451 -0.019967610625829732 0 -0.0010880383534765405 -0.019918983600768925 0 -0.0010348220005286044 -0.019755370450234087 0 -0.0010880383534765405 -0.019918983600768925 0 -0.0012249604114977345 -0.0198227799977213 0 -0.0012249604114977345 -0.0198227799977213 0 -0.0013616971767896942 -0.019918233421157013 0 -0.0014025874928086282 -0.019796375558166615 0 -0.0012249604114977345 -0.0198227799977213 0 -0.0012837662703693682 -0.019679989420005019 0 -0.0014025874928086282 -0.019796375558166615 0 -0.0012837662703693682 -0.019679989420005019 0 -0.0011432103802356958 -0.019634435789322818 0 -0.0012398886564067161 -0.019572326605027598 0 -0.0012249604114977345 -0.0198227799977213 0 -0.0012837662703693682 -0.019679989420005019 0 -0.0011432103802356958 -0.019634435789322818 0 -0.0010348220005286044 -0.019755370450234087 0 -0.0012249604114977345 -0.0198227799977213 0 -0.0011432103802356958 -0.019634435789322818 0 -0.0011432103802356958 -0.019634435789322818 0 -0.0010480436779089931 -0.019584660857827316 0 -0.0011388247873231141 -0.019444094751376283 0 -0.0011432103802356958 -0.019634435789322818 0 -0.0012398886564067161 -0.019572326605027598 0 -0.0011388247873231141 -0.019444094751376283 0 -0.0012398886564067161 -0.019572326605027598 0 -0.0014053965959975479 -0.019525653149393789 0 -0.0011388247873231141 -0.019444094751376283 0 -0.0012837662703693682 -0.019679989420005019 0 -0.0012398886564067161 -0.019572326605027598 0 -0.0014053965959975479 -0.019525653149393789 0 -0.00071770665653579006 -0.0191599456257407 0 -0.00085508006124868769 -0.019326748648854118 0 -0.00079201644168388585 -0.019225913050473234 0 -0.00081633171022556944 -0.019498691153297835 0 -0.00089581095260340884 -0.019478879293903364 0 -0.0010348220005286044 -0.019755370450234087 0 -0.0011432103802356958 -0.019634435789322818 0 -0.0010480436779089931 -0.019584660857827316 0 -0.0010348220005286044 -0.019755370450234087 0 -0.0009329925477477199 -0.01979751224096123 0 -0.00091355844116261769 -0.019651956094623384 0 -0.0010348220005286044 -0.019755370450234087 0 -0.00091355844116261769 -0.019651956094623384 0 -0.0010480436779089931 -0.019584660857827316 0 -0.00091355844116261769 -0.019651956094623384 0 -0.0010480436779089931 -0.019584660857827316 0 -0.0010386804802040705 -0.019467052454947505 0 -0.0010480436779089931 -0.019584660857827316 0 -0.0010386804802040705 -0.019467052454947505 0 -0.0011388247873231141 -0.019444094751376283 0 -0.00089581095260340884 -0.019478879293903364 0 -0.0010118680341172253 -0.019452147663916251 0 -0.00085508006124868769 -0.019326748648854118 0 -0.00093971853728753931 -0.019377195670845164 0 -0.0010386804802040705 -0.019467052454947505 0 -0.00085508006124868769 -0.019326748648854118 0 -0.00093971853728753931 -0.019377195670845164 0 -0.00086063618575887629 -0.019304072853394499 0 -0.00093971853728753931 -0.019377195670845164 0 -0.00086063618575887629 -0.019304072853394499 0 -0.00086170595461351025 -0.019301564847315589 0 -0.00085508006124868769 -0.019326748648854118 0 -0.00086063618575887629 -0.019304072853394499 0 -0.00079201644168388585 -0.019225913050473234 0 -0.00086063618575887629 -0.019304072853394499 0 -0.00082826601894270659 -0.019246583670853957 0 -0.00086170595461351025 -0.019301564847315589 0 -0.00086063618575887629 -0.019304072853394499 0 -0.00079201644168388585 -0.019225913050473234 0 -0.00082826601894270659 -0.019246583670853957 0 -0.00082826601894270659 -0.019246583670853957 0 -0.00086170595461351025 -0.019301564847315589 0 -0.00084932318609715507 -0.019214354454295299 0 -0.00082826601894270659 -0.019246583670853957 0 -0.00084932318609715507 -0.019214354454295299 0 -0.0007838628661440473 -0.019150816397109638 0 -0.00086170595461351025 -0.019301564847315589 0 -0.00082028753693750645 -0.019255640387874202 0 -0.00084932318609715507 -0.019214354454295299 0 -0.00082028753693750645 -0.019255640387874202 0 -0.00087666136578552778 -0.019176088710902085 0 -0.00080499968162679291 -0.019189542273019396 0 -0.00082028753693750645 -0.019255640387874202 0 -0.00074770742904813254 -0.019188548097097469 0 -0.00080499968162679291 -0.019189542273019396 0 -0.00087666136578552778 -0.019176088710902085 0 -0.00087029018681029783 -0.019151862871616403 0 -0.00080499968162679291 -0.019189542273019396 0 -0.00082028753693750645 -0.019255640387874202 0 -0.00087666136578552778 -0.019176088710902085 0 -0.00084932318609715507 -0.019214354454295299 0 -0.00087666136578552778 -0.019176088710902085 0 -0.00084932318609715507 -0.019214354454295299 0 -0.00087156828733399782 -0.019095793777232382 0 -0.00087666136578552778 -0.019176088710902085 0 -0.001008165251911837 -0.018999583464207378 0 -0.00087029018681029783 -0.019151862871616403 0 -0.00087666136578552778 -0.019176088710902085 0 -0.00087156828733399782 -0.019095793777232382 0 -0.001008165251911837 -0.018999583464207378 0 -0.00087156828733399782 -0.019095793777232382 0 -0.00090289252602306959 -0.018889784584070837 0 -0.00078212423080504286 -0.019032352264667762 0 -0.00087156828733399782 -0.019095793777232382 0 -0.001008165251911837 -0.018999583464207378 0 -0.00090289252602306959 -0.018889784584070837 0 -0.00075018431753860737 -0.01887112617331007 0 -0.00090289252602306959 -0.018889784584070837 0 -0.00078212423080504286 -0.019032352264667762 0 -0.00078212423080504286 -0.019032352264667762 0 -0.00072502245628377137 -0.01906101652505364 0 -0.0007838628661440473 -0.019150816397109638 0 -0.00078212423080504286 -0.019032352264667762 0 -0.00072502245628377137 -0.01906101652505364 0 -0.00064912994878480411 -0.018984769459553116 0 -0.00064000171252788865 -0.018858761201915149 0 -0.00075018431753860737 -0.01887112617331007 0 -0.00064912994878480411 -0.018984769459553116 0 -0.00075018431753860737 -0.01887112617331007 0 -0.00078212423080504286 -0.019032352264667762 0 -0.00064912994878480411 -0.018984769459553116 0 -0.00064000171252788865 -0.018858761201915149 0 -0.00048069918982379661 -0.018911361530917669 0 -0.00064912994878480411 -0.018984769459553116 0 -0.00081633171022556944 -0.019498691153297835 0 -0.00060849698877350484 -0.01925060541440839 0 -0.00063945063670319338 -0.018976561814719812 0 -0.00064912994878480411 -0.018984769459553116 0 -0.00071178984523454208 -0.019092860375906302 0 -0.00089308232872706121 -0.019818769825608679 0 -0.00086508534398787315 -0.019837367057463414 0 -0.00095705788292134149 -0.019788212806728999 0 -0.00071770665653579006 -0.0191599456257407 0 -0.00063945063670319338 -0.018976561814719812 0 -0.00071178984523454208 -0.019092860375906302 0 -0.00060849698877350484 -0.01925060541440839 0 -0.00055018910402469541 -0.019108641138631033 0 -0.00072502245628377137 -0.01906101652505364 0 -0.00064912994878480411 -0.018984769459553116 0 -0.00071178984523454208 -0.019092860375906302 0 -0.00071770665653579006 -0.0191599456257407 0 -0.00079201644168388585 -0.019225913050473234 0 -0.00071178984523454208 -0.019092860375906302 0 -0.00079201644168388585 -0.019225913050473234 0 -0.00071178984523454208 -0.019092860375906302 0 -0.0007838628661440473 -0.019150816397109638 0 -0.00072502245628377137 -0.01906101652505364 0 -0.00071178984523454208 -0.019092860375906302 0 -0.0007838628661440473 -0.019150816397109638 0 -0.00079201644168388585 -0.019225913050473234 0 -0.00082826601894270659 -0.019246583670853957 0 -0.0007838628661440473 -0.019150816397109638 0 -0.00087156828733399782 -0.019095793777232382 0 -0.00078212423080504286 -0.019032352264667762 0 -0.0007838628661440473 -0.019150816397109638 0 -0.00084932318609715507 -0.019214354454295299 0 -0.00087156828733399782 -0.019095793777232382 0 -0.0007838628661440473 -0.019150816397109638 0 -1.1661070057338926e-08 -0.024999985265746934 0 -8.8713582986025881e-06 -0.024984449692284392 0 -1.2122595009817703e-05 -0.024990840990859773 0 -1.1661070057338926e-08 -0.024999985265746934 0 -8.8713582986025881e-06 -0.024984449692284392 0 9.1992463270957677e-09 -0.024999957282715257 0 -8.8713582986025881e-06 -0.024984449692284392 0 -3.0474995047811305e-05 -0.024980649381650247 0 -1.2122595009817703e-05 -0.024990840990859773 0 -8.8713582986025881e-06 -0.024984449692284392 0 -3.4760509587830862e-05 -0.024964927679370405 0 -3.0474995047811305e-05 -0.024980649381650247 0 -8.8713582986025881e-06 -0.024984449692284392 0 -1.0956857223982497e-05 -0.02496197311583041 0 -3.4760509587830862e-05 -0.024964927679370405 0 -8.8713582986025881e-06 -0.024984449692284392 0 9.1992463270957677e-09 -0.024999957282715257 0 -1.0956857223982497e-05 -0.02496197311583041 0 9.1992463270957677e-09 -0.024999957282715257 0 -2.8031363073378886e-08 -0.024999972740915533 0 -4.3027624647866962e-06 -0.024963786931977133 0 9.1992463270957677e-09 -0.024999957282715257 0 -4.3027624647866962e-06 -0.024963786931977133 0 -1.0956857223982497e-05 -0.02496197311583041 0 -9.3680393282985633e-06 -0.024957656164953754 0 -2.8031363073378886e-08 -0.024999972740915533 0 -4.3027624647866962e-06 -0.024963786931977133 0 -9.3680393282985633e-06 -0.024957656164953754 0 -4.3027624647866962e-06 -0.024963786931977133 0 -5.2276865366357484e-06 -0.024900975752882883 0 -4.3027624647866962e-06 -0.024963786931977133 0 -1.0956857223982497e-05 -0.02496197311583041 0 -5.2276865366357484e-06 -0.024900975752882883 0 -1.0956857223982497e-05 -0.02496197311583041 0 -5.2276865366357484e-06 -0.024900975752882883 0 -4.7587828843703723e-05 -0.024936878193345155 0 -5.2276865366357484e-06 -0.024900975752882883 0 -7.5751665408313153e-05 -0.024838149741385526 0 -8.7781765268263992e-05 -0.024885788685811653 0 -0.00011790851171213982 -0.024720365103933564 0 -7.5751665408313153e-05 -0.024838149741385526 0 -0.00014428047162274928 -0.024803862669862481 0 -7.5751665408313153e-05 -0.024838149741385526 0 -8.7781765268263992e-05 -0.024885788685811653 0 -0.00014428047162274928 -0.024803862669862481 0 -5.2276865366357484e-06 -0.024900975752882883 0 -8.7781765268263992e-05 -0.024885788685811653 0 -4.7587828843703723e-05 -0.024936878193345155 0 -8.7781765268263992e-05 -0.024885788685811653 0 -4.7587828843703723e-05 -0.024936878193345155 0 -9.2223905085414359e-05 -0.024919399533530822 0 -4.7587828843703723e-05 -0.024936878193345155 0 -7.5602570858932078e-05 -0.024955606014352028 0 -3.4760509587830862e-05 -0.024964927679370405 0 -4.7587828843703723e-05 -0.024936878193345155 0 -9.2223905085414359e-05 -0.024919399533530822 0 -7.5602570858932078e-05 -0.024955606014352028 0 -1.0956857223982497e-05 -0.02496197311583041 0 -4.7587828843703723e-05 -0.024936878193345155 0 -3.4760509587830862e-05 -0.024964927679370405 0 -3.4760509587830862e-05 -0.024964927679370405 0 -6.1498763775727234e-05 -0.024974149029895348 0 -3.0474995047811305e-05 -0.024980649381650247 0 -7.5602570858932078e-05 -0.024955606014352028 0 -3.4760509587830862e-05 -0.024964927679370405 0 -6.1498763775727234e-05 -0.024974149029895348 0 -7.5602570858932078e-05 -0.024955606014352028 0 -9.2328188588650353e-05 -0.024961955824704313 0 -6.1498763775727234e-05 -0.024974149029895348 0 -0.00035827096953121258 -0.024049053823691442 0 -0.00039100423538131332 -0.023431653644767264 0 -0.00068489914367395922 -0.022623927595601983 0 -0.00049891841616842415 -0.02272993349276128 0 -0.000618585348507345 -0.023332063720866613 0 -7.5602570858932078e-05 -0.024955606014352028 0 -9.2328188588650353e-05 -0.024961955824704313 0 -0.00011652144790260558 -0.024943827605708711 0 -0.00051933216351459494 -0.021647674119933024 0 -0.00039100423538131332 -0.023431653644767264 0 -0.00057012402606513148 -0.020738193613630451 0 -0.00049432821116186028 -0.020827521881975467 0 -0.00062890825935062698 -0.020921420566857325 0 -0.00068489914367395922 -0.022623927595601983 0 -0.00049891841616842415 -0.02272993349276128 0 -0.00038426582844320646 -0.022132295494056296 0 -0.00046852389848075007 -0.02070788240434419 0 -0.00047302964275213307 -0.020746336884053532 0 -0.00040473301673755557 -0.020702175598686444 0 -0.00057012402606513148 -0.020738193613630451 0 -0.00046852389848075007 -0.02070788240434419 0 -0.00047302964275213307 -0.020746336884053532 0 -0.00047302964275213307 -0.020746336884053532 0 -0.00049432821116186028 -0.020827521881975467 0 -0.00040473301673755557 -0.020702175598686444 0 -0.00057012402606513148 -0.020738193613630451 0 -0.00047302964275213307 -0.020746336884053532 0 -0.00049432821116186028 -0.020827521881975467 0 -0.00049432821116186028 -0.020827521881975467 0 -0.00062890825935062698 -0.020921420566857325 0 -0.00038605287490166745 -0.021057856798699662 0 -9.2223905085414359e-05 -0.024919399533530822 0 -7.5602570858932078e-05 -0.024955606014352028 0 -0.00011652144790260558 -0.024943827605708711 0 -0.00017327874561025945 -0.024709247249834618 0 -0.00015597185825192228 -0.024839226170948525 0 -0.00016396298987556907 -0.0248309108879738 0 -0.00039100423538131332 -0.023431653644767264 0 -0.00033733461806521338 -0.023137844910151677 0 -9.2223905085414359e-05 -0.024919399533530822 0 -0.00011652144790260558 -0.024943827605708711 0 -0.00015597185825192228 -0.024839226170948525 0 -0.00039100423538131332 -0.023431653644767264 0 -0.00013084558981376647 -0.025420843980898014 0 -8.7781765268263992e-05 -0.024885788685811653 0 -9.2223905085414359e-05 -0.024919399533530822 0 -0.00015597185825192228 -0.024839226170948525 0 -8.7781765268263992e-05 -0.024885788685811653 0 -0.00015597185825192228 -0.024839226170948525 0 -0.00014428047162274928 -0.024803862669862481 0 -0.00024043400735558894 -0.024668864758196019 0 -0.00016396298987556907 -0.0248309108879738 0 -0.00014428047162274928 -0.024803862669862481 0 -0.00015597185825192228 -0.024839226170948525 0 -0.00016396298987556907 -0.0248309108879738 0 -0.00014428047162274928 -0.024803862669862481 0 -0.0005926445059808433 -0.021229422205472605 0 -0.00045083355962875131 -0.021356766282502816 0 -0.00038605287490166745 -0.021057856798699662 0 -0.00062890825935062698 -0.020921420566857325 0 -0.0005926445059808433 -0.021229422205472605 0 -0.00038605287490166745 -0.021057856798699662 0 -0.00033166545731567212 -0.020189208667884477 0 -0.00076055596541394432 -0.019948490444671833 0 -0.00054347047922096911 -0.020422502050201585 0 -0.00033166545731567212 -0.020189208667884477 0 -0.00042713775929955548 -0.019872430938550841 0 -0.00076055596541394432 -0.019948490444671833 0 -9.7363746524293726e-05 -0.019968994068296442 0 -0.0004017924149399041 -0.020760272083036827 0 -0.00041016427969759248 -0.021374876239615211 0 -0.00045083355962875131 -0.021356766282502816 0 -0.00038605287490166745 -0.021057856798699662 0 -0.00028441777969417275 -0.019688007135061834 0 -0.00033166545731567212 -0.020189208667884477 0 -0.00042713775929955548 -0.019872430938550841 0 -0.00033184955203612699 -0.019663594181326474 0 -0.00042713775929955548 -0.019872430938550841 0 -0.00076055596541394432 -0.019948490444671833 0 0.0001457501239952064 -0.019144731466390189 0 -0.00033935507814295294 -0.019359693595956951 0 -0.00033184955203612699 -0.019663594181326474 0 -0.00028441777969417275 -0.019688007135061834 0 -0.00042713775929955548 -0.019872430938550841 0 0.00034562034027632891 -0.018297744787618482 0 0.00016967841160053722 -0.0185618723014771 0 0.00029407831557618489 -0.018626682178233902 0 -0.00091101918016886529 -0.020277926469758227 0 -0.00076055596541394432 -0.019948490444671833 0 -0.00054347047922096911 -0.020422502050201585 0 -0.00091101918016886529 -0.020277926469758227 0 -0.00054347047922096911 -0.020422502050201585 0 -0.00081781545302025147 -0.020529202870568728 0 -0.00049432821116186028 -0.020827521881975467 0 -0.00038605287490166745 -0.021057856798699662 0 -0.00040473301673755557 -0.020702175598686444 0 -0.00033166545731567212 -0.020189208667884477 0 -0.00054347047922096911 -0.020422502050201585 0 -0.00040473301673755557 -0.020702175598686444 0 -0.0004017924149399041 -0.020760272083036827 0 -0.00038509912465519293 -0.020640149208344481 0 -0.00054347047922096911 -0.020422502050201585 0 -0.00040473301673755557 -0.020702175598686444 0 -0.00043729131083311134 -0.020741419546746596 0 -0.00046852389848075007 -0.02070788240434419 0 -0.00040473301673755557 -0.020702175598686444 0 -0.00043729131083311134 -0.020741419546746596 0 -0.00054347047922096911 -0.020422502050201585 0 -0.00043729131083311134 -0.020741419546746596 0 -0.00081781545302025147 -0.020529202870568728 0 -0.0010090835877059933 -0.020344297493520382 0 -0.0010615352462766433 -0.020340039067853293 0 -0.0015175454025533853 -0.020042899883043298 0 -0.0013315769749845674 -0.020147446907386301 0 -0.0014013216555291495 -0.020014255360403067 0 -0.0012971119771718227 -0.020027579940969358 0 -0.0013315769749845674 -0.020147446907386301 0 -0.0014013216555291495 -0.020014255360403067 0 -0.0013616971767896942 -0.019918233421157013 0 -0.0014790558124179499 -0.019940657032826915 0 -0.0014410722464249679 -0.019871399524693117 0 -0.0012971119771718227 -0.020027579940969358 0 -0.0013616971767896942 -0.019918233421157013 0 -0.0014013216555291495 -0.020014255360403067 0 -0.0015175454025533853 -0.020042899883043298 0 -0.0014013216555291495 -0.020014255360403067 0 -0.0014790558124179499 -0.019940657032826915 0 -0.0013616971767896942 -0.019918233421157013 0 -0.0014013216555291495 -0.020014255360403067 0 -0.0014790558124179499 -0.019940657032826915 0 -0.0015175454025533853 -0.020042899883043298 0 -0.001570324551638621 -0.01991959493619436 0 -0.0014790558124179499 -0.019940657032826915 0 -0.0015175454025533853 -0.020042899883043298 0 -0.001570324551638621 -0.01991959493619436 0 -0.0017053072289811471 -0.019940618264394368 0 -0.001570324551638621 -0.01991959493619436 0 -0.0014790558124179499 -0.019940657032826915 0 -0.0015229852346972576 -0.019832189420457797 0 -0.0015229852346972576 -0.019832189420457797 0 -0.0014025874928086282 -0.019796375558166615 0 -0.0015353102412277646 -0.019716914629038674 0 -0.0014790558124179499 -0.019940657032826915 0 -0.0015229852346972576 -0.019832189420457797 0 -0.0014410722464249679 -0.019871399524693117 0 -0.0015229852346972576 -0.019832189420457797 0 -0.0015755908505226963 -0.019760313965310718 0 -0.0015353102412277646 -0.019716914629038674 0 -0.001570324551638621 -0.01991959493619436 0 -0.0015229852346972576 -0.019832189420457797 0 -0.0016118703319307796 -0.019829571656283219 0 -0.0015229852346972576 -0.019832189420457797 0 -0.0015755908505226963 -0.019760313965310718 0 -0.0016118703319307796 -0.019829571656283219 0 -0.0015229852346972576 -0.019832189420457797 0 -0.0014410722464249679 -0.019871399524693117 0 -0.0014025874928086282 -0.019796375558166615 0 -0.0013616971767896942 -0.019918233421157013 0 -0.0014410722464249679 -0.019871399524693117 0 -0.0014025874928086282 -0.019796375558166615 0 -0.0012837662703693682 -0.019679989420005019 0 -0.0014025874928086282 -0.019796375558166615 0 -0.0014063265897897247 -0.019680701181893596 0 -0.0014063265897897247 -0.019680701181893596 0 -0.0014053965959975479 -0.019525653149393789 0 -0.0015353102412277646 -0.019716914629038674 0 -0.0014025874928086282 -0.019796375558166615 0 -0.0014063265897897247 -0.019680701181893596 0 -0.0015353102412277646 -0.019716914629038674 0 -0.0012837662703693682 -0.019679989420005019 0 -0.0014063265897897247 -0.019680701181893596 0 -0.0014053965959975479 -0.019525653149393789 0 -0.0019815921031003519 -0.019841954529214254 0 -0.0016593961008654998 -0.019692060866421005 0 -0.0016828210650887557 -0.019768749571147225 0 -0.0014053965959975479 -0.019525653149393789 0 -0.0015353102412277646 -0.019716914629038674 0 -0.0016593961008654998 -0.019692060866421005 0 -0.0016784398640563884 -0.019690725145447688 0 -0.0016622119462649464 -0.019686472563182386 0 -0.0015353102412277646 -0.019716914629038674 0 -0.001640582480506278 -0.019668039331008809 0 -0.0016593961008654998 -0.019692060866421005 0 -0.0015755908505226963 -0.019760313965310718 0 -0.0015353102412277646 -0.019716914629038674 0 -0.001640582480506278 -0.019668039331008809 0 -0.0014743435988467139 -0.019643930399009548 0 -0.0014338315037805199 -0.019642186183602299 0 -0.0014056559811536375 -0.019615702076579585 0 -0.0014743435988467139 -0.019643930399009548 0 -0.0014561387711783458 -0.019713786330129116 0 -0.0014338315037805199 -0.019642186183602299 0 -0.001640582480506278 -0.019668039331008809 0 -0.0016593961008654998 -0.019692060866421005 0 -0.0016828210650887557 -0.019768749571147225 0 -0.0014743435988467139 -0.019643930399009548 0 -0.001484598155002328 -0.01971694377607559 0 -0.0016828210650887557 -0.019768749571147225 0 -0.0016238334733884761 -0.01948459266202628 0 -0.0016554268827531019 -0.019847041614669322 0 -0.0014743435988467139 -0.019643930399009548 0 -0.0014561387711783458 -0.019713786330129116 0 -0.001484598155002328 -0.01971694377607559 0 -0.0014561387711783458 -0.019713786330129116 0 -0.001484598155002328 -0.01971694377607559 0 -0.0013219673294483098 -0.01970629205484635 0 -0.0014561387711783458 -0.019713786330129116 0 -0.0012551774857327777 -0.019945049016715542 0 -0.0013627562595246714 -0.020171653246869852 0 -0.0013852124315349836 -0.019898999922332784 0 -0.001456424409581981 -0.019522479262739374 0 -0.00063008141436227258 -0.02237501733993209 0 -0.00056553335884598353 -0.0227019921532896 0 4.4907451065476449e-05 -0.024898162899354568 0 2.3360667802739966e-05 -0.02488727337083111 0 3.1971078883086481e-05 -0.024905294893722143 0 -0.0014561387711783458 -0.019713786330129116 0 -0.0012551774857327777 -0.019945049016715542 0 -0.0013906837796927403 -0.019598704440501491 0 -0.0014561387711783458 -0.019713786330129116 0 -0.0014338315037805199 -0.019642186183602299 0 -0.0013906837796927403 -0.019598704440501491 0 -0.0014338315037805199 -0.019642186183602299 0 -0.0013906837796927403 -0.019598704440501491 0 -0.0014056559811536375 -0.019615702076579585 0 -0.0014074605183968878 -0.019613720104797953 0 -0.0014056559811536375 -0.019615702076579585 0 -0.0014192929229823374 -0.019601440330686223 0 -0.00048467828336937646 -0.024889182491103102 0 -0.00051817107846672205 -0.02460482485244107 0 -0.0002540464632750705 -0.024783931825476769 0 -0.00068937710887266243 -0.022766816562155734 0 4.6990397865894699e-05 -0.02497861679691063 0 -0.00056553335884598353 -0.0227019921532896 0 -0.00068937710887266243 -0.022766816562155734 0 -0.0014042298226000676 -0.019618263212384163 0 -0.0014074605183968878 -0.019613720104797953 0 -0.0014056559811536375 -0.019615702076579585 0 -0.00056553335884598353 -0.0227019921532896 0 -0.00074127977275912228 -0.022554160571295792 0 -0.0014743435988467139 -0.019643930399009548 0 -0.0014056559811536375 -0.019615702076579585 0 -0.0014192929229823374 -0.019601440330686223 0 -0.0016238334733884761 -0.01948459266202628 0 -0.0010677719035751051 -0.020581240727719708 0 -0.001640582480506278 -0.019668039331008809 0 -0.0016118703319307796 -0.019829571656283219 0 -0.0017053072289811471 -0.019940618264394368 0 -0.0015755908505226963 -0.019760313965310718 0 -0.001640582480506278 -0.019668039331008809 0 -0.0016118703319307796 -0.019829571656283219 0 -0.00051933216351459494 -0.021647674119933024 0 -0.0010677719035751051 -0.020581240727719708 0 -0.00046852389848075007 -0.02070788240434419 0 -0.00043729131083311134 -0.020741419546746596 0 -0.00051504071649587199 -0.02063016738477429 0 -0.0010090835877059933 -0.020344297493520382 0 -0.0010677719035751051 -0.020581240727719708 0 -0.00057012402606513148 -0.020738193613630451 0 -0.00046852389848075007 -0.02070788240434419 0 -0.00051504071649587199 -0.02063016738477429 0 -0.001570324551638621 -0.01991959493619436 0 -0.0016118703319307796 -0.019829571656283219 0 -0.0017053072289811471 -0.019940618264394368 0 -0.00068489914367395922 -0.022623927595601983 0 -0.00075222348332630096 -0.021923899119834805 0 -0.00038426582844320646 -0.022132295494056296 0 -9.2328188588650353e-05 -0.024961955824704313 0 -8.388237302782439e-05 -0.02497259279691276 0 -6.1498763775727234e-05 -0.024974149029895348 0 -0.00035827096953121258 -0.024049053823691442 0 -0.00068937710887266243 -0.022766816562155734 0 -0.00068937710887266243 -0.022766816562155734 0 -0.0010677719035751051 -0.020581240727719708 0 -8.388237302782439e-05 -0.02497259279691276 0 -5.6716048651258698e-05 -0.024981168222263851 0 -6.1498763775727234e-05 -0.024974149029895348 0 -5.6716048651258698e-05 -0.024981168222263851 0 -6.1498763775727234e-05 -0.024974149029895348 0 -4.3677346673419289e-05 -0.024983147541086371 0 -6.1498763775727234e-05 -0.024974149029895348 0 -3.0474995047811305e-05 -0.024980649381650247 0 -4.3677346673419289e-05 -0.024983147541086371 0 -3.0474995047811305e-05 -0.024980649381650247 0 -4.3677346673419289e-05 -0.024983147541086371 0 -2.7863551667955682e-05 -0.024986424033028403 0 -4.3677346673419289e-05 -0.024983147541086371 0 -4.9369580642686229e-05 -0.024984406784761912 0 -3.5046812504614597e-05 -0.024986082644793444 0 -4.3677346673419289e-05 -0.024983147541086371 0 -3.5046812504614597e-05 -0.024986082644793444 0 -2.7863551667955682e-05 -0.024986424033028403 0 -4.9369580642686229e-05 -0.024984406784761912 0 -3.5046812504614597e-05 -0.024986082644793444 0 -4.9649109671894367e-05 -0.024980977022246012 0 -8.388237302782439e-05 -0.02497259279691276 0 -5.6716048651258698e-05 -0.024981168222263851 0 -6.0384707826657506e-05 -0.02498679238714431 0 -4.9369580642686229e-05 -0.024984406784761912 0 -6.0384707826657506e-05 -0.02498679238714431 0 -4.9649109671894367e-05 -0.024980977022246012 0 4.6990397865894699e-05 -0.02497861679691063 0 -0.00012744788101899283 -0.024923399273053027 0 -0.00048467828336937646 -0.024889182491103102 0 -0.0002540464632750705 -0.024783931825476769 0 -7.8186503818558189e-05 -0.025021634243275515 0 -5.6716048651258698e-05 -0.024981168222263851 0 -4.9369580642686229e-05 -0.024984406784761912 0 -6.0384707826657506e-05 -0.02498679238714431 0 -5.6716048651258698e-05 -0.024981168222263851 0 -4.3677346673419289e-05 -0.024983147541086371 0 -4.9369580642686229e-05 -0.024984406784761912 0 3.1971078883086481e-05 -0.024905294893722143 0 3.2546105990764989e-05 -0.024910548210790352 0 2.5016394108926492e-05 -0.02492126191694603 0 2.3360667802739966e-05 -0.02488727337083111 0 3.1971078883086481e-05 -0.024905294893722143 0 2.5016394108926492e-05 -0.02492126191694603 0 -0.00056553335884598353 -0.0227019921532896 0 0.00010263235837235446 -0.025215969207479219 0 -0.0002540464632750705 -0.024783931825476769 0 -7.8186503818558189e-05 -0.025021634243275515 0 -4.9649109671894367e-05 -0.024980977022246012 0 4.4907451065476449e-05 -0.024898162899354568 0 3.1971078883086481e-05 -0.024905294893722143 0 3.2546105990764989e-05 -0.024910548210790352 0 4.4907451065476449e-05 -0.024898162899354568 0 3.2546105990764989e-05 -0.024910548210790352 0 4.859027414936063e-05 -0.024890403231783497 0 1.3561974113520323e-05 -0.024927300461756483 0 -2.4892479581666151e-06 -0.02492947744598158 0 2.295102589111394e-05 -0.024899678836553071 0 1.3561974113520323e-05 -0.024927300461756483 0 -3.0645970431171839e-06 -0.024950783568521821 0 -2.4892479581666151e-06 -0.02492947744598158 0 3.2546105990764989e-05 -0.024910548210790352 0 1.3561974113520323e-05 -0.024927300461756483 0 2.5016394108926492e-05 -0.02492126191694603 0 3.2546105990764989e-05 -0.024910548210790352 0 1.3561974113520323e-05 -0.024927300461756483 0 2.295102589111394e-05 -0.024899678836553071 0 -3.5046812504614597e-05 -0.024986082644793444 0 -4.9649109671894367e-05 -0.024980977022246012 0 -9.5473014119561259e-06 -0.02500845924220255 0 1.3561974113520323e-05 -0.024927300461756483 0 2.5016394108926492e-05 -0.02492126191694603 0 -3.0645970431171839e-06 -0.024950783568521821 0 -7.8186503818558189e-05 -0.025021634243275515 0 -4.9649109671894367e-05 -0.024980977022246012 0 -9.5473014119561259e-06 -0.02500845924220255 0 0.00010263235837235446 -0.025215969207479219 0 -4.3907033767817093e-05 -0.024949744007508864 0 -3.0645970431171839e-06 -0.024950783568521821 0 -1.278424907998562e-05 -0.02495361282232007 0 -2.4892479581666151e-06 -0.02492947744598158 0 -4.3907033767817093e-05 -0.024949744007508864 0 4.444388897551714e-08 -0.025000013019651726 0 -3.0645970431171839e-06 -0.024950783568521821 0 -1.1309840071895134e-08 -0.024999909776399817 0 -1.278424907998562e-05 -0.02495361282232007 0 -9.5473014119561259e-06 -0.02500845924220255 0 -4.8820915287216015e-09 -0.025000021459442068 0 -2.2642039704676617e-09 -0.024999991578720463 0 -9.5473014119561259e-06 -0.02500845924220255 0 -2.2642039704676617e-09 -0.024999991578720463 0 -1.5978393751835369e-05 -0.024992565683639216 0 -2.2642039704676617e-09 -0.024999991578720463 0 -1.5978393751835369e-05 -0.024992565683639216 0 -1.2122595009817703e-05 -0.024990840990859773 0 -3.5046812504614597e-05 -0.024986082644793444 0 -9.5473014119561259e-06 -0.02500845924220255 0 -1.5978393751835369e-05 -0.024992565683639216 0 -3.5046812504614597e-05 -0.024986082644793444 0 -1.5978393751835369e-05 -0.024992565683639216 0 -2.7863551667955682e-05 -0.024986424033028403 0 -1.5978393751835369e-05 -0.024992565683639216 0 -1.2122595009817703e-05 -0.024990840990859773 0 -2.7863551667955682e-05 -0.024986424033028403 0 -3.0474995047811305e-05 -0.024980649381650247 0 -1.2122595009817703e-05 -0.024990840990859773 0 -2.7863551667955682e-05 -0.024986424033028403 0 -1.1661070057338926e-08 -0.024999985265746934 0 -2.2642039704676617e-09 -0.024999991578720463 0 -1.2122595009817703e-05 -0.024990840990859773 0 -4.3071300584330634e-05 -0.024785538953476943 0 -7.4236255574091723e-08 -0.02499978371743174 0 1.3702031918833565e-09 -0.024999692134958635 0 -4.3071300584330634e-05 -0.024785538953476943 0 -3.3540502851633719e-05 -0.024904028171736387 0 -4.4009747168134605e-05 -0.024751502480520684 0 -4.3071300584330634e-05 -0.024785538953476943 0 -7.4236255574091723e-08 -0.02499978371743174 0 -3.3540502851633719e-05 -0.024904028171736387 0 -7.4236255574091723e-08 -0.02499978371743174 0 -2.0470513874513868e-08 -0.024999921751690989 0 -3.3540502851633719e-05 -0.024904028171736387 0 -2.0470513874513868e-08 -0.024999921751690989 0 -1.278424907998562e-05 -0.02495361282232007 0 -3.3540502851633719e-05 -0.024904028171736387 0 -1.1309840071895134e-08 -0.024999909776399817 0 -2.0470513874513868e-08 -0.024999921751690989 0 -1.278424907998562e-05 -0.02495361282232007 0 -1.278424907998562e-05 -0.02495361282232007 0 -1.848499700379002e-05 -0.02488661285811479 0 -2.4892479581666151e-06 -0.02492947744598158 0 -3.3540502851633719e-05 -0.024904028171736387 0 -1.848499700379002e-05 -0.02488661285811479 0 -4.4009747168134605e-05 -0.024751502480520684 0 -1.278424907998562e-05 -0.02495361282232007 0 -3.3540502851633719e-05 -0.024904028171736387 0 -1.848499700379002e-05 -0.02488661285811479 0 -1.848499700379002e-05 -0.02488661285811479 0 2.295102589111394e-05 -0.024899678836553071 0 3.0419085047427066e-05 -0.024831030480894911 0 -1.848499700379002e-05 -0.02488661285811479 0 3.0419085047427066e-05 -0.024831030480894911 0 -4.4009747168134605e-05 -0.024751502480520684 0 -1.848499700379002e-05 -0.02488661285811479 0 -2.4892479581666151e-06 -0.02492947744598158 0 2.295102589111394e-05 -0.024899678836553071 0 4.859027414936063e-05 -0.024890403231783497 0 2.295102589111394e-05 -0.024899678836553071 0 9.8561532121931391e-05 -0.024838125967635898 0 3.2546105990764989e-05 -0.024910548210790352 0 4.859027414936063e-05 -0.024890403231783497 0 2.295102589111394e-05 -0.024899678836553071 0 2.295102589111394e-05 -0.024899678836553071 0 3.0419085047427066e-05 -0.024831030480894911 0 9.8561532121931391e-05 -0.024838125967635898 0 0.00028594401919382188 -0.025126270312512966 0 -0.00042431779324794569 -0.022612804037775061 0 3.0419085047427066e-05 -0.024831030480894911 0 0.00012588087561315599 -0.024727603832408421 0 9.8561532121931391e-05 -0.024838125967635898 0 0.00021225170813151618 -0.024735284604863662 0 0.00027754542040115532 -0.024642468289352952 0 0.00023806403415852176 -0.024918157989637247 0 0.00012588087561315599 -0.024727603832408421 0 -1.8844704372332248e-05 -0.024620872618112952 0 1.9302866179685038e-05 -0.024742807061078551 0 3.0419085047427066e-05 -0.024831030480894911 0 0.00012588087561315599 -0.024727603832408421 0 1.9302866179685038e-05 -0.024742807061078551 0 3.0419085047427066e-05 -0.024831030480894911 0 1.9302866179685038e-05 -0.024742807061078551 0 -4.4009747168134605e-05 -0.024751502480520684 0 -1.8844704372332248e-05 -0.024620872618112952 0 1.9302866179685038e-05 -0.024742807061078551 0 -4.4009747168134605e-05 -0.024751502480520684 0 -1.8844704372332248e-05 -0.024620872618112952 0 -5.9505245906144494e-05 -0.024560021590107946 0 -1.204063676853392e-05 -0.024354279693795017 0 -4.3071300584330634e-05 -0.024785538953476943 0 -4.4009747168134605e-05 -0.024751502480520684 0 -5.9505245906144494e-05 -0.024560021590107946 0 -1.8844704372332248e-05 -0.024620872618112952 0 -4.4009747168134605e-05 -0.024751502480520684 0 -5.9505245906144494e-05 -0.024560021590107946 0 -5.9505245906144494e-05 -0.024560021590107946 0 -1.204063676853392e-05 -0.024354279693795017 0 -4.7251615944325308e-05 -0.024272662377430892 0 0.00021225170813151618 -0.024735284604863662 0 -1.204063676853392e-05 -0.024354279693795017 0 0.00027754542040115532 -0.024642468289352952 0 0.00028594401919382188 -0.025126270312512966 0 -3.3826022624922638e-05 -0.024244636389384469 0 0.00012588087561315599 -0.024727603832408421 0 -1.8844704372332248e-05 -0.024620872618112952 0 -1.204063676853392e-05 -0.024354279693795017 0 1.1064285258460539e-05 -0.022868056949817649 0 3.0518552328149161e-05 -0.023719255106200512 0 -1.204063676853392e-05 -0.024354279693795017 0 0.00027754542040115532 -0.024642468289352952 0 -1.7627840766034533e-06 -0.023780700317454131 0 -0.00061237508702547013 -0.022072131689897079 0 -0.0010847335948261411 -0.022389488107331539 0 -1.7627840766034533e-06 -0.023780700317454131 0 -0.00061237508702547013 -0.022072131689897079 0 -0.00017437753196052687 -0.021046426399844036 0 -1.7627840766034533e-06 -0.023780700317454131 0 -0.00061237508702547013 -0.022072131689897079 0 -0.0010847335948261411 -0.022389488107331539 0 -0.0010920001831713757 -0.021135724065903076 0 -0.00061237508702547013 -0.022072131689897079 0 -0.0010920001831713757 -0.021135724065903076 0 -0.00017437753196052687 -0.021046426399844036 0 -0.0010847335948261411 -0.022389488107331539 0 -0.0022155599063708536 -0.020797035131904434 0 -0.0017866674246682002 -0.023028555012697464 0 -0.0010847335948261411 -0.022389488107331539 0 -0.0010920001831713757 -0.021135724065903076 0 -0.0022155599063708536 -0.020797035131904434 0 -0.0013814490251630766 -0.020363151540761612 0 -0.0018522869207900454 -0.020106022735855104 0 -0.0022155599063708536 -0.020797035131904434 0 -0.0013814490251630766 -0.020363151540761612 0 -0.0010920001831713757 -0.021135724065903076 0 -0.0022155599063708536 -0.020797035131904434 0 -0.0013814490251630766 -0.020363151540761612 0 -0.00086850765053721722 -0.020592609207518049 0 -0.0010920001831713757 -0.021135724065903076 0 -0.00086850765053721722 -0.020592609207518049 0 -0.00017437753196052687 -0.021046426399844036 0 -0.00088416678740303376 -0.019980945264180927 0 1.1064285258460539e-05 -0.022868056949817649 0 -0.00042431779324794569 -0.022612804037775061 0 -0.00086850765053721722 -0.020592609207518049 0 -0.0010920001831713757 -0.021135724065903076 0 -0.00017437753196052687 -0.021046426399844036 0 -0.0013814490251630766 -0.020363151540761612 0 -0.00088416678740303376 -0.019980945264180927 0 -0.0014602036571996137 -0.019910476018480557 0 -0.0013814490251630766 -0.020363151540761612 0 -0.00086850765053721722 -0.020592609207518049 0 -0.00088416678740303376 -0.019980945264180927 0 -0.00042431779324794569 -0.022612804037775061 0 -0.001456424409581981 -0.019522479262739374 0 4.4907451065476449e-05 -0.024898162899354568 0 4.859027414936063e-05 -0.024890403231783497 0 9.8561532121931391e-05 -0.024838125967635898 0 -0.0012551774857327777 -0.019945049016715542 0 -0.001103064950655186 -0.020802923239949478 0 -0.0013627562595246714 -0.020171653246869852 0 -0.00088416678740303376 -0.019980945264180927 0 -0.0013219673294483098 -0.01970629205484635 0 -0.0014602036571996137 -0.019910476018480557 0 -0.00063008141436227258 -0.02237501733993209 0 -0.00042431779324794569 -0.022612804037775061 0 -0.001484598155002328 -0.01971694377607559 0 -0.0013219673294483098 -0.01970629205484635 0 -0.0014848833358197199 -0.019765476556829979 0 -0.0013219673294483098 -0.01970629205484635 0 -0.0014848833358197199 -0.019765476556829979 0 -0.0014602036571996137 -0.019910476018480557 0 -0.001484598155002328 -0.01971694377607559 0 -0.0016828210650887557 -0.019768749571147225 0 -0.0014848833358197199 -0.019765476556829979 0 -0.0016828210650887557 -0.019768749571147225 0 -0.0014848833358197199 -0.019765476556829979 0 -0.0014602036571996137 -0.019910476018480557 0 -0.0016828210650887557 -0.019768749571147225 0 -0.0014602036571996137 -0.019910476018480557 0 -0.0018522869207900454 -0.020106022735855104 0 -0.0013814490251630766 -0.020363151540761612 0 -0.0014602036571996137 -0.019910476018480557 0 -0.0018522869207900454 -0.020106022735855104 0 -0.0018522869207900454 -0.020106022735855104 0 -0.0020480728215936665 -0.020030366962796281 0 -0.002171162108228254 -0.020250926327414261 0 -0.0018522869207900454 -0.020106022735855104 0 -0.0019492265661109911 -0.019906266567989866 0 -0.0020480728215936665 -0.020030366962796281 0 -0.0016828210650887557 -0.019768749571147225 0 -0.0018522869207900454 -0.020106022735855104 0 -0.0019492265661109911 -0.019906266567989866 0 -0.0019815921031003519 -0.019841954529214254 0 -0.0016828210650887557 -0.019768749571147225 0 -0.0019492265661109911 -0.019906266567989866 0 -0.0019815921031003519 -0.019841954529214254 0 -0.0019492265661109911 -0.019906266567989866 0 -0.0019763095875391344 -0.019895355867568659 0 -0.0019492265661109911 -0.019906266567989866 0 -0.0020480728215936665 -0.020030366962796281 0 -0.0019763095875391344 -0.019895355867568659 0 -0.0020480728215936665 -0.020030366962796281 0 -0.0020835688197557638 -0.019974255993643608 0 -0.0019763095875391344 -0.019895355867568659 0 -0.0020835688197557638 -0.019974255993643608 0 -0.002171162108228254 -0.020250926327414261 0 -0.0022634941374722597 -0.020059276285976917 0 -0.0020480728215936665 -0.020030366962796281 0 -0.0020835688197557638 -0.019974255993643608 0 -0.002171162108228254 -0.020250926327414261 0 -0.0018522869207900454 -0.020106022735855104 0 -0.002171162108228254 -0.020250926327414261 0 -0.0022155599063708536 -0.020797035131904434 0 -0.0022155599063708536 -0.020797035131904434 0 -0.0022634941374722597 -0.020059276285976917 0 -0.0022824292941509817 -0.020144491674803901 0 -0.0022155599063708536 -0.020797035131904434 0 -0.0032085235780004327 -0.022883942548403643 0 -0.0017866674246682002 -0.023028555012697464 0 -0.0023933174402064449 -0.020963835499589682 0 -0.0021251285695064234 -0.021260347233859282 0 -0.002171162108228254 -0.020250926327414261 0 -0.0022155599063708536 -0.020797035131904434 0 -0.0022634941374722597 -0.020059276285976917 0 -0.0025808674577528163 -0.01968081018276405 0 -0.0021251285695064234 -0.021260347233859282 0 -0.0022634941374722597 -0.020059276285976917 0 -0.0019885705486462212 -0.01942634397163668 0 -0.0020036866958094866 -0.019720624710969588 0 -0.0020835688197557638 -0.019974255993643608 0 -0.0022634941374722597 -0.020059276285976917 0 -0.0020036866958094866 -0.019720624710969588 0 -0.0022634941374722597 -0.020059276285976917 0 -0.002193376447116703 -0.019195070210267853 0 -0.0019885705486462212 -0.01942634397163668 0 -0.0022634941374722597 -0.020059276285976917 0 -0.002193376447116703 -0.019195070210267853 0 -0.0027647600812864175 -0.019396250300204788 0 -0.002193376447116703 -0.019195070210267853 0 -0.0027647600812864175 -0.019396250300204788 0 -0.0024107218036691458 -0.018647418764797728 0 -0.0021251285695064234 -0.021260347233859282 0 -0.0013433985847439388 -0.023842244951470661 0 -0.0015187107699171428 -0.022852546398705625 0 -0.0012477182288887056 -0.023153228379660957 0 -0.0010015189456100495 -0.022840061861527403 0 -0.0021251285695064234 -0.021260347233859282 0 -0.0019378157759716483 -0.020690110188569723 0 -0.0012987511807492982 -0.022375910199211983 0 -0.0015187107699171428 -0.022852546398705625 0 -0.0010015189456100495 -0.022840061861527403 0 -0.0024107218036691458 -0.018647418764797728 0 -0.002083190669408918 -0.018804440365752399 0 -0.0019936653498238447 -0.018446623756534854 0 -0.002193376447116703 -0.019195070210267853 0 -0.0024107218036691458 -0.018647418764797728 0 -0.002083190669408918 -0.018804440365752399 0 -0.0019378157759716483 -0.020690110188569723 0 -0.0019028887634640087 -0.020720077452554875 0 -0.0024107218036691458 -0.018647418764797728 0 -0.0021246161434628555 -0.018191098094076846 0 -0.0019936653498238447 -0.018446623756534854 0 -0.0015187107699171428 -0.022852546398705625 0 -0.0017099113893044922 -0.0233167015249106 0 -0.0012477182288887056 -0.023153228379660957 0 -0.0015510541653299557 -0.023687478098376114 0 -0.0017099113893044922 -0.0233167015249106 0 -0.0012363391687111387 -0.023547415583551362 0 -0.0017099113893044922 -0.0233167015249106 0 -0.0012363391687111387 -0.023547415583551362 0 -0.0012477182288887056 -0.023153228379660957 0 -0.00081982543898291528 -0.025046998824544718 0 -0.00064542464890802878 -0.024383145431527593 0 -0.0017637919764747919 -0.024443115280397359 0 -0.0012477182288887056 -0.023153228379660957 0 -0.00072553011128085481 -0.023282088320844496 0 -0.0010015189456100495 -0.022840061861527403 0 -0.00081823718648083325 -0.024101778680480333 0 -0.0013433985847439388 -0.023842244951470661 0 -0.0008910309335967134 -0.023808227559308417 0 -0.0012363391687111387 -0.023547415583551362 0 -0.00072553011128085481 -0.023282088320844496 0 -0.0012363391687111387 -0.023547415583551362 0 -0.0012477182288887056 -0.023153228379660957 0 -0.00072553011128085481 -0.023282088320844496 0 -0.00045222286290085982 -0.024497115651618762 0 -0.00081823718648083325 -0.024101778680480333 0 -0.0008910309335967134 -0.023808227559308417 0 -0.00042482927055794892 -0.023734309250716259 0 -0.00072553011128085481 -0.023282088320844496 0 -0.00081982543898291528 -0.025046998824544718 0 -0.00064542464890802878 -0.024383145431527593 0 -0.00030638176711876488 -0.024721196764298299 0 -0.00064542464890802878 -0.024383145431527593 0 -0.0017637919764747919 -0.024443115280397359 0 -0.00084368964841914607 -0.02352521908152513 0 -0.0032085235780004327 -0.022883942548403643 0 -0.0017637919764747919 -0.024443115280397359 0 -0.0017866674246682002 -0.023028555012697464 0 -0.0017637919764747919 -0.024443115280397359 0 -0.0017866674246682002 -0.023028555012697464 0 -0.00084368964841914607 -0.02352521908152513 0 -0.0010847335948261411 -0.022389488107331539 0 -0.0017866674246682002 -0.023028555012697464 0 -0.00084368964841914607 -0.02352521908152513 0 -0.00064542464890802878 -0.024383145431527593 0 -0.00084368964841914607 -0.02352521908152513 0 -1.7627840766034533e-06 -0.023780700317454131 0 -0.0010847335948261411 -0.022389488107331539 0 -0.00084368964841914607 -0.02352521908152513 0 -1.7627840766034533e-06 -0.023780700317454131 0 -1.7627840766034533e-06 -0.023780700317454131 0 -4.7251615944325308e-05 -0.024272662377430892 0 -7.1412568880448892e-05 -0.024378520527570138 0 -1.204063676853392e-05 -0.024354279693795017 0 -1.7627840766034533e-06 -0.023780700317454131 0 -4.7251615944325308e-05 -0.024272662377430892 0 -4.7251615944325308e-05 -0.024272662377430892 0 -2.4307421868153535e-05 -0.024607104971449734 0 -7.1412568880448892e-05 -0.024378520527570138 0 -5.9505245906144494e-05 -0.024560021590107946 0 -4.7251615944325308e-05 -0.024272662377430892 0 -2.4307421868153535e-05 -0.024607104971449734 0 -2.4307421868153535e-05 -0.024607104971449734 0 -7.1412568880448892e-05 -0.024378520527570138 0 -3.7050279813081728e-05 -0.024731448298641309 0 -0.00064542464890802878 -0.024383145431527593 0 -7.1412568880448892e-05 -0.024378520527570138 0 -0.00030638176711876488 -0.024721196764298299 0 -7.1412568880448892e-05 -0.024378520527570138 0 -0.00030638176711876488 -0.024721196764298299 0 -3.7050279813081728e-05 -0.024731448298641309 0 -0.00064542464890802878 -0.024383145431527593 0 -1.7627840766034533e-06 -0.023780700317454131 0 -7.1412568880448892e-05 -0.024378520527570138 0 -0.00081982543898291528 -0.025046998824544718 0 -0.00030638176711876488 -0.024721196764298299 0 -0.00018888089153973358 -0.02502279395598148 0 -0.00047883440052934469 -0.025206606150041205 0 -0.00081982543898291528 -0.025046998824544718 0 -0.00018888089153973358 -0.02502279395598148 0 -0.00030638176711876488 -0.024721196764298299 0 -0.00018888089153973358 -0.02502279395598148 0 -3.7050279813081728e-05 -0.024731448298641309 0 -0.00018888089153973358 -0.02502279395598148 0 -3.7050279813081728e-05 -0.024731448298641309 0 1.1431978727530464e-05 -0.024938781965191656 0 -3.7050279813081728e-05 -0.024731448298641309 0 1.1431978727530464e-05 -0.024938781965191656 0 6.7714342530036199e-06 -0.024851836316963579 0 -2.6236149737262283e-05 -0.02516087307361926 0 -0.00018888089153973358 -0.02502279395598148 0 1.1431978727530464e-05 -0.024938781965191656 0 -2.6236149737262283e-05 -0.02516087307361926 0 1.1431978727530464e-05 -0.024938781965191656 0 1.5529643697266494e-07 -0.02500012157201666 0 1.1431978727530464e-05 -0.024938781965191656 0 1.7804843861413326e-08 -0.024999777832598599 0 6.7714342530036199e-06 -0.024851836316963579 0 1.1431978727530464e-05 -0.024938781965191656 0 1.5529643697266494e-07 -0.02500012157201666 0 1.7804843861413326e-08 -0.024999777832598599 0 1.7804843861413326e-08 -0.024999777832598599 0 6.7714342530036199e-06 -0.024851836316963579 0 1.3702031918833565e-09 -0.024999692134958635 0 -2.4307421868153535e-05 -0.024607104971449734 0 -3.7050279813081728e-05 -0.024731448298641309 0 6.7714342530036199e-06 -0.024851836316963579 0 -4.3071300584330634e-05 -0.024785538953476943 0 -5.9505245906144494e-05 -0.024560021590107946 0 -2.4307421868153535e-05 -0.024607104971449734 0 -4.3071300584330634e-05 -0.024785538953476943 0 -2.4307421868153535e-05 -0.024607104971449734 0 6.7714342530036199e-06 -0.024851836316963579 0 -4.3071300584330634e-05 -0.024785538953476943 0 6.7714342530036199e-06 -0.024851836316963579 0 1.3702031918833565e-09 -0.024999692134958635 0 -0.00091719514902434396 -0.01915744008367579 0 -0.00082701693202117408 -0.018890774850587582 0 -0.0007841883361841813 -0.019151124748885244 0 -0.00091719514902434396 -0.01915744008367579 0 -0.00099050125772625437 -0.01900660538434918 0 -0.00082701693202117408 -0.018890774850587582 0 -0.00091719514902434396 -0.01915744008367579 0 -0.00099050125772625437 -0.01900660538434918 0 -0.0010235355389065328 -0.019278877964154884 0 -0.00099050125772625437 -0.01900660538434918 0 -0.0010235355389065328 -0.019278877964154884 0 -0.0011585287174693292 -0.019102667396450421 0 -0.00099050125772625437 -0.01900660538434918 0 -0.0011585287174693292 -0.019102667396450421 0 -0.0010582685670248548 -0.018701951657231833 0 -0.00099050125772625437 -0.01900660538434918 0 -0.00082701693202117408 -0.018890774850587582 0 -0.0010582685670248548 -0.018701951657231833 0 -0.00082701693202117408 -0.018890774850587582 0 -0.0005537325145721821 -0.01909202350471954 0 -0.00060591043007599866 -0.018587548158388197 0 -0.0005537325145721821 -0.01909202350471954 0 -0.00024626718865110238 -0.018517516669429752 0 -0.00060591043007599866 -0.018587548158388197 0 -0.00082701693202117408 -0.018890774850587582 0 -0.0005537325145721821 -0.01909202350471954 0 -0.0007841883361841813 -0.019151124748885244 0 -0.0005537325145721821 -0.01909202350471954 0 -0.0007841883361841813 -0.019151124748885244 0 -0.00074100826990458819 -0.019208450910837473 0 -0.0007841883361841813 -0.019151124748885244 0 -0.00074100826990458819 -0.019208450910837473 0 -0.00089197583433199199 -0.019309512203313006 0 -0.00074100826990458819 -0.019208450910837473 0 -0.00074770742904813254 -0.019188548097097469 0 -0.00065354843896481426 -0.019116242644007048 0 -0.0005537325145721821 -0.01909202350471954 0 -0.00074100826990458819 -0.019208450910837473 0 -0.00065354843896481426 -0.019116242644007048 0 -0.00082028753693750645 -0.019255640387874202 0 -0.00074100826990458819 -0.019208450910837473 0 -0.00074770742904813254 -0.019188548097097469 0 -0.00082028753693750645 -0.019255640387874202 0 -0.00074100826990458819 -0.019208450910837473 0 -0.00089197583433199199 -0.019309512203313006 0 -0.00086170595461351025 -0.019301564847315589 0 -0.00082028753693750645 -0.019255640387874202 0 -0.00089197583433199199 -0.019309512203313006 0 -0.00091719514902434396 -0.01915744008367579 0 -0.0007841883361841813 -0.019151124748885244 0 -0.00089197583433199199 -0.019309512203313006 0 -0.00089197583433199199 -0.019309512203313006 0 -0.0010235355389065328 -0.019278877964154884 0 -0.001034907416395557 -0.019412653704157009 0 -0.00091719514902434396 -0.01915744008367579 0 -0.00089197583433199199 -0.019309512203313006 0 -0.0010235355389065328 -0.019278877964154884 0 -0.00093971853728753931 -0.019377195670845164 0 -0.00086170595461351025 -0.019301564847315589 0 -0.00089197583433199199 -0.019309512203313006 0 -0.00093971853728753931 -0.019377195670845164 0 -0.00089197583433199199 -0.019309512203313006 0 -0.001034907416395557 -0.019412653704157009 0 -0.0010386804802040705 -0.019467052454947505 0 -0.001034907416395557 -0.019412653704157009 0 -0.0011318957287226885 -0.019519822617272687 0 -0.00093971853728753931 -0.019377195670845164 0 -0.0010386804802040705 -0.019467052454947505 0 -0.001034907416395557 -0.019412653704157009 0 -0.0010386804802040705 -0.019467052454947505 0 -0.0011318957287226885 -0.019519822617272687 0 -0.0011388247873231141 -0.019444094751376283 0 -0.0011597585825150086 -0.019543201746556459 0 -0.0014677213867130647 -0.019687822747971921 0 -0.0012983184058925604 -0.019426609390342308 0 -0.0011318957287226885 -0.019519822617272687 0 -0.0015536707765147176 -0.019591984660930678 0 -0.0011318957287226885 -0.019519822617272687 0 -0.001797187714309659 -0.019963184182900037 0 -0.0015536707765147176 -0.019591984660930678 0 -0.0012983184058925604 -0.019426609390342308 0 -0.0011514584896765759 -0.019352287186256669 0 -0.0011318957287226885 -0.019519822617272687 0 -0.0010235355389065328 -0.019278877964154884 0 -0.0011514584896765759 -0.019352287186256669 0 -0.001034907416395557 -0.019412653704157009 0 -0.0011514584896765759 -0.019352287186256669 0 -0.001034907416395557 -0.019412653704157009 0 -0.0011318957287226885 -0.019519822617272687 0 -0.0016784398640563884 -0.019690725145447688 0 -0.0014677213867130647 -0.019687822747971921 0 -0.0019815921031003519 -0.019841954529214254 0 -0.001797187714309659 -0.019963184182900037 0 -0.0019763095875391344 -0.019895355867568659 0 -0.001797187714309659 -0.019963184182900037 0 -0.0015536707765147176 -0.019591984660930678 0 -0.0018008027283648214 -0.019770470986431664 0 -0.0015536707765147176 -0.019591984660930678 0 -0.0018008027283648214 -0.019770470986431664 0 -0.0018400255356734816 -0.019676801743710181 0 -0.001797187714309659 -0.019963184182900037 0 -0.0018008027283648214 -0.019770470986431664 0 -0.0019763095875391344 -0.019895355867568659 0 -0.0018008027283648214 -0.019770470986431664 0 -0.0019763095875391344 -0.019895355867568659 0 -0.0018400255356734816 -0.019676801743710181 0 -0.0020835688197557638 -0.019974255993643608 0 -0.0019763095875391344 -0.019895355867568659 0 -0.0018400255356734816 -0.019676801743710181 0 -0.0020835688197557638 -0.019974255993643608 0 -0.0018400255356734816 -0.019676801743710181 0 -0.0020036866958094866 -0.019720624710969588 0 -0.0015536707765147176 -0.019591984660930678 0 -0.0018400255356734816 -0.019676801743710181 0 -0.0015420173282607761 -0.01935140327068292 0 -0.0018400255356734816 -0.019676801743710181 0 -0.001780075469292764 -0.019384876417102896 0 -0.0015420173282607761 -0.01935140327068292 0 -0.0015683405420268829 -0.01919487664683071 0 -0.001780075469292764 -0.019384876417102896 0 -0.0015420173282607761 -0.01935140327068292 0 -0.0015683405420268829 -0.01919487664683071 0 -0.001780075469292764 -0.019384876417102896 0 -0.0016514637302915969 -0.019073082006442959 0 -0.0015683405420268829 -0.01919487664683071 0 -0.0014975257670202648 -0.019029216624900331 0 -0.0016514637302915969 -0.019073082006442959 0 -0.0018400255356734816 -0.019676801743710181 0 -0.001780075469292764 -0.019384876417102896 0 -0.0020036866958094866 -0.019720624710969588 0 -0.001780075469292764 -0.019384876417102896 0 -0.0019885705486462212 -0.01942634397163668 0 -0.0020036866958094866 -0.019720624710969588 0 -0.0010235355389065328 -0.019278877964154884 0 -0.0011514584896765759 -0.019352287186256669 0 -0.0011585287174693292 -0.019102667396450421 0 -0.0011514584896765759 -0.019352287186256669 0 -0.0012696794297069646 -0.01924232704892161 0 -0.0011585287174693292 -0.019102667396450421 0 -0.0012983184058925604 -0.019426609390342308 0 -0.0011514584896765759 -0.019352287186256669 0 -0.0012696794297069646 -0.01924232704892161 0 -0.0012983184058925604 -0.019426609390342308 0 -0.0012696794297069646 -0.01924232704892161 0 -0.0015420173282607761 -0.01935140327068292 0 -0.0012983184058925604 -0.019426609390342308 0 -0.0015536707765147176 -0.019591984660930678 0 -0.0015420173282607761 -0.01935140327068292 0 -0.0012696794297069646 -0.01924232704892161 0 -0.0015420173282607761 -0.01935140327068292 0 -0.001386045911279433 -0.019125234288531492 0 -0.0015683405420268829 -0.01919487664683071 0 -0.0015420173282607761 -0.01935140327068292 0 -0.001386045911279433 -0.019125234288531492 0 -0.0015683405420268829 -0.01919487664683071 0 -0.001386045911279433 -0.019125234288531492 0 -0.0014975257670202648 -0.019029216624900331 0 -0.001386045911279433 -0.019125234288531492 0 -0.0013788080988086401 -0.018870192511827106 0 -0.0014975257670202648 -0.019029216624900331 0 -0.001386045911279433 -0.019125234288531492 0 -0.0011585287174693292 -0.019102667396450421 0 -0.0012471959811247778 -0.018899276761547602 0 -0.001386045911279433 -0.019125234288531492 0 -0.0012471959811247778 -0.018899276761547602 0 -0.0013788080988086401 -0.018870192511827106 0 -0.0012696794297069646 -0.01924232704892161 0 -0.001386045911279433 -0.019125234288531492 0 -0.0011585287174693292 -0.019102667396450421 0 -0.0011585287174693292 -0.019102667396450421 0 -0.0012471959811247778 -0.018899276761547602 0 -0.0010582685670248548 -0.018701951657231833 0 -0.0012599925587755904 -0.01867967066372243 0 -0.0012471959811247778 -0.018899276761547602 0 -0.0010582685670248548 -0.018701951657231833 0 -0.0012599925587755904 -0.01867967066372243 0 -0.0013788080988086401 -0.018870192511827106 0 -0.0014156244821780417 -0.018664373475315597 0 -0.0012599925587755904 -0.01867967066372243 0 -0.0012471959811247778 -0.018899276761547602 0 -0.0013788080988086401 -0.018870192511827106 0 -0.0013788080988086401 -0.018870192511827106 0 -0.0014975257670202648 -0.019029216624900331 0 -0.0015223876816512932 -0.018862102843236316 0 -0.0014975257670202648 -0.019029216624900331 0 -0.0015223876816512932 -0.018862102843236316 0 -0.0016514637302915969 -0.019073082006442959 0 -0.0015223876816512932 -0.018862102843236316 0 -0.0015437858117813947 -0.018696211744322809 0 -0.0016662918953115474 -0.018840124522394756 0 -0.0015223876816512932 -0.018862102843236316 0 -0.0014156244821780417 -0.018664373475315597 0 -0.0015437858117813947 -0.018696211744322809 0 -0.0013788080988086401 -0.018870192511827106 0 -0.0015223876816512932 -0.018862102843236316 0 -0.0014156244821780417 -0.018664373475315597 0 -0.0014156244821780417 -0.018664373475315597 0 -0.0014766474419412535 -0.018434146314217713 0 -0.0013152442156575638 -0.01847676000532433 0 -0.0014156244821780417 -0.018664373475315597 0 -0.0015437858117813947 -0.018696211744322809 0 -0.0014766474419412535 -0.018434146314217713 0 -0.0015437858117813947 -0.018696211744322809 0 -0.0014766474419412535 -0.018434146314217713 0 -0.0016210224899858273 -0.018540048071762863 0 -0.0014766474419412535 -0.018434146314217713 0 -0.0016210224899858273 -0.018540048071762863 0 -0.0015508534044997447 -0.01830530294944489 0 -0.0014766474419412535 -0.018434146314217713 0 -0.0013152442156575638 -0.01847676000532433 0 -0.0013543246602129996 -0.018290582265814787 0 -0.0013152442156575638 -0.01847676000532433 0 -0.0012343168256389119 -0.018295883534574019 0 -0.0013543246602129996 -0.018290582265814787 0 -0.0013152442156575638 -0.01847676000532433 0 -0.0012343168256389119 -0.018295883534574019 0 -0.0011662799971234102 -0.018456404022851099 0 -0.0012599925587755904 -0.01867967066372243 0 -0.0013152442156575638 -0.01847676000532433 0 -0.0011662799971234102 -0.018456404022851099 0 -0.0012599925587755904 -0.01867967066372243 0 -0.0014156244821780417 -0.018664373475315597 0 -0.0013152442156575638 -0.01847676000532433 0 -0.002193376447116703 -0.019195070210267853 0 -0.0019885705486462212 -0.01942634397163668 0 -0.0018727009616232788 -0.019067053623789659 0 -0.002193376447116703 -0.019195070210267853 0 -0.0018727009616232788 -0.019067053623789659 0 -0.002083190669408918 -0.018804440365752399 0 -0.001780075469292764 -0.019384876417102896 0 -0.0019885705486462212 -0.01942634397163668 0 -0.0018727009616232788 -0.019067053623789659 0 -0.001780075469292764 -0.019384876417102896 0 -0.0018727009616232788 -0.019067053623789659 0 -0.0016514637302915969 -0.019073082006442959 0 -0.0018727009616232788 -0.019067053623789659 0 -0.0016514637302915969 -0.019073082006442959 0 -0.0016662918953115474 -0.018840124522394756 0 -0.0015223876816512932 -0.018862102843236316 0 -0.0016514637302915969 -0.019073082006442959 0 -0.0016662918953115474 -0.018840124522394756 0 -0.0017902765346838694 -0.018663856590495975 0 -0.0019936653498238447 -0.018446623756534854 0 -0.0017066076335917465 -0.018354602317610044 0 -0.0016662918953115474 -0.018840124522394756 0 -0.0016210224899858273 -0.018540048071762863 0 -0.0017902765346838694 -0.018663856590495975 0 -0.0015437858117813947 -0.018696211744322809 0 -0.0016662918953115474 -0.018840124522394756 0 -0.0016210224899858273 -0.018540048071762863 0 -0.0016210224899858273 -0.018540048071762863 0 -0.0017902765346838694 -0.018663856590495975 0 -0.0017066076335917465 -0.018354602317610044 0 -0.0018727009616232788 -0.019067053623789659 0 -0.0016662918953115474 -0.018840124522394756 0 -0.0017902765346838694 -0.018663856590495975 0 -0.0017902765346838694 -0.018663856590495975 0 -0.002083190669408918 -0.018804440365752399 0 -0.0019936653498238447 -0.018446623756534854 0 -0.0018727009616232788 -0.019067053623789659 0 -0.0017902765346838694 -0.018663856590495975 0 -0.002083190669408918 -0.018804440365752399 0 -0.0021246161434628555 -0.018191098094076846 0 -0.0019936653498238447 -0.018446623756534854 0 -0.0019619932528203627 -0.01813239892654666 0 -0.0019936653498238447 -0.018446623756534854 0 -0.0017066076335917465 -0.018354602317610044 0 -0.0019619932528203627 -0.01813239892654666 0 -0.0016210224899858273 -0.018540048071762863 0 -0.0017066076335917465 -0.018354602317610044 0 -0.0015508534044997447 -0.01830530294944489 0 -0.0017066076335917465 -0.018354602317610044 0 -0.0017045356898819236 -0.018170673496485178 0 -0.0019619932528203627 -0.01813239892654666 0 -0.0017066076335917465 -0.018354602317610044 0 -0.0017045356898819236 -0.018170673496485178 0 -0.001588798145652221 -0.018206105947850031 0 -0.0019750639184252113 -0.018104435650057357 0 -0.0018979698494622898 -0.018002134298308835 0 -0.0021307899726718208 -0.018127876823051871 0 -0.0019619932528203627 -0.01813239892654666 0 -0.0023282466576792222 -0.017968429219566553 0 -0.0019768834800819521 -0.018216259924743489 0 -0.0021307899726718208 -0.018127876823051871 0 -0.0019619932528203627 -0.01813239892654666 0 -0.0017045356898819236 -0.018170673496485178 0 -0.0019619932528203627 -0.01813239892654666 0 -0.0014862252478190696 -0.018023767855231989 0 -0.001849056409799752 -0.023741175027430901 0 -0.0015510541653299557 -0.023687478098376114 0 -0.0017099113893044922 -0.0233167015249106 0 -0.0019591186521605024 -0.021287189402815907 0 -0.0019028887634640087 -0.020720077452554875 0 -0.0019768834800819521 -0.018216259924743489 0 -0.0021246161434628555 -0.018191098094076846 0 -0.0019619932528203627 -0.01813239892654666 0 -0.0012428859522402823 -0.018142845738728718 0 -0.0011654105626843112 -0.017879682159217022 0 -0.0010947638782845665 -0.018112957602867793 0 -0.0013749655004566081 -0.018120133490877034 0 -0.0012428859522402823 -0.018142845738728718 0 -0.0011654105626843112 -0.017879682159217022 0 -0.0012343168256389119 -0.018295883534574019 0 -0.0012428859522402823 -0.018142845738728718 0 -0.0010947638782845665 -0.018112957602867793 0 -0.0012343168256389119 -0.018295883534574019 0 -0.0012428859522402823 -0.018142845738728718 0 -0.0013543246602129996 -0.018290582265814787 0 -0.0013749655004566081 -0.018120133490877034 0 -0.0012428859522402823 -0.018142845738728718 0 -0.0013543246602129996 -0.018290582265814787 0 -0.0014766474419412535 -0.018434146314217713 0 -0.0014448522143065416 -0.018264665857622216 0 -0.0015508534044997447 -0.01830530294944489 0 -0.0013749655004566081 -0.018120133490877034 0 -0.0013543246602129996 -0.018290582265814787 0 -0.0014448522143065416 -0.018264665857622216 0 -0.0014766474419412535 -0.018434146314217713 0 -0.0013543246602129996 -0.018290582265814787 0 -0.0014448522143065416 -0.018264665857622216 0 -0.0014448522143065416 -0.018264665857622216 0 -0.0015508534044997447 -0.01830530294944489 0 -0.0014892978196985322 -0.01817970719341383 0 -0.0017066076335917465 -0.018354602317610044 0 -0.0015508534044997447 -0.01830530294944489 0 -0.001588798145652221 -0.018206105947850031 0 -0.001588798145652221 -0.018206105947850031 0 -0.0014892978196985322 -0.01817970719341383 0 -0.0014862252478190696 -0.018023767855231989 0 -0.0017045356898819236 -0.018170673496485178 0 -0.001588798145652221 -0.018206105947850031 0 -0.0014862252478190696 -0.018023767855231989 0 -0.0015508534044997447 -0.01830530294944489 0 -0.001588798145652221 -0.018206105947850031 0 -0.0014892978196985322 -0.01817970719341383 0 -0.0013749655004566081 -0.018120133490877034 0 -0.0014892978196985322 -0.01817970719341383 0 -0.0014862252478190696 -0.018023767855231989 0 -0.0013749655004566081 -0.018120133490877034 0 -0.0014448522143065416 -0.018264665857622216 0 -0.0014892978196985322 -0.01817970719341383 0 -0.0021807837817353717 -0.018271347399194924 0 -0.0021307899726718208 -0.018127876823051871 0 -0.002309128020832068 -0.01794304213412715 0 -0.002490138752377706 -0.017510053172109956 0 -0.0022619741825132024 -0.018053750750124747 0 -0.0021307899726718208 -0.018127876823051871 0 -0.0023282466576792222 -0.017968429219566553 0 -0.002309128020832068 -0.01794304213412715 0 -0.0013749655004566081 -0.018120133490877034 0 -0.0014862252478190696 -0.018023767855231989 0 -0.0011654105626843112 -0.017879682159217022 0 -0.0023282466576792222 -0.017968429219566553 0 -0.002309128020832068 -0.01794304213412715 0 -0.0018248354556756308 -0.017842332086306957 0 -0.0018979698494622898 -0.018002134298308835 0 -0.0014912666297463948 -0.017859098541365442 0 -0.0021198488182562767 -0.017431071382703871 0 -0.002309128020832068 -0.01794304213412715 0 -0.0018248354556756308 -0.017842332086306957 0 -0.0014912666297463948 -0.017859098541365442 0 -0.0010464835656536456 -0.017703548131822879 0 -0.0015963544593853322 -0.017359569797837409 0 -0.0018248354556756308 -0.017842332086306957 0 -0.0012451478250404668 -0.01773042186161624 0 -0.0011654105626843112 -0.017879682159217022 0 -0.00085455619033352793 -0.017688802701061976 0 -0.0010947638782845665 -0.018112957602867793 0 -0.00085455619033352793 -0.017688802701061976 0 -0.00089581408489641703 -0.018033123533656572 0 -0.0010947638782845665 -0.018112957602867793 0 -0.00085455619033352793 -0.017688802701061976 0 -0.00089581408489641703 -0.018033123533656572 0 -0.00053968045735909315 -0.017710265756651789 0 -0.0010947638782845665 -0.018112957602867793 0 -0.0011662799971234102 -0.018456404022851099 0 -0.0010139694123852954 -0.018357474653372383 0 -0.0012343168256389119 -0.018295883534574019 0 -0.0010947638782845665 -0.018112957602867793 0 -0.0011662799971234102 -0.018456404022851099 0 -0.00089581408489641703 -0.018033123533656572 0 -0.0010947638782845665 -0.018112957602867793 0 -0.0010139694123852954 -0.018357474653372383 0 -0.00089581408489641703 -0.018033123533656572 0 -0.00084861929150981293 -0.018389427569799627 0 -0.00053968045735909315 -0.017710265756651789 0 -0.00089581408489641703 -0.018033123533656572 0 -0.0010139694123852954 -0.018357474653372383 0 -0.00084861929150981293 -0.018389427569799627 0 -0.00082701693202117408 -0.018890774850587582 0 -0.00084861929150981293 -0.018389427569799627 0 -0.0010582685670248548 -0.018701951657231833 0 -0.0010139694123852954 -0.018357474653372383 0 -0.00084861929150981293 -0.018389427569799627 0 -0.0010582685670248548 -0.018701951657231833 0 -0.0012599925587755904 -0.01867967066372243 0 -0.0011662799971234102 -0.018456404022851099 0 -0.0010582685670248548 -0.018701951657231833 0 -0.0011662799971234102 -0.018456404022851099 0 -0.0010139694123852954 -0.018357474653372383 0 -0.0010582685670248548 -0.018701951657231833 0 -0.00024626718865110238 -0.018517516669429752 0 -0.00060591043007599866 -0.018587548158388197 0 -0.00053968045735909315 -0.017710265756651789 0 -0.00082701693202117408 -0.018890774850587582 0 -0.00084861929150981293 -0.018389427569799627 0 -0.00060591043007599866 -0.018587548158388197 0 -0.00084861929150981293 -0.018389427569799627 0 -0.00060591043007599866 -0.018587548158388197 0 -0.00053968045735909315 -0.017710265756651789 0 -0.00041548199224308982 -0.017655833202973401 0 -0.00054183705272922375 -0.01767688453459362 0 -0.00057167887069370458 -0.016836537264569799 0 -0.00053968045735909315 -0.017710265756651789 0 -0.00077013423321244568 -0.017199951869015843 0 -0.00053968045735909315 -0.017710265756651789 0 -0.00066056132640367768 -0.017472942761963504 0 -0.00077013423321244568 -0.017199951869015843 0 -0.00053968045735909315 -0.017710265756651789 0 -0.00072944116580511882 -0.017542000247658521 0 -0.00066056132640367768 -0.017472942761963504 0 -0.00085455619033352793 -0.017688802701061976 0 -0.00053968045735909315 -0.017710265756651789 0 -0.00072944116580511882 -0.017542000247658521 0 -0.0010464835656536456 -0.017703548131822879 0 -0.00074935234970783865 -0.017573837464154259 0 -0.00068143258733340396 -0.017441999350785539 0 -0.00072944116580511882 -0.017542000247658521 0 -0.00066056132640367768 -0.017472942761963504 0 -0.00068143258733340396 -0.017441999350785539 0 -0.00066056132640367768 -0.017472942761963504 0 -0.00077431770472304907 -0.017355155296076005 0 -0.0010054821753224508 -0.017427172495567002 0 -0.00077431770472304907 -0.017355155296076005 0 -0.0010173411558851661 -0.017174375657818118 0 -0.00077431770472304907 -0.017355155296076005 0 -0.0010173411558851661 -0.017174375657818118 0 -0.00077013423321244568 -0.017199951869015843 0 -0.0010173411558851661 -0.017174375657818118 0 -0.0010786628503097282 -0.016885636189321075 0 -0.00077013423321244568 -0.017199951869015843 0 -0.00066056132640367768 -0.017472942761963504 0 -0.00077431770472304907 -0.017355155296076005 0 -0.00077013423321244568 -0.017199951869015843 0 -0.0013998510825068064 -0.017228118590231031 0 -0.0010054821753224508 -0.017427172495567002 0 -0.0010173411558851661 -0.017174375657818118 0 -0.0013998510825068064 -0.017228118590231031 0 -0.0010173411558851661 -0.017174375657818118 0 -0.0013494927557942639 -0.016910389118450136 0 -0.0010173411558851661 -0.017174375657818118 0 -0.0013494927557942639 -0.016910389118450136 0 -0.0010786628503097282 -0.016885636189321075 0 -0.0013494927557942639 -0.016910389118450136 0 -0.0012999126906061112 -0.016690507247052233 0 -0.0010786628503097282 -0.016885636189321075 0 -0.0012999126906061112 -0.016690507247052233 0 -0.0010786628503097282 -0.016885636189321075 0 -0.0011584153617021599 -0.016532648966436431 0 -0.0010786628503097282 -0.016885636189321075 0 -0.0011584153617021599 -0.016532648966436431 0 -0.00088793466450046296 -0.016666576779065176 0 -0.0012999126906061112 -0.016690507247052233 0 -0.0011584153617021599 -0.016532648966436431 0 -0.0013723433335250681 -0.016428287933509464 0 -0.0010786628503097282 -0.016885636189321075 0 -0.00077013423321244568 -0.017199951869015843 0 -0.00088793466450046296 -0.016666576779065176 0 -0.00057167887069370458 -0.016836537264569799 0 -0.00077013423321244568 -0.017199951869015843 0 -0.00088793466450046296 -0.016666576779065176 0 -0.00057167887069370458 -0.016836537264569799 0 -0.00088793466450046296 -0.016666576779065176 0 -0.00076959127004793055 -0.016321901133001783 0 -0.0005537325145721821 -0.01909202350471954 0 -0.00024626718865110238 -0.018517516669429752 0 -1.5903325169900808e-06 -0.019023412688368057 0 -0.00041548199224308982 -0.017655833202973401 0 -0.00048021924980893248 -0.017740208355524104 0 -0.0005537325145721821 -0.01909202350471954 0 -0.00066425718612720297 -0.01913774311966911 0 -0.00065354843896481426 -0.019116242644007048 0 -0.00051929294136356704 -0.019341478775672018 0 -0.00048021924980893248 -0.017740208355524104 0 -0.00024599070994289898 -0.016666661873933963 0 -0.00033289554245569667 -0.016666769889551934 0 -0.00028730771563042167 -0.016596879489560776 0 -0.00066425718612720297 -0.01913774311966911 0 -0.00065354843896481426 -0.019116242644007048 0 -0.0006860159445968905 -0.019112682570484287 0 -0.00048021924980893248 -0.017740208355524104 0 -0.00070911570196017116 -0.016443592421011705 0 -0.00048021924980893248 -0.017740208355524104 0 -0.00035343021745049658 -0.01806104102668565 0 -0.00088793466450046296 -0.016666576779065176 0 -0.00076959127004793055 -0.016321901133001783 0 -0.0010444048361149087 -0.01630241929099208 0 -0.00070170167374400774 -0.016123579837402063 0 -0.00070911570196017116 -0.016443592421011705 0 -0.0011584153617021599 -0.016532648966436431 0 -0.0012732294936986987 -0.0162135689295787 0 -0.0010444048361149087 -0.01630241929099208 0 -0.0011584153617021599 -0.016532648966436431 0 -0.00088793466450046296 -0.016666576779065176 0 -0.0010444048361149087 -0.01630241929099208 0 -0.0011584153617021599 -0.016532648966436431 0 -0.0012732294936986987 -0.0162135689295787 0 -0.0013723433335250681 -0.016428287933509464 0 -0.00046929307030219453 -0.015396208391715066 0 -0.00011023247064632477 -0.014634528333207194 0 -0.0008271471647203002 -0.014887385865880211 0 -0.00070170167374400774 -0.016123579837402063 0 -0.00015989750354171146 -0.015460468186798561 0 -0.00033289554245569667 -0.016666769889551934 0 -0.00037325179487958794 -0.01659965671925831 0 -0.00028730771563042167 -0.016596879489560776 0 -0.00041728313785239536 -0.016669039737608148 0 -0.00033289554245569667 -0.016666769889551934 0 -0.00037325179487958794 -0.01659965671925831 0 -0.00011023247064632477 -0.014634528333207194 0 -0.00025767986535250116 -0.013981900153493699 0 0.00019916218009576349 -0.013891467811015587 0 -0.00015989750354171146 -0.015460468186798561 0 -0.00020425121977031224 -0.016051619648180117 0 -0.00037325179487958794 -0.01659965671925831 0 -0.00032966128657807678 -0.016525296392054509 0 -0.00028730771563042167 -0.016596879489560776 0 -0.00011023247064632477 -0.014634528333207194 0 -0.00071824225977128208 -0.014215927405055442 0 -0.0008271471647203002 -0.014887385865880211 0 -0.00011023247064632477 -0.014634528333207194 0 -0.00025767986535250116 -0.013981900153493699 0 -0.00071824225977128208 -0.014215927405055442 0 -0.00025767986535250116 -0.013981900153493699 0 -0.00071824225977128208 -0.014215927405055442 0 -0.00050873935568342154 -0.013527671026135933 0 -0.00071824225977128208 -0.014215927405055442 0 -0.00050873935568342154 -0.013527671026135933 0 -0.0010100863503867113 -0.013623888655226768 0 -0.00025767986535250116 -0.013981900153493699 0 -0.00050873935568342154 -0.013527671026135933 0 -0.00019874537138159302 -0.013449512923456088 0 -0.00050873935568342154 -0.013527671026135933 0 -0.0010100863503867113 -0.013623888655226768 0 -0.00084765550264457158 -0.012956260806206236 0 -4.1361001039236716e-05 -0.013705447861859579 0 -0.00019874537138159302 -0.013449512923456088 0 0.00020000464173226186 -0.01308868227488472 0 -0.00020425121977031224 -0.016051619648180117 0 -0.00061887181835111745 -0.013413382649054135 0 -0.00025767986535250116 -0.013981900153493699 0 0.00019916218009576349 -0.013891467811015587 0 -0.00019874537138159302 -0.013449512923456088 0 -0.00067235452380485226 -0.019106441577854027 0 -0.00071325889014591166 -0.019142391776130901 0 -0.00073327972125981585 -0.019157941553683739 0 -0.00067235452380485226 -0.019106441577854027 0 -0.00071325889014591166 -0.019142391776130901 0 -0.00068706423106912893 -0.019115373884918001 0 -0.00020425121977031224 -0.016051619648180117 0 -0.00030902851977207785 -0.016198378793168246 0 -0.00074770742904813254 -0.019188548097097469 0 -0.00071325889014591166 -0.019142391776130901 0 -0.00065354843896481426 -0.019116242644007048 0 -0.00074770742904813254 -0.019188548097097469 0 -0.00071325889014591166 -0.019142391776130901 0 -0.00080499968162679291 -0.019189542273019396 0 -0.00071325889014591166 -0.019142391776130901 0 -0.00065354843896481426 -0.019116242644007048 0 -0.00068706423106912893 -0.019115373884918001 0 -0.00065354843896481426 -0.019116242644007048 0 -0.0006860159445968905 -0.019112682570484287 0 -0.00068706423106912893 -0.019115373884918001 0 -0.00067235452380485226 -0.019106441577854027 0 -0.0006860159445968905 -0.019112682570484287 0 -0.00068706423106912893 -0.019115373884918001 0 -0.00020425121977031224 -0.016051619648180117 0 -0.00035343021745049658 -0.01806104102668565 0 -0.0026075648357150373 -0.013374589977103375 0 -0.0023335686779972281 -0.013331150170198291 0 -0.0024885017863297441 -0.013686570642373297 0 -0.0018272568029551396 -0.014314988537814193 0 -0.002606266176741054 -0.014722082642241476 0 -0.0020531203076758577 -0.014977939122752231 0 -0.0023928410696049235 -0.013888320244360043 0 -0.0018272568029551396 -0.014314988537814193 0 -0.002606266176741054 -0.014722082642241476 0 -0.0024815206224372624 -0.013943412034233448 0 -0.0028180751862949935 -0.011772253490062824 0 -0.0024606691615184475 -0.0090452719318938266 0 -0.0028180751862949935 -0.011772253490062824 0 -0.0026075648357150373 -0.013374589977103375 0 -0.0029059251647938827 -0.013505418143410599 0 -0.0024885017863297441 -0.013686570642373297 0 -0.0027109067335633267 -0.012943559592847136 0 -0.0030630703672321091 -0.013023235454849229 0 -0.0032043472146725308 -0.012654738792098347 0 -0.0026075648357150373 -0.013374589977103375 0 -0.0029059251647938827 -0.013505418143410599 0 -0.0027109067335633267 -0.012943559592847136 0 -0.0024606691615184475 -0.0090452719318938266 0 -0.0031518499403369476 -0.014651029844153401 0 -0.0029523271961474531 -0.013296724809210196 0 -0.0027109067335633267 -0.012943559592847136 0 -0.0030630703672321091 -0.013023235454849229 0 -0.0024815206224372624 -0.013943412034233448 0 -0.0021264404092293577 -0.012963071174039536 0 -0.0026075648357150373 -0.013374589977103375 0 -0.0027109067335633267 -0.012943559592847136 0 -0.0023335686779972281 -0.013331150170198291 0 -0.0027109067335633267 -0.012943559592847136 0 -0.0023335686779972281 -0.013331150170198291 0 -0.0021340921233740802 -0.013014280100972941 0 -0.0023928410696049235 -0.013888320244360043 0 -0.0016529433462442926 -0.013655641124736375 0 -0.0021340921233740802 -0.013014280100972941 0 -0.0016529433462442926 -0.013655641124736375 0 -0.0013133466271962834 -0.013075526681177445 0 -0.0021340921233740802 -0.013014280100972941 0 -0.0016529433462442926 -0.013655641124736375 0 -0.0010100863503867113 -0.013623888655226768 0 -0.0012941625086965753 -0.014211148032329856 0 -0.0016529433462442926 -0.013655641124736375 0 -0.0010100863503867113 -0.013623888655226768 0 -0.0013133466271962834 -0.013075526681177445 0 -0.0010100863503867113 -0.013623888655226768 0 -0.00084765550264457158 -0.012956260806206236 0 -0.0013133466271962834 -0.013075526681177445 0 -0.00071824225977128208 -0.014215927405055442 0 -0.0010100863503867113 -0.013623888655226768 0 -0.0012941625086965753 -0.014211148032329856 0 -0.0012941625086965753 -0.014211148032329856 0 -0.0010664415119556669 -0.014567989350089206 0 -0.0013705021586826256 -0.014918477000682441 0 -0.00071824225977128208 -0.014215927405055442 0 -0.0010664415119556669 -0.014567989350089206 0 -0.0008271471647203002 -0.014887385865880211 0 -0.00071824225977128208 -0.014215927405055442 0 -0.0012941625086965753 -0.014211148032329856 0 -0.0010664415119556669 -0.014567989350089206 0 -0.0023928410696049235 -0.013888320244360043 0 -0.0016529433462442926 -0.013655641124736375 0 -0.0018272568029551396 -0.014314988537814193 0 -0.0016529433462442926 -0.013655641124736375 0 -0.0012941625086965753 -0.014211148032329856 0 -0.0018272568029551396 -0.014314988537814193 0 -0.0012941625086965753 -0.014211148032329856 0 -0.001703525501713191 -0.014757759489382167 0 -0.0013705021586826256 -0.014918477000682441 0 -0.0012941625086965753 -0.014211148032329856 0 -0.0018272568029551396 -0.014314988537814193 0 -0.001703525501713191 -0.014757759489382167 0 -0.0018272568029551396 -0.014314988537814193 0 -0.001703525501713191 -0.014757759489382167 0 -0.0020531203076758577 -0.014977939122752231 0 -0.001703525501713191 -0.014757759489382167 0 -0.0016561121007245393 -0.015244277649240483 0 -0.0020531203076758577 -0.014977939122752231 0 -0.0016561121007245393 -0.015244277649240483 0 -0.0018569241607506663 -0.015806037349751324 0 -0.0020531203076758577 -0.014977939122752231 0 -0.001703525501713191 -0.014757759489382167 0 -0.0016561121007245393 -0.015244277649240483 0 -0.0013705021586826256 -0.014918477000682441 0 -0.0016561121007245393 -0.015244277649240483 0 -0.0013705021586826256 -0.014918477000682441 0 -0.0012037486639252994 -0.01555342502223825 0 -0.00046929307030219453 -0.015396208391715066 0 -0.0008271471647203002 -0.014887385865880211 0 -0.0012037486639252994 -0.01555342502223825 0 -0.0010664415119556669 -0.014567989350089206 0 -0.0008271471647203002 -0.014887385865880211 0 -0.0013705021586826256 -0.014918477000682441 0 -0.0008271471647203002 -0.014887385865880211 0 -0.0013705021586826256 -0.014918477000682441 0 -0.0012037486639252994 -0.01555342502223825 0 -0.0012732294936986987 -0.0162135689295787 0 -0.001506963805535076 -0.016064389901147166 0 -0.0013723433335250681 -0.016428287933509464 0 -0.00070170167374400774 -0.016123579837402063 0 -0.001416644684738464 -0.015805888031580933 0 -0.001416644684738464 -0.015805888031580933 0 -0.0018277119158085187 -0.015822536511683742 0 -0.0016561121007245393 -0.015244277649240483 0 -0.0012037486639252994 -0.01555342502223825 0 -0.0018569241607506663 -0.015806037349751324 0 -0.001506963805535076 -0.016064389901147166 0 -0.0018569241607506663 -0.015806037349751324 0 -0.0015985911939761363 -0.016283333332297974 0 -0.0018569241607506663 -0.015806037349751324 0 -0.002366097732589291 -0.01485280902916037 0 -0.0023295789238234992 -0.015982610803270767 0 -0.0018569241607506663 -0.015806037349751324 0 -0.0023295789238234992 -0.015982610803270767 0 -0.0018586219940046624 -0.016343549036442834 0 -0.0018569241607506663 -0.015806037349751324 0 -0.002366097732589291 -0.01485280902916037 0 -0.0020531203076758577 -0.014977939122752231 0 -0.0028180751862949935 -0.011772253490062824 0 -0.0022568069156070126 -0.010252360852128942 0 -0.0028180751862949935 -0.011772253490062824 0 -0.0016155475998208594 -0.014096071842023055 0 -0.0020651009541636876 -0.0067098532577396118 0 -0.0028703098788407902 -0.0063800266020358652 0 -0.002217200197116442 -0.0059365197383014255 0 -0.0028703098788407902 -0.0063800266020358652 0 -0.002217200197116442 -0.0059365197383014255 0 -0.0023339277750989503 -0.0050697220777637282 0 -0.0020651009541636876 -0.0067098532577396118 0 -0.002217200197116442 -0.0059365197383014255 0 -0.0016841657995885586 -0.0054506941613588385 0 -0.002217200197116442 -0.0059365197383014255 0 -0.0023339277750989503 -0.0050697220777637282 0 -0.0016841657995885586 -0.0054506941613588385 0 -0.0023295789238234992 -0.015982610803270767 0 -0.0020069085646280673 -0.01639145868188048 0 -0.0019756364499599385 -0.016518329555355125 0 -0.0022568069156070126 -0.010252360852128942 0 -0.001918986838731542 -0.010451247362577978 0 -0.0023295789238234992 -0.015982610803270767 0 -0.0018586219940046624 -0.016343549036442834 0 -0.0020069085646280673 -0.01639145868188048 0 -0.0018586219940046624 -0.016343549036442834 0 -0.0020069085646280673 -0.01639145868188048 0 -0.0018855354708696486 -0.016580471311721631 0 -0.0020069085646280673 -0.01639145868188048 0 -0.0019756364499599385 -0.016518329555355125 0 -0.0018855354708696486 -0.016580471311721631 0 -0.0013723433335250681 -0.016428287933509464 0 -0.0015985911939761363 -0.016283333332297974 0 -0.0015782988174892407 -0.016591687274122403 0 -0.001506963805535076 -0.016064389901147166 0 -0.0013723433335250681 -0.016428287933509464 0 -0.0015985911939761363 -0.016283333332297974 0 -0.0018569241607506663 -0.015806037349751324 0 -0.0018586219940046624 -0.016343549036442834 0 -0.0015985911939761363 -0.016283333332297974 0 -0.0018586219940046624 -0.016343549036442834 0 -0.0015985911939761363 -0.016283333332297974 0 -0.0015782988174892407 -0.016591687274122403 0 -0.0018586219940046624 -0.016343549036442834 0 -0.0015782988174892407 -0.016591687274122403 0 -0.0018855354708696486 -0.016580471311721631 0 -0.0012999126906061112 -0.016690507247052233 0 -0.0013723433335250681 -0.016428287933509464 0 -0.0015782988174892407 -0.016591687274122403 0 -0.0013494927557942639 -0.016910389118450136 0 -0.0012999126906061112 -0.016690507247052233 0 -0.0015782988174892407 -0.016591687274122403 0 -0.0013494927557942639 -0.016910389118450136 0 -0.0015782988174892407 -0.016591687274122403 0 -0.0016106469386805633 -0.01682695253255901 0 -0.0016106469386805633 -0.01682695253255901 0 -0.001774578612813673 -0.016878340913097319 0 -0.0018855354708696486 -0.016580471311721631 0 -0.0015782988174892407 -0.016591687274122403 0 -0.0016106469386805633 -0.01682695253255901 0 -0.0018855354708696486 -0.016580471311721631 0 -0.0016505912447424159 -0.016687684905265229 0 -0.0018327623393147913 -0.016506027526715202 0 -0.0013998510825068064 -0.017228118590231031 0 -0.0016106469386805633 -0.01682695253255901 0 -0.001774578612813673 -0.016878340913097319 0 -0.0013998510825068064 -0.017228118590231031 0 -0.0013494927557942639 -0.016910389118450136 0 -0.0016106469386805633 -0.01682695253255901 0 -0.0019756364499599385 -0.016518329555355125 0 -0.0018855354708696486 -0.016580471311721631 0 -0.0018116828282634468 -0.016424551629200989 0 -0.0019756364499599385 -0.016518329555355125 0 -0.0018116828282634468 -0.016424551629200989 0 -0.001420681995298295 -0.016312122873878711 0 -0.001774578612813673 -0.016878340913097319 0 -0.0018855354708696486 -0.016580471311721631 0 -0.0018116828282634468 -0.016424551629200989 0 -0.0018327623393147913 -0.016506027526715202 0 -0.0017858013225921985 -0.016445790556416918 0 -0.0018907960849401538 -0.015981542320120057 0 -0.0019452996830707921 -0.016111957008840164 0 -0.0018116828282634468 -0.016424551629200989 0 -0.0018907960849401538 -0.015981542320120057 0 -0.0018116828282634468 -0.016424551629200989 0 -0.0016564565733636716 -0.016123603601214051 0 -0.0018116828282634468 -0.016424551629200989 0 -0.0016564565733636716 -0.016123603601214051 0 -0.001420681995298295 -0.016312122873878711 0 -0.0017161653638606096 -0.0044625553107811205 0 -0.0016155459903124771 -0.0044001930624137115 0 -0.0017353085145715699 -0.0043528596141240352 0 -0.0016155459903124771 -0.0044001930624137115 0 -0.0016375440277774033 -0.004313073598847173 0 -0.0017353085145715699 -0.0043528596141240352 0 -0.001918986838731542 -0.010451247362577978 0 -0.0015181709985558323 -0.010381974551096169 0 -0.0018344711361310433 -0.0043022376026340819 0 -0.0016155459903124771 -0.0044001930624137115 0 -0.0016375440277774033 -0.004313073598847173 0 -0.0016375440277774033 -0.004313073598847173 0 -0.0017353085145715699 -0.0043528596141240352 0 -0.0016549379924503977 -0.004281719705788228 0 -0.0017353085145715699 -0.0043528596141240352 0 -0.0018239884634151261 -0.0041838320706209572 0 -0.0019527300551487805 -0.0042564039222075844 0 -0.0018871777404928156 -0.0044133393310611287 0 -0.0017161653638606096 -0.0044625553107811205 0 -0.0017353085145715699 -0.0043528596141240352 0 -0.0018871777404928156 -0.0044133393310611287 0 -0.0017353085145715699 -0.0043528596141240352 0 -0.0019527300551487805 -0.0042564039222075844 0 -0.0016549379924503977 -0.004281719705788228 0 -0.0018239884634151261 -0.0041838320706209572 0 -0.0016546830689235629 -0.0041262803353454636 0 -0.0017353085145715699 -0.0043528596141240352 0 -0.0016549379924503977 -0.004281719705788228 0 -0.0018239884634151261 -0.0041838320706209572 0 -0.0018239884634151261 -0.0041838320706209572 0 -0.0021069076410127458 -0.0040229761106011655 0 -0.0018688222275404607 -0.0039136382461777263 0 -0.0018239884634151261 -0.0041838320706209572 0 -0.0016546830689235629 -0.0041262803353454636 0 -0.0018688222275404607 -0.0039136382461777263 0 -0.0016549379924503977 -0.004281719705788228 0 -0.0016546830689235629 -0.0041262803353454636 0 -0.0015113508577970973 -0.0043669575125852445 0 -0.0016546830689235629 -0.0041262803353454636 0 -0.0015113508577970973 -0.0043669575125852445 0 -0.0015439671461398949 -0.0040459903210594127 0 -0.0016224851224306335 -0.0047537922886651393 0 -0.0013623030565533436 -0.0038940572176126525 0 -0.0023339277750989503 -0.0050697220777637282 0 -0.0018344711361310433 -0.0043022376026340819 0 -0.0015113508577970973 -0.0043669575125852445 0 -0.0018344711361310433 -0.0043022376026340819 0 -0.0016375440277774033 -0.004313073598847173 0 -0.0015113508577970973 -0.0043669575125852445 0 -0.0016375440277774033 -0.004313073598847173 0 -0.0016549379924503977 -0.004281719705788228 0 -0.0015113508577970973 -0.0043669575125852445 0 -0.0014322143117078321 0.0083347574481271933 0 -0.00037493675667363383 0.0076908210514390835 0 0.00020673418156106805 0.0086237454806751164 0 -0.0014322143117078321 0.0083347574481271933 0 -0.00087654514196727079 0.0069848195056883711 0 -0.00037493675667363383 0.0076908210514390835 0 -0.00013204119821404794 0.006934212607194754 0 -0.00087654514196727079 0.0069848195056883711 0 -0.00037493675667363383 0.0076908210514390835 0 -0.00013204119821404794 0.006934212607194754 0 -0.00037493675667363383 0.0076908210514390835 0 0.00047421859036066112 0.0077468631278910516 0 -0.00013204119821404794 0.006934212607194754 0 0.00057445362110868862 0.0067284339579344443 0 0.00047421859036066112 0.0077468631278910516 0 -0.00037493675667363383 0.0076908210514390835 0 0.00020673418156106805 0.0086237454806751164 0 0.00047421859036066112 0.0077468631278910516 0 0.00020673418156106805 0.0086237454806751164 0 0.00047421859036066112 0.0077468631278910516 0 0.0015039701356162213 0.0081942509545915657 0 0.0019127739520449741 0.0065141862359648596 0 0.00047421859036066112 0.0077468631278910516 0 0.0015039701356162213 0.0081942509545915657 0 0.00057445362110868862 0.0067284339579344443 0 0.0019127739520449741 0.0065141862359648596 0 0.00047421859036066112 0.0077468631278910516 0 2.3293792892945405e-05 0.0010101858310522676 0 -0.00022861510878740968 0.0019595480629874032 0 -0.00022861510878740968 0.0019595480629874032 0 -0.00050852095929422548 0.0028712942334250301 0 -0.0018239884634151261 -0.0041838320706209572 0 -0.0019527300551487805 -0.0042564039222075844 0 -0.0021069076410127458 -0.0040229761106011655 0 0.00020673418156106805 0.0086237454806751164 0 0.0015039701356162213 0.0081942509545915657 0 0.0010916823068337306 0.0096601930798511561 0 0.00020673418156106805 0.0086237454806751164 0 0.0010916823068337306 0.0096601930798511561 0 -0.00042693990057978792 0.0095600242754127606 0 0.0010916823068337306 0.0096601930798511561 0 -0.00042693990057978792 0.0095600242754127606 0 4.9553054140045369e-06 0.010459313893359154 0 -0.0014322143117078321 0.0083347574481271933 0 0.00020673418156106805 0.0086237454806751164 0 -0.00042693990057978792 0.0095600242754127606 0 -0.0015350254863250442 0.0095866740311789222 0 -0.00042693990057978792 0.0095600242754127606 0 -0.00098366131236187252 0.010373371526761021 0 -0.00042693990057978792 0.0095600242754127606 0 -0.00098366131236187252 0.010373371526761021 0 4.9553054140045369e-06 0.010459313893359154 0 -0.00068398033222874836 0.011109766723973727 0 -0.00098366131236187252 0.010373371526761021 0 4.9553054140045369e-06 0.010459313893359154 0 4.9553054140045369e-06 0.010459313893359154 0 0.00072132992522450589 0.010930532245406912 0 -5.1138417424555212e-05 0.011432385659067946 0 -0.00068398033222874836 0.011109766723973727 0 4.9553054140045369e-06 0.010459313893359154 0 -5.1138417424555212e-05 0.011432385659067946 0 -0.00050852095929422548 0.0028712942334250301 0 -0.00078892115056971039 0.0034260678627188604 0 0.0010916823068337306 0.0096601930798511561 0 4.9553054140045369e-06 0.010459313893359154 0 0.00072132992522450589 0.010930532245406912 0 -0.0021069076410127458 -0.0040229761106011655 0 -0.0022918954495337257 -0.0035826742998980648 0 -0.0018688222275404607 -0.0039136382461777263 0 -0.0022918954495337257 -0.0035826742998980648 0 -0.0018688222275404607 -0.0039136382461777263 0 -0.0018182011354956821 -0.0034965816893309291 0 -0.0022918954495337257 -0.0035826742998980648 0 -0.0020544432307683224 -0.0031507790109512684 0 -0.0018182011354956821 -0.0034965816893309291 0 -0.0020544432307683224 -0.0031507790109512684 0 -0.0024361271194640369 -0.0030205155475342489 0 -0.0020635329507671992 -0.0027138903331486298 0 -0.00078892115056971039 0.0034260678627188604 0 -0.00088148798514749843 0.0055983317799066876 0 0.00072132992522450589 0.010930532245406912 0 0.00039005314471246544 0.012073585631235225 0 -5.1138417424555212e-05 0.011432385659067946 0 -0.0022918954495337257 -0.0035826742998980648 0 -0.0020544432307683224 -0.0031507790109512684 0 -0.0024361271194640369 -0.0030205155475342489 0 0.00039005314471246544 0.012073585631235225 0 -5.1138417424555212e-05 0.011432385659067946 0 -0.00061032740722783156 0.011981291490117925 0 0.00039005314471246544 0.012073585631235225 0 -0.00061032740722783156 0.011981291490117925 0 -0.00052819205676488893 0.012569687103675611 0 -0.0011190999464710367 0.012329242115861836 0 -0.00061032740722783156 0.011981291490117925 0 -0.00052819205676488893 0.012569687103675611 0 -0.0012387334849765462 0.011699331228975852 0 -0.00068398033222874836 0.011109766723973727 0 -0.00061032740722783156 0.011981291490117925 0 -0.00068398033222874836 0.011109766723973727 0 -5.1138417424555212e-05 0.011432385659067946 0 -0.00061032740722783156 0.011981291490117925 0 -0.0011190999464710367 0.012329242115861836 0 -0.0012387334849765462 0.011699331228975852 0 -0.00061032740722783156 0.011981291490117925 0 -0.0015145462705030452 -0.0039734346660936287 0 -0.0014831981934060332 -0.0040138332465012036 0 -0.001568871719524425 -0.003899049297929431 0 -0.0011205286872595865 -0.0030686438588630759 0 -0.0016670461985447331 -0.0041490214566161747 0 -0.0015145462705030452 -0.0039734346660936287 0 -0.0014831981934060332 -0.0040138332465012036 0 -0.001508674004585817 -0.0040238212546321213 0 -0.0024606691615184475 -0.0090452719318938266 0 -0.0013623030565533436 -0.0038940572176126525 0 -0.0015145462705030452 -0.0039734346660936287 0 -0.001508674004585817 -0.0040238212546321213 0 -0.0014625011051266671 -0.003982241795554173 0 -0.0015847818810756401 -0.0040929125106611624 0 -0.001508674004585817 -0.0040238212546321213 0 -0.0014625011051266671 -0.003982241795554173 0 -0.0023339277750989503 -0.0050697220777637282 0 -0.0015113508577970973 -0.0043669575125852445 0 -0.0016841657995885586 -0.0054506941613588385 0 -0.0015113508577970973 -0.0043669575125852445 0 -0.0014625011051266671 -0.003982241795554173 0 -0.0015439671461398949 -0.0040459903210594127 0 -0.0015145462705030452 -0.0039734346660936287 0 -0.0014625011051266671 -0.003982241795554173 0 -0.0015439671461398949 -0.0040459903210594127 0 -0.0016546830689235629 -0.0041262803353454636 0 -0.0015439671461398949 -0.0040459903210594127 0 -0.001568871719524425 -0.003899049297929431 0 -0.0015145462705030452 -0.0039734346660936287 0 -0.0015439671461398949 -0.0040459903210594127 0 -0.001568871719524425 -0.003899049297929431 0 -0.0016546830689235629 -0.0041262803353454636 0 -0.001568871719524425 -0.003899049297929431 0 -0.0018688222275404607 -0.0039136382461777263 0 -0.001568871719524425 -0.003899049297929431 0 -0.0018688222275404607 -0.0039136382461777263 0 -0.0018182011354956821 -0.0034965816893309291 0 -0.0013522976209501211 -0.0035219643187597602 0 -0.001568871719524425 -0.003899049297929431 0 -0.0018182011354956821 -0.0034965816893309291 0 -0.0013522976209501211 -0.0035219643187597602 0 -0.0018182011354956821 -0.0034965816893309291 0 -0.0016255738042013049 -0.0029831770422905821 0 -0.0020544432307683224 -0.0031507790109512684 0 -0.0018182011354956821 -0.0034965816893309291 0 -0.0016255738042013049 -0.0029831770422905821 0 -0.0020544432307683224 -0.0031507790109512684 0 -0.0016255738042013049 -0.0029831770422905821 0 -0.0020635329507671992 -0.0027138903331486298 0 -0.0020864398081008985 -0.0058791313118659238 0 -0.0020481899610565245 -0.0077625392640919451 0 -0.0024442324219908483 -0.0094029248529628445 0 -0.0023413626173918907 -0.0094286167202871137 0 -0.002352587722821944 -0.0093788808596036808 0 -0.0014831981934060332 -0.0040138332465012036 0 -0.001508674004585817 -0.0040238212546321213 0 -0.0014962287606272019 -0.0041290972143127628 0 -0.0013522976209501211 -0.0035219643187597602 0 -0.0016255738042013049 -0.0029831770422905821 0 -0.0011925715646489471 -0.0032247584546581075 0 -0.0011205286872595865 -0.0030686438588630759 0 -0.0020481899610565245 -0.0077625392640919451 0 -0.0029523271961474531 -0.013296724809210196 0 -0.0033577969203563499 -0.01311924194463455 0 -0.0030630703672321091 -0.013023235454849229 0 -0.0024606691615184475 -0.0090452719318938266 0 -0.0020481899610565245 -0.0077625392640919451 0 -0.0015847818810756401 -0.0040929125106611624 0 -0.001508674004585817 -0.0040238212546321213 0 -0.0014962287606272019 -0.0041290972143127628 0 -0.0023413626173918907 -0.0094286167202871137 0 -0.0023049366519286999 -0.0093665976903967822 0 -0.002352587722821944 -0.0093788808596036808 0 -0.0033577969203563499 -0.01311924194463455 0 -0.0030630703672321091 -0.013023235454849229 0 -0.0032043472146725308 -0.012654738792098347 0 -0.0020481899610565245 -0.0077625392640919451 0 -0.003012686302507556 -0.011727083397712482 0 -0.0023049366519286999 -0.0093665976903967822 0 -0.0023197703924519404 -0.0093205085331207922 0 -0.002352587722821944 -0.0093788808596036808 0 -0.003012686302507556 -0.011727083397712482 0 -0.0025578231290044398 -0.010442590416494684 0 -0.0023049366519286999 -0.0093665976903967822 0 -0.0023197703924519404 -0.0093205085331207922 0 -0.0022746103197450233 -0.0093073372270688695 0 -0.0023197703924519404 -0.0093205085331207922 0 -0.0023140223332416285 -0.0092788197193207859 0 -0.0022746103197450233 -0.0093073372270688695 0 -0.0023197703924519404 -0.0093205085331207922 0 -0.0023767021925640772 -0.009327195946573285 0 -0.0023140223332416285 -0.0092788197193207859 0 -0.0023767021925640772 -0.009327195946573285 0 -0.0024183820457036875 -0.0092695399290956357 0 -0.0023140223332416285 -0.0092788197193207859 0 -0.0023197703924519404 -0.0093205085331207922 0 -0.002352587722821944 -0.0093788808596036808 0 -0.0023767021925640772 -0.009327195946573285 0 -0.0024442324219908483 -0.0094029248529628445 0 -0.002352587722821944 -0.0093788808596036808 0 -0.0023767021925640772 -0.009327195946573285 0 -0.0024442324219908483 -0.0094029248529628445 0 -0.0023767021925640772 -0.009327195946573285 0 -0.0024713644651175393 -0.0092993821218409437 0 -0.0024442324219908483 -0.0094029248529628445 0 -0.0025412164252349733 -0.0092936453275632783 0 -0.0024713644651175393 -0.0092993821218409437 0 -0.0024442324219908483 -0.0094029248529628445 0 -0.0025412164252349733 -0.0092936453275632783 0 -0.0026254624062933144 -0.0094103953438219329 0 -0.0020864398081008985 -0.0058791313118659238 0 -0.0022323217073792184 -0.0069494587593837368 0 -0.0025412164252349733 -0.0092936453275632783 0 -0.0024713644651175393 -0.0092993821218409437 0 -0.0025853670260842006 -0.009181533053816136 0 -0.0025412164252349733 -0.0092936453275632783 0 -0.0025853670260842006 -0.009181533053816136 0 -0.0027320475312040621 -0.0090973193172699997 0 -0.0023767021925640772 -0.009327195946573285 0 -0.0024183820457036875 -0.0092695399290956357 0 -0.0024713644651175393 -0.0092993821218409437 0 -0.0024183820457036875 -0.0092695399290956357 0 -0.0024713644651175393 -0.0092993821218409437 0 -0.0025853670260842006 -0.009181533053816136 0 -0.0024183820457036875 -0.0092695399290956357 0 -0.0024495126893144879 -0.0092111974488411543 0 -0.0025853670260842006 -0.009181533053816136 0 -0.0024183820457036875 -0.0092695399290956357 0 -0.0024495126893144879 -0.0092111974488411543 0 -0.0023544317150726406 -0.0092348448858695208 0 -0.0024495126893144879 -0.0092111974488411543 0 -0.0024018012147338625 -0.0091776353612952645 0 -0.0023544317150726406 -0.0092348448858695208 0 -0.0025853670260842006 -0.009181533053816136 0 -0.0025402759872358211 -0.0091536714740979314 0 -0.0026629719464829958 -0.0091207193193805526 0 -0.0024495126893144879 -0.0092111974488411543 0 -0.0025853670260842006 -0.009181533053816136 0 -0.0025402759872358211 -0.0091536714740979314 0 -0.0025402759872358211 -0.0091536714740979314 0 -0.002646835943404752 -0.0090736619613899887 0 -0.0026629719464829958 -0.0091207193193805526 0 -0.0025402759872358211 -0.0091536714740979314 0 -0.002646835943404752 -0.0090736619613899887 0 -0.0024775181647773183 -0.0090952040073872548 0 -0.0024495126893144879 -0.0092111974488411543 0 -0.0025402759872358211 -0.0091536714740979314 0 -0.0024018012147338625 -0.0091776353612952645 0 -0.0025402759872358211 -0.0091536714740979314 0 -0.0024018012147338625 -0.0091776353612952645 0 -0.0024775181647773183 -0.0090952040073872548 0 -0.0024018012147338625 -0.0091776353612952645 0 -0.0023590449473911345 -0.0091382912879873195 0 -0.0023117380379056476 -0.0092038877951077323 0 -0.0024018012147338625 -0.0091776353612952645 0 -0.0024775181647773183 -0.0090952040073872548 0 -0.0023590449473911345 -0.0091382912879873195 0 -0.0023590449473911345 -0.0091382912879873195 0 -0.0023117380379056476 -0.0092038877951077323 0 -0.0022791532996438726 -0.0091478494045361021 0 -0.0024018012147338625 -0.0091776353612952645 0 -0.0023117380379056476 -0.0092038877951077323 0 -0.0023544317150726406 -0.0092348448858695208 0 -0.0023117380379056476 -0.0092038877951077323 0 -0.0022743495076676936 -0.0092738891593654154 0 -0.0023544317150726406 -0.0092348448858695208 0 -0.0023117380379056476 -0.0092038877951077323 0 -0.0022743495076676936 -0.0092738891593654154 0 -0.0022696947413701368 -0.0092298583188392246 0 -0.0022743495076676936 -0.0092738891593654154 0 -0.0022518841269561379 -0.0093098899977169733 0 -0.0022696947413701368 -0.0092298583188392246 0 -0.0022743495076676936 -0.0092738891593654154 0 -0.0022518841269561379 -0.0093098899977169733 0 -0.0022574258930599133 -0.0093456028628411628 0 -0.0022743495076676936 -0.0092738891593654154 0 -0.0022746103197450233 -0.0093073372270688695 0 -0.0022574258930599133 -0.0093456028628411628 0 -0.0022743495076676936 -0.0092738891593654154 0 -0.0023140223332416285 -0.0092788197193207859 0 -0.0022746103197450233 -0.0093073372270688695 0 -0.0024183820457036875 -0.0092695399290956357 0 -0.0023140223332416285 -0.0092788197193207859 0 -0.0023544317150726406 -0.0092348448858695208 0 -0.0022743495076676936 -0.0092738891593654154 0 -0.0023140223332416285 -0.0092788197193207859 0 -0.0023544317150726406 -0.0092348448858695208 0 -0.0025557350016154408 0.0097063115686656428 0 -0.0022278384432173515 0.0078448823670154728 0 -0.0012279632699381084 0.013770263250560563 0 -0.0009126925310628082 0.01330968834316794 0 -0.00033964741528754838 0.013387952940778689 0 -0.0009126925310628082 0.01330968834316794 0 -0.00061414454518826287 0.013009103565991203 0 -0.00033964741528754838 0.013387952940778689 0 -0.0012708300465807964 0.013442339973318807 0 -0.0011353841064644043 0.012971315260503725 0 -0.0009126925310628082 0.01330968834316794 0 -0.0011353841064644043 0.012971315260503725 0 -0.0009126925310628082 0.01330968834316794 0 -0.00061414454518826287 0.013009103565991203 0 -0.0011190999464710367 0.012329242115861836 0 -0.0011353841064644043 0.012971315260503725 0 -0.00052819205676488893 0.012569687103675611 0 -0.0011353841064644043 0.012971315260503725 0 -0.00052819205676488893 0.012569687103675611 0 -0.00061414454518826287 0.013009103565991203 0 -0.00052819205676488893 0.012569687103675611 0 -0.00061414454518826287 0.013009103565991203 0 -0.00016209571133140333 0.012968219992410502 0 0.00039005314471246544 0.012073585631235225 0 -0.00052819205676488893 0.012569687103675611 0 -0.00016209571133140333 0.012968219992410502 0 -0.0022278384432173515 0.0078448823670154728 0 -0.0025701335182439244 0.00053879313905383244 0 -0.0035631379407375682 0.001205019488198702 0 -0.003841675862272948 0.0013185959365055702 0 -0.0037694112723257274 0.00076571083393447059 0 -0.00016209571133140333 0.012968219992410502 0 -0.00028447065735273257 0.01317788007040932 0 0.00011498659637330819 0.013053206309367779 0 -0.0016798414422190566 0.013010207268583634 0 -0.0022278384432173515 0.0078448823670154728 0 -0.00061414454518826287 0.013009103565991203 0 -0.00016209571133140333 0.012968219992410502 0 -0.00033964741528754838 0.013387952940778689 0 -0.003335608774726018 -0.0084409646877079639 0 -0.0035765475813569268 -0.0091392250095378956 0 -0.0039524263905793234 -0.0077789230433453838 0 -0.0025701335182439244 0.00053879313905383244 0 -0.0039263768568053269 -0.0046725872015639753 0 -0.003335608774726018 -0.0084409646877079639 0 -0.0035765475813569268 -0.0091392250095378956 0 -0.0027320475312040621 -0.0090973193172699997 0 -0.00088148798514749843 0.0055983317799066876 0 -0.0025701335182439244 0.00053879313905383244 0 -0.0024361271194640369 -0.0030205155475342489 0 -0.0025418972990987601 -0.0024351901554239869 0 -0.0020635329507671992 -0.0027138903331486298 0 0.00039005314471246544 0.012073585631235225 0 -0.00016209571133140333 0.012968219992410502 0 0.00011498659637330819 0.013053206309367779 0 -0.0025701335182439244 0.00053879313905383244 0 -0.0022323217073792184 -0.0069494587593837368 0 -0.0035765475813569268 -0.0091392250095378956 0 -0.0026254624062933144 -0.0094103953438219329 0 -0.0027320475312040621 -0.0090973193172699997 0 -0.0025412164252349733 -0.0092936453275632783 0 -0.0026254624062933144 -0.0094103953438219329 0 -0.0027320475312040621 -0.0090973193172699997 0 -0.0025853670260842006 -0.009181533053816136 0 -0.0027320475312040621 -0.0090973193172699997 0 -0.0027076335673612549 -0.0091258345385037947 0 -0.0027592026230901516 -0.0089522146219913334 0 -0.0029383335003091964 -0.0086115192505124422 0 -0.0027320475312040621 -0.0090973193172699997 0 -0.0027076335673612549 -0.0091258345385037947 0 -0.0027609400951731158 -0.0091167004466193233 0 -0.0025853670260842006 -0.009181533053816136 0 -0.0027076335673612549 -0.0091258345385037947 0 -0.0026629719464829958 -0.0091207193193805526 0 -0.0027076335673612549 -0.0091258345385037947 0 -0.0027204420416971891 -0.0091095566141544768 0 -0.0027609400951731158 -0.0091167004466193233 0 -0.0027076335673612549 -0.0091258345385037947 0 -0.0027204420416971891 -0.0091095566141544768 0 -0.0026629719464829958 -0.0091207193193805526 0 -0.0027204420416971891 -0.0091095566141544768 0 -0.0026629719464829958 -0.0091207193193805526 0 -0.0027412591551319956 -0.0090579006712675804 0 -0.002646835943404752 -0.0090736619613899887 0 -0.0026629719464829958 -0.0091207193193805526 0 -0.0027412591551319956 -0.0090579006712675804 0 -0.002646835943404752 -0.0090736619613899887 0 -0.0027412591551319956 -0.0090579006712675804 0 -0.0027628453565565806 -0.0089533138275555233 0 -0.0027204420416971891 -0.0091095566141544768 0 -0.0027412591551319956 -0.0090579006712675804 0 -0.0027609400951731158 -0.0091167004466193233 0 -0.0027412591551319956 -0.0090579006712675804 0 -0.0027609400951731158 -0.0091167004466193233 0 -0.0028541443983967118 -0.008978402034892103 0 -0.0031415301502520899 -0.0076698626871554241 0 -0.0039524263905793234 -0.0077789230433453838 0 -0.0038629972025533083 -0.0060124257007936081 0 -0.0029383335003091964 -0.0086115192505124422 0 -0.0031974389877447878 -0.0064106389371029826 0 -0.003335608774726018 -0.0084409646877079639 0 -0.0031415301502520899 -0.0076698626871554241 0 -0.0039524263905793234 -0.0077789230433453838 0 -0.003335608774726018 -0.0084409646877079639 0 -0.0027320475312040621 -0.0090973193172699997 0 -0.0031415301502520899 -0.0076698626871554241 0 -0.0035631379407375682 0.001205019488198702 0 -0.0037694112723257274 0.00076571083393447059 0 -0.0033919617129547219 0.00075556826742486543 0 -0.0037694112723257274 0.00076571083393447059 0 -0.0033919617129547219 0.00075556826742486543 0 -0.0036899962672416256 0.00026971737703346255 0 -0.0039524263905793234 -0.0077789230433453838 0 -0.0042228604720447793 -0.0060444943974365031 0 -0.0038629972025533083 -0.0060124257007936081 0 -0.0039263768568053269 -0.0046725872015639753 0 -0.0035935899001624107 -0.0014925804627204079 0 -0.0033919617129547219 0.00075556826742486543 0 -0.0032214073829097611 0.00035756356863436218 0 -0.0036899962672416256 0.00026971737703346255 0 -0.003595842510607258 0.0021649370907286143 0 -0.0038177426143982678 0.0037663587438638408 0 -0.0036589826898503534 0.0052805745675186151 0 -0.0040144784407890868 0.0053948620024638896 0 -0.0038334562782008155 0.0049404147043658371 0 -0.0022278384432173515 0.0078448823670154728 0 -0.003595842510607258 0.0021649370907286143 0 -0.0036589826898503534 0.0052805745675186151 0 -0.0037268994472825947 0.0056466206393589865 0 -0.0040144784407890868 0.0053948620024638896 0 -0.0037268994472825947 0.0056466206393589865 0 -0.0041875853925831688 0.005870431351667477 0 -0.0040144784407890868 0.0053948620024638896 0 -0.0035647006746305516 0.0042645477933179309 0 -0.0037209084392853049 0.0042192151047557103 0 -0.0037014860573748574 0.0040669519954279068 0 -0.0037209084392853049 0.0042192151047557103 0 -0.0038282940425632683 0.0040943145765615883 0 -0.0037014860573748574 0.0040669519954279068 0 -0.0037209084392853049 0.0042192151047557103 0 -0.0037656984685850649 0.004228475329662874 0 -0.0038314271833249391 0.0041638776814658584 0 -0.0037135896408341906 0.0042770864145281881 0 -0.0037656984685850649 0.004228475329662874 0 -0.0038138100794355063 0.0042312034409435215 0 -0.0037209084392853049 0.0042192151047557103 0 -0.0037135896408341906 0.0042770864145281881 0 -0.0037656984685850649 0.004228475329662874 0 -0.0038177426143982678 0.0037663587438638408 0 -0.0035935899001624107 -0.0014925804627204079 0 -0.0035935899001624107 -0.0014925804627204079 0 -0.0038116542247203533 -0.00087725960236423642 0 -0.0035969010371740108 -0.0089661520095382693 0 -0.0037897794817658512 -0.0085404619918842926 0 -0.0034384098835552246 -0.0086565614721959387 0 -0.0039897327758438017 -0.003976355431013461 0 -0.0031737769405806699 -0.0038879570772297318 0 -0.0044087966354169105 -0.0013076194606053469 0 -0.0037656984685850649 0.004228475329662874 0 -0.0038138100794355063 0.0042312034409435215 0 -0.0038314271833249391 0.0041638776814658584 0 -0.0031974389877447878 -0.0064106389371029826 0 -0.0038116542247203533 -0.00087725960236423642 0 -0.0035935899001624107 -0.0014925804627204079 0 -0.0031974389877447878 -0.0064106389371029826 0 -0.0037209084392853049 0.0042192151047557103 0 -0.0038314271833249391 0.0041638776814658584 0 -0.0038282940425632683 0.0040943145765615883 0 -0.0038116542247203533 -0.00087725960236423642 0 -0.0047740471180306061 0.0041949561116955561 0 -0.0037897794817658512 -0.0085404619918842926 0 -0.0034384098835552246 -0.0086565614721959387 0 -0.003451834490761343 -0.0082732978441822109 0 -0.0034384098835552246 -0.0086565614721959387 0 -0.0030548963776611303 -0.0086140296880383854 0 -0.003451834490761343 -0.0082732978441822109 0 -0.0034384098835552246 -0.0086565614721959387 0 -0.003205715820787229 -0.0089619049755903409 0 -0.0030548963776611303 -0.0086140296880383854 0 -0.0035969010371740108 -0.0089661520095382693 0 -0.0034384098835552246 -0.0086565614721959387 0 -0.003205715820787229 -0.0089619049755903409 0 -0.0027412591551319956 -0.0090579006712675804 0 -0.0028541443983967118 -0.008978402034892103 0 -0.0027767576242222363 -0.0089821779649662675 0 -0.0031974389877447878 -0.0064106389371029826 0 -0.0030421309217554342 -0.0088988442411168846 0 -0.0027412591551319956 -0.0090579006712675804 0 -0.0027767576242222363 -0.0089821779649662675 0 -0.0027628453565565806 -0.0089533138275555233 0 -0.003205715820787229 -0.0089619049755903409 0 -0.0027628453565565806 -0.0089533138275555233 0 -0.0030548963776611303 -0.0086140296880383854 0 -0.0030421309217554342 -0.0088988442411168846 0 -0.0027732134917218929 -0.0089471731086966568 0 -0.0030548963776611303 -0.0086140296880383854 0 -0.0031166036756630584 -0.0081570391895206852 0 -0.0027096347264204011 -0.008529062779643725 0 -0.0027628453565565806 -0.0089533138275555233 0 -0.0030548963776611303 -0.0086140296880383854 0 -0.0027096347264204011 -0.008529062779643725 0 -0.0030548963776611303 -0.0086140296880383854 0 -0.0031166036756630584 -0.0081570391895206852 0 -0.003451834490761343 -0.0082732978441822109 0 -0.002994241654020036 -0.0074975139230217779 0 -0.0031166036756630584 -0.0081570391895206852 0 -0.0034265460193507562 -0.0077601731242393484 0 -0.002994241654020036 -0.0074975139230217779 0 -0.0031166036756630584 -0.0081570391895206852 0 -0.0027033751089142557 -0.0079918218158384624 0 -0.0031166036756630584 -0.0081570391895206852 0 -0.0034265460193507562 -0.0077601731242393484 0 -0.003451834490761343 -0.0082732978441822109 0 -0.0038116542247203533 -0.00087725960236423642 0 -0.0038687510389944675 -0.0022974769101459093 0 -0.0034265460193507562 -0.0077601731242393484 0 -0.003451834490761343 -0.0082732978441822109 0 -0.0038857790278686404 -0.0079168135877941935 0 -0.0038308922184137353 0.0041680589764217608 0 -0.0038282940425632683 0.0040943145765615883 0 -0.003896656919795136 0.0039228322904748432 0 -0.0037897794817658512 -0.0085404619918842926 0 -0.003451834490761343 -0.0082732978441822109 0 -0.0038857790278686404 -0.0079168135877941935 0 -0.003977642858951325 -0.0018180144413804517 0 -0.0038687510389944675 -0.0022974769101459093 0 -0.0040262811291335862 -0.007315221332726554 0 -0.0034265460193507562 -0.0077601731242393484 0 -0.0038857790278686404 -0.0079168135877941935 0 -0.0035263070553805407 0.003836358555986602 0 -0.0038961847131782864 0.0035088713709216348 0 -0.003896656919795136 0.0039228322904748432 0 -0.0035263070553805407 0.003836358555986602 0 -0.003896656919795136 0.0039228322904748432 0 -0.0037014860573748574 0.0040669519954279068 0 -0.0038282940425632683 0.0040943145765615883 0 -0.003896656919795136 0.0039228322904748432 0 -0.0037014860573748574 0.0040669519954279068 0 -0.0019893408628355595 -0.0088853905925039903 0 -0.0022599450678502464 -0.0089391887860943622 0 -0.0022047918863963693 -0.0082056693415277337 0 -0.0020360306108701178 -0.0092402510910289046 0 -0.0021709682568595685 -0.0088214935535521379 0 -0.0022538286423947063 -0.0091576139693745444 0 -0.0022539917739519398 -0.0090956089535731907 0 -0.0022599450678502464 -0.0089391887860943622 0 -0.0020360306108701178 -0.0092402510910289046 0 -0.0022221670957393593 -0.0091049760668641851 0 -0.0022538286423947063 -0.0091576139693745444 0 -0.002263753155920558 -0.0093843564804291738 0 -0.0022567110986682023 -0.009209545272269002 0 -0.0020360306108701178 -0.0092402510910289046 0 -0.0020078207744369998 -0.0095170760286420568 0 -0.001949189606965165 -0.0097218091643365145 0 -0.0016783004086500192 -0.0096263708009980062 0 -0.0018020235348791367 -0.0094581410534398669 0 -0.002263753155920558 -0.0093843564804291738 0 -0.0022518841269561379 -0.0093098899977169733 0 -0.0022563041580016432 -0.0094954644282606894 0 -0.002263753155920558 -0.0093843564804291738 0 -0.0022518841269561379 -0.0093098899977169733 0 -0.0022567110986682023 -0.009209545272269002 0 -0.0022518841269561379 -0.0093098899977169733 0 -0.0022696947413701368 -0.0092298583188392246 0 -0.0022567110986682023 -0.009209545272269002 0 -0.0022696947413701368 -0.0092298583188392246 0 -0.0022567110986682023 -0.009209545272269002 0 -0.0022791532996438726 -0.0091478494045361021 0 -0.0023117380379056476 -0.0092038877951077323 0 -0.0022696947413701368 -0.0092298583188392246 0 -0.0022791532996438726 -0.0091478494045361021 0 -0.0022567110986682023 -0.009209545272269002 0 -0.0022571257264911667 -0.0091460446313666455 0 -0.0022791532996438726 -0.0091478494045361021 0 -0.0022538286423947063 -0.0091576139693745444 0 -0.0022567110986682023 -0.009209545272269002 0 -0.0022571257264911667 -0.0091460446313666455 0 -0.0022630173899112482 -0.0090786063989644929 0 -0.0022791532996438726 -0.0091478494045361021 0 -0.0023622090722371452 -0.0090557163797511282 0 -0.0022539917739519398 -0.0090956089535731907 0 -0.0022630173899112482 -0.0090786063989644929 0 -0.0022599450678502464 -0.0089391887860943622 0 -0.0022571257264911667 -0.0091460446313666455 0 -0.0022539917739519398 -0.0090956089535731907 0 -0.0022630173899112482 -0.0090786063989644929 0 -0.0022538286423947063 -0.0091576139693745444 0 -0.0022571257264911667 -0.0091460446313666455 0 -0.0022539917739519398 -0.0090956089535731907 0 -0.0022571257264911667 -0.0091460446313666455 0 -0.0022630173899112482 -0.0090786063989644929 0 -0.0022791532996438726 -0.0091478494045361021 0 -0.0024775181647773183 -0.0090952040073872548 0 -0.0023590449473911345 -0.0091382912879873195 0 -0.0023622090722371452 -0.0090557163797511282 0 -0.0023590449473911345 -0.0091382912879873195 0 -0.0022791532996438726 -0.0091478494045361021 0 -0.0023622090722371452 -0.0090557163797511282 0 -0.0024775181647773183 -0.0090952040073872548 0 -0.0023622090722371452 -0.0090557163797511282 0 -0.0025598181488586838 -0.0089031653419564035 0 -0.0023622090722371452 -0.0090557163797511282 0 -0.0025598181488586838 -0.0089031653419564035 0 -0.0024384382928523654 -0.0087379394319950527 0 -0.0022630173899112482 -0.0090786063989644929 0 -0.0023622090722371452 -0.0090557163797511282 0 -0.0022599450678502464 -0.0089391887860943622 0 -0.0023622090722371452 -0.0090557163797511282 0 -0.0022599450678502464 -0.0089391887860943622 0 -0.0024384382928523654 -0.0087379394319950527 0 -0.002646835943404752 -0.0090736619613899887 0 -0.0027628453565565806 -0.0089533138275555233 0 -0.0025598181488586838 -0.0089031653419564035 0 -0.002646835943404752 -0.0090736619613899887 0 -0.0024775181647773183 -0.0090952040073872548 0 -0.0025598181488586838 -0.0089031653419564035 0 -0.0027628453565565806 -0.0089533138275555233 0 -0.0025598181488586838 -0.0089031653419564035 0 -0.0027096347264204011 -0.008529062779643725 0 -0.0025598181488586838 -0.0089031653419564035 0 -0.0027096347264204011 -0.008529062779643725 0 -0.0024384382928523654 -0.0087379394319950527 0 -0.0022599450678502464 -0.0089391887860943622 0 -0.0024384382928523654 -0.0087379394319950527 0 -0.0022047918863963693 -0.0082056693415277337 0 -0.0027096347264204011 -0.008529062779643725 0 -0.0024384382928523654 -0.0087379394319950527 0 -0.0022047918863963693 -0.0082056693415277337 0 -0.0031166036756630584 -0.0081570391895206852 0 -0.0027096347264204011 -0.008529062779643725 0 -0.0027033751089142557 -0.0079918218158384624 0 -0.0027096347264204011 -0.008529062779643725 0 -0.0022047918863963693 -0.0082056693415277337 0 -0.0027033751089142557 -0.0079918218158384624 0 -0.0024680814467699279 -0.0076078224618068109 0 -0.002994241654020036 -0.0074975139230217779 0 -0.0027033751089142557 -0.0079918218158384624 0 -0.0024680814467699279 -0.0076078224618068109 0 -0.0022047918863963693 -0.0082056693415277337 0 -0.0027033751089142557 -0.0079918218158384624 0 -0.0024710444605685554 -0.0082412414710626939 0 -0.0021709682568595685 -0.0088214935535521379 0 -0.0024657652854975839 -0.0088855548092981497 0 -0.0021426909496801644 -0.0094200101892721339 0 -0.001684934034685376 -0.0091141582270172009 0 -0.0021426909496801644 -0.0094200101892721339 0 -0.0018020235348791367 -0.0094581410534398669 0 -0.001684934034685376 -0.0091141582270172009 0 -0.001949189606965165 -0.0097218091643365145 0 -0.0021426909496801644 -0.0094200101892721339 0 -0.0018020235348791367 -0.0094581410534398669 0 -0.0016783004086500192 -0.0096263708009980062 0 -0.0018020235348791367 -0.0094581410534398669 0 -0.0015964628081815437 -0.0093754623402932009 0 -0.0018020235348791367 -0.0094581410534398669 0 -0.001684934034685376 -0.0091141582270172009 0 -0.0015964628081815437 -0.0093754623402932009 0 -0.001684934034685376 -0.0091141582270172009 0 -0.0014486367198590846 -0.0092486673444302676 0 -0.0015964628081815437 -0.0093754623402932009 0 -0.0014486367198590846 -0.0092486673444302676 0 -0.0014785289061426355 -0.0095355190242954312 0 -0.0013026403538235454 -0.0094962757064149892 0 -0.001387786666496184 -0.0095438939818907314 0 -0.0014060897975373466 -0.0097789206130298525 0 -0.0014486367198590846 -0.0092486673444302676 0 -0.0015964628081815437 -0.0093754623402932009 0 -0.0014785289061426355 -0.0095355190242954312 0 -0.002263753155920558 -0.0093843564804291738 0 -0.0022815226222097432 -0.0095050144558064594 0 -0.0022563041580016432 -0.0094954644282606894 0 -0.0016783004086500192 -0.0096263708009980062 0 -0.0015964628081815437 -0.0093754623402932009 0 -0.0014785289061426355 -0.0095355190242954312 0 -0.0020078207744369998 -0.0095170760286420568 0 -0.0018873585045575405 -0.0094891845038772085 0 -0.0022815226222097432 -0.0095050144558064594 0 -0.0021355101271443395 -0.0098188647939214321 0 -0.0018262226692664348 -0.0093181165892790054 0 -0.0018873585045575405 -0.0094891845038772085 0 -0.0014060897975373466 -0.0097789206130298525 0 -0.0022815226222097432 -0.0095050144558064594 0 -0.0021355101271443395 -0.0098188647939214321 0 -0.0022563041580016432 -0.0094954644282606894 0 -0.0021355101271443395 -0.0098188647939214321 0 -0.0022563041580016432 -0.0094954644282606894 0 -0.0022904927401020936 -0.0093837998090545889 0 -0.0021556036387817743 -0.0097953752189011596 0 -0.0024489232518176821 -0.010198236385123202 0 -0.0022518841269561379 -0.0093098899977169733 0 -0.0022563041580016432 -0.0094954644282606894 0 -0.0022574258930599133 -0.0093456028628411628 0 -0.0013414784288024893 -0.010165881774334782 0 -0.00083155425991890983 -0.010326575288992475 0 -0.00098409742112229846 -0.010943937118551647 0 -0.0021355101271443395 -0.0098188647939214321 0 -0.0013414784288024893 -0.010165881774334782 0 -0.0017636157011765368 -0.010882437765424417 0 -0.0014115877551176496 -0.010057644029674392 0 -0.0014060897975373466 -0.0097789206130298525 0 -0.0021355101271443395 -0.0098188647939214321 0 -0.0013414784288024893 -0.010165881774334782 0 -0.0018262226692664348 -0.0093181165892790054 0 -0.0013414784288024893 -0.010165881774334782 0 -0.0014066632077043755 -0.0099381567963939769 0 -0.00096731163532943955 -0.0099288053950620774 0 -0.0013414784288024893 -0.010165881774334782 0 -0.00096731163532943955 -0.0099288053950620774 0 -0.00083155425991890983 -0.010326575288992475 0 -0.00075703987719927257 -0.01020379867056659 0 -0.00097967502154729493 -0.0099569214621417334 0 -0.0006029723525860758 -0.009914905683427247 0 -0.0014060897975373466 -0.0097789206130298525 0 -0.00085172814147337203 -0.010103999532058478 0 -0.0011692438970470752 -0.010273814874768928 0 -0.00075703987719927257 -0.01020379867056659 0 -0.00097967502154729493 -0.0099569214621417334 0 -0.001396554640667161 -0.0097760806573186105 0 -0.0011692438970470752 -0.010273814874768928 0 -0.00097967502154729493 -0.0099569214621417334 0 -0.00092096372493188266 -0.0095599179260118256 0 -0.001396554640667161 -0.0097760806573186105 0 -0.00097967502154729493 -0.0099569214621417334 0 -0.00092096372493188266 -0.0095599179260118256 0 -0.00097967502154729493 -0.0099569214621417334 0 -0.0006029723525860758 -0.009914905683427247 0 -0.00033127025911156542 -0.0097567267859203031 0 -0.00055612706262772073 -0.0096522533997290324 0 -0.0006029723525860758 -0.009914905683427247 0 -0.0006029723525860758 -0.009914905683427247 0 -0.00025097572820802992 -0.0099672537225411161 0 -0.00034691771363470734 -0.010167453367234328 0 -0.00033127025911156542 -0.0097567267859203031 0 -0.0006029723525860758 -0.009914905683427247 0 -0.00025097572820802992 -0.0099672537225411161 0 -0.00033127025911156542 -0.0097567267859203031 0 -0.00025097572820802992 -0.0099672537225411161 0 -5.500556571722476e-05 -0.0098638779362751321 0 -0.00047282437491908135 -0.010029995775645494 0 9.8136901771849613e-05 -0.010132046963519485 0 -0.0003580082813648361 -0.010276245012003039 0 -0.00025097572820802992 -0.0099672537225411161 0 -0.00034691771363470734 -0.010167453367234328 0 9.8136901771849613e-05 -0.010132046963519485 0 -0.00047282437491908135 -0.010029995775645494 0 -0.00065517626668121134 -0.010160048221730136 0 -0.0003580082813648361 -0.010276245012003039 0 -0.00096731163532943955 -0.0099288053950620774 0 -0.00047282437491908135 -0.010029995775645494 0 -0.00065517626668121134 -0.010160048221730136 0 -0.00075703987719927257 -0.01020379867056659 0 -0.0006029723525860758 -0.009914905683427247 0 -0.00034691771363470734 -0.010167453367234328 0 -0.00085172814147337203 -0.010103999532058478 0 -0.00041161278059160281 -0.01009951675451117 0 0.00043861912586208585 -0.0098758487822341763 0 0.00054026551542742714 -0.010035201407325707 0 0.0002070680258955042 -0.0099642949729599629 0 0.00054026551542742714 -0.010035201407325707 0 0.00037530669692675459 -0.010141656292395326 0 0.0002070680258955042 -0.0099642949729599629 0 0.00037530669692675459 -0.010141656292395326 0 0.0002070680258955042 -0.0099642949729599629 0 9.8136901771849613e-05 -0.010132046963519485 0 -0.00025097572820802992 -0.0099672537225411161 0 -5.500556571722476e-05 -0.0098638779362751321 0 9.8136901771849613e-05 -0.010132046963519485 0 0.0002070680258955042 -0.0099642949729599629 0 -5.500556571722476e-05 -0.0098638779362751321 0 9.8136901771849613e-05 -0.010132046963519485 0 0.00010850054742862935 -0.0097062142908202909 0 0.0002070680258955042 -0.0099642949729599629 0 -5.500556571722476e-05 -0.0098638779362751321 0 -0.00041161278059160281 -0.01009951675451117 0 5.0703256114476549e-05 -0.010112141334437816 0 9.8136901771849613e-05 -0.010132046963519485 0 8.3897180349778785e-05 -0.010482881135084011 0 -0.0003580082813648361 -0.010276245012003039 0 9.8136901771849613e-05 -0.010132046963519485 0 0.00041446535015186739 -0.01042099657592965 0 8.3897180349778785e-05 -0.010482881135084011 0 0.00037530669692675459 -0.010141656292395326 0 9.8136901771849613e-05 -0.010132046963519485 0 0.00041446535015186739 -0.01042099657592965 0 0.00058402092234960954 -0.010253224729284464 0 0.00037530669692675459 -0.010141656292395326 0 0.00041446535015186739 -0.01042099657592965 0 0.00041446535015186739 -0.01042099657592965 0 8.3897180349778785e-05 -0.010482881135084011 0 0.00031634843859248556 -0.010870412124224179 0 0.00061860699948207084 -0.010805193999637605 0 0.00041446535015186739 -0.01042099657592965 0 0.00031634843859248556 -0.010870412124224179 0 8.3897180349778785e-05 -0.010482881135084011 0 -0.0001069675205811081 -0.010815862051729262 0 0.00031634843859248556 -0.010870412124224179 0 8.3897180349778785e-05 -0.010482881135084011 0 -0.0001069675205811081 -0.010815862051729262 0 -0.0003580082813648361 -0.010276245012003039 0 -0.0001069675205811081 -0.010815862051729262 0 0.00031634843859248556 -0.010870412124224179 0 9.5524644436697367e-05 -0.011527691905985042 0 -0.0001069675205811081 -0.010815862051729262 0 -0.00052234459009019155 -0.011166383147209904 0 9.5524644436697367e-05 -0.011527691905985042 0 0.00061860699948207084 -0.010805193999637605 0 0.0007530018513811328 -0.011571727801723561 0 0.00031634843859248556 -0.010870412124224179 0 -0.00096731163532943955 -0.0099288053950620774 0 -0.00065517626668121134 -0.010160048221730136 0 -0.00083155425991890983 -0.010326575288992475 0 -0.00035855420286421368 -0.010314372756118703 0 -0.00041505107472638778 -0.010868963747803105 0 -0.00065517626668121134 -0.010160048221730136 0 -0.0003580082813648361 -0.010276245012003039 0 -0.00032163479186550275 -0.01056196765042478 0 -0.0001069675205811081 -0.010815862051729262 0 -0.0003580082813648361 -0.010276245012003039 0 -0.00052234459009019155 -0.011166383147209904 0 -0.00032163479186550275 -0.01056196765042478 0 -0.00083155425991890983 -0.010326575288992475 0 -0.00098409742112229846 -0.010943937118551647 0 -0.00065517626668121134 -0.010160048221730136 0 -0.00032163479186550275 -0.01056196765042478 0 -0.00083155425991890983 -0.010326575288992475 0 -0.00032163479186550275 -0.01056196765042478 0 -0.00028895966856780033 -0.011363547118843877 0 -0.00098409742112229846 -0.010943937118551647 0 -0.00052234459009019155 -0.011166383147209904 0 -0.00058090532818922888 -0.011974995780825195 0 9.5524644436697367e-05 -0.011527691905985042 0 -0.00041505107472638778 -0.010868963747803105 0 -0.000434538162492689 -0.011672397537547449 0 -0.00058090532818922888 -0.011974995780825195 0 9.5524644436697367e-05 -0.011527691905985042 0 -9.1303239005050156e-05 -0.012467738527397319 0 -0.00028895966856780033 -0.011363547118843877 0 -0.0008482399750503615 -0.01172267510082191 0 -0.00032559501082523478 -0.012371783595931409 0 -0.00028895966856780033 -0.011363547118843877 0 -0.0008482399750503615 -0.01172267510082191 0 -0.00098409742112229846 -0.010943937118551647 0 0.0007530018513811328 -0.011571727801723561 0 0.00031634843859248556 -0.010870412124224179 0 9.5524644436697367e-05 -0.011527691905985042 0 9.5524644436697367e-05 -0.011527691905985042 0 0.00049387424878897461 -0.012342503312938324 0 -9.1303239005050156e-05 -0.012467738527397319 0 0.0007530018513811328 -0.011571727801723561 0 9.5524644436697367e-05 -0.011527691905985042 0 0.00049387424878897461 -0.012342503312938324 0 -0.00013217281916716157 -0.01528382602355749 0 -0.00018156150167979718 -0.015726418134809003 0 -0.00087029018681029783 -0.019151862871616403 0 -0.00073327972125981585 -0.019157941553683739 0 -0.00080499968162679291 -0.019189542273019396 0 -0.00018156150167979718 -0.015726418134809003 0 -0.00030902851977207785 -0.016198378793168246 0 0.00049387424878897461 -0.012342503312938324 0 -9.1303239005050156e-05 -0.012467738527397319 0 0.00020000464173226186 -0.01308868227488472 0 -9.1303239005050156e-05 -0.012467738527397319 0 0.00020000464173226186 -0.01308868227488472 0 -0.00016478383658375718 -0.012954806912378467 0 -0.00071325889014591166 -0.019142391776130901 0 -0.00073327972125981585 -0.019157941553683739 0 -0.00080499968162679291 -0.019189542273019396 0 -0.000434538162492689 -0.011672397537547449 0 -0.00045178958529941421 -0.012583736253028811 0 -0.0008482399750503615 -0.01172267510082191 0 -0.00032559501082523478 -0.012371783595931409 0 -0.0010943638568365062 -0.012337911829169547 0 -0.00058090532818922888 -0.011974995780825195 0 -9.1303239005050156e-05 -0.012467738527397319 0 -0.00057207629048354708 -0.01277884175224867 0 -9.1303239005050156e-05 -0.012467738527397319 0 -0.00057207629048354708 -0.01277884175224867 0 -0.00016478383658375718 -0.012954806912378467 0 -0.00019874537138159302 -0.013449512923456088 0 -0.00057207629048354708 -0.01277884175224867 0 -0.00016478383658375718 -0.012954806912378467 0 -0.00019874537138159302 -0.013449512923456088 0 0.00020000464173226186 -0.01308868227488472 0 -0.00016478383658375718 -0.012954806912378467 0 -0.00050873935568342154 -0.013527671026135933 0 -0.00019874537138159302 -0.013449512923456088 0 -0.00057207629048354708 -0.01277884175224867 0 -0.00051695146916856693 -0.013456867250745371 0 -0.00045178958529941421 -0.012583736253028811 0 -0.00050873935568342154 -0.013527671026135933 0 -0.00032559501082523478 -0.012371783595931409 0 -0.00084765550264457158 -0.012956260806206236 0 -0.00032559501082523478 -0.012371783595931409 0 -0.00084765550264457158 -0.012956260806206236 0 -0.0010943638568365062 -0.012337911829169547 0 -0.00084765550264457158 -0.012956260806206236 0 -0.0013133466271962834 -0.013075526681177445 0 -0.0010943638568365062 -0.012337911829169547 0 -0.0013133466271962834 -0.013075526681177445 0 -0.0010943638568365062 -0.012337911829169547 0 -0.001663541912497157 -0.012459801768694004 0 -0.0010943638568365062 -0.012337911829169547 0 -0.001663541912497157 -0.012459801768694004 0 -0.0015468154315949471 -0.011682306136901717 0 -0.0008482399750503615 -0.01172267510082191 0 -0.0010943638568365062 -0.012337911829169547 0 -0.0015468154315949471 -0.011682306136901717 0 -0.001663541912497157 -0.012459801768694004 0 -0.0022519187105786969 -0.012197821601001009 0 -0.0015468154315949471 -0.011682306136901717 0 -0.0013133466271962834 -0.013075526681177445 0 -0.0021340921233740802 -0.013014280100972941 0 -0.001663541912497157 -0.012459801768694004 0 -0.0021340921233740802 -0.013014280100972941 0 -0.001663541912497157 -0.012459801768694004 0 -0.0022519187105786969 -0.012197821601001009 0 -0.0027109067335633267 -0.012943559592847136 0 -0.0021340921233740802 -0.013014280100972941 0 -0.0027156853513026005 -0.01251875466673278 0 -0.0021340921233740802 -0.013014280100972941 0 -0.0027156853513026005 -0.01251875466673278 0 -0.0022519187105786969 -0.012197821601001009 0 -0.0027109067335633267 -0.012943559592847136 0 -0.0032043472146725308 -0.012654738792098347 0 -0.0027156853513026005 -0.01251875466673278 0 -0.0032043472146725308 -0.012654738792098347 0 -0.0027156853513026005 -0.01251875466673278 0 -0.0029792747655756381 -0.011894836322749689 0 -0.0027156853513026005 -0.01251875466673278 0 -0.0029792747655756381 -0.011894836322749689 0 -0.0022519187105786969 -0.012197821601001009 0 -0.0029792747655756381 -0.011894836322749689 0 -0.0022519187105786969 -0.012197821601001009 0 -0.0021861950507946317 -0.01154915340525613 0 -0.0029792747655756381 -0.011894836322749689 0 -0.0021861950507946317 -0.01154915340525613 0 -0.002625632277938857 -0.010958870509630578 0 -0.0025578231290044398 -0.010442590416494684 0 -0.0024489232518176821 -0.010198236385123202 0 -0.0022746103197450233 -0.0093073372270688695 0 -0.0022574258930599133 -0.0093456028628411628 0 -0.0022904927401020936 -0.0093837998090545889 0 -0.0022563041580016432 -0.0094954644282606894 0 -0.0022574258930599133 -0.0093456028628411628 0 -0.0022904927401020936 -0.0093837998090545889 0 -0.0021355101271443395 -0.0098188647939214321 0 -0.002625632277938857 -0.010958870509630578 0 -0.0017636157011765368 -0.010882437765424417 0 -0.0021861950507946317 -0.01154915340525613 0 -0.002625632277938857 -0.010958870509630578 0 -0.0017636157011765368 -0.010882437765424417 0 -0.0017636157011765368 -0.010882437765424417 0 -0.00098409742112229846 -0.010943937118551647 0 -0.0015468154315949471 -0.011682306136901717 0 -0.0013414784288024893 -0.010165881774334782 0 -0.0017636157011765368 -0.010882437765424417 0 -0.00098409742112229846 -0.010943937118551647 0 -0.0008482399750503615 -0.01172267510082191 0 -0.00098409742112229846 -0.010943937118551647 0 -0.0015468154315949471 -0.011682306136901717 0 -0.0022519187105786969 -0.012197821601001009 0 -0.0021861950507946317 -0.01154915340525613 0 -0.0015468154315949471 -0.011682306136901717 0 -0.0021861950507946317 -0.01154915340525613 0 -0.0017636157011765368 -0.010882437765424417 0 -0.0015468154315949471 -0.011682306136901717 0 
</DataArray>
</PointData>
<CellData Scalars="region_id,cross_section_updated," Vectors="" Tensors="stress,">
<DataArray type="Float64" Name="region_id" format="ascii">
5 5 5 5 5 6 5 5 5 5 5 5 5 5 5 5 6 5 5 6 5 6 5 5 5 5 6 5 5 5 5 5 5 6 5 5 5 5 5 5 6 6 5 5 6 6 5 5 5 5 5 5 5 5 5 5 6 6 5 5 5 6 5 5 5 5 6 5 5 5 5 5 5 5 5 5 5 5 6 5 5 5 6 5 5 5 6 5 5 5 5 6 5 5 5 5 5 5 6 5 5 6 5 5 5 5 6 5 5 5 5 5 6 5 5 5 5 5 5 5 5 5 5 5 5 5 5 5 5 5 5 5 5 5 5 6 5 5 5 6 5 5 5 5 5 5 6 5 5 5 5 5 5 5 5 5 5 5 5 5 5 5 5 5 5 5 5 5 5 5 6 5 6 5 5 5 5 5 5 5 5 5 5 5 5 6 5 5 5 5 5 5 5 5 5 5 5 5 6 5 5 5 5 5 5 5 5 5 5 5 5 6 5 5 5 6 6 5 5 5 5 5 5 5 6 5 5 5 5 5 5 5 5 5 6 5 5 6 5 5 5 5 5 5 5 5 5 5 5 5 5 5 5 5 5 5 6 5 5 5 5 5 5 5 5 5 6 5 5 5 5 5 5 5 5 5 5 5 5 5 5 5 6 5 5 5 5 5 5 5 5 5 5 5 5 5 5 5 5 5 5 6 5 5 5 5 6 5 5 5 5 5 5 5 5 6 5 5 6 5 5 5 5 5 5 5 5 5 5 5 5 5 5 5 5 5 5 5 5 5 5 5 6 5 5 5 5 6 5 5 5 5 5 6 6 5 5 6 6 5 5 5 5 5 5 5 6 5 5 5 5 5 5 5 5 6 5 5 5 5 5 5 5 5 6 5 5 5 5 6 5 5 5 5 5 5 6 5 5 5 5 5 5 5 5 5 5 5 5 5 5 5 5 5 5 5 5 5 5 5 5 5 5 5 5 5 6 5 5 5 5 5 5 5 5 6 5 5 5 6 5 5 6 5 5 5 5 5 5 5 5 6 5 5 5 6 5 6 5 5 5 5 6 5 5 6 5 5 6 5 5 5 6 5 5 5 5 5 5 5 5 5 5 5 5 5 5 5 5 5 5 5 5 5 5 5 6 5 5 5 5 5 5 5 5 6 5 5 5 5 5 5 5 5 5 5 5 5 5 6 5 5 5 5 5 5 5 5 5 5 5 5 5 5 5 5 5 5 5 5 5 6 5 5 5 6 5 5 6 5 5 5 5 6 5 5 5 5 5 5 5 6 5 6 5 5 5 5 5 5 5 5 5 5 5 5 5 5 5 5 5 5 5 5 5 5 6 5 6 5 6 5 5 6 6 5 5 5 5 5 5 5 5 5 5 5 5 5 5 5 5 5 6 5 5 5 5 6 5 5 5 5 6 6 5 6 5 5 5 5 5 5 5 5 5 5 5 5 5 5 5 5 5 5 5 5 5 5 5 5 5 5 6 5 5 5 5 5 5 5 5 5 5 5 5 6 5 5 5 6 5 6 5 5 5 5 5 5 5 5 5 5 6 5 5 5 6 5 5 5 5 5 5 5 5 5 6 5 5 5 5 6 5 5 5 5 5 5 5 5 5 6 5 5 6 5 5 5 5 5 6 5 5 5 5 6 5 5 5 5 5 5 5 6 6 5 5 5 5 5 5 6 5 6 5 5 6 5 6 5 5 5 6 5 5 5 5 6 5 5 6 5 6 6 5 6 6 5 5 6 5 6 5 5 5 6 6 5 5 5 5 5 6 5 5 5 5 5 5 5 5 6 5 6 5 5 5 5 6 6 5 5 6 5 5 5 5 5 6 5 5 6 5 6 5 6 6 5 6 5 6 6 6 5 5 6 5 6 5 5 6 5 5 5 5 5 6 5 5 6 5 5 5 5 6 5 5 5 5 5 5 5 6 5 6 5 5 5 6 5 5 5 5 5 5 5 5 5 5 5 5 5 5 5 5 5 5 6 5 5 5 5 5 5 5 5 5 6 5 5 5 5 5 5 5 5 5 5 5 5 5 6 5 5 5 5 5 5 5 5 5 5 5 5 5 5 5 5 5 5 5 5 5 5 5 5 5 5 5 5 5 5 5 5 5 5 5 5 5 5 5 5 6 5 5 5 5 5 5 5 5 5 5 5 5 5 5 5 6 6 5 5 6 5 5 5 5 5 5 5 5 5 5 5 5 5 5 5 5 5 5 5 5 6 5 6 5 5 5 5 5 6 6 5 5 5 5 5 5 5 5 5 5 5 5 5 5 5 5 5 5 5 5 5 5 5 5 5 5 5 5 5 5 5 5 5 5 5 5 5 5 5 5 5 5 5 5 5 5 5 5 5 5 5 5 5 5 5 5 6 5 5 5 5 5 5 5 6 5 5 5 5 6 5 5 5 5 5 5 5 5 5 5 5 5 5 5 5 6 5 5 5 5 6 5 5 5 5 6 5 5 6 5 5 6 5 5 5 5 6 5 5 5 5 5 5 5 5 5 5 5 5 5 5 5 5 5 5 5 5 5 5 5 5 6 5 6 5 5 5 5 5 5 5 5 5 5 5 5 6 5 5 5 5 5 6 5 5 5 5 5 5 5 5 5 5 5 6 6 5 5 6 5 5 5 5 6 5 5 6 5 5 5 5 5 5 6 5 5 5 5 5 5 5 5 5 5 5 5 5 5 5 5 5 6 5 5 6 5 5 5 6 5 6 5 5 5 5 6 5 5 5 5 5 5 5 6 5 5 5 5 6 6 5 5 6 5 5 5 6 5 5 6 5 5 6 5 5 6 5 5 5 6 5 5 5 5 5 5 5 5 5 5 5 6 5 5 5 6 6 5 5 6 5 5 6 5 5 6 5 6 5 5 5 6 6 6 5 5 6 5 5 5 5 5 6 5 5 5 5 6 5 5 6 5 5 6 6 5 5 5 5 6 5 5 5 6 5 6 5 5 5 5 5 5 5 5 6 5 5 5 6 5 5 5 5 5 5 5 5 5 5 5 6 5 5 5 5 5 6 6 5 6 6 5 5 5 6 5 6 5 5 6 5 5 5 5 5 5 5 5 5 6 5 5 5 5 6 5 5 5 5 5 5 5 5 5 6 5 5 5 5 5 6 6 5 5 6 5 5 5 5 5 6 5 6 5 5 5 6 5 5 5 5 5 5 5 5 5 6 6 5 5 5 6 5 5 6 6 5 5 5 6 5 5 5 5 5 5 6 5 5 5 6 6 5 5 5 6 6 5 5 6 5 5 5 6 5 6 5 5 5 6 5 5 5 5 5 5 6 6 5 6 5 5 6 5 6 6 5 5 6 5 5 5 5 5 6 5 5 5 5 6 5 5 5 5 5 5 5 6 5 5 5 5 6 5 5 5 5 5 5 5 5 5 5 6 5 5 6 6 5 5 5 5 5 5 5 6 5 5 5 6 6 5 5 5 5 5 5 5 5 6 5 5 5 5 6 5 5 5 5 5 6 5 5 5 5 5 5 5 5 5 5 5 5 5 5 5 5 5 5 5 5 5 6 5 5 6 5 5 5 5 6 5 5 5 5 5 5 5 5 5 5 5 5 5 5 5 5 5 5 5 5 5 5 5 5 5 5 5 5 5 5 5 5 5 5 5 5 5 5 5 5 5 5 5 5 5 5 5 5 5 6 5 5 5 5 5 5 6 5 5 5 5 6 5 6 5 5 6 5 5 5 5 5 5 5 5 5 5 5 5 5 6 5 5 6 5 5 6 5 6 5 5 5 5 5 5 5 5 5 5 5 5 5 5 5 5 5 5 5 5 5 5 6 5 5 5 5 5 5 5 5 5 5 5 5 5 5 5 5 5 5 5 5 5 5 5 5 5 5 5 5 5 5 5 5 5 5 6 5 5 5 5 5 5 6 5 5 6 6 5 5 5 5 5 5 5 6 5 5 6 5 5 5 5 5 5 6 5 5 5 6 5 6 5 5 5 6 5 5 5 6 5 5 5 5 5 6 5 5 6 5 6 6 5 5 6 5 6 5 5 5 5 5 6 5 5 6 5 6 5 5 6 5 5 5 5 5 6 6 6 5 5 5 5 5 5 5 5 5 5 6 5 5 6 5 5 6 6 6 5 6 5 5 5 5 6 5 6 5 5 5 6 5 6 5 6 5 5 5 6 5 5 6 5 6 6 6 5 5 6 5 6 6 5 5 5 5 5 5 5 5 5 5 5 5 6 5 5 5 5 6 5 5 5 6 6 6 5 5 5 6 5 6 5 6 5 5 5 5 5 5 6 5 5 6 6 6 5 5 5 6 5 6 5 5 5 5 5 5 5 6 5 5 5 5 6 5 5 5 6 5 6 6 5 6 5 5 5 5 5 5 5 5 5 5 5 5 5 5 6 5 5 5 5 5 5 5 5 5 5 5 6 5 5 5 5 5 5 5 5 5 5 5 5 5 5 5 5 5 6 5 5 5 5 6 5 5 5 5 5 5 5 5 5 5 5 5 5 5 5 5 6 5 6 5 5 5 5 6 5 5 6 5 5 6 5 5 6 6 5 5 6 5 5 6 5 5 5 6 5 5 5 5 6 5 6 5 5 5 5 5 5 5 5 5 5 5 5 5 5 5 5 5 5 5 5 5 5 5 5 5 6 5 5 6 5 5 5 5 5 5 5 5 5 5 5 6 5 5 5 5 6 5 5 6 5 5 5 5 5 6 5 6 5 5 5 5 5 5 5 5 5 5 5 5 5 5 5 5 5 5 5 5 5 5 5 5 5 6 5 6 5 6 6 5 5 5 5 5 6 5 5 5 5 5 5 6 5 5 5 5 5 5 6 6 5 5 5 5 6 5 5 5 5 5 5 5 5 5 5 5 5 5 5 5 5 5 5 6 5 6 6 5 5 5 5 5 5 5 6 5 5 5 6 6 5 5 5 5 5 5 5 5 5 5 5 5 5 5 5 5 5 5 5 5 5 5 5 5 5 5 5 5 6 5 5 5 5 6 5 5 5 5 5 5 5 5 5 5 5 5 5 5 5 5 5 5 6 5 5 5 5 5 5 5 5 6 6 5 6 5 5 5 5 5 5 5 5 5 5 5 6 5 6 5 5 5 5 5 5 5 5 5 6 5 5 5 6 6 5 5 5 6 6 5 6 5 5 5 5 5 5 5 5 5 6 5 5 5 5 5 5 5 6 5 5 5 5 5 5 6 5 5 5 5 5 5 6 5 5 5 5 5 5 5 5 5 5 5 5 5 5 5 6 5 5 5 5 5 5 5 5 5 5 5 5 5 5 5 6 5 5 5 5 5 5 5 5 5 5 6 5 5 5 6 5 5 5 5 5 5 5 6 5 5 5 6 5 5 6 5 5 5 6 6 5 5 5 6 5 5 5 5 5 5 5 6 5 5 5 5 5 6 5 5 5 5 6 5 5 5 5 5 5 5 5 6 5 5 5 5 5 5 5 5 5 5 5 5 5 5 5 5 5 5 5 5 5 5 5 5 5 5 5 5 5 5 5 5 5 6 5 5 6 5 5 5 6 6 5 5 5 5 6 6 5 5 5 5 5 6 5 5 5 5 5 5 5 6 5 5 5 5 5 6 5 5 5 6 5 5 5 5 5 6 6 5 5 5 5 5 5 5 5 5 5 5 6 5 5 6 5 5 5 5 5 5 5 5 5 5 5 5 5 6 6 5 5 5 5 5 5 5 5 5 5 5 5 5 5 6 5 5 5 6 5 5 5 5 5 5 5 5 5 5 5 5 5 5 6 5 6 5 6 5 5 5 5 5 6 6 5 5 5 5 5 6 5 5 5 5 5 5 5 5 5 5 6 5 5 5 5 5 5 5 5 5 5 5 5 5 5 5 5 5 5 5 5 6 5 5 5 5 5 5 5 5 5 5 5 5 5 5 5 5 5 5 5 5 5 5 5 5 5 6 5 5 5 5 5 5 5 6 5 5 5 6 5 5 5 5 6 5 6 5 5 5 5 5 5 6 5 5 5 6 5 5 5 5 6 5 6 5 6 5 5 5 6 5 6 5 5 5 5 5 5 5 5 6 5 5 5 5 5 5 6 5 5 5 5 5 6 6 6 5 5 5 5 5 5 5 5 5 5 5 5 5 6 5 6 5 5 5 5 5 5 5 5 5 6 5 5 6 6 5 5 6 5 5 5 5 6 5 5 5 5 6 5 5 5 5 5 6 5 5 5 5 6 5 5 5 6 5 5 5 5 5 6 5 5 5 5 5 5 5 5 5 6 5 5 5 5 5 5 5 5 5 6 5 5 5 5 5 5 5 5 5 5 6 5 5 6 5 6 5 5 5 5 5 5 5 5 5 5 6 5 6 5 5 5 5 5 5 5 5 5 5 5 6 5 5 5 6 5 5 5 5 6 5 5 6 5 5 5 5 5 5 5 5 5 5 5 5 5 5 5 5 5 5 5 5 5 5 5 5 5 5 5 6 5 5 5 5 6 5 6 6 5 5 5 5 5 6 6 5 5 5 5 5 5 5 5 5 5 5 5 5 5 5 5 5 5 5 6 5 5 5 5 6 5 5 5 5 5 5 5 6 6 5 5 6 5 5 6 5 6 5 6 5 5 5 5 5 6 5 5 6 5 6 5 5 5 5 5 5 5 5 5 5 5 5 5 5 5 5 6 5 6 5 5 5 5 5 5 5 5 5 5 5 5 5 5 5 5 5 5 5 5 5 5 5 5 5 5 5 5 5 5 5 5 5 5 5 6 5 5 5 5 6 5 5 5 5 5 5 5 5 5 5 5 5 5 6 5 6 5 5 5 6 6 5 5 5 5 5 6 5 5 5 5 6 5 5 6 5 5 5 5 5 5 5 5 5 5 5 5 5 5 5 5 5 5 5 5 5 5 5 5 5 5 5 5 5 5 5 5 5 5 5 5 6 5 5 5 5 5 5 5 5 5 5 5 5 5 5 5 5 5 5 5 5 5 5 5 5 5 5 5 5 5 5 5 5 6 5 6 5 5 5 5 6 5 5 5 5 6 5 5 5 5 5 5 5 5 5 5 5 5 5 5 5 5 5 5 5 6 5 5 5 5 5 5 6 5 5 5 5 5 6 5 5 5 5 5 5 5 5 5 5 5 6 5 5 5 5 5 5 5 5 6 5 5 5 5 5 5 5 6 5 5 5 5 5 5 5 5 5 5 5 5 5 5 5 5 5 5 5 5 6 5 6 5 5 5 5 5 5 5 5 5 6 6 5 5 6 5 5 5 6 5 5 5 5 6 5 5 5 6 5 5 5 5 5 5 5 5 5 5 5 6 5 5 6 5 5 5 5 6 5 5 6 5 5 5 5 5 5 5 5 5 5 5 5 5 6 5 5 5 5 5 5 6 5 5 5 6 5 5 5 5 5 5 5 5 6 5 5 5 6 5 5 5 6 5 6 5 5 5 5 5 5 5 5 5 5 6 5 6 5 6 5 6 5 5 5 5 5 5 5 5 6 5 6 5 5 5 5 6 5 5 5 5 5 6 5 5 5 5 6 5 5 5 5 5 6 5 6 5 6 6 5 5 5 5 6 5 5 5 5 5 5 5 5 5 5 5 5 5 5 5 5 5 5 5 5 5 5 6 5 6 5 6 5 5 5 6 5 6 5 5 5 6 5 5 5 5 5 5 5 5 5 5 5 5 5 5 5 5 5 5 5 5 5 5 5 5 5 5 5 5 5 5 5 5 5 5 5 5 5 5 5 5 5 5 5 5 5 5 5 5 5 5 5 5 5 5 5 5 5 5 5 5 5 5 5 5 5 5 5 5 5 5 5 5 5 5 5 5 5 5 5 6 5 5 5 5 5 5 6 5 5 5 5 5 5 6 5 5 5 5 5 6 5 5 5 6 5 5 5 5 5 5 6 5 5 6 5 6 6 5 5 5 6 5 5 5 5 5 5 5 5 5 5 5 5 5 5 5 5 5 5 5 5 5 5 5 5 5 5 5 5 5 5 5 5 5 5 5 5 6 5 5 5 5 5 6 5 5 5 5 5 5 5 5 5 6 6 5 5 6 5 6 5 5 6 6 5 5 6 5 5 5 5 5 5 5 5 5 5 5 5 5 6 5 5 5 5 5 5 5 5 5 5 5 5 5 5 5 5 5 5 5 5 6 5 5 5 5 6 5 5 6 5 5 5 5 5 5 5 5 5 5 5 6 5 5 5 5 5 5 5 5 5 5 5 5 5 5 6 5 5 5 5 6 5 5 5 5 5 6 5 5 5 5 5 5 5 5 5 5 5 5 5 6 5 5 5 5 5 5 5 5 5 5 5 5 5 5 5 5 5 5 6 6 5 5 5 5 5 5 5 5 5 5 6 5 5 5 5 5 5 5 5 5 5 5 6 5 5 5 5 6 5 5 5 5 5 5 5 5 5 5 5 5 6 5 5 5 5 5 5 5 5 5 5 5 5 5 5 5 5 5 5 5 5 5 6 6 5 5 5 5 5 5 5 5 5 5 5 6 6 5 5 5 5 5 6 5 5 5 5 6 6 5 6 5 5 6 5 6 5 5 5 6 5 5 5 5 6 5 5 5 5 5 6 5 5 5 6 5 5 5 5 5 6 5 5 5 5 5 6 5 5 6 5 5 6 5 5 5 6 5 5 5 6 5 5 5 6 5 5 5 6 5 6 5 5 5 5 5 5 5 6 5 5 5 6 5 5 5 5 5 5 5 5 5 5 5 5 5 5 5 5 5 5 5 5 5 5 5 5 5 5 5 5 5 5 5 5 5 5 5 5 5 5 5 5 5 5 5 5 5 5 5 5 5 5 5 5 5 5 5 5 5 5 5 5 5 5 5 5 5 5 5 5 5 5 5 5 5 5 5 5 5 5 6 5 5 6 5 5 5 5 5 5 5 5 5 5 5 5 5 5 6 5 5 6 5 5 6 5 5 5 5 5 5 5 5 5 5 5 5 5 5 5 5 5 5 5 5 5 5 5 5 5 5 5 5 5 5 5 5 5 6 5 5 5 5 5 5 5 5 5 5 5 5 5 5 5 5 5 5 5 5 5 5 5 5 5 5 5 5 5 5 5 5 5 5 5 5 5 6 5 5 5 5 5 5 5 5 5 5 5 5 5 5 5 5 5 5 5 5 5 5 5 5 5 5 5 5 5 5 5 5 5 5 5 5 5 5 5 5 5 5 5 5 5 5 5 5 5 5 5 5 5 5 5 5 5 5 6 5 5 5 5 5 5 5 5 5 5 5 5 5 5 5 5 6 5 5 6 5 6 6 5 5 5 5 5 5 5 5 5 5 5 5 5 5 5 5 5 5 5 5 5 5 5 5 5 5 5 5 5 5 5 5 5 5 5 5 5 5 5 5 6 5 5 5 5 6 5 5 5 5 5 6 6 5 5 5 6 6 6 5 5 5 5 5 5 5 6 5 5 6 5 5 6 5 5 6 5 5 5 5 5 5 6 5 5 6 5 5 5 5 5 5 5 5 5 5 5 5 5 5 5 5 5 5 5 5 5 5 5 5 5 5 6 5 5 5 5 5 5 5 5 5 5 5 5 5 5 5 5 5 5 5 5 5 5 5 5 5 5 5 5 5 5 5 5 5 5 5 5 5 5 5 5 5 5 5 5 5 5 5 5 5 5 5 5 5 5 5 5 6 5 5 6 6 5 5 6 6 5 5 5 6 5 6 5 5 5 6 5 5 5 5 5 5 5 5 5 5 5 5 5 5 6 5 5 5 5 5 6 5 5 5 5 5 5 5 5 6 5 5 5 5 5 6 5 5 5 5 5 5 5 5 5 5 5 5 5 5 6 5 5 5 6 6 5 5 5 5 5 5 5 5 6 5 6 5 6 5 6 5 5 6 5 6 5 5 5 5 5 5 5 5 5 5 5 6 5 5 5 5 5 5 5 5 5 5 6 5 5 5 5 5 5 5 5 5 5 5 5 5 5 5 6 5 5 5 5 5 5 5 5 6 5 5 6 6 5 6 6 5 6 5 5 6 5 6 5 6 5 6 5 5 5 5 5 6 5 5 5 6 5 5 5 5 5 5 5 5 5 6 5 5 5 5 5 5 5 5 5 5 5 5 5 5 5 5 5 5 5 6 5 5 5 5 5 5 5 6 5 6 5 5 5 5 6 5 5 5 5 5 5 6 5 5 5 5 5 5 5 5 5 5 5 5 5 5 5 5 5 6 5 5 5 5 6 5 6 5 5 5 6 6 5 5 5 5 5 6 5 5 5 6 5 5 5 6 6 5 5 5 5 5 6 6 5 6 5 5 5 5 5 5 5 5 5 5 5 5 5 5 5 5 6 5 5 5 5 6 5 5 6 5 5 5 5 5 5 5 5 5 5 5 5 5 5 5 5 5 5 6 5 5 5 5 5 5 5 5 6 5 5 6 5 5 5 5 6 5 5 5 5 5 5 6 6 5 5 5 5 5 6 5 5 5 5 6 5 5 6 5 5 5 5 6 6 5 5 5 5 6 6 5 5 5 5 5 5 5 5 5 5 6 5 5 5 5 5 6 6 5 5 5 5 5 5 5 5 5 5 5 5 6 5 5 5 5 5 5 5 5 6 5 5 5 6 5 5 5 5 6 5 5 6 5 5 5 5 5 5 5 5 5 5 5 5 5 5 5 5 5 5 5 5 5 5 5 5 6 5 5 5 5 5 5 5 5 5 5 5 5 5 5 5 5 5 5 5 5 5 5 5 5 5 5 5 5 6 5 5 6 5 5 6 5 5 5 5 6 5 5 5 5 5 6 5 5 5 5 5 5 6 5 5 5 5 5 5 5 5 6 5 5 5 5 5 5 5 5 5 5 5 5 5 5 5 5 5 5 6 5 5 6 5 6 5 5 6 5 5 5 5 5 5 5 5 5 5 5 5 5 5 5 5 5 5 5 5 5 5 5 5 5 5 5 5 5 5 5 6 5 5 6 5 5 6 6 5 5 5 5 5 5 5 5 5 5 5 5 5 5 5 5 5 5 5 5 5 5 5 5 5 5 5 5 5 5 5 5 5 6 5 6 5 6 5 5 5 5 5 6 5 5 5 5 5 6 5 6 5 6 5 5 5 5 5 5 5 5 6 5 6 5 5 6 5 5 5 5 5 5 6 5 6 6 5 5 5 5 5 5 5 5 6 5 5 6 5 5 6 5 6 5 5 5 6 6 5 6 5 5 5 5 5 5 5 5 5 5 5 5 5 5 5 5 5 5 5 6 5 5 5 5 5 5 5 5 5 5 5 5 5 5 5 5 5 5 5 5 5 5 5 5 5 5 5 5 5 5 5 5 5 5 5 5 5 5 5 5 5 5 5 5 5 5 5 5 5 5 5 5 5 5 6 5 5 5 5 6 5 5 5 5 5 5 5 5 5 5 5 5 5 5 5 5 6 5 6 5 5 5 5 5 5 5 6 6 6 5 5 5 5 6 6 6 6 6 5 5 6 5 5 5 5 6 5 5 5 5 5 5 5 6 5 5 6 6 5 5 5 5 5 5 6 5 6 6 5 6 6 5 5 5 5 6 5 6 5 5 6 5 5 6 5 6 5 5 6 5 6 5 5 5 5 6 5 5 5 5 6 5 5 6 5 5 5 5 5 5 6 5 5 5 5 5 5 5 5 5 6 5 6 5 5 5 5 5 5 5 6 5 5 5 5 5 5 5 5 5 5 5 6 6 5 5 6 6 5 5 6 5 5 5 6 5 6 6 5 5 5 6 6 5 5 6 5 5 6 5 6 5 6 5 5 5 5 5 6 5 5 6 5 6 6 5 6 6 5 5 5 5 5 5 6 6 5 6 5 5 5 5 6 5 5 5 5 5 5 5 5 5 5 5 5 5 5 5 5 5 5 5 5 5 5 5 5 5 5 5 5 5 5 5 5 5 5 5 5 5 5 5 5 5 5 5 5 5 5 5 5 5 5 5 5 5 5 5 5 5 5 5 5 5 5 5 5 5 5 5 5 5 5 5 5 5 5 5 5 5 5 5 5 5 6 5 5 5 5 5 5 6 5 5 5 5 5 5 6 5 5 6 5 5 5 5 5 5 5 5 5 5 5 5 5 5 6 5 5 5 5 5 6 5 5 5 5 6 5 5 5 5 5 5 5 5 5 5 5 5 5 5 5 5 5 5 5 5 5 5 5 5 5 5 5 5 5 5 5 5 5 5 5 6 5 5 5 5 5 5 5 5 5 5 5 5 5 5 5 5 5 5 5 5 5 5 5 5 5 5 5 5 5 5 5 5 5 5 5 5 5 5 5 5 5 5 5 5 5 5 5 5 5 5 5 5 5 5 5 5 5 5 5 5 5 5 5 5 5 5 5 5 5 5 5 5 5 5 5 5 5 5 5 5 5 5 5 5 5 5 5 5 5 5 5 5 5 5 5 5 5 5 5 5 6 5 5 5 5 5 5 5 5 5 5 5 5 5 5 5 5 5 5 5 5 5 5 6 5 6 5 5 5 5 5 6 6 5 5 6 5 6 5 5 6 5 5 5 5 5 5 5 5 5 5 5 5 5 5 5 5 5 5 6 5 5 5 6 5 5 5 6 5 6 5 5 5 5 5 5 5 5 5 5 6 5 5 5 5 6 6 6 5 5 5 5 5 5 5 5 6 5 5 5 5 5 5 5 5 6 5 5 6 5 5 5 5 5 6 5 6 5 6 6 5 6 5 5 6 5 6 5 5 5 5 5 5 5 5 6 5 6 6 5 6 5 6 5 5 5 6 6 5 5 6 5 6 5 6 5 5 5 5 5 6 5 5 5 5 5 5 5 5 5 6 5 6 5 5 5 5 5 5 5 6 5 5 5 6 5 6 6 5 5 5 5 5 6 6 5 5 5 5 5 5 5 5 6 5 6 5 6 5 5 5 5 5 6 5 5 5 5 5 5 5 5 5 5 5 5 5 5 5 5 5 5 5 5 5 5 6 5 5 5 5 5 6 5 5 5 5 6 5 5 5 5 5 5 5 6 5 5 6 5 5 5 5 5 5 5 5 5 5 5 5 5 6 5 6 5 5 5 5 5 5 5 5 5 5 5 5 5 6 5 5 5 6 5 5 6 5 6 5 5 5 5 5 5 6 5 5 5 5 5 5 5 6 5 5 6 5 6 5 6 6 6 5 5 5 6 5 5 6 5 6 5 5 5 5 5 5 5 5 5 5 5 5 5 5 5 5 6 5 6 5 5 5 5 5 5 5 5 5 5 5 5 5 5 5 5 6 5 5 5 5 6 5 5 5 5 5 5 5 5 5 5 5 5 5 5 5 5 5 5 5 5 6 5 5 5 5 6 5 5 5 5 5 5 6 5 5 5 5 5 5 5 5 5 5 5 5 5 5 6 6 5 5 5 5 6 5 5 5 5 6 6 5 5 5 5 5 5 5 5 5 5 5 5 5 5 6 5 6 5 5 5 5 5 5 5 5 5 5 5 5 5 5 5 5 5 5 5 5 5 5 5 5 5 5 5 5 5 5 5 5 5 5 5 5 5 5 5 5 5 6 5 5 5 5 5 5 5 5 5 5 6 5 5 5 5 5 5 5 5 5 5 5 5 5 5 5 5 6 5 5 6 5 6 5 5 5 5 5 6 5 6 5 5 6 5 5 5 5 5 5 5 5 5 5 5 5 5 5 5 5 6 5 5 6 5 5 5 5 5 5 5 5 5 5 5 5 5 5 5 5 5 5 5 5 5 5 5 5 5 5 5 5 5 5 5 5 5 5 5 6 5 5 5 6 5 5 5 5 5 5 5 5 6 5 5 5 6 5 5 6 5 5 5 5 6 6 5 6 5 5 5 5 5 6 5 6 5 6 5 5 5 5 5 5 5 6 5 5 5 5 5 6 5 5 5 6 5 5 5 6 5 5 6 5 5 6 5 5 5 5 5 5 5 5 5 6 5 5 5 5 5 5 6 5 5 5 6 6 5 5 5 5 5 5 5 5 5 5 5 5 5 5 5 5 5 5 5 5 6 5 5 5 5 5 5 5 5 6 5 5 5 5 5 5 5 5 5 5 5 5 5 6 5 5 6 5 5 5 5 5 5 5 5 5 5 5 5 5 5 5 5 5 5 5 5 5 5 5 5 5 5 5 5 5 5 5 5 5 5 5 5 5 5 5 5 5 5 5 5 5 5 5 5 5 5 5 5 5 6 5 5 5 5 5 5 5 5 5 5 5 5 5 5 5 5 5 5 5 5 5 5 5 5 5 5 5 5 5 5 5 5 5 5 5 5 5 5 5 5 5 5 5 5 5 5 5 5 5 5 5 5 5 5 5 5 5 5 5 5 5 6 5 5 5 5 5 5 5 5 5 6 5 5 5 5 5 5 5 6 5 5 5 5 5 5 5 5 6 5 5 5 5 5 5 5 6 6 5 5 5 5 5 5 5 5 5 5 5 5 5 5 5 5 5 5 5 5 5 5 6 5 5 5 5 5 5 5 5 5 5 5 5 5 5 5 5 5 5 5 5 5 5 5 5 5 5 5 5 5 5 5 5 5 5 5 5 5 5 5 5 5 5 5 6 5 5 5 5 5 5 5 5 5 6 5 5 5 5 5 5 6 5 5 5 5 5 5 5 6 5 6 5 5 6 5 5 5 5 6 5 6 5 6 5 5 6 5 5 5 5 5 5 5 5 5 5 5 5 6 5 5 5 5 5 5 5 5 5 5 5 5 5 5 5 5 5 5 5 5 5 5 5 5 5 5 5 5 5 5 6 5 5 5 5 5 5 5 5 5 5 5 5 5 6 5 5 6 5 5 5 6 6 5 5 6 6 5 5 5 5 5 5 5 5 5 5 5 5 5 6 5 5 5 5 6 5 6 5 5 6 6 5 5 5 5 6 5 5 5 6 5 5 5 5 5 5 5 5 5 5 5 5 5 5 6 6 5 5 5 5 5 5 5 6 5 5 6 5 6 5 5 5 5 5 6 6 5 5 6 5 5 6 5 6 5 5 5 5 5 6 6 5 5 5 5 5 6 5 6 5 5 5 5 6 5 5 5 5 6 5 5 5 5 5 5 5 5 6 5 5 6 5 5 5 5 5 5 5 5 5 6 5 5 5 5 5 5 5 5 5 5 5 5 5 6 5 5 5 5 6 5 5 5 5 5 5 6 5 5 5 6 5 6 6 5 5 5 5 5 5 5 5 5 5 5 5 6 5 5 5 5 5 6 5 6 5 5 5 5 5 5 6 5 5 5 5 5 5 5 5 5 5 5 5 5 5 5 5 6 5 5 5 5 5 5 5 5 5 5 6 5 5 5 6 6 5 5 5 5 5 6 6 5 6 5 5 6 5 5 5 5 6 5 5 5 5 5 5 5 5 5 5 5 5 6 5 5 5 5 6 5 5 5 6 5 5 5 6 5 5 5 6 5 5 5 6 5 5 5 5 5 5 5 5 5 5 5 5 5 6 5 5 5 6 5 5 5 5 5 5 6 5 5 5 5 5 5 5 5 5 5 5 5 6 5 5 5 5 5 6 5 5 5 5 6 5 5 5 5 5 5 5 5 5 5 5 6 5 5 5 5 5 5 6 5 5 5 5 5 5 5 5 5 5 5 5 5 5 5 5 5 5 5 5 5 6 5 5 5 5 6 5 5 5 5 5 5 5 5 5 5 6 5 6 5 5 5 5 6 5 5 5 5 5 5 5 5 6 5 5 5 5 5 6 5 5 5 6 5 5 5 5 5 6 5 5 5 5 5 5 6 6 5 5 5 6 5 5 6 6 6 5 5 5 6 5 5 5 6 5 5 5 5 5 5 5 5 5 5 5 6 6 5 5 5 5 6 5 5 5 5 5 5 5 5 5 5 5 5 5 6 5 5 5 6 5 5 5 5 5 5 5 5 6 5 5 6 5 5 5 5 5 5 6 5 5 5 5 6 5 5 6 6 5 6 6 5 5 6 5 5 6 5 5 5 5 5 5 5 5 6 5 5 5 6 5 5 5 5 5 5 5 5 5 5 5 5 5 5 5 5 5 5 5 5 5 5 5 5 5 5 5 5 5 5 5 5 5 6 5 5 5 5 5 5 5 5 5 5 5 5 5 5 5 5 5 6 5 5 5 5 5 5 5 5 5 6 5 5 5 5 5 6 5 6 5 5 5 5 5 5 5 5 5 5 5 5 5 5 5 5 5 5 5 5 5 6 5 5 5 5 5 5 5 5 5 5 5 6 6 5 5 5 6 5 5 5 5 5 5 5 5 5 6 5 5 5 5 5 5 5 6 5 6 5 5 5 5 5 5 5 5 5 5 5 5 5 5 5 5 5 5 5 5 5 5 6 5 5 5 5 5 5 5 5 5 5 5 5 5 5 5 5 5 5 5 6 5 5 5 5 5 5 5 5 5 5 5 5 5 5 5 5 5 5 5 5 5 5 5 5 5 5 5 5 5 5 5 5 5 5 5 5 5 5 5 5 5 5 5 5 5 5 5 5 5 5 5 5 5 5 5 5 5 5 5 5 5 5 5 5 5 5 5 5 5 5 5 5 5 5 5 5 5 5 5 5 5 5 5 5 5 5 5 5 5 5 5 5 5 5 5 5 5 5 5 5 5 5 5 5 5 5 5 6 6 5 5 5 5 5 5 6 6 5 5 5 5 5 5 5 5 5 5 5 5 5 5 6 5 5 5 5 5 5 5 5 5 5 5 5 5 5 5 5 5 6 5 5 5 5 5 5 5 5 5 5 6 5 5 5 6 5 5 5 5 5 5 5 5 5 5 5 5 5 5 5 6 5 5 6 5 5 5 5 5 5 5 5 5 5 5 5 5 5 5 5 6 5 5 6 5 5 5 5 5 6 5 5 5 5 5 5 6 6 5 5 5 6 5 5 6 6 5 5 5 5 6 6 5 5 5 6 5 5 5 5 5 5 6 6 5 5 6 5 6 6 5 5 5 5 6 5 5 6 5 5 5 5 6 5 5 5 5 5 5 5 6 5 5 5 5 5 5 5 5 5 5 5 5 5 5 5 5 5 5 5 6 5 5 5 5 6 5 5 5 5 5 6 5 5 5 5 6 5 5 5 5 6 5 5 5 5 5 6 5 5 5 5 6 5 5 5 5 5 5 6 5 5 6 6 5 5 6 5 5 5 5 6 5 6 5 5 5 6 6 6 5 5 5 5 5 6 5 5 6 5 5 5 5 5 5 5 5 5 5 5 6 5 5 5 5 5 6 5 6 6 5 5 5 6 6 5 5 6 5 5 5 6 5 6 5 5 5 6 5 5 5 6 6 5 5 5 5 5 5 5 5 5 5 5 5 5 5 5 5 5 5 5 5 5 5 5 5 5 5 5 5 5 5 5 5 5 5 5 5 5 5 5 5 5 5 5 5 5 5 5 5 5 6 5 5 6 5 5 5 6 5 5 5 5 6 5 5 5 6 5 5 6 5 5 5 6 5 6 5 6 5 5 5 5 5 6 5 5 5 5 5 5 5 5 5 5 5 5 5 5 5 5 6 5 5 6 5 5 5 5 5 5 6 5 5 6 5 5 5 5 6 6 6 6 5 5 5 5 5 5 5 5 6 6 5 5 5 5 6 5 5 5 5 5 5 5 6 5 5 5 5 5 5 5 5 5 5 5 5 5 5 5 5 5 5 5 5 5 5 5 5 5 5 5 5 5 5 5 5 5 5 5 5 5 5 5 5 5 5 5 5 5 5 5 5 5 5 5 5 5 5 5 5 5 5 5 5 5 5 6 5 5 5 5 5 6 6 5 5 5 6 5 5 6 5 6 5 5 6 5 5 5 5 5 5 5 5 5 5 5 5 5 5 5 5 5 5 5 5 5 5 5 5 5 5 5 5 5 5 6 5 5 5 5 5 5 6 5 5 5 6 5 5 5 5 5 5 5 6 5 5 5 5 5 5 5 5 6 5 5 6 5 5 5 5 5 5 5 5 5 5 5 5 5 5 5 5 5 5 5 5 5 5 5 5 5 5 6 5 5 5 5 5 5 5 5 5 6 5 5 5 5 5 5 5 5 5 6 5 6 5 5 6 5 6 5 5 5 5 5 5 5 6 5 5 5 5 5 5 5 5 5 5 5 5 5 5 5 6 5 5 6 5 5 5 5 5 6 5 5 6 5 5 6 6 5 5 6 5 5 5 6 5 6 5 5 5 5 6 5 5 5 5 5 5 5 5 5 6 5 5 5 5 5 5 5 5 6 5 5 5 5 6 5 6 5 5 5 5 5 6 5 6 6 5 5 6 5 5 5 5 5 6 5 6 5 5 5 5 5 6 5 5 6 5 6 5 5 5 5 5 5 6 5 5 5 5 6 5 5 6 6 5 5 5 5 5 5 6 5 5 5 5 5 5 5 5 5 5 6 5 5 5 6 5 5 5 5 5 5 5 5 5 5 6 5 5 5 5 5 5 5 5 5 5 5 5 5 5 5 5 5 5 6 5 5 5 5 5 6 5 6 5 5 5 5 5 5 5 5 5 5 6 5 5 5 6 5 5 5 5 5 5 5 5 5 5 5 5 5 5 5 5 6 5 5 5 5 5 5 5 6 5 5 5 5 6 5 5 5 5 6 5 5 6 5 5 6 5 5 5 5 6 6 5 5 5 5 5 5 5 5 5 5 5 5 5 5 5 5 5 5 5 5 5 6 5 5 5 5 6 5 5 5 5 5 5 5 5 6 5 6 6 5 5 5 6 5 5 5 5 5 5 5 5 5 6 5 6 5 5 5 6 5 5 6 5 6 5 5 5 5 6 6 5 5 5 5 6 5 6 6 5 5 5 5 5 5 5 5 5 5 5 5 5 5 5 5 6 5 5 5 5 5 5 5 5 5 5 5 5 5 5 5 5 5 5 5 5 5 5 5 5 5 5 5 5 5 5 5 5 5 5 5 5 5 6 5 5 5 5 5 6 5 5 5 6 5 5 5 5 5 5 6 6 5 5 5 5 6 5 5 5 5 5 5 5 6 5 5 5 5 5 6 5 5 5 6 5 5 5 5 6 5 5 5 5 5 5 6 5 5 5 5 5 5 5 5 5 5 5 6 5 5 5 5 5 5 5 5 5 5 5 5 5 5 6 5 5 6 5 6 6 5 5 5 5 5 5 5 5 5 5 5 5 5 5 5 5 5 5 5 5 5 6 5 5 5 5 5 5 5 5 5 5 5 5 5 5 5 5 5 5 5 5 5 5 5 5 5 5 5 5 5 5 5 5 5 5 5 5 5 5 5 5 5 5 5 5 5 5 5 5 5 5 5 5 5 5 5 5 5 5 5 5 5 5 5 5 5 5 6 5 5 5 5 6 6 5 5 5 5 6 5 5 5 5 5 5 5 5 5 5 5 5 6 5 5 5 5 5 5 5 5 5 5 5 5 6 5 5 5 5 5 5 5 5 5 5 6 5 5 6 5 5 5 5 5 5 5 5 5 5 5 5 5 5 5 5 5 5 5 5 5 5 5 5 5 6 5 5 6 5 5 6 5 5 5 5 5 5 6 5 5 5 5 6 5 5 5 5 5 5 5 5 5 5 5 5 5 5 5 5 5 5 5 5 5 6 5 5 5 5 5 5 5 5 5 5 5 5 5 5 5 6 5 6 5 5 5 5 5 5 5 5 5 5 5 5 5 6 5 5 5 5 5 5 6 5 5 6 5 5 5 5 5 5 5 5 6 5 5 5 5 5 5 6 5 5 5 5 5 5 5 5 5 5 5 5 5 5 5 5 5 5 5 5 5 5 6 5 5 5 5 5 5 5 5 5 5 5 5 5 5 5 5 5 5 5 5 5 5 6 5 5 5 5 6 5 5 6 5 5 6 5 5 5 5 5 6 6 5 6 6 5 5 5 6 5 5 6 5 5 5 5 5 5 5 5 5 5 5 5 5 5 5 5 5 5 5 5 5 5 5 5 5 5 5 5 5 5 5 5 5 5 5 5 5 5 5 5 5 5 5 5 5 5 6 5 5 5 5 5 5 5 5 5 5 5 5 5 6 5 5 6 6 5 5 5 5 5 5 5 6 5 5 6 5 5 5 6 5 5 5 6 5 5 5 5 5 5 5 5 5 5 5 5 5 5 5 5 5 5 5 5 5 6 5 5 5 5 6 5 6 5 6 5 5 6 6 5 5 5 5 5 5 5 6 5 6 5 5 5 5 5 5 5 5 5 6 5 6 5 5 5 6 5 5 6 5 6 5 5 5 6 5 5 5 5 5 5 5 5 5 5 5 6 5 5 5 5 6 5 5 5 5 5 5 5 5 5 5 5 5 5 5 5 5 5 5 5 5 6 5 5 5 6 5 6 6 6 5 5 5 5 5 5 5 5 5 5 5 5 6 5 5 6 5 6 5 6 5 5 6 5 5 5 5 6 5 5 5 5 5 5 5 6 5 5 5 5 5 5 5 5 5 5 6 5 5 5 5 5 5 5 5 5 5 5 5 5 6 5 5 5 6 6 6 5 5 5 5 5 5 6 5 5 5 5 5 6 5 5 5 5 5 5 6 5 5 6 5 5 6 5 5 5 6 5 5 6 5 5 5 6 5 5 6 6 5 5 5 5 6 5 5 5 5 5 5 5 5 5 5 5 5 5 5 5 5 5 5 5 5 5 5 5 5 5 5 5 5 5 5 5 6 5 5 5 5 5 5 5 5 6 5 5 5 5 5 5 5 5 5 5 5 6 5 5 5 5 5 5 5 5 5 5 5 5 5 5 5 5 5 6 5 5 5 5 5 6 5 5 6 5 5 5 5 5 5 6 5 5 5 6 5 5 6 5 5 5 6 5 6 5 5 5 5 6 5 5 5 5 5 6 6 5 5 5 5 5 5 5 5 5 5 5 5 6 5 5 5 5 5 5 5 5 5 5 5 5 5 6 5 5 5 6 5 5 6 5 5 6 5 6 5 5 6 5 5 5 5 6 6 5 6 5 5 5 5 5 5 5 5 5 5 5 5 5 6 5 5 5 5 5 6 5 5 5 5 5 5 5 5 5 5 5 5 5 5 5 5 5 5 5 5 5 5 5 5 5 5 5 5 5 5 5 6 5 5 5 5 6 5 5 5 6 5 5 5 5 5 5 5 5 5 5 5 5 5 5 5 6 5 5 5 5 5 5 5 5 5 5 5 5 5 5 6 6 5 6 5 6 5 5 5 5 5 5 5 5 5 5 5 6 5 5 5 5 5 6 5 5 5 5 5 5 6 5 5 5 5 5 5 5 5 5 5 5 5 5 5 5 5 5 5 5 5 5 5 5 5 6 5 5 5 5 5 6 5 5 5 5 5 5 5 5 5 5 5 5 5 5 5 5 5 5 5 5 5 5 5 5 6 5 5 5 6 5 5 5 5 5 5 5 5 5 5 5 5 5 5 5 5 5 5 5 5 5 5 5 5 5 5 5 5 5 5 6 5 5 6 5 5 5 5 5 5 5 5 5 6 5 6 5 5 5 5 5 5 5 5 6 5 5 5 6 5 5 5 5 5 5 6 5 5 5 6 5 5 5 5 5 5 5 5 5 5 5 5 5 5 5 5 5 5 5 5 5 5 6 5 5 5 5 5 5 6 5 5 5 6 6 5 5 5 5 5 5 6 6 5 6 5 6 5 5 6 5 6 5 5 5 5 6 6 5 5 5 5 5 5 5 5 5 6 5 5 5 5 5 6 5 5 5 5 5 5 5 5 5 5 6 5 6 5 5 5 5 5 5 5 5 5 5 5 5 5 5 5 5 5 5 5 5 5 5 5 5 6 5 5 5 5 5 5 5 5 5 5 5 6 5 6 5 5 5 5 5 5 5 5 5 5 5 6 5 5 5 6 5 5 5 6 5 5 5 5 5 5 5 5 5 5 5 5 5 5 5 5 5 5 6 5 6 5 5 5 5 5 6 5 6 5 5 5 6 5 5 5 5 5 5 6 5 5 6 5 5 5 5 5 5 5 5 5 5 5 5 5 5 5 5 5 5 5 5 5 5 5 5 5 5 5 5 5 5 5 5 5 5 5 5 5 5 5 5 5 5 5 5 5 5 5 5 5 5 5 5 5 5 6 5 5 5 5 5 6 5 5 5 5 5 5 5 5 5 5 5 5 5 5 5 5 5 5 5 5 5 5 5 5 5 5 5 5 5 5 5 5 5 5 5 5 5 5 5 5 5 5 5 5 5 5 5 5 5 5 5 5 5 5 5 5 5 5 5 5 5 5 6 5 5 5 5 6 5 5 5 5 5 5 5 5 5 5 5 5 5 5 5 5 5 6 5 5 5 6 5 6 5 5 5 5 5 5 5 5 5 5 5 5 5 5 5 5 6 5 5 5 5 6 5 5 5 5 5 5 5 5 5 5 5 5 5 5 5 5 5 6 5 6 5 5 6 6 5 6 5 5 5 5 6 5 5 5 6 5 5 5 5 5 5 5 5 6 5 5 5 6 5 5 5 5 5 6 5 5 5 6 6 5 5 5 6 5 6 5 5 5 5 5 5 5 5 5 5 5 5 5 5 5 5 5 5 5 5 5 5 5 5 6 6 5 5 5 5 5 6 6 5 5 5 5 5 6 5 5 5 5 5 5 5 5 5 5 5 5 5 6 5 5 5 5 5 6 5 5 5 5 5 6 5 5 5 5 5 5 5 5 5 5 5 6 5 5 5 5 5 5 5 5 5 5 5 5 6 6 5 5 5 5 5 5 5 5 5 5 6 5 5 5 5 5 6 5 5 5 5 5 5 5 5 5 6 5 6 5 5 5 5 5 5 5 5 5 5 5 5 5 6 5 5 5 6 5 6 5 5 5 6 5 6 5 5 5 5 5 5 5 5 5 6 5 5 5 5 5 5 5 5 5 5 5 5 5 5 5 5 5 5 5 5 5 5 5 5 5 6 5 5 5 5 5 5 5 5 6 5 5 6 5 5 6 5 6 5 5 6 5 5 5 6 5 5 5 5 5 5 5 5 5 5 6 5 5 5 5 5 6 5 6 5 6 5 5 5 5 5 5 5 6 6 5 5 5 6 6 5 6 5 5 5 5 5 6 5 5 6 5 5 5 5 5 5 6 5 5 5 6 5 5 5 5 5 6 5 6 5 6 5 5 5 5 5 5 5 5 5 5 5 5 5 5 5 5 5 5 5 5 5 5 5 5 5 5 5 5 5 6 5 5 5 5 5 5 5 6 5 5 5 6 5 6 5 5 6 5 5 5 6 5 5 5 5 6 5 5 5 5 5 5 5 5 5 5 5 5 5 6 5 5 5 5 5 5 6 5 5 5 5 5 5 5 5 5 5 5 5 6 5 5 5 5 5 5 6 5 5 5 5 5 5 6 5 6 5 5 5 6 5 5 5 5 5 5 6 5 5 5 5 5 5 5 5 5 5 5 5 5 5 5 5 6 5 5 5 5 5 5 5 5 5 
</DataArray>
<DataArray type="Float64" Name="stress" NumberOfComponents="9" format="ascii">
351.43492223219738 378.56543385759323 0 378.56543385759323 586.66764343344403 0 0 0 0 131.784468734971 876.65532142131724 0 876.65532142131724 2569.4950782989836 0 0 0 0 394.70711036744524 232.29300248494656 0 232.29300248494656 2499.6557247891433 0 0 0 0 -0.78215114360214266 91.91269414747876 0 91.91269414747876 2718.526087614222 0 0 0 0 317.36933833467083 425.91127900479478 0 425.91127900479478 542.35732655320317 0 0 0 0 3.2378434858049916 -3.3006983115975288 0 -3.3006983115975288 5.5211216487995074 0 0 0 0 156.14201127723481 500.9080240136318 0 500.9080240136318 562.03227565552515 0 0 0 0 297.26106412674119 378.25287396659405 0 378.25287396659405 668.63926460846778 0 0 0 0 1.0526686453142309 306.48392900102749 0 306.48392900102749 89.062640686643135 0 0 0 0 -662.1296446829956 -394.02732101605125 0 -394.02732101605125 59.639810510328971 0 0 0 0 -524.02238626413032 -48.320326199675037 0 -48.320326199675037 447.38510647716612 0 0 0 0 -259.39281209591155 -13.941892254775667 0 -13.941892254775667 31.147976163148996 0 0 0 0 -163.56594369769232 315.41283629166719 0 315.41283629166719 288.50313107061265 0 0 0 0 920.8198440036449 475.31446692357349 0 475.31446692357349 352.1198502798361 0 0 0 0 1055.3177307987467 976.05775378484032 0 976.05775378484032 714.36996663736443 0 0 0 0 -292.30133200452428 45.706765395822003 0 45.706765395822003 -63.794850213031168 0 0 0 0 -6.0598741779032208 -2.4517778304276305 0 -2.4517778304276305 28.839865318003831 0 0 0 0 -404.61174861814902 -187.64908593120799 0 -187.64908593120799 15.326530141945113 0 0 0 0 1601.3199027700607 1829.1313823192468 0 1829.1313823192468 1089.0520432800695 0 0 0 0 -2.0401083577844235 0.42424655642471976 0 0.42424655642471976 9.8993835228501723 0 0 0 0 1783.5907063322879 942.57682494886103 0 942.57682494886103 540.32071652061131 0 0 0 0 0.083264976769323873 1.4435920093306578 0 1.4435920093306578 15.072618411264362 0 0 0 0 1020.3985713899228 1114.9283590668201 0 1114.9283590668201 979.04210624212283 0 0 0 0 82.807551679104108 678.54955455326126 0 678.54955455326126 1118.787621747455 0 0 0 0 1055.2313922128787 446.58777317486238 0 446.58777317486238 730.42464620176247 0 0 0 0 313.59428714881403 34.585288093736381 0 34.585288093736381 291.49221682170173 0 0 0 0 6.91571819861921 -5.8992597986471225 0 -5.8992597986471225 18.109669358539463 0 0 0 0 730.44105082547321 321.22086683748057 0 321.22086683748057 210.11449646637379 0 0 0 0 -54.242284110026048 767.44058058805967 0 767.44058058805967 2121.9638930546498 0 0 0 0 126.5659434533535 253.08676229778939 0 253.08676229778939 2123.6777900874949 0 0 0 0 62.628415919925345 417.30152015713247 0 417.30152015713247 2344.356532231006 0 0 0 0 123.09484189827224 430.77972605561945 0 430.77972605561945 2524.3102188820703 0 0 0 0 161.41708623507984 647.10210413487948 0 647.10210413487948 3397.3841933290532 0 0 0 0 5.8302525151444051 4.0806247170721406 0 4.0806247170721406 2.4388668807255547 0 0 0 0 240.91947478049303 200.71575506986846 0 200.71575506986846 -453.06680330284871 0 0 0 0 -174.33312251038615 90.122997311242216 0 90.122997311242216 155.53287442035798 0 0 0 0 -32.680520237152905 9.6514420678158785 0 9.6514420678158785 162.48981271872617 0 0 0 0 -10.865283932370176 -8.9109238563050894 0 -8.9109238563050894 97.029445096330164 0 0 0 0 -8.4280702945345638 -176.02896675916418 0 -176.02896675916418 556.17961195865269 0 0 0 0 37.156838200152379 59.286471905772487 0 59.286471905772487 118.27098121482413 0 0 0 0 -19.706212552979263 -17.756401398745126 0 -17.756401398745126 37.642495960914104 0 0 0 0 22.129538357675077 18.552499256480417 0 18.552499256480417 11.02988921341753 0 0 0 0 -2.1418433123517389 75.831351722554245 0 75.831351722554245 -7.6097077921801883 0 0 0 0 17.178702210991673 -1.4129857116549829 0 -1.4129857116549829 96.44042564798292 0 0 0 0 15.230101303559321 11.968949444041471 0 11.968949444041471 2.013213223798036 0 0 0 0 -30.103782360116632 -15.597931538918459 0 -15.597931538918459 30.308512967479601 0 0 0 0 -73.862779555010093 71.959847950569383 0 71.959847950569383 147.15320675409021 0 0 0 0 173.06822824337996 66.435434447754233 0 66.435434447754233 179.05329956814239 0 0 0 0 142.55055639230704 482.29025815174464 0 482.29025815174464 612.95525105309207 0 0 0 0 445.90287141902883 629.21928421000484 0 629.21928421000484 471.22896261365531 0 0 0 0 510.79018661307464 356.50315640452391 0 356.50315640452391 458.61946031799016 0 0 0 0 764.8746361957019 700.32808736050356 0 700.32808736050356 474.82722285215277 0 0 0 0 25.009555939390339 259.02616744783154 0 259.02616744783154 368.52559337203274 0 0 0 0 548.61913318473034 535.50741864534575 0 535.50741864534575 333.0727386892504 0 0 0 0 486.93262322591409 382.93527555012952 0 382.93527555012952 176.96384940230928 0 0 0 0 461.11811222515416 370.2198945223281 0 370.2198945223281 447.20301404942438 0 0 0 0 -38.593356503985127 -3.7706432321694336 0 -3.7706432321694336 33.692533063906239 0 0 0 0 -7.4013849743383151 4.7239608892549718 0 4.7239608892549718 12.313754468209908 0 0 0 0 -31.740819659230965 -12.890580964514811 0 -12.890580964514811 96.595032520250243 0 0 0 0 119.24988934512385 -10.544922026416316 0 -10.544922026416316 72.631659743725322 0 0 0 0 322.54214918196476 66.332135944721813 0 66.332135944721813 -30.562416433633189 0 0 0 0 -0.72050156152664258 22.52994332863458 0 22.52994332863458 50.6512602245935 0 0 0 0 44.353395393671235 186.10606704802194 0 186.10606704802194 190.49649218258128 0 0 0 0 -67.355222863138806 169.15502331256266 0 169.15502331256266 -153.86062478030362 0 0 0 0 -168.53047773383264 53.582710231048623 0 53.582710231048623 -113.10839733951434 0 0 0 0 1400.1087764763342 590.2848688775739 0 590.2848688775739 202.9859140096487 0 0 0 0 5.759118703475008 9.0919533712179401 0 9.0919533712179401 16.915557353579857 0 0 0 0 488.56049758861639 902.12552965586474 0 902.12552965586474 1548.9937566456356 0 0 0 0 514.15138822822519 -577.1460253914629 0 -577.1460253914629 1494.1099717215479 0 0 0 0 2099.1064066987492 1001.1547479923138 0 1001.1547479923138 180.52648105844128 0 0 0 0 -274.62945967364885 85.914610762620214 0 85.914610762620214 1115.3426093971939 0 0 0 0 -368.89614382660329 790.9641553104957 0 790.9641553104957 1854.8920147530289 0 0 0 0 -37.142590764113265 872.19822300909436 0 872.19822300909436 701.01518573466456 0 0 0 0 -397.02777668146337 640.38717234550859 0 640.38717234550859 1491.5427641112619 0 0 0 0 -58.854973842404434 1369.846342113 0 1369.846342113 1780.4655077189018 0 0 0 0 -110.54067900401787 1157.3349438545483 0 1157.3349438545483 1013.6211958799686 0 0 0 0 113.51146979150144 593.94194057133427 0 593.94194057133427 906.29534683424572 0 0 0 0 -412.24186389280732 371.87641735449211 0 371.87641735449211 956.9522819788981 0 0 0 0 -4.4126705428035091 -15.819656200600697 0 -15.819656200600697 66.236573487626345 0 0 0 0 -101.36612620062229 -65.247625109888759 0 -65.247625109888759 107.5806608885905 0 0 0 0 363.50442267409926 543.59298018501067 0 543.59298018501067 469.08894700298151 0 0 0 0 391.79167152823868 604.89745852171109 0 604.89745852171109 369.89131225238089 0 0 0 0 0.42618488397821785 -28.04700430649941 0 -28.04700430649941 73.54058573177943 0 0 0 0 421.96736363008779 442.55172962960114 0 442.55172962960114 153.45347250391205 0 0 0 0 -197.09848863079424 -285.66012174085699 0 -285.66012174085699 878.04900990199894 0 0 0 0 0.78266417945883404 68.116205074926256 0 68.116205074926256 146.19339191592007 0 0 0 0 0.038575975396277662 -4.6354734016888557 0 -4.6354734016888557 5.0647816933493459 0 0 0 0 -13.63154095966334 -9.6184482170037882 0 -9.6184482170037882 15.149610213309643 0 0 0 0 -33.441323189154105 130.43351844893186 0 130.43351844893186 315.60872269486572 0 0 0 0 16.398523991601621 60.214301599684404 0 60.214301599684404 61.344955880849739 0 0 0 0 -1.8741934286875335 11.607508600049186 0 11.607508600049186 16.219345336183324 0 0 0 0 -2.2265627460830189 -1.4214146771938232 0 -1.4214146771938232 4.187655244244354 0 0 0 0 -42.905598676839475 -6.6008416636541369 0 -6.6008416636541369 9.2217542122598388 0 0 0 0 -21.754623024335341 -85.140196538113742 0 -85.140196538113742 -90.445505910953216 0 0 0 0 -79.788904421041138 -79.710394602865563 0 -79.710394602865563 -40.906446343738935 0 0 0 0 -0.036607522463210779 -63.961151498653635 0 -63.961151498653635 -71.216063817009854 0 0 0 0 -38.309428163052601 -62.17095263479132 0 -62.17095263479132 -66.240107768186135 0 0 0 0 -36.520074129779886 -44.768076762109558 0 -44.768076762109558 -21.46849734884745 0 0 0 0 -2.6441808999591219 0.25687851944802276 0 0.25687851944802276 1.7845646317738897 0 0 0 0 20.950671046866205 266.34976605721749 0 266.34976605721749 340.06397731234756 0 0 0 0 -0.064163160747805384 -41.473671499163174 0 -41.473671499163174 -56.978283455813653 0 0 0 0 -0.95179107121590878 0.53286521733716086 0 0.53286521733716086 0.37334688084783352 0 0 0 0 111.99632452539851 363.15847743900304 0 363.15847743900304 117.42989938468236 0 0 0 0 82.117324069242386 47.322143108066257 0 47.322143108066257 104.99818436270289 0 0 0 0 -104.85593664654766 156.50730964578543 0 156.50730964578543 59.23518656055785 0 0 0 0 -141.63958867260396 -131.43220546952216 0 -131.43220546952216 -74.865821599483752 0 0 0 0 -6.0084536225579628 -8.7839643350544421 0 -8.7839643350544421 47.175175316302585 0 0 0 0 -207.85671825679546 -171.12562703956064 0 -171.12562703956064 49.94386229646625 0 0 0 0 -132.52342401077371 59.571831872691291 0 59.571831872691291 117.99979695366346 0 0 0 0 54.731328365857962 8.1511845364657347 0 8.1511845364657347 57.526509318951867 0 0 0 0 -123.20787615909933 46.309830189806235 0 46.309830189806235 490.07322256410407 0 0 0 0 -2.7473450737741416 472.16757232726377 0 472.16757232726377 907.591242115559 0 0 0 0 0.5964453463295547 2.201102325340532 0 2.201102325340532 7.2651563772254519 0 0 0 0 -369.95450450464091 -456.57582119270228 0 -456.57582119270228 1003.6220517593574 0 0 0 0 287.51594631757246 267.29361893360146 0 267.29361893360146 163.17968338346691 0 0 0 0 -242.42445191104417 139.33752267325872 0 139.33752267325872 1690.6252775366193 0 0 0 0 55.516231664025156 -94.66585570153984 0 -94.66585570153984 1861.8384940594442 0 0 0 0 -184.32621878596973 -362.19834321512189 0 -362.19834321512189 1568.1096362372591 0 0 0 0 -225.08013615722564 -291.94041682211832 0 -291.94041682211832 1896.6826957424855 0 0 0 0 -473.89590199462504 -35.098469485529677 0 -35.098469485529677 2499.9452533645326 0 0 0 0 -359.79388892431189 209.11768303467397 0 209.11768303467397 1962.1449759816733 0 0 0 0 -362.41897528117636 -180.41662167632967 0 -180.41662167632967 1426.0328771217391 0 0 0 0 -37.16867156724129 139.18456678942312 0 139.18456678942312 867.48821432624391 0 0 0 0 -27.033519955320685 107.70068206004726 0 107.70068206004726 754.87561647859911 0 0 0 0 -32.84396484774193 654.54643570956068 0 654.54643570956068 2499.5180295753235 0 0 0 0 69.238175801005525 451.95199308703741 0 451.95199308703741 1541.990368985985 0 0 0 0 281.93487683720343 428.68829364056364 0 428.68829364056364 636.69540519941802 0 0 0 0 449.79316044228801 768.99545839891653 0 768.99545839891653 1114.5143303333516 0 0 0 0 -348.03951917847797 158.058504136583 0 158.058504136583 1569.6928545713829 0 0 0 0 -320.91641025178575 345.5055157716879 0 345.5055157716879 2222.664879972639 0 0 0 0 823.13409113947773 601.2680662191633 0 601.2680662191633 2107.60797471353 0 0 0 0 430.42837076847627 1108.6289661198825 0 1108.6289661198825 2361.9466564898994 0 0 0 0 -96.657614503598296 493.13444807465567 0 493.13444807465567 1649.5941172262974 0 0 0 0 723.21940812910555 996.34664424058428 0 996.34664424058428 570.75257553433039 0 0 0 0 -57.958031573774832 1014.1586728305047 0 1014.1586728305047 1307.5278031080088 0 0 0 0 -4.1477605879378299 4.2436361751748848 0 4.2436361751748848 0.37329271175509859 0 0 0 0 -441.00904576579057 598.46082854622455 0 598.46082854622455 505.15722641936009 0 0 0 0 557.88865133830302 477.90047173471066 0 477.90047173471066 58.543144252005732 0 0 0 0 -69.529886728823556 1146.6933097436449 0 1146.6933097436449 943.48200907926366 0 0 0 0 2.6540117389805178 4.0422319682228007 0 4.0422319682228007 2.6066591004475868 0 0 0 0 -309.19997460191047 31.56986824046453 0 31.56986824046453 36.467242456630629 0 0 0 0 -492.79484378515599 82.652753043388657 0 82.652753043388657 143.72634157042103 0 0 0 0 -846.63539379978624 -30.995361253787451 0 -30.995361253787451 552.03798843134427 0 0 0 0 -498.03988486806679 419.09339460557999 0 419.09339460557999 686.67324113450013 0 0 0 0 419.38536674478541 403.47600344575949 0 403.47600344575949 -836.20051090098423 0 0 0 0 -591.10494858091101 -370.00578673384734 0 -370.00578673384734 -77.566988757408581 0 0 0 0 -10.41930702435455 10.12940220462761 0 10.12940220462761 5.2702593527855441 0 0 0 0 -73.478721894004593 235.96091975082527 0 235.96091975082527 -492.49676260462365 0 0 0 0 -417.31475969611586 74.690504965002219 0 74.690504965002219 547.90356001655891 0 0 0 0 -882.50158809026573 503.23587666681851 0 503.23587666681851 203.48689668329098 0 0 0 0 -518.83904374401391 256.21330360383945 0 256.21330360383945 764.19882633125962 0 0 0 0 -246.72709674453836 379.31195486552315 0 379.31195486552315 768.4998471667966 0 0 0 0 -343.98534152811271 238.56249647106233 0 238.56249647106233 589.52557863075344 0 0 0 0 -389.97029778378146 266.31291277799028 0 266.31291277799028 675.73479971038614 0 0 0 0 -429.18644865495116 228.82328086066991 0 228.82328086066991 764.32098969481012 0 0 0 0 -286.0406994130517 400.22668142086331 0 400.22668142086331 834.4137587829573 0 0 0 0 -172.91142653086445 9.8935915224610653 0 9.8935915224610653 482.90531250697313 0 0 0 0 -420.26792111665748 182.26344083373624 0 182.26344083373624 681.2940885337448 0 0 0 0 -381.97602286837582 265.04252901059954 0 265.04252901059954 670.23882499401952 0 0 0 0 -613.8983103239741 -293.74135889411355 0 -293.74135889411355 324.57907002673164 0 0 0 0 648.19063848527821 163.2737386408462 0 163.2737386408462 -280.90829135549939 0 0 0 0 55.8532067762103 38.529465129915479 0 38.529465129915479 416.414145063045 0 0 0 0 77.370921328934855 148.80233616147234 0 148.80233616147234 494.23888049548259 0 0 0 0 48.190053949175933 60.028181204250359 0 60.028181204250359 405.9901354501344 0 0 0 0 18.429330945562015 73.260159429799387 0 73.260159429799387 760.38308839969977 0 0 0 0 33.428683149151823 146.86477303757601 0 146.86477303757601 557.32106780547474 0 0 0 0 78.657843892322944 180.12184430588206 0 180.12184430588206 810.33420819429739 0 0 0 0 -91.393259761792024 477.10013537805571 0 477.10013537805571 354.80925039633803 0 0 0 0 -129.96079568996873 402.80641807744541 0 402.80641807744541 244.94040312112247 0 0 0 0 604.36332626325714 591.0531133265863 0 591.0531133265863 371.42305567205767 0 0 0 0 -1.9904140704138178 3.0105916658012077 0 3.0105916658012077 -1.1149422531275661 0 0 0 0 383.83364179683576 570.63804755815363 0 570.63804755815363 513.60370470523776 0 0 0 0 -5.1848710745155868 6.3546667913353758 0 6.3546667913353758 -2.5465385129624707 0 0 0 0 314.05711173057745 333.64315490418994 0 333.64315490418994 568.50935388936705 0 0 0 0 333.90898082362185 394.49485355572187 0 394.49485355572187 404.64509145753982 0 0 0 0 -65.083660490524778 183.24837062552936 0 183.24837062552936 -189.7104665165607 0 0 0 0 -67.2956546546352 -72.251941035978234 0 -72.251941035978234 434.66554408868978 0 0 0 0 -166.82107690474299 107.14702268668043 0 107.14702268668043 -64.756418873505027 0 0 0 0 -559.03218061962446 383.61011783524191 0 383.61011783524191 281.18174845880276 0 0 0 0 207.08117169862646 262.85771591095545 0 262.85771591095545 272.41047117457492 0 0 0 0 175.42574259351579 394.7646270973637 0 394.7646270973637 87.697467332152883 0 0 0 0 182.43959522125863 788.4484740380376 0 788.4484740380376 596.55972148906221 0 0 0 0 45.656321759340699 52.713340314498055 0 52.713340314498055 1037.8630232222586 0 0 0 0 -186.68354616341946 236.89149748987984 0 236.89149748987984 1015.0259242875618 0 0 0 0 625.6093762758403 552.457299011754 0 552.457299011754 -32.285239297917315 0 0 0 0 1.0724535102267039 3.1083045671215608 0 3.1083045671215608 6.5303058381258694 0 0 0 0 -345.55939097627345 20.208445717513314 0 20.208445717513314 507.78708084247774 0 0 0 0 97.007244125446377 -28.608503055704205 0 -28.608503055704205 -51.208705080641153 0 0 0 0 123.0143813022609 -158.33027844324533 0 -158.33027844324533 -154.60453229892755 0 0 0 0 176.67747816460925 56.04593130284411 0 56.04593130284411 298.88725740218069 0 0 0 0 177.76639177963858 -23.837587250032811 0 -23.837587250032811 -51.349292507689256 0 0 0 0 103.03120215694568 715.41262881642979 0 715.41262881642979 1238.1737534760614 0 0 0 0 -200.7927724506186 268.07364676794896 0 268.07364676794896 908.11763156756206 0 0 0 0 314.49195042327631 458.65288537423476 0 458.65288537423476 423.56884503489709 0 0 0 0 -45.338746481961465 364.30284518963526 0 364.30284518963526 1089.3597483927733 0 0 0 0 160.18404061844456 792.37189571548515 0 792.37189571548515 1368.9348643247904 0 0 0 0 735.34717245707191 416.91924945214123 0 416.91924945214123 591.54027986992151 0 0 0 0 -241.01141791283783 124.11762611074209 0 124.11762611074209 883.88431421261339 0 0 0 0 1.2811717665708655 1.2277935317445241 0 1.2277935317445241 7.0093171155456844 0 0 0 0 173.04784802543986 604.85484168022595 0 604.85484168022595 1558.8693359766912 0 0 0 0 539.40254963666564 608.59707723993779 0 608.59707723993779 849.34273489133011 0 0 0 0 272.5654637599921 290.8144763644741 0 290.8144763644741 415.95590939500107 0 0 0 0 222.42704081306397 540.92308707354096 0 540.92308707354096 859.78685074941131 0 0 0 0 211.60982925928718 103.64795354233502 0 103.64795354233502 -6.6056219455058454 0 0 0 0 387.74367470154323 424.48586290376261 0 424.48586290376261 11.798038946755696 0 0 0 0 467.93820524664989 -85.430627055015066 0 -85.430627055015066 -206.6333086466766 0 0 0 0 626.67387193498121 501.26929721606575 0 501.26929721606575 263.90974316729989 0 0 0 0 69.393133427649474 -113.75578212997061 0 -113.75578212997061 -142.25866071428572 0 0 0 0 -354.90722349773637 -969.15590298081588 0 -969.15590298081588 -1049.1186870494566 0 0 0 0 -527.1586670056879 -315.73322835170256 0 -315.73322835170256 -73.120817860784882 0 0 0 0 116.70945767301644 -521.27587278800775 0 -521.27587278800775 -727.74453060785891 0 0 0 0 0.63629972536302193 1.0785794040581607 0 1.0785794040581607 6.3538676720878584 0 0 0 0 163.77181303860704 232.20183590308216 0 232.20183590308216 -221.70159123683698 0 0 0 0 -502.73166312934023 -197.01165824193231 0 -197.01165824193231 -343.62002368809772 0 0 0 0 -6.0170281084097041 12.086590325314319 0 12.086590325314319 48.597697360353777 0 0 0 0 -1.3970055131114105 0.029648365252135989 0 0.029648365252135989 5.2688867184406831 0 0 0 0 0.35513345208567171 -3.1226803104577998 0 -3.1226803104577998 17.939230510724883 0 0 0 0 241.50868638363193 -38.438546182027494 0 -38.438546182027494 -160.67888184830736 0 0 0 0 211.32728604530215 78.653632240588195 0 78.653632240588195 -531.62119521967543 0 0 0 0 328.56109552242543 47.076340321415046 0 47.076340321415046 -182.50668630916334 0 0 0 0 8.5925389375593113 20.790582943240224 0 20.790582943240224 28.956947325816145 0 0 0 0 -4.3454940111988201 38.48395672233346 0 38.48395672233346 30.548897766362643 0 0 0 0 -47.540270981749927 37.29568595611272 0 37.29568595611272 24.149188531038817 0 0 0 0 32.918157396488766 -7.8094333651424677 0 -7.8094333651424677 23.214142640138562 0 0 0 0 1.1826743693809223 5.5438738263416951 0 5.5438738263416951 13.703918262134607 0 0 0 0 95.779140784330565 -102.87948375024098 0 -102.87948375024098 -420.10850717189896 0 0 0 0 -184.97822165602847 228.51027641877954 0 228.51027641877954 33.47855650170095 0 0 0 0 -25.847731128790201 -80.976521616439641 0 -80.976521616439641 -64.244757816319179 0 0 0 0 165.93438326337122 -66.439216445112834 0 -66.439216445112834 -124.96481496890192 0 0 0 0 200.11463374929986 100.27092127224023 0 100.27092127224023 -77.846304200749728 0 0 0 0 55.003560971396439 45.29099541413234 0 45.29099541413234 -86.617932332272176 0 0 0 0 8.580621254550465 43.885224565092358 0 43.885224565092358 -83.318697587368661 0 0 0 0 -91.898194933221589 280.40455347451825 0 280.40455347451825 -102.60482800407044 0 0 0 0 82.899608045362811 8.6873699665738968 0 8.6873699665738968 -50.724197800002003 0 0 0 0 -8.3982825730734127 4.8291184103342388 0 4.8291184103342388 12.841082075829249 0 0 0 0 -6.0563761961086584 2.9182180697039257 0 2.9182180697039257 60.708683531731367 0 0 0 0 -93.585810695851706 -16.32926486634824 0 -16.32926486634824 35.216164130311881 0 0 0 0 -1.2516790739425252 1.8222184835387054 0 1.8222184835387054 -2.1308378764661455 0 0 0 0 -3.0281683134751347 -1.942506786175727 0 -1.942506786175727 3.9731006007932592 0 0 0 0 57.399081041851105 -29.305206549202921 0 -29.305206549202921 27.251691157332971 0 0 0 0 -80.597021508773622 -48.815486351665186 0 -48.815486351665186 387.11619329018868 0 0 0 0 -158.46541401790046 322.06987015601044 0 322.06987015601044 472.47219970871083 0 0 0 0 -148.69523183340129 -117.38497377007297 0 -117.38497377007297 864.82051685111946 0 0 0 0 -65.085764880207535 -77.397559289784112 0 -77.397559289784112 573.94074667945097 0 0 0 0 7.322732295789308 -188.0069872297172 0 -188.0069872297172 410.81736845693558 0 0 0 0 -1.869168743841044 -117.25779218478419 0 -117.25779218478419 307.81822858913665 0 0 0 0 110.76058008821009 -476.39796362700054 0 -476.39796362700054 1042.6433081458017 0 0 0 0 -80.805269995971813 16.963789967335728 0 16.963789967335728 292.28032495791558 0 0 0 0 296.69309517719262 -217.30040168131563 0 -217.30040168131563 -27.919037640131137 0 0 0 0 -5.2376899495583871 702.89919332271484 0 702.89919332271484 3512.3809182674086 0 0 0 0 -89.779941591509839 187.17207050699017 0 187.17207050699017 1182.9129536946348 0 0 0 0 788.21990396542435 597.99366634079161 0 597.99366634079161 2213.8815866802033 0 0 0 0 296.1461698150149 1232.5356061565399 0 1232.5356061565399 1902.1606741236465 0 0 0 0 295.70704268372162 945.48516145226677 0 945.48516145226677 2015.7523489142768 0 0 0 0 634.36437349225253 901.4885271711828 0 901.4885271711828 1504.1057057143917 0 0 0 0 309.99990031542143 927.40022841597965 0 927.40022841597965 2020.2953395391523 0 0 0 0 -2.2128047574201917 3.1489971965401153 0 3.1489971965401153 2.6004956398427002 0 0 0 0 13.279608460404859 723.05613155023093 0 723.05613155023093 2461.4988910607972 0 0 0 0 11.081094497557665 378.93284169854633 0 378.93284169854633 2069.8792682941603 0 0 0 0 -127.00152310750582 56.822173602993644 0 56.822173602993644 957.537786835117 0 0 0 0 -10.593113736328178 24.502090780166327 0 24.502090780166327 916.16160648841651 0 0 0 0 15.334370139599059 -8.8342883719242309 0 -8.8342883719242309 929.71354350826368 0 0 0 0 11.875485414293735 -65.00468886184899 0 -65.00468886184899 756.37448516442601 0 0 0 0 109.43377787924692 -110.23111279984732 0 -110.23111279984732 708.20445725392165 0 0 0 0 180.91695457387604 481.70241223205085 0 481.70241223205085 1393.6613278148361 0 0 0 0 425.76292367090525 164.74118508216179 0 164.74118508216179 1012.6131677549783 0 0 0 0 -6.0885000118624397 5.7654186288438751 0 5.7654186288438751 2.1418703644724717 0 0 0 0 101.20335612136864 115.38710722291944 0 115.38710722291944 1213.2323272592294 0 0 0 0 -3.2783768291028537 -15.676152098290913 0 -15.676152098290913 1048.8265424632336 0 0 0 0 76.667505924074248 110.06393083940202 0 110.06393083940202 743.75636955893424 0 0 0 0 141.9953662877906 111.41710148649872 0 111.41710148649872 591.52950854950177 0 0 0 0 35.543393128360549 55.09887623081886 0 55.09887623081886 644.33751652043065 0 0 0 0 59.684056637498088 -37.7711394756152 0 -37.7711394756152 437.04601650209952 0 0 0 0 124.42456303922381 -92.122464588571347 0 -92.122464588571347 667.70364782449906 0 0 0 0 124.72076227259731 -83.378841960366117 0 -83.378841960366117 468.63534138925388 0 0 0 0 230.0540792958916 -281.00171951334778 0 -281.00171951334778 486.99300713795128 0 0 0 0 131.61414245447986 -96.419133775609225 0 -96.419133775609225 635.559491749671 0 0 0 0 113.83753247847335 -121.2799130382773 0 -121.2799130382773 661.58672005350672 0 0 0 0 119.00123049963213 -156.6962195082524 0 -156.6962195082524 808.75242572777279 0 0 0 0 -137.42784890722805 -219.31294571537728 0 -219.31294571537728 970.19676129923027 0 0 0 0 -349.80550770384525 256.70752405332314 0 256.70752405332314 902.13722048155614 0 0 0 0 -222.15738321027663 28.346343792764401 0 28.346343792764401 -34.789173692559416 0 0 0 0 -0.33446675625073485 0.58035587408377864 0 0.58035587408377864 4.1895801506216372 0 0 0 0 -137.48149202693457 80.640800929983016 0 80.640800929983016 -25.293736793602875 0 0 0 0 145.58206820463374 -100.76223196844512 0 -100.76223196844512 104.64269480647317 0 0 0 0 225.4932745483938 -250.01587468949901 0 -250.01587468949901 313.40720979506295 0 0 0 0 42.428986020016055 -69.149174643251172 0 -69.149174643251172 165.57465698328451 0 0 0 0 94.497029505619594 -152.81768683387963 0 -152.81768683387963 299.19058057760412 0 0 0 0 -21.380584439014797 -40.48395294713373 0 -40.48395294713373 188.07518350047758 0 0 0 0 -20.775772832474047 -33.312841339311035 0 -33.312841339311035 270.39817359419976 0 0 0 0 -11.380406772225797 -20.914832880975155 0 -20.914832880975155 251.86679013837056 0 0 0 0 -26.12344800955907 0.89578294337115949 0 0.89578294337115949 232.99252809247264 0 0 0 0 -25.393723595869517 26.884267609499489 0 26.884267609499489 204.91339357965626 0 0 0 0 -25.402246632627794 25.741196640174167 0 25.741196640174167 289.51896065518304 0 0 0 0 -19.313619091407645 -31.846794583522751 0 -31.846794583522751 305.16516423513531 0 0 0 0 -99.413573162046305 75.265502633541473 0 75.265502633541473 439.67361085344055 0 0 0 0 48.554263188768346 -99.756024160364177 0 -99.756024160364177 373.10198265453801 0 0 0 0 -117.24682489109136 84.109650728591987 0 84.109650728591987 1278.0602176329885 0 0 0 0 19.245431418962994 -45.400317051239654 0 -45.400317051239654 555.94694165563851 0 0 0 0 -50.87436126732473 104.29235054726814 0 104.29235054726814 223.85127089630259 0 0 0 0 149.33644078930985 30.702196117748827 0 30.702196117748827 546.95736083688098 0 0 0 0 -6.6559743185758977 5.5627868410328176 0 5.5627868410328176 2.1202384243561267 0 0 0 0 -78.719613118857296 47.070765021169791 0 47.070765021169791 995.46411650140726 0 0 0 0 -75.795177845876651 181.96178123933714 0 181.96178123933714 832.17356247371936 0 0 0 0 102.98958266190562 -41.50095150074776 0 -41.50095150074776 654.5810926946433 0 0 0 0 40.767403195298357 -83.811864093913755 0 -83.811864093913755 814.15104107323714 0 0 0 0 -1.5782727936189751 2.1679150847097404 0 2.1679150847097404 0.6156854183374314 0 0 0 0 -0.31217815502895974 61.116568380355602 0 61.116568380355602 189.66020725745148 0 0 0 0 -19.619244731300569 73.896610175419482 0 73.896610175419482 1260.7937502510249 0 0 0 0 -6.5419912007655512 33.752485270168108 0 33.752485270168108 207.39139194454037 0 0 0 0 18.87670869907015 43.459776258325292 0 43.459776258325292 201.28333752263279 0 0 0 0 -18.062276266520712 7.8159476975706639 0 7.8159476975706639 197.38696082988281 0 0 0 0 2.3137459466129258 18.860047417967507 0 18.860047417967507 193.65991182658036 0 0 0 0 -20.801324982619917 33.810295044677332 0 33.810295044677332 211.36311883485541 0 0 0 0 9.4790500010925598 231.98971621824239 0 231.98971621824239 2083.7893696620886 0 0 0 0 -4.4451133822032389 6.632669357388032 0 6.632669357388032 -0.34721150281933433 0 0 0 0 279.27605619461974 6.6635598675202345 0 6.6635598675202345 2014.394484573987 0 0 0 0 -156.21925217609623 281.18862825589167 0 281.18862825589167 472.31579085544945 0 0 0 0 -2.7734151921541024 3.1299160198913114 0 3.1299160198913114 1.9322534306474148 0 0 0 0 -9.7918697048312424 183.31864914936159 0 183.31864914936159 534.02268293484667 0 0 0 0 -198.28152627824875 225.2016532068792 0 225.2016532068792 684.35680805973971 0 0 0 0 -288.04433974468247 349.87540706438085 0 349.87540706438085 528.8704947340666 0 0 0 0 -184.31128233688227 401.31653891275596 0 401.31653891275596 779.25112904007256 0 0 0 0 -247.61950496056124 544.47534349710622 0 544.47534349710622 912.90624253087299 0 0 0 0 -269.16199767630314 479.03507477883977 0 479.03507477883977 715.84796365521197 0 0 0 0 -657.4470768775318 1224.4819761580438 0 1224.4819761580438 508.78638767765369 0 0 0 0 -162.76797500797056 448.40447016762846 0 448.40447016762846 922.23332924681017 0 0 0 0 -7.6408112759563664 3.4363083707212354 0 3.4363083707212354 124.69592373342311 0 0 0 0 4.678094796392088 18.159091704421371 0 18.159091704421371 138.58133299944166 0 0 0 0 -3.1539466289559641 43.276777706960274 0 43.276777706960274 177.69935940815776 0 0 0 0 -33.634067733343727 -5.5680070527268981 0 -5.5680070527268981 172.5753329712802 0 0 0 0 -27.368708400183095 1.5619206285191467 0 1.5619206285191467 159.23467548322878 0 0 0 0 -33.02186240086894 -13.020066189339559 0 -13.020066189339559 141.99652768093802 0 0 0 0 -50.350151657479728 -19.750047941628509 0 -19.750047941628509 148.04233175013724 0 0 0 0 -18.614838285430778 -13.068497929249133 0 -13.068497929249133 131.705109918581 0 0 0 0 -25.518614000607158 15.427692055225634 0 15.427692055225634 189.69740945639205 0 0 0 0 -24.225837182047542 -14.611515876142903 0 -14.611515876142903 160.70611842416838 0 0 0 0 -41.5653769719911 -31.247168539597624 0 -31.247168539597624 180.57763100707598 0 0 0 0 -24.628926181139832 -90.848296174412098 0 -90.848296174412098 127.6283458478083 0 0 0 0 -21.759265109548778 -24.567950763930639 0 -24.567950763930639 156.46808075135414 0 0 0 0 -33.608112668910053 -46.310069636394928 0 -46.310069636394928 79.641415691392467 0 0 0 0 -81.607820373694722 -107.16708655657931 0 -107.16708655657931 92.280543032247806 0 0 0 0 10.730276377630613 -35.77022383182566 0 -35.77022383182566 84.778015207801019 0 0 0 0 -152.38909963349772 -283.35226432724085 0 -283.35226432724085 194.9960795155348 0 0 0 0 -49.492233193760512 -59.253499860673401 0 -59.253499860673401 88.882566090273031 0 0 0 0 -18.663848472551308 -94.016931883617872 0 -94.016931883617872 33.633801454037894 0 0 0 0 -14.560839037446385 -96.467533208422537 0 -96.467533208422537 34.372665071652591 0 0 0 0 6.5709385803953175 -33.320490476902947 0 -33.320490476902947 85.421397879965724 0 0 0 0 -52.750151975847416 -8.0773236204986461 0 -8.0773236204986461 25.091189987433609 0 0 0 0 -148.95809503038004 -33.13711146227979 0 -33.13711146227979 149.17712994800968 0 0 0 0 -63.199098810692675 39.579879256276399 0 39.579879256276399 98.423884363357502 0 0 0 0 -4.5663211609498831 -6.4281219453259837 0 -6.4281219453259837 106.60562954422494 0 0 0 0 -8.8157893498137128 -18.956680477862392 0 -18.956680477862392 116.95882086687197 0 0 0 0 -13.507852503335915 2.5883275193008188 0 2.5883275193008188 28.688588060161834 0 0 0 0 -2.5571961774003391 -5.2748159362404721 0 -5.2748159362404721 19.62162644099778 0 0 0 0 35.776202793985249 48.758451586545561 0 48.758451586545561 92.628279977175197 0 0 0 0 -8.8575751107740643 -19.947435973895381 0 -19.947435973895381 93.96086648387427 0 0 0 0 -0.27417476776115812 0.37504717630745432 0 0.37504717630745432 25.952767779516847 0 0 0 0 0.99922386908747107 -14.842230684210101 0 -14.842230684210101 61.838928905524199 0 0 0 0 5.9902445604625427 -48.690508093241078 0 -48.690508093241078 93.339467095119289 0 0 0 0 -25.758676869244482 21.491106588580806 0 21.491106588580806 73.859637410081632 0 0 0 0 -36.434767998654877 -8.3632687405265642 0 -8.3632687405265642 57.051066465995973 0 0 0 0 -30.447128201994531 -44.513273499606385 0 -44.513273499606385 -34.398608974472154 0 0 0 0 -72.363107252043847 -19.408609809845075 0 -19.408609809845075 -47.996313351097342 0 0 0 0 -61.87244283369364 95.666004282749782 0 95.666004282749782 111.38717475451267 0 0 0 0 -6.3540028744440065 -50.873732219713929 0 -50.873732219713929 137.85547722291813 0 0 0 0 0.45517672065427028 4.7350730674426416 0 4.7350730674426416 13.877969272317557 0 0 0 0 128.07131356705213 -206.80825554403191 0 -206.80825554403191 -134.86457676292775 0 0 0 0 0.44090226707339752 -65.418757047184044 0 -65.418757047184044 -22.30327401566683 0 0 0 0 23.62287869365673 -130.06129192557273 0 -130.06129192557273 24.267904864747834 0 0 0 0 -19.601656345887818 -86.334063410747149 0 -86.334063410747149 111.06636476964923 0 0 0 0 16.162869726344525 -60.73964728177998 0 -60.73964728177998 103.82528090878623 0 0 0 0 19.109877928970491 -82.229966355185752 0 -82.229966355185752 174.04356950391957 0 0 0 0 138.57807158119476 -43.713680921600826 0 -43.713680921600826 92.121693041495746 0 0 0 0 -114.68752268976789 79.036084495735849 0 79.036084495735849 -12.330199135798466 0 0 0 0 -0.40651174786395217 2.2603830586662781 0 2.2603830586662781 10.421205489602485 0 0 0 0 164.22510535761558 -83.904395358636975 0 -83.904395358636975 106.36157676351036 0 0 0 0 -55.865399887762806 14.429877651477 0 14.429877651477 18.68930422269932 0 0 0 0 -64.745803166123665 2.7540815205566105 0 2.7540815205566105 3.3445720353411161 0 0 0 0 -11.157247839086153 -24.439668739012632 0 -24.439668739012632 31.697835532861063 0 0 0 0 -48.406418907864918 5.5880067640191555 0 5.5880067640191555 88.977356341980339 0 0 0 0 -132.17150570341414 -34.001440712228032 0 -34.001440712228032 149.74227639676246 0 0 0 0 -1.4604468504453507 4.7987258961838961 0 4.7987258961838961 -39.006928242964932 0 0 0 0 -53.213710573049411 107.03482066129072 0 107.03482066129072 259.16289582077115 0 0 0 0 0.3559013146964487 -0.35348006972426305 0 -0.35348006972426305 0.38043450320292038 0 0 0 0 -32.513260185942499 -90.377169869710997 0 -90.377169869710997 -88.137439004640328 0 0 0 0 -4.8270394202313582 -24.646194013119384 0 -24.646194013119384 -49.068741468938242 0 0 0 0 -39.729791063546827 -22.998542531058774 0 -22.998542531058774 76.018570959960925 0 0 0 0 5.6380577416705364 -51.377689563269087 0 -51.377689563269087 -56.600145173413694 0 0 0 0 1.447582498346109 -0.97591184150441279 0 -0.97591184150441279 0.39963802217509681 0 0 0 0 -15.746013567742125 10.733440857573441 0 10.733440857573441 156.42981950478134 0 0 0 0 36.419675791797999 9.1653777116516721 0 9.1653777116516721 80.741757183344816 0 0 0 0 5.9707166933749249 9.5255565827173996 0 9.5255565827173996 75.880207661117311 0 0 0 0 -5.0423534739824163 -14.78435460064884 0 -14.78435460064884 63.306335186425713 0 0 0 0 2.5003664712080536 -32.955775546521181 0 -32.955775546521181 2.8669996644530329 0 0 0 0 -34.224963479213102 -5.2436516135931015 0 -5.2436516135931015 64.752091111775371 0 0 0 0 -0.30673321683953514 -3.2876962079279508 0 -3.2876962079279508 6.4528047262908217 0 0 0 0 -20.042682924317432 3.0248371679990669 0 3.0248371679990669 71.423876163393288 0 0 0 0 -1.9690554996077481 -0.98721824405220104 0 -0.98721824405220104 14.405580977821955 0 0 0 0 -15.782300914046118 -2.6266309052753058 0 -2.6266309052753058 50.702910726096889 0 0 0 0 -20.558552091845968 -30.72061343092173 0 -30.72061343092173 60.999697252555052 0 0 0 0 -24.997958500100367 -25.776555556434687 0 -25.776555556434687 55.600342552559596 0 0 0 0 -15.251922029864232 -19.220825168684541 0 -19.220825168684541 59.225032807815296 0 0 0 0 -29.345489437630476 -25.9363929558167 0 -25.9363929558167 92.557648555371998 0 0 0 0 -16.598199972754628 -31.833918403151984 0 -31.833918403151984 48.10074110666028 0 0 0 0 -14.977124697947374 -20.465845204747893 0 -20.465845204747893 40.41854243882517 0 0 0 0 -38.347120636124714 -33.435714099636698 0 -33.435714099636698 34.570307754409441 0 0 0 0 1.9520646340661187 -11.26338795823176 0 -11.26338795823176 38.826790752627858 0 0 0 0 -90.077856834110946 -99.502573452613433 0 -99.502573452613433 56.428528575139353 0 0 0 0 -92.273390102382706 -89.168227577223661 0 -89.168227577223661 68.339441503761918 0 0 0 0 -79.615341097292458 -83.887869742819021 0 -83.887869742819021 59.067290148857865 0 0 0 0 -46.939304611034686 -73.509678504837211 0 -73.509678504837211 43.623548954063153 0 0 0 0 -91.73764050775435 -65.868888799057459 0 -65.868888799057459 103.80471823320113 0 0 0 0 -86.905813186150795 -77.99566893928386 0 -77.99566893928386 90.560706996082445 0 0 0 0 -95.879965801075969 -79.920051876906655 0 -79.920051876906655 90.1627897645958 0 0 0 0 -129.14126036776184 -108.60527113226271 0 -108.60527113226271 105.68773166505707 0 0 0 0 -119.48138522745091 -152.72474476853313 0 -152.72474476853313 74.890726640467619 0 0 0 0 -0.28320426223126777 -148.31396487959137 0 -148.31396487959137 42.52829329870292 0 0 0 0 -76.178789482328995 -93.004782670235727 0 -93.004782670235727 3.9451520976726897 0 0 0 0 -74.797126970503882 -96.013605783948151 0 -96.013605783948151 10.215357590248459 0 0 0 0 -71.177366777524441 -98.952048227164596 0 -98.952048227164596 -2.0685211915842956 0 0 0 0 -70.196632588776765 -102.4086926277887 0 -102.4086926277887 7.8064885329986282 0 0 0 0 0.056061941359506963 -95.338137684193498 0 -95.338137684193498 -49.973719792324118 0 0 0 0 -111.92733181535493 -73.108681922672986 0 -73.108681922672986 -16.914029727784509 0 0 0 0 -55.003330387784558 -56.51615234946803 0 -56.51615234946803 -75.335382379504154 0 0 0 0 -30.433822131589864 -82.970562808317482 0 -82.970562808317482 -167.044786392682 0 0 0 0 -0.97310824153078035 -0.2000640802550322 0 -0.2000640802550322 -0.10096609735443707 0 0 0 0 -88.263833855603679 -114.89008881437076 0 -114.89008881437076 -58.391165336681297 0 0 0 0 -71.472737891687984 -70.753887202474289 0 -70.753887202474289 6.0518034233227809 0 0 0 0 -65.121482145655136 -85.701066853835073 0 -85.701066853835073 4.7161657565156929 0 0 0 0 -67.383354849850093 -87.805606793024708 0 -87.805606793024708 34.148969655259862 0 0 0 0 -53.162633246634414 -84.862824393050687 0 -84.862824393050687 -22.431213572242996 0 0 0 0 -34.844433271768139 -60.823600814299425 0 -60.823600814299425 6.7348793853016105 0 0 0 0 -19.955714835785102 -41.567981036139827 0 -41.567981036139827 -20.058016710008815 0 0 0 0 -19.705404701321299 -42.031957711384166 0 -42.031957711384166 -19.274717260108446 0 0 0 0 -2.7103145435041576 -0.15376507695678754 0 -0.15376507695678754 1.2690441654698432 0 0 0 0 -16.063140590330249 -29.586319882793759 0 -29.586319882793759 -4.9002226003431133 0 0 0 0 -17.314858051655619 -28.041795208628173 0 -28.041795208628173 90.191389268256899 0 0 0 0 18.498083117224269 -51.260183136502746 0 -51.260183136502746 54.148783071206708 0 0 0 0 0.072905201851907186 -6.6706702818433854 0 -6.6706702818433854 22.262899494539937 0 0 0 0 -49.296465663893514 -20.375993541443677 0 -20.375993541443677 101.86359445588459 0 0 0 0 -4.5763990599014051 -28.868777705574757 0 -28.868777705574757 67.86558638853603 0 0 0 0 -0.75079447241755171 -1.0076360987114725 0 -1.0076360987114725 -0.93956074306569803 0 0 0 0 14.99974543509461 -36.123911351358402 0 -36.123911351358402 43.368565223019687 0 0 0 0 9.0645933939469501 -59.205073238419573 0 -59.205073238419573 29.269028730952414 0 0 0 0 -12.600166101433388 -50.906617816173821 0 -50.906617816173821 45.508768239085839 0 0 0 0 -7.5189149656223435 -56.110615960860741 0 -56.110615960860741 39.603272552747512 0 0 0 0 -20.100952556079164 -61.588179842081445 0 -61.588179842081445 44.141994054058159 0 0 0 0 -19.6711701557374 -63.805608383059734 0 -63.805608383059734 26.145959137124009 0 0 0 0 -34.026433394863659 -65.743675390176577 0 -65.743675390176577 35.905083870369708 0 0 0 0 -121.00561168802415 677.67831115904119 0 677.67831115904119 959.7928593771212 0 0 0 0 -5.5873851303261333 9.4667290460340183 0 9.4667290460340183 2.3332345803999388 0 0 0 0 316.46518471259287 402.76745480795216 0 402.76745480795216 868.80595400665334 0 0 0 0 -180.7656326479194 504.30939392495986 0 504.30939392495986 969.79833051042806 0 0 0 0 56.184506664844776 623.71193923659303 0 623.71193923659303 901.97319904665346 0 0 0 0 2.4486252047448711 0.21302109632918409 0 0.21302109632918409 -2.6010633019221245 0 0 0 0 1101.2276741421465 666.35025368334391 0 666.35025368334391 655.74407030613656 0 0 0 0 4.3526705766082578 -20.983535444796658 0 -20.983535444796658 42.463062864456049 0 0 0 0 626.83646447737738 -24.867642905912362 0 -24.867642905912362 -662.94007409604637 0 0 0 0 -696.31019357936793 426.94394098183193 0 426.94394098183193 102.87491188271088 0 0 0 0 -101.63709401139124 303.30742150681453 0 303.30742150681453 300.3402318834851 0 0 0 0 -6.4573091254246719 -20.618363429806777 0 -20.618363429806777 44.526815369740689 0 0 0 0 4.6415737464753972 -19.049387732880561 0 -19.049387732880561 51.482112714111651 0 0 0 0 -4.3418487171328479 -28.964213797646153 0 -28.964213797646153 55.832205937302206 0 0 0 0 -23.054170845737644 -12.946639801166384 0 -12.946639801166384 127.35561282759227 0 0 0 0 1.7467014736001145 -16.805622930515106 0 -16.805622930515106 61.273173407910093 0 0 0 0 -17.450020565949671 -8.8956118995411089 0 -8.8956118995411089 117.45847589108962 0 0 0 0 -26.095892227867353 -15.121291475428734 0 -15.121291475428734 126.46447869915573 0 0 0 0 8.2250600179609172 -31.059295388469728 0 -31.059295388469728 89.75299618389441 0 0 0 0 -60.978544103698368 -55.0137740801365 0 -55.0137740801365 117.9595711736747 0 0 0 0 -23.799432706895686 -34.736264175138786 0 -34.736264175138786 67.100821613654261 0 0 0 0 -61.504214958816647 -52.428947646822053 0 -52.428947646822053 58.805782222738344 0 0 0 0 2.0664908133991786 -10.194920435196511 0 -10.194920435196511 13.86152286182994 0 0 0 0 -16.589179054015858 -52.27550817134761 0 -52.27550817134761 21.324497353234619 0 0 0 0 -30.669722006264465 -64.478751824957726 0 -64.478751824957726 30.927360285437317 0 0 0 0 51.257255956655356 -159.41515626904174 0 -159.41515626904174 -34.306024764766335 0 0 0 0 -28.25391452558847 -60.099993173960684 0 -60.099993173960684 53.278344236001431 0 0 0 0 -46.779510563632044 -74.470453008923869 0 -74.470453008923869 44.430042317660991 0 0 0 0 -14.231926752577692 -53.005075198827399 0 -53.005075198827399 42.833239624771522 0 0 0 0 -21.100092960656866 -63.742585373634938 0 -63.742585373634938 39.882864988431038 0 0 0 0 -18.325380753596619 -55.728761166399636 0 -55.728761166399636 50.135171138157602 0 0 0 0 -10.648251059041286 -43.698517111581168 0 -43.698517111581168 32.465149778669002 0 0 0 0 -23.7614742574508 -30.30468887664756 0 -30.30468887664756 90.55100147533085 0 0 0 0 -28.920839562123092 -54.152682647261827 0 -54.152682647261827 53.724504329758929 0 0 0 0 -47.852714636850578 -60.77011629059416 0 -60.77011629059416 55.905553212396626 0 0 0 0 -51.398088216635188 -56.220120442441839 0 -56.220120442441839 86.183988589742512 0 0 0 0 -63.814907345284411 -39.729693964548005 0 -39.729693964548005 121.9677214010444 0 0 0 0 -52.956513544109839 -4.1116310156066902 0 -4.1116310156066902 138.10912052541971 0 0 0 0 -64.401263914460543 -43.512466053840399 0 -43.512466053840399 113.13117693318054 0 0 0 0 -90.812715984365241 2.5337588915190281 0 2.5337588915190281 285.27999669432029 0 0 0 0 -81.295120914332983 -84.566951637323655 0 -84.566951637323655 318.66692709225754 0 0 0 0 -95.879272204250128 -40.341111984169402 0 -40.341111984169402 274.12172988914244 0 0 0 0 -88.022177431168302 -60.416582742269384 0 -60.416582742269384 213.13487342681037 0 0 0 0 390.65969061635519 -194.83936529323182 0 -194.83936529323182 49.981292118529382 0 0 0 0 -3.4473909998278032 58.76945192139101 0 58.76945192139101 38.575594821762934 0 0 0 0 -63.17962755517533 77.595092156403553 0 77.595092156403553 115.2053235034 0 0 0 0 -0.0019165807601210783 1.5997255788705864 0 1.5997255788705864 3.9883984466923152 0 0 0 0 41.79019352086334 -143.33957307253513 0 -143.33957307253513 261.82528286115848 0 0 0 0 -26.074133402104735 -115.97379135116353 0 -115.97379135116353 427.40584027476143 0 0 0 0 106.01194707341051 118.12500666155393 0 118.12500666155393 155.8309021668756 0 0 0 0 -46.539265551314088 5.8691407003798304 0 5.8691407003798304 76.370592596504139 0 0 0 0 194.28854847993114 -93.073731579223022 0 -93.073731579223022 114.61980170293828 0 0 0 0 67.482646946483101 -1.6667090564369573 0 -1.6667090564369573 56.373677148061688 0 0 0 0 -4.063494734679125 -40.053757554829645 0 -40.053757554829645 36.691685666719422 0 0 0 0 1.4504304603240143 104.46519043533408 0 104.46519043533408 -16.444772128834302 0 0 0 0 -14.639519922306913 6.9282964292240337 0 6.9282964292240337 9.3524792205682843 0 0 0 0 -3.9760711893723055 -89.541965082760726 0 -89.541965082760726 164.9081673587134 0 0 0 0 -52.487859375995185 13.081492772093043 0 13.081492772093043 155.01348315703217 0 0 0 0 -57.922785941444836 82.39891755925737 0 82.39891755925737 363.14715851648361 0 0 0 0 -69.810507836752095 -32.088489957801357 0 -32.088489957801357 272.04138521447203 0 0 0 0 -69.465636839970557 -33.44336202708655 0 -33.44336202708655 199.83580979339604 0 0 0 0 4.1218885487846819 -88.430855217935459 0 -88.430855217935459 143.64753739770822 0 0 0 0 -0.12294597905565752 -16.051049738682195 0 -16.051049738682195 35.083547336987976 0 0 0 0 -13.873571296105411 -42.266732545667764 0 -42.266732545667764 28.020953281511538 0 0 0 0 -85.331420474992228 441.3920969403116 0 441.3920969403116 243.51288874232705 0 0 0 0 -232.45140637324027 -654.14013481820439 0 -654.14013481820439 81.028453850612095 0 0 0 0 -779.07251504423448 -170.11621963194921 0 -170.11621963194921 486.47295756139283 0 0 0 0 -247.9574867495428 38.942259011934766 0 38.942259011934766 238.52250304916379 0 0 0 0 -271.07784193196676 -102.74164390376973 0 -102.74164390376973 123.32909734299392 0 0 0 0 -2.6476253479304015 0.62105532844692846 0 0.62105532844692846 0.47566877892035109 0 0 0 0 -174.28850760994601 -101.98347113678756 0 -101.98347113678756 289.13550358232897 0 0 0 0 -92.45900603166632 -37.999936861554943 0 -37.999936861554943 184.68169575903448 0 0 0 0 -229.47568759896456 -103.71767857748637 0 -103.71767857748637 165.8522395152213 0 0 0 0 -171.89657781240126 -125.98346958434536 0 -125.98346958434536 127.7951164686674 0 0 0 0 -121.34468243500493 -92.9468521759336 0 -92.9468521759336 135.58374154389458 0 0 0 0 -139.21821395874525 -94.622788213843251 0 -94.622788213843251 136.22845158683049 0 0 0 0 -132.52783047080334 -63.1536926599656 0 -63.1536926599656 169.46405066507577 0 0 0 0 -140.89833521881843 -192.13685700486531 0 -192.13685700486531 101.60313017029694 0 0 0 0 -199.33792834142025 -193.87109890910779 0 -193.87109890910779 140.60376220312901 0 0 0 0 0.45979746789155906 -268.90123090617635 0 -268.90123090617635 67.687876826006686 0 0 0 0 -2.0210375243388445 -399.88811919137879 0 -399.88811919137879 70.938379718576471 0 0 0 0 -248.62643156617037 -319.46636482152826 0 -319.46636482152826 69.916715890572959 0 0 0 0 -359.95158566280236 -185.56193737504873 0 -185.56193737504873 159.4440672704477 0 0 0 0 -531.17473570253458 -367.45417007773904 0 -367.45417007773904 137.55448778295249 0 0 0 0 -716.30416894518407 -722.0215655390457 0 -722.0215655390457 -74.011989797574643 0 0 0 0 4.6498417064527438 -947.90437651791217 0 -947.90437651791217 -374.45549041296181 0 0 0 0 -929.2947444159413 -696.08330261403535 0 -696.08330261403535 -121.39887847462523 0 0 0 0 -1514.6985568483242 -555.08089169560117 0 -555.08089169560117 -136.58558394156717 0 0 0 0 -1307.7185757145853 -1638.6234406091535 0 -1638.6234406091535 -720.48733678590361 0 0 0 0 408.55367062408533 336.8855035831175 0 336.8855035831175 -23.938571909384336 0 0 0 0 -574.38659567283685 -218.48516719679537 0 -218.48516719679537 117.81152755396033 0 0 0 0 -0.51065397688862668 1.0891134651518204 0 1.0891134651518204 8.8984804186326301 0 0 0 0 -775.41770244645386 -97.645752103038831 0 -97.645752103038831 69.006534494401421 0 0 0 0 -1026.5739697580996 -215.24100147690478 0 -215.24100147690478 264.03227423136559 0 0 0 0 -759.857270105726 -345.67017827437303 0 -345.67017827437303 318.55441994431021 0 0 0 0 -4.1430057764086925 4.7781014484282824 0 4.7781014484282824 2.5956770434342786 0 0 0 0 660.36218544685698 243.68435616818169 0 243.68435616818169 -109.16838249384455 0 0 0 0 -199.49117695329915 458.40606087323249 0 458.40606087323249 191.07312563012238 0 0 0 0 -1.8443679417699401 3.0728031359923271 0 3.0728031359923271 22.566457806752169 0 0 0 0 -130.94374068013946 -37.648611897467163 0 -37.648611897467163 283.66601007487043 0 0 0 0 -773.31704983616328 73.570862774144189 0 73.570862774144189 382.44179325079313 0 0 0 0 -769.07893567562132 -15.188278668800194 0 -15.188278668800194 30.568897469318472 0 0 0 0 -927.79761258323924 -195.58416974831198 0 -195.58416974831198 56.935539015641552 0 0 0 0 -2.2295732981746497 0.78599031975309686 0 0.78599031975309686 5.2716934165089242 0 0 0 0 -95.44924390119013 -214.42743960398366 0 -214.42743960398366 -152.71582395536825 0 0 0 0 -154.02356730682368 136.52877386531327 0 136.52877386531327 -351.06288761981705 0 0 0 0 -419.87330723083687 352.09415674318734 0 352.09415674318734 -129.60163619059313 0 0 0 0 -131.62638003877805 6.0825473622280697 0 6.0825473622280697 260.89579962502467 0 0 0 0 -59.023120975342863 335.5168410060287 0 335.5168410060287 104.22043198550091 0 0 0 0 -92.614858120260124 -245.24307822870287 0 -245.24307822870287 113.6182176086586 0 0 0 0 -5577.3059010661536 -1704.5701495904068 0 -1704.5701495904068 333.88431579260214 0 0 0 0 -10.874788583366257 17.185109928745177 0 17.185109928745177 5.9676108628210045 0 0 0 0 322.73525979181159 220.58422281686217 0 220.58422281686217 -103.22004545821983 0 0 0 0 -1.5499168590672505 2.1803342301523223 0 2.1803342301523223 28.006034542850699 0 0 0 0 -53.465385986385172 -32.164332854059467 0 -32.164332854059467 30.12960247326555 0 0 0 0 -400.14436931319597 70.951961412556557 0 70.951961412556557 88.414413265571056 0 0 0 0 -364.31655017710455 24.335573421252775 0 24.335573421252775 128.47898365450965 0 0 0 0 -60.665652059157878 167.68495585791914 0 167.68495585791914 -82.765122045122553 0 0 0 0 -20.369893505856759 -1704.6515834598213 0 -1704.6515834598213 -1056.6058621637712 0 0 0 0 -3605.2346812610908 -1426.2083246207148 0 -1426.2083246207148 -137.57336394226877 0 0 0 0 -2534.8548938850208 -1010.5941040937651 0 -1010.5941040937651 -622.75750978580254 0 0 0 0 -1831.6838892244796 -2217.2327229169168 0 -2217.2327229169168 -562.92247892565501 0 0 0 0 -2049.6315575145245 -2359.6569524633669 0 -2359.6569524633669 -518.80638313723466 0 0 0 0 -4083.366133443631 -3432.6771785072378 0 -3432.6771785072378 4714.750596054073 0 0 0 0 69.31096938898429 -3926.1026513371944 0 -3926.1026513371944 776.76881765119469 0 0 0 0 -6341.1098524540193 -2015.6524730646852 0 -2015.6524730646852 4238.1399346048274 0 0 0 0 -8746.9268458720835 1850.5860522476432 0 1850.5860522476432 3185.7786087775312 0 0 0 0 -7318.0755344966747 -1726.1995646645446 0 -1726.1995646645446 8152.647010148663 0 0 0 0 -5338.1849034182051 -869.97041464089853 0 -869.97041464089853 2501.419370186064 0 0 0 0 -6952.3170016618569 1129.9179736439182 0 1129.9179736439182 3204.6480729994801 0 0 0 0 -5409.2651592039983 -1134.7047583884851 0 -1134.7047583884851 1682.7474862447998 0 0 0 0 -4197.6801602926607 -1229.057238675925 0 -1229.057238675925 -341.37332754847012 0 0 0 0 -3759.9799452633124 -2673.6173335356507 0 -2673.6173335356507 2277.4272827579989 0 0 0 0 -6019.5554152260156 27.785615408189187 0 27.785615408189187 1334.5328117996833 0 0 0 0 1.4917145864733357 97.094292723177205 0 97.094292723177205 19.747479579782521 0 0 0 0 -6583.1186259741262 -637.03766088430348 0 -637.03766088430348 1109.0464434322494 0 0 0 0 -13.193133725927904 38.730213754373835 0 38.730213754373835 -0.87116399565360325 0 0 0 0 -167.30547380668349 50.630991584330332 0 50.630991584330332 75.61983699144912 0 0 0 0 -9.8355781500224992 12.261780738624459 0 12.261780738624459 37.409308443630863 0 0 0 0 -98.007496532978621 105.29723993755761 0 105.29723993755761 78.75316691777698 0 0 0 0 -7.2621265726760296 12.058523761267583 0 12.058523761267583 26.920517434279759 0 0 0 0 -40.379551785385047 24.053120548407605 0 24.053120548407605 28.672764395076229 0 0 0 0 -49.772456770447661 46.960831788168434 0 46.960831788168434 25.041729480522918 0 0 0 0 -34.338433723708235 15.108967562664105 0 15.108967562664105 29.848294615479901 0 0 0 0 -24.738387232707552 30.928500626367722 0 30.928500626367722 21.876814318388114 0 0 0 0 -2717.8420398377784 1417.7053108563669 0 1417.7053108563669 -367.17417282795941 0 0 0 0 -4388.9694033508713 701.65490568435052 0 701.65490568435052 363.78771080782462 0 0 0 0 -3106.4494551277385 1085.3784143372177 0 1085.3784143372177 218.77327434145263 0 0 0 0 -4700.1202716780826 1948.743604497271 0 1948.743604497271 1079.172493760052 0 0 0 0 -4154.1170709906655 2000.4089988458145 0 2000.4089988458145 -231.56081446883036 0 0 0 0 -5644.58257841882 1857.5995363500915 0 1857.5995363500915 1575.8600288406305 0 0 0 0 -5550.2565512720612 1226.7718782291922 0 1226.7718782291922 986.65533496657736 0 0 0 0 -5025.072419070013 2551.3062329966779 0 2551.3062329966779 1857.4797341556841 0 0 0 0 -2516.4604565795307 2075.7759445555348 0 2075.7759445555348 -400.49556941968331 0 0 0 0 -3525.5235868865784 3419.2061145518965 0 3419.2061145518965 -600.35101107016089 0 0 0 0 -2906.5889980287466 1594.8207396962862 0 1594.8207396962862 -475.21667944283399 0 0 0 0 524.77032802176109 -11.976227529688913 0 -11.976227529688913 -447.80025606573827 0 0 0 0 -4025.032067684202 3652.6261014510892 0 3652.6261014510892 -700.48914134545339 0 0 0 0 -1362.6031311359111 2937.2554298726354 0 2937.2554298726354 -2324.4675409543852 0 0 0 0 -25.825525204875703 33.680050491018847 0 33.680050491018847 14.602395912479551 0 0 0 0 11.344477546627786 7.5950326797592425 0 7.5950326797592425 -9.446610386868997 0 0 0 0 -42.859164338947721 4.2770126129726123 0 4.2770126129726123 32.013637793788803 0 0 0 0 -8.0193697521842982 29.270896945792742 0 29.270896945792742 -2.3298312322355059 0 0 0 0 224.37571816216769 -49.584446788308014 0 -49.584446788308014 -12.427509787026793 0 0 0 0 74.36440306683653 2.1232209373702062 0 2.1232209373702062 -411.28340039111663 0 0 0 0 -245.69761127857055 524.21790539303765 0 524.21790539303765 -306.66023172810674 0 0 0 0 -3190.5871317420169 -504.65067154345888 0 -504.65067154345888 -193.78077059570933 0 0 0 0 16.481921766439612 -0.6934687075678454 0 -0.6934687075678454 0.54334119756451571 0 0 0 0 -2696.0082685743982 845.27271629023744 0 845.27271629023744 -7826.1842067566831 0 0 0 0 2.5173738546933464 -292.19825883971498 0 -292.19825883971498 386.00609261431964 0 0 0 0 3109.1732301486772 11238.362214011082 0 11238.362214011082 -41836.11700702511 0 0 0 0 11.769898518212358 -52.407387657771324 0 -52.407387657771324 -4.3451666328546708 0 0 0 0 31.632228142246547 -61.798001813654224 0 -61.798001813654224 48.65454859947522 0 0 0 0 30.32165719710234 -38.08062083901369 0 -38.08062083901369 28.524881338474501 0 0 0 0 -15.971487628914836 -251.77083782222326 0 -251.77083782222326 395.21446840136196 0 0 0 0 -155.91186093977481 82.693643378789574 0 82.693643378789574 -1.8470134400576512 0 0 0 0 -19201.089897547296 -4511.5141929059391 0 -4511.5141929059391 38421.137934305269 0 0 0 0 -270.19578573058766 -8794.3492273388747 0 -8794.3492273388747 11743.678563962341 0 0 0 0 -176858.56655663456 227100.70379333926 0 227100.70379333926 112890.34970335351 0 0 0 0 -22249.886110240379 12054.936719304671 0 12054.936719304671 2756.1395758082654 0 0 0 0 -13028.550527215739 3878.4335423786688 0 3878.4335423786688 9347.3883649525524 0 0 0 0 -6842.9461030379607 3638.1468562041991 0 3638.1468562041991 4766.3893888820166 0 0 0 0 -6812.4163498753405 4019.0868964999972 0 4019.0868964999972 699.97913489275379 0 0 0 0 -11390.644558280839 8626.378200715897 0 8626.378200715897 184.24530555718229 0 0 0 0 -4130.9657904319611 5302.5476324811752 0 5302.5476324811752 -3540.9380520840496 0 0 0 0 -7268.6240968036727 9536.4502936173376 0 9536.4502936173376 -8503.2270843457736 0 0 0 0 33.565296060421133 10.616863553257645 0 10.616863553257645 105.90017752704443 0 0 0 0 43.839195503470364 3.9724353327401332 0 3.9724353327401332 63.767593267693883 0 0 0 0 16.916747879840841 33.584567175108532 0 33.584567175108532 55.111197708063628 0 0 0 0 37.467722674286961 12.777235679612204 0 12.777235679612204 47.755138183783856 0 0 0 0 24.551489447510903 9.2091910227027256 0 9.2091910227027256 72.805930519235517 0 0 0 0 40.908231390139917 -7.3138932646597823 0 -7.3138932646597823 53.773147486943344 0 0 0 0 26.600651718833433 9.7895201929022733 0 9.7895201929022733 81.014142783787975 0 0 0 0 23.771904716762947 -4.9551955735114461 0 -4.9551955735114461 142.10266916068213 0 0 0 0 54.397488232865726 -8.0636894521448994 0 -8.0636894521448994 75.54769478966773 0 0 0 0 60.060033330633814 -66.077773490898835 0 -66.077773490898835 164.28555054392928 0 0 0 0 -3.8200099985360794 23.381021273660735 0 23.381021273660735 329.53219561626247 0 0 0 0 22.949733839291184 -2.8555823217284342 0 -2.8555823217284342 170.19500800131209 0 0 0 0 84.624080860082358 -20.434168371475607 0 -20.434168371475607 94.807625460118288 0 0 0 0 13.833951073538628 -30.515892825911578 0 -30.515892825911578 100.39458996609756 0 0 0 0 7.8793058491946795 -7.3431082629795128 0 -7.3431082629795128 25.137490942728391 0 0 0 0 -97.844977580001228 0.18844845397620702 0 0.18844845397620702 84.83914210715011 0 0 0 0 -0.8996080125407957 5.6102959595591164 0 5.6102959595591164 14.520694066362438 0 0 0 0 -11.390535941507551 50.897863551792398 0 50.897863551792398 20.981509345126597 0 0 0 0 -51.142544074256875 55.493184361788735 0 55.493184361788735 39.606309667222376 0 0 0 0 21.023523716670752 35.604622977240069 0 35.604622977240069 61.630232759674982 0 0 0 0 5.1136014979238098 46.542513056432654 0 46.542513056432654 36.662434841597133 0 0 0 0 4.3325160246968153 20.283682988836517 0 20.283682988836517 47.964697477829759 0 0 0 0 -12.860223114619657 44.466049275821206 0 44.466049275821206 31.942509595632146 0 0 0 0 -7.6788964138177107 37.435225253637327 0 37.435225253637327 31.694555759851937 0 0 0 0 4.7179578530312938 32.959456342181511 0 32.959456342181511 21.364305266732117 0 0 0 0 -77.848390780790851 32.244535373274175 0 32.244535373274175 50.269973686692538 0 0 0 0 -27.974310180903558 19.347380855375377 0 19.347380855375377 41.200652919142158 0 0 0 0 -25.185716847903677 36.700685172985686 0 36.700685172985686 27.431809666239133 0 0 0 0 -31.175782529864591 20.42886162939476 0 20.42886162939476 27.064686189551139 0 0 0 0 -14.288512917803764 15.096121411538206 0 15.096121411538206 24.426401255527217 0 0 0 0 -6.2837509367755047 29.381566858628503 0 29.381566858628503 48.449297649549408 0 0 0 0 -9.5973140423939185 36.440654606356475 0 36.440654606356475 20.666880029253662 0 0 0 0 -7.8726829808038019 38.817566258345323 0 38.817566258345323 16.921351896264241 0 0 0 0 -2.4548032302636251 22.597077136406995 0 22.597077136406995 16.046055654431818 0 0 0 0 -144.32909094311071 -31.69223998462985 0 -31.69223998462985 42.795274501439053 0 0 0 0 -7.7732656032913745 7.0188077330474599 0 7.0188077330474599 8.4406362082997077 0 0 0 0 5.6762899883078717 25.727591136226692 0 25.727591136226692 11.862640208841185 0 0 0 0 -66.348395043680284 38.220788240199909 0 38.220788240199909 21.574076717954085 0 0 0 0 -12.736341920912309 127.36367764449096 0 127.36367764449096 91.265188742854662 0 0 0 0 -220.25384360960379 41.293679774633347 0 41.293679774633347 132.12256648800394 0 0 0 0 9.0411462503798248 39.769092202190222 0 39.769092202190222 30.725601028549136 0 0 0 0 18.160128891708155 26.56068614468677 0 26.56068614468677 23.994909653571085 0 0 0 0 6.4732182394582196 34.028299807116127 0 34.028299807116127 33.041311400782433 0 0 0 0 17.058713529622764 34.453191780325142 0 34.453191780325142 13.406039122179209 0 0 0 0 6.6956179049720959 27.68829884985098 0 27.68829884985098 44.582242965043406 0 0 0 0 16.692800223519953 26.270885858439215 0 26.270885858439215 36.939364980600658 0 0 0 0 -0.74384717068068795 0.24708218599381127 0 0.24708218599381127 -1.6595975029755152 0 0 0 0 116.92782310926123 -148.9776973367334 0 -148.9776973367334 -115.56180311973185 0 0 0 0 18.804258439935211 0.024640548246679828 0 0.024640548246679828 52.495770088469726 0 0 0 0 699.04426964727463 373.77637390627933 0 373.77637390627933 -227.65284542668451 0 0 0 0 4.4139899366950317 1.6486281212262526 0 1.6486281212262526 0.92013518294206165 0 0 0 0 -14.658767311835618 -31.418192185505177 0 -31.418192185505177 283.91691028263813 0 0 0 0 59.685564645049453 -2.6334253715758678 0 -2.6334253715758678 -8.4640530559117906 0 0 0 0 25.124801675225171 -65.326997330310405 0 -65.326997330310405 263.07933480635984 0 0 0 0 144.78741777888763 39.429218638938437 0 39.429218638938437 -43.29644236373133 0 0 0 0 -32.068815667402305 557.73214859721338 0 557.73214859721338 679.90946144687769 0 0 0 0 39.750160053783475 44.742904057842679 0 44.742904057842679 -37.581209339979978 0 0 0 0 1.2145454121673538 4.2711437830403156 0 4.2711437830403156 -7.0312671269493876 0 0 0 0 50.752164303641621 28.219342521064391 0 28.219342521064391 -30.05684891474084 0 0 0 0 23.119537945798584 63.826692042603099 0 63.826692042603099 -54.651157757627516 0 0 0 0 -4.58451405440983 20.954592461813249 0 20.954592461813249 19.348006138938501 0 0 0 0 -18.642352248396492 45.970052493015828 0 45.970052493015828 -21.412985808672602 0 0 0 0 -0.12408733279926309 182.31583386013699 0 182.31583386013699 -120.79771645602887 0 0 0 0 44.550310898438511 45.737556134641636 0 45.737556134641636 -41.94352777403401 0 0 0 0 2.239561724086343 79.227515929451329 0 79.227515929451329 -158.36307848380238 0 0 0 0 -1.7660577482321642 25.381302850106934 0 25.381302850106934 17.978312338811648 0 0 0 0 132.64477118044306 -51.99846220325162 0 -51.99846220325162 -78.30140452478372 0 0 0 0 131.09336212543622 -136.57766847720632 0 -136.57766847720632 320.54554465007823 0 0 0 0 -70.921992427117402 132.83761777378459 0 132.83761777378459 51.034063361672452 0 0 0 0 368.591391147369 125.42631655813602 0 125.42631655813602 40.359893598151757 0 0 0 0 -107.86597981948034 51.7990227450573 0 51.7990227450573 147.45198752591386 0 0 0 0 -277.86774319964434 6.9195228635435342 0 6.9195228635435342 135.68881259417685 0 0 0 0 -122.66637688362516 262.61188404767745 0 262.61188404767745 377.43903361339471 0 0 0 0 -14.691973402436588 21.368893042500076 0 21.368893042500076 39.420980329508893 0 0 0 0 -21.574659117517058 47.203532071362133 0 47.203532071362133 -22.086512829948333 0 0 0 0 -5.5420085968151884 2.6472630843715308 0 2.6472630843715308 5.6517338859602262 0 0 0 0 -2.0771840256857104 10.336721350795415 0 10.336721350795415 26.954683209587529 0 0 0 0 37.211236613307847 -77.32246088051761 0 -77.32246088051761 -115.07674679042975 0 0 0 0 -13.27877136035724 9.8853786781679105 0 9.8853786781679105 10.490769657450301 0 0 0 0 22.018185907301813 66.98036355565273 0 66.98036355565273 94.798894678955548 0 0 0 0 11.700009375447308 -53.649915261993556 0 -53.649915261993556 115.496777064036 0 0 0 0 10.302158529663757 119.34856643577223 0 119.34856643577223 222.20407777663786 0 0 0 0 -12.196977542090735 -134.00452430452424 0 -134.00452430452424 -90.142338841680612 0 0 0 0 47.73339345605882 73.194888983889541 0 73.194888983889541 40.105541994635132 0 0 0 0 2.2181883697472298 1.1903219937501746 0 1.1903219937501746 -0.13742223341435533 0 0 0 0 24.828071508135963 220.09883647321112 0 220.09883647321112 62.484445964859333 0 0 0 0 -35.322233447423969 130.61117674776688 0 130.61117674776688 397.49556110840058 0 0 0 0 -47.611603644881143 18.128820283593086 0 18.128820283593086 464.15924085627921 0 0 0 0 5.2942226069981189 26.928920312711853 0 26.928920312711853 371.79501299452386 0 0 0 0 -9.5181368081952016 5.7375065096033069 0 5.7375065096033069 0.79663387890184367 0 0 0 0 32.751837975308717 140.77415862667112 0 140.77415862667112 -28.036255257778976 0 0 0 0 -301.22973874917398 -39.801226151546871 0 -39.801226151546871 50.413647520494123 0 0 0 0 -217.27687429546222 -102.07878791983967 0 -102.07878791983967 129.91788843217364 0 0 0 0 -191.63069515298889 23.231234844331993 0 23.231234844331993 88.131353271310218 0 0 0 0 118.07704444518822 -287.149924603611 0 -287.149924603611 167.9644669520967 0 0 0 0 13.515399482845339 96.536329663538936 0 96.536329663538936 447.77151276438963 0 0 0 0 236.6663175737167 -38.944967597635696 0 -38.944967597635696 22.3580853396561 0 0 0 0 -0.60952401248940546 -2.2293851005450165 0 -2.2293851005450165 6.3415105316466907 0 0 0 0 -15.934308205450662 5.6528879535412386 0 5.6528879535412386 10.372038373042031 0 0 0 0 6.2697078114915143 33.320981419774398 0 33.320981419774398 -64.257562072962173 0 0 0 0 100.30190505387145 -60.022319163181237 0 -60.022319163181237 33.492004843008544 0 0 0 0 -168.99964231596641 -55.482770801143488 0 -55.482770801143488 161.07656500936719 0 0 0 0 87.985332834890187 -104.12730001924774 0 -104.12730001924774 75.487072222036659 0 0 0 0 17.462907981516764 -14.740770718854037 0 -14.740770718854037 117.44749708190648 0 0 0 0 -114.69103394225067 -24.542073001921381 0 -24.542073001921381 67.576386879103666 0 0 0 0 -0.69934664969888516 0.50118243157444908 0 0.50118243157444908 -0.48791990355844561 0 0 0 0 -92.749258832282067 -61.900202393131622 0 -61.900202393131622 127.18346175856277 0 0 0 0 -2.1903552447009993 -0.47547716543977003 0 -0.47547716543977003 -0.25454896112950109 0 0 0 0 -136.28247932586146 24.33700897925155 0 24.33700897925155 40.323760067258263 0 0 0 0 25.70760956522281 0.028562209190567955 0 0.028562209190567955 33.832481829078461 0 0 0 0 -5.905228165611172 12.940892985046332 0 12.940892985046332 38.978377476852302 0 0 0 0 18.776584299463138 -8.8433423200985999 0 -8.8433423200985999 59.099201748549604 0 0 0 0 -5.834428867445272 -3.0045165930319229 0 -3.0045165930319229 11.067492821040744 0 0 0 0 -6.7560647615900962 15.92243780026547 0 15.92243780026547 80.758158468603142 0 0 0 0 -18.371742413696666 14.997250432328656 0 14.997250432328656 74.495347534852044 0 0 0 0 -5.121770455531987 -6.9951023596004234 0 -6.9951023596004234 69.046592394755862 0 0 0 0 -1.7908248663537023 -0.8870528806486675 0 -0.8870528806486675 12.224495170371807 0 0 0 0 -4.8232019642846353 -4.5551520311564673 0 -4.5551520311564673 99.052370305951627 0 0 0 0 -6.0100414001444733 -0.79474364146881271 0 -0.79474364146881271 109.20033090926881 0 0 0 0 -2.9192241419968923 2.4443921954807593 0 2.4443921954807593 83.52978889129372 0 0 0 0 -4.4316679200087492 -4.6803856218521105 0 -4.6803856218521105 48.279602861053718 0 0 0 0 -7.9999154171394871 -2.6308068203764989 0 -2.6308068203764989 55.060190351124675 0 0 0 0 -13.87791357648257 -7.1637715233882773 0 -7.1637715233882773 37.480347421544138 0 0 0 0 14.593009771834659 9.0784437640177202 0 9.0784437640177202 63.01092060009978 0 0 0 0 -7.8024516445653518 -8.4406521818330837 0 -8.4406521818330837 42.715677621834899 0 0 0 0 -3.5417356079615274 -0.57032016544690123 0 -0.57032016544690123 43.217436616857412 0 0 0 0 -9.5781417993051541 -1.1622706567657417 0 -1.1622706567657417 42.675519931571472 0 0 0 0 -7.8076483306850282 5.0102358362396444 0 5.0102358362396444 35.594437134977568 0 0 0 0 -13.249070603108066 -9.7071478993475466 0 -9.7071478993475466 70.953974533495057 0 0 0 0 -1.0316348461258009 0.56954054401676046 0 0.56954054401676046 8.1856720519769866 0 0 0 0 -13.337090749731248 -7.1762801862702474 0 -7.1762801862702474 10.726059364441298 0 0 0 0 -46.878663716035362 -3.9967754763492849 0 -3.9967754763492849 125.14208297920777 0 0 0 0 -3.1321387051848433 5.4050046714546625 0 5.4050046714546625 26.3848084570418 0 0 0 0 -5.2606246049488199 -11.215340913654746 0 -11.215340913654746 28.88284886232276 0 0 0 0 -9.259845189151747 5.9672039944962307 0 5.9672039944962307 26.652039937194786 0 0 0 0 -5.3071273608299752 -1.2618752536765001 0 -1.2618752536765001 22.449652041506681 0 0 0 0 -8.7772578420258469 -5.6360223062283694 0 -5.6360223062283694 42.747847448306857 0 0 0 0 -6.1445825004138896 6.185515117686009 0 6.185515117686009 23.25190930959252 0 0 0 0 21.741312833604752 -2.8458789935175446 0 -2.8458789935175446 25.883343603578396 0 0 0 0 -5.8565043024319614 3.8119998307634972 0 3.8119998307634972 21.871397937449444 0 0 0 0 0.91742569267288232 0.67250133634165365 0 0.67250133634165365 0.48492915456108676 0 0 0 0 -22.764624368244768 -38.701891860277101 0 -38.701891860277101 34.739197118231459 0 0 0 0 23.056474344230992 -0.14503935846369131 0 -0.14503935846369131 11.119851635216037 0 0 0 0 5.7896654580981703 41.705579938556184 0 41.705579938556184 70.974209032392537 0 0 0 0 15.690781876466644 113.13594987661054 0 113.13594987661054 87.047067987987248 0 0 0 0 -1.7596135275862252 17.59071752885211 0 17.59071752885211 24.62687641219236 0 0 0 0 1.2256786972449305 9.0259918989965513 0 9.0259918989965513 13.105267099531758 0 0 0 0 25.43144919903034 0.44903427743247448 0 0.44903427743247448 8.8345935461984482 0 0 0 0 18.572077091366282 20.139858388944049 0 20.139858388944049 37.956749725650297 0 0 0 0 23.423442221908772 2.0089809028722811 0 2.0089809028722811 8.2584758430493821 0 0 0 0 17.213833237225117 11.311892315839941 0 11.311892315839941 13.150603870446503 0 0 0 0 22.308534313631299 0.72752111520094331 0 0.72752111520094331 11.465129003787297 0 0 0 0 10.595916645816942 -9.7850539213250158 0 -9.7850539213250158 14.383215882669901 0 0 0 0 15.235995057564651 6.3558109378755034 0 6.3558109378755034 41.809666297616786 0 0 0 0 -4.6228753760351537 -15.285737913407502 0 -15.285737913407502 54.013932530986494 0 0 0 0 0.64760405037628033 10.022960509166552 0 10.022960509166552 8.6877873523581997 0 0 0 0 -4.6568548609648133 -9.5097345376707381 0 -9.5097345376707381 77.680820555659011 0 0 0 0 2.8165172360045183 1.9222247358050595 0 1.9222247358050595 1.640717050312702 0 0 0 0 26.467324041874235 12.917351790592875 0 12.917351790592875 21.465934583371563 0 0 0 0 4.0108363371946325 -9.5017470933962613 0 -9.5017470933962613 69.102916563264444 0 0 0 0 -4.7269673226473969 -13.146484708733624 0 -13.146484708733624 64.902930658761761 0 0 0 0 1.7279201171368186 -1.507232149670017 0 -1.507232149670017 19.825582860457416 0 0 0 0 5.1203965902032671 8.5200656596908004 0 8.5200656596908004 -10.646072822606016 0 0 0 0 4.5011274397956598 6.4572070164403996 0 6.4572070164403996 3.4892822616114358 0 0 0 0 -11.945728588780185 30.882091874631442 0 30.882091874631442 -40.520657050659793 0 0 0 0 -25.589690102122404 27.019438784736849 0 27.019438784736849 6.9485712997266091 0 0 0 0 -1.1145461622599555 1.1737303599677915 0 1.1737303599677915 0.31488287210153487 0 0 0 0 -19.975802712280711 21.103394735611801 0 21.103394735611801 12.799916307179956 0 0 0 0 -15.659679283256992 14.499461637431523 0 14.499461637431523 -11.156788822598173 0 0 0 0 -18.137102008937291 17.353047036154749 0 17.353047036154749 -27.763328592089238 0 0 0 0 7.216684623301262 3.8379896519436443 0 3.8379896519436443 48.91973908431828 0 0 0 0 -101.05775664032581 41.850870962347472 0 41.850870962347472 35.625704393489286 0 0 0 0 -11.235918660560394 17.297942831914483 0 17.297942831914483 24.303414101112239 0 0 0 0 1.0093137909243524 23.507842449034797 0 23.507842449034797 -13.60979106285231 0 0 0 0 -11.444150002273545 -2.2316188648519528 0 -2.2316188648519528 -7.5876390185076161 0 0 0 0 -0.95869692558924768 0.15623777621974 0 0.15623777621974 6.1469576554669203 0 0 0 0 -16.839637649586621 -14.989793278602519 0 -14.989793278602519 31.760617909254506 0 0 0 0 -2.8045107814197019 -5.0677454634116614 0 -5.0677454634116614 30.426706003087801 0 0 0 0 -24.023825808383549 -7.3275549349641551 0 -7.3275549349641551 37.761538026788912 0 0 0 0 -14.325255048026492 -1.0591120870896304 0 -1.0591120870896304 18.077031206846996 0 0 0 0 -8.2143164594635572 -9.517812039290007 0 -9.517812039290007 15.963672900949103 0 0 0 0 -7.5697462051475668 -11.21641534401715 0 -11.21641534401715 44.763686183730897 0 0 0 0 -2.7116943895345145 -9.5316064216638239 0 -9.5316064216638239 21.022648186637383 0 0 0 0 -3.4131839413457783 -13.444243035221007 0 -13.444243035221007 14.478743459651014 0 0 0 0 -3.6652726774683693 -15.485298596866301 0 -15.485298596866301 28.3923114443242 0 0 0 0 -8.9129134415367695 -13.031444979477733 0 -13.031444979477733 22.610457232674349 0 0 0 0 -4.9117714324926327 -9.2260937377826977 0 -9.2260937377826977 13.765428449019126 0 0 0 0 -2.6427800784949795 -8.5213264487974811 0 -8.5213264487974811 31.37090958020417 0 0 0 0 -19.453965025707021 -15.271347514395529 0 -15.271347514395529 45.77013595560129 0 0 0 0 -14.853492435013916 4.0161416537759749 0 4.0161416537759749 8.9584007841271642 0 0 0 0 -44.86207520547589 -36.198659599738676 0 -36.198659599738676 69.587761189210141 0 0 0 0 -9.7092547330716883 -9.6273977784383789 0 -9.6273977784383789 2.442563619615389 0 0 0 0 -2.3187830170663801 -14.111305442231242 0 -14.111305442231242 63.618705693857919 0 0 0 0 -16.658874869784995 -3.5163510944621521 0 -3.5163510944621521 38.434434053655423 0 0 0 0 -12.278753385785407 -7.1272703392050261 0 -7.1272703392050261 -1.520928018262202 0 0 0 0 -1.7872930972014274 -16.156404792074682 0 -16.156404792074682 47.37006068458868 0 0 0 0 30.203157100153476 -41.531745889093145 0 -41.531745889093145 29.307651130227896 0 0 0 0 -62.303187265588349 33.705538643858745 0 33.705538643858745 80.454915627151422 0 0 0 0 -13.536687172369056 -7.5566686785164165 0 -7.5566686785164165 39.556090654110449 0 0 0 0 -37.339638482151713 -0.19498334747913759 0 -0.19498334747913759 40.320241639931737 0 0 0 0 -13.172890893580647 3.3232196380443497 0 3.3232196380443497 10.099174467372251 0 0 0 0 -8.6964837791474565 -17.283281720927334 0 -17.283281720927334 39.690004292253434 0 0 0 0 -5.5864634787430987 -5.8741603060843772 0 -5.8741603060843772 32.417526166638709 0 0 0 0 2.4622472493193381 -5.8166520052022399 0 -5.8166520052022399 14.89098707316397 0 0 0 0 -82.171703697747944 -44.439202970404949 0 -44.439202970404949 155.94150718809396 0 0 0 0 26.193395219745753 -0.91200698757984355 0 -0.91200698757984355 -3.2838760962986271 0 0 0 0 20.428213888731989 24.243882754788501 0 24.243882754788501 -4.364177070401638 0 0 0 0 -12.532505314129594 -11.791197111633664 0 -11.791197111633664 9.2990455094131903 0 0 0 0 3.2009292114759216 -5.6252352380696813 0 -5.6252352380696813 9.5631258532802121 0 0 0 0 -4.964932892793513 -10.893742379099422 0 -10.893742379099422 8.2105756180390017 0 0 0 0 -13.148179812781564 -5.5665415039493382 0 -5.5665415039493382 22.12221608121763 0 0 0 0 -3.1552554308227627 -12.404189733815656 0 -12.404189733815656 24.880564084138314 0 0 0 0 -14.440251945248747 -3.0724857553250331 0 -3.0724857553250331 22.936192275288704 0 0 0 0 -22.246574843855342 -2.0728776288688096 0 -2.0728776288688096 13.64984074619133 0 0 0 0 -17.884651320761805 -12.894917459185308 0 -12.894917459185308 10.965724524758116 0 0 0 0 -30.850984011897708 -7.0802086763033003 0 -7.0802086763033003 22.902313875390973 0 0 0 0 -0.14535653423236883 -4.9527242341599234 0 -4.9527242341599234 20.125119413773618 0 0 0 0 -63.042233795639731 -15.449178031105475 0 -15.449178031105475 8.0817388412033324 0 0 0 0 -0.070624326819386685 -4.3464378662207181 0 -4.3464378662207181 10.586988579311395 0 0 0 0 -41.041643786734198 -9.8058383657019021 0 -9.8058383657019021 11.582357837920426 0 0 0 0 -25.528844781136058 -12.530864791504428 0 -12.530864791504428 3.7085770462217624 0 0 0 0 -24.627500766500816 -10.725797391736705 0 -10.725797391736705 1.1596247647612472 0 0 0 0 1.7782486801257544 -3.4638013216141701 0 -3.4638013216141701 6.8913589441373375 0 0 0 0 43.076272902116216 42.411475857246842 0 42.411475857246842 79.177757730976737 0 0 0 0 45.126871145975201 53.913084442297986 0 53.913084442297986 77.033725346816937 0 0 0 0 -11.711140183890166 -10.0856996408329 0 -10.0856996408329 3.9680211706508999 0 0 0 0 4.8860012422437649 19.337099687825685 0 19.337099687825685 37.661480671136815 0 0 0 0 24.675556013427922 21.560335936395859 0 21.560335936395859 35.319173198269709 0 0 0 0 -31.279691504298171 25.304381642592489 0 25.304381642592489 170.64231009313153 0 0 0 0 6.2054544459915633 55.4073218339081 0 55.4073218339081 128.79432114470546 0 0 0 0 15.222731973027749 46.77117612893926 0 46.77117612893926 94.140738176763989 0 0 0 0 -16.764493782114187 15.610794040843757 0 15.610794040843757 163.49856338911195 0 0 0 0 -32.895717426639749 2.1391188170273381 0 2.1391188170273381 158.40482069917198 0 0 0 0 -50.16758305755684 -20.851863797259284 0 -20.851863797259284 139.69058007491549 0 0 0 0 -42.096332863437055 5.9410916109845857 0 5.9410916109845857 190.72043640261836 0 0 0 0 -17.682459045068754 13.911783639053283 0 13.911783639053283 267.93274597650452 0 0 0 0 31.2533172726271 0.80611042560849455 0 0.80611042560849455 166.1344047202947 0 0 0 0 29.873672444175099 -9.7580423041763424 0 -9.7580423041763424 259.97660755972902 0 0 0 0 43.947691794764978 98.770548239139316 0 98.770548239139316 188.13695901374376 0 0 0 0 69.975359816408854 67.513416310770481 0 67.513416310770481 81.361576520270319 0 0 0 0 100.26393634143551 143.7671462033195 0 143.7671462033195 262.37728448866983 0 0 0 0 0.92827826355903476 -1.2902484263902956 0 -1.2902484263902956 2.4650575016037237 0 0 0 0 101.4594657172056 127.93843920351583 0 127.93843920351583 463.81081408086175 0 0 0 0 86.10462837241721 -89.505852276917722 0 -89.505852276917722 371.54197460360956 0 0 0 0 159.09177191753224 -42.60477154871478 0 -42.60477154871478 205.03310760317981 0 0 0 0 268.84277713657866 -202.57850827704897 0 -202.57850827704897 433.99874201959847 0 0 0 0 524.47935767067247 76.536225580268365 0 76.536225580268365 216.419016290336 0 0 0 0 287.24071611407498 21.165504635098841 0 21.165504635098841 293.40453130415699 0 0 0 0 356.23339514339932 -107.73800709624629 0 -107.73800709624629 385.75348171456426 0 0 0 0 949.27211165790641 -228.16861040566778 0 -228.16861040566778 -54.091848573982134 0 0 0 0 215.15284975110808 -264.3097032159385 0 -264.3097032159385 212.6212680428871 0 0 0 0 0.38184404952036166 -2.3953190493855949 0 -2.3953190493855949 3.1548413806141298 0 0 0 0 -8.3494462913249663 24.096047463342984 0 24.096047463342984 74.333686494566791 0 0 0 0 -17.227348836428064 28.848046433140553 0 28.848046433140553 93.451187951155589 0 0 0 0 -3.9519834174880089 18.071343972591421 0 18.071343972591421 82.258192802401027 0 0 0 0 -3.5028331222511042 10.648101746279281 0 10.648101746279281 74.704424826719446 0 0 0 0 -39.54819333647356 60.600880133599276 0 60.600880133599276 56.880768883358542 0 0 0 0 2.0800957863648364 11.25428367859422 0 11.25428367859422 12.263815972662997 0 0 0 0 -95.696505224645989 -32.799495762406877 0 -32.799495762406877 121.24255419083056 0 0 0 0 -14.461592674577332 19.126172603362647 0 19.126172603362647 106.58667263073585 0 0 0 0 -13.340590992978832 20.041822455117654 0 20.041822455117654 107.21040088812151 0 0 0 0 -15.318992211132354 -3.6918481063839863 0 -3.6918481063839863 141.82378581100056 0 0 0 0 -23.416688689439979 15.048305832287951 0 15.048305832287951 197.10049516693107 0 0 0 0 63.240971206021641 -36.628099031448073 0 -36.628099031448073 121.12686226448545 0 0 0 0 49.695325013832189 -112.46731295889913 0 -112.46731295889913 209.09513391551445 0 0 0 0 2.4693438745373584 0.78074750570232254 0 0.78074750570232254 -1.3400831002401787 0 0 0 0 12.559388232326455 -40.766015026951209 0 -40.766015026951209 74.071006643134751 0 0 0 0 -7.673796817776747 1.5387146409048 0 1.5387146409048 84.538957987533649 0 0 0 0 -12.560853975464852 -0.82487539635258145 0 -0.82487539635258145 91.212404803431127 0 0 0 0 -13.761648787811282 10.159112398076104 0 10.159112398076104 105.15247405314585 0 0 0 0 -13.442198179845036 12.730933512499178 0 12.730933512499178 83.115246858593309 0 0 0 0 -9.5568220194127207 15.171224974983488 0 15.171224974983488 83.126088782744773 0 0 0 0 -4.7356896256023902 4.486423100817774 0 4.486423100817774 75.744643645626638 0 0 0 0 -6.9052215952297047 2.3176269688738103 0 2.3176269688738103 80.972479244315764 0 0 0 0 -4.7828599438726087 2.1131199680603459 0 2.1131199680603459 55.001854194194948 0 0 0 0 -2.7326123148786792 10.026551752498563 0 10.026551752498563 70.053597409132635 0 0 0 0 3.9815526496722669 7.886456833111879 0 7.886456833111879 41.610139688709751 0 0 0 0 -5.1575288411913789 17.542836118365813 0 17.542836118365813 79.701838323038828 0 0 0 0 -5.0357377447762701 14.785784814805083 0 14.785784814805083 69.630297952233832 0 0 0 0 8.3628545324572769 21.413736270373192 0 21.413736270373192 61.555355372605845 0 0 0 0 8.5273926242552989 19.837603914525971 0 19.837603914525971 38.893829812544936 0 0 0 0 11.458374086481399 39.492946007074352 0 39.492946007074352 76.454742727990379 0 0 0 0 -7.214761747411103 28.092263615191769 0 28.092263615191769 101.76295530334028 0 0 0 0 -5.2122166958561138 26.842904694745812 0 26.842904694745812 88.009161599897197 0 0 0 0 -6.8885216794114967 19.030154852742271 0 19.030154852742271 79.954705450034453 0 0 0 0 -8.6669025943210727 19.011698706643074 0 19.011698706643074 87.575821185317182 0 0 0 0 -5.2217811005975818 5.8926031457995123 0 5.8926031457995123 95.288492116334965 0 0 0 0 -18.457691138643895 -9.2602174472413026 0 -9.2602174472413026 113.69332211659639 0 0 0 0 -16.794592254409736 8.2510388460759714 0 8.2510388460759714 101.27325106029457 0 0 0 0 -18.450224316785352 10.232002315807222 0 10.232002315807222 115.77671741573431 0 0 0 0 -29.476223256573576 13.458205641534732 0 13.458205641534732 125.91711482060055 0 0 0 0 -32.109108296059276 -1.9765192307095276 0 -1.9765192307095276 141.23800463900261 0 0 0 0 -47.167244672387369 -19.917628013929061 0 -19.917628013929061 124.4192231335328 0 0 0 0 -38.355902155326476 2.9407212991500273 0 2.9407212991500273 159.0972265231685 0 0 0 0 -23.298738437692009 -3.6563083342261962 0 -3.6563083342261962 118.98633455852905 0 0 0 0 -31.783472934177553 -6.3671801147647784 0 -6.3671801147647784 124.15202427942131 0 0 0 0 -23.340554925366632 -4.0920829141723516 0 -4.0920829141723516 131.96255491839838 0 0 0 0 -8.0350718728304855 -0.043570436268055346 0 -0.043570436268055346 126.25416268112167 0 0 0 0 -19.252909961351634 -11.432045019080761 0 -11.432045019080761 128.16782384990802 0 0 0 0 -5.2323130318582116 -31.600466348740156 0 -31.600466348740156 83.656464011195567 0 0 0 0 1.0460115544719883 6.5472897783183726 0 6.5472897783183726 78.315754661787651 0 0 0 0 -19.56993984996825 -35.130063592652732 0 -35.130063592652732 147.11172282071493 0 0 0 0 -2.4038237544482399 -26.616676116162125 0 -26.616676116162125 49.930400559609552 0 0 0 0 -12.820747822954218 -6.1174468125009298 0 -6.1174468125009298 146.02371653456066 0 0 0 0 19.764763896915611 21.151822883275599 0 21.151822883275599 144.20802303700953 0 0 0 0 9.8503498578088511 -27.531005862862003 0 -27.531005862862003 -72.907828648378199 0 0 0 0 2.5522482650041383 -1.8351609047326178 0 -1.8351609047326178 1.1381487789240623 0 0 0 0 -9.2187261757853776 -16.400222128297173 0 -16.400222128297173 -12.551354564187932 0 0 0 0 0.34854249433101359 -5.1252828234100889 0 -5.1252828234100889 -56.218299620275502 0 0 0 0 -10.93360030922895 -16.072045759037792 0 -16.072045759037792 -30.526345106154622 0 0 0 0 -8.501885798321382 25.073811064576148 0 25.073811064576148 166.62721993133891 0 0 0 0 -7.9217454407267667 10.747979871476218 0 10.747979871476218 110.4330946146074 0 0 0 0 1.0980768506851746 -38.177260414293414 0 -38.177260414293414 124.67041986791446 0 0 0 0 1.3249123826890354 -20.372064278191829 0 -20.372064278191829 61.306769614071527 0 0 0 0 -19.299610855869105 -6.3266376210922317 0 -6.3266376210922317 109.67673538545205 0 0 0 0 -58.342063190284534 -21.484955580504902 0 -21.484955580504902 140.90606150240637 0 0 0 0 -17.913494334676216 -12.384757308933331 0 -12.384757308933331 113.54733633085925 0 0 0 0 -32.074572247785909 -38.567550999188825 0 -38.567550999188825 71.893543623584264 0 0 0 0 -45.531777750824403 -75.313003539115016 0 -75.313003539115016 59.961186114906013 0 0 0 0 -71.681369818074018 -88.190060831773735 0 -88.190060831773735 72.574184922676068 0 0 0 0 -68.996299275569982 -44.535313070624397 0 -44.535313070624397 108.83468883715977 0 0 0 0 21.730466798647967 6.0239589579550739 0 6.0239589579550739 -12.488550546884653 0 0 0 0 5.0449046442354586 -3.9138998221209391 0 -3.9138998221209391 2.4889489376589182 0 0 0 0 1.0921263275030988 -0.28137505263249096 0 -0.28137505263249096 -0.71933335040904467 0 0 0 0 -89.541561850670405 -71.579571903770557 0 -71.579571903770557 57.593309136485914 0 0 0 0 12.632757430087622 -50.502472011237842 0 -50.502472011237842 -125.37270442485897 0 0 0 0 4.2603603457727672 -2.9140613911868627 0 -2.9140613911868627 1.5188788643460356 0 0 0 0 6.8447782424764227 -27.252326308640477 0 -27.252326308640477 -88.054058753918071 0 0 0 0 -5.8578708647974054 -3.7646879042185901 0 -3.7646879042185901 -41.650742780664586 0 0 0 0 -16.255516815987903 -36.737504382528641 0 -36.737504382528641 -80.615577636956004 0 0 0 0 3.3539758100787367 1.8612014903301315 0 1.8612014903301315 -27.613927125814371 0 0 0 0 9.7571171927156684 3.6213091994850402 0 3.6213091994850402 -49.925604111369466 0 0 0 0 25.958140753646148 -17.827171293654828 0 -17.827171293654828 -112.75678328469803 0 0 0 0 -17.281928363579027 -57.704995556559879 0 -57.704995556559879 -69.061575014595292 0 0 0 0 -5.1113805773675267 -17.204656743604573 0 -17.204656743604573 -110.86619194649393 0 0 0 0 29.125884988963662 8.0254533856350463 0 8.0254533856350463 -48.859716236183885 0 0 0 0 14.345158380534485 -30.754411161553435 0 -30.754411161553435 -71.90656944148941 0 0 0 0 60.44058814104028 12.742340241384227 0 12.742340241384227 -54.01165814682463 0 0 0 0 35.280063844344113 -48.444045304431711 0 -48.444045304431711 -57.731853972392855 0 0 0 0 118.92047623486542 26.322173878648755 0 26.322173878648755 -7.3588558231931529 0 0 0 0 26.963578200515258 15.084607776891062 0 15.084607776891062 8.2533272034925176 0 0 0 0 78.974593189764164 29.727667503564589 0 29.727667503564589 11.518276784976479 0 0 0 0 55.438616724274652 35.454973871586844 0 35.454973871586844 112.11172090168111 0 0 0 0 -11.609468449384849 16.504868862858075 0 16.504868862858075 14.20799144476041 0 0 0 0 -12.876023217741022 18.547208355059411 0 18.547208355059411 44.121677517352509 0 0 0 0 38.067046789528831 35.010834772707312 0 35.010834772707312 -8.7285062784867478 0 0 0 0 18.677214773232663 63.076825405329146 0 63.076825405329146 106.76310679854942 0 0 0 0 0.29279512052974965 -0.006069895707383921 0 -0.006069895707383921 0.025990472690722299 0 0 0 0 25.782990317884469 -6.0201429737935541 0 -6.0201429737935541 18.91892339388869 0 0 0 0 0.58513620483913797 0.29493837681786772 0 0.29493837681786772 -0.65053212990852671 0 0 0 0 -79.498583389888154 83.57207383905552 0 83.57207383905552 182.18485254768393 0 0 0 0 -50.497619504167233 93.229655233881203 0 93.229655233881203 243.35973704159551 0 0 0 0 43.493352352119473 1.1439535943391093 0 1.1439535943391093 19.168134987070516 0 0 0 0 19.203645049359693 -0.18226133812277112 0 -0.18226133812277112 25.300992572112591 0 0 0 0 -55.755405656705079 -9.8170258280988492 0 -9.8170258280988492 122.35141756156372 0 0 0 0 -0.6213048776189467 0.37639796546154969 0 0.37639796546154969 9.169018830360514 0 0 0 0 0.68124736927176599 -0.46058716342968609 0 -0.46058716342968609 0.30019038958901945 0 0 0 0 -54.539640430506552 21.768907522775407 0 21.768907522775407 91.012791837521945 0 0 0 0 -57.292515290991332 -42.971732411912228 0 -42.971732411912228 44.010503602927201 0 0 0 0 5.0908533017127411 17.778946656748303 0 17.778946656748303 -3.4303269516585715 0 0 0 0 -59.265167646411442 5.4962688673181219 0 5.4962688673181219 109.82966661520186 0 0 0 0 15.394527670687467 -4.7444838567826082 0 -4.7444838567826082 -37.972590416007733 0 0 0 0 -4.7035588052385719 0.95895198420475936 0 0.95895198420475936 13.752669130067147 0 0 0 0 208.98697029706727 -28.015937722702802 0 -28.015937722702802 30.330409989976033 0 0 0 0 281.17158497110177 -26.383359751868738 0 -26.383359751868738 26.947611987416167 0 0 0 0 216.61885137206082 52.088119769396144 0 52.088119769396144 94.083769372882671 0 0 0 0 266.33770428751177 -37.026533529640801 0 -37.026533529640801 166.91558248439105 0 0 0 0 357.65067688620547 66.213901790413729 0 66.213901790413729 127.42714227380202 0 0 0 0 266.83328108556088 -88.665433499132632 0 -88.665433499132632 84.1257150190213 0 0 0 0 297.59799400349584 18.540788469286781 0 18.540788469286781 96.124985367463523 0 0 0 0 139.89135230984175 -61.218881383414555 0 -61.218881383414555 214.79277062437905 0 0 0 0 234.46826214669363 -37.947519967441622 0 -37.947519967441622 9.6166705142750288 0 0 0 0 158.98771120284528 -6.3611027951992583 0 -6.3611027951992583 26.308397068176419 0 0 0 0 230.56514616923778 -63.238192176249868 0 -63.238192176249868 -16.731480809345157 0 0 0 0 104.95179481952619 -80.623633590181271 0 -80.623633590181271 -62.297564744760166 0 0 0 0 17.465184359341947 -52.693722056472325 0 -52.693722056472325 29.145326373284661 0 0 0 0 84.12582097512859 -51.502178435948736 0 -51.502178435948736 55.25106926789158 0 0 0 0 23.009903450903948 -7.9657956313167233 0 -7.9657956313167233 24.57521319501484 0 0 0 0 87.770758596129781 -64.112927421505447 0 -64.112927421505447 98.866815655273967 0 0 0 0 56.953423947628835 -10.442971843709529 0 -10.442971843709529 117.40445702997386 0 0 0 0 138.94816962326422 -75.676405440232202 0 -75.676405440232202 165.90391007144353 0 0 0 0 32.949232553883121 -56.501232740411069 0 -56.501232740411069 206.78439661672746 0 0 0 0 3.7171255904431746 -6.6605154582102841 0 -6.6605154582102841 121.80657100622193 0 0 0 0 -27.666965016640461 -25.037755973484309 0 -25.037755973484309 133.4699767608181 0 0 0 0 -20.837944263079407 -17.46770483963337 0 -17.46770483963337 93.009127153352892 0 0 0 0 -60.403344476286293 -46.074722173307237 0 -46.074722173307237 117.07802309424733 0 0 0 0 -26.350536484865188 -47.62880417717497 0 -47.62880417717497 156.62558429899218 0 0 0 0 -52.321479655649455 -19.623734792046889 0 -19.623734792046889 127.9753664592572 0 0 0 0 -51.994320813133527 -52.255783079352113 0 -52.255783079352113 112.30428597681748 0 0 0 0 -71.113559810852166 -31.662888528931944 0 -31.662888528931944 99.646781234056107 0 0 0 0 -76.474663689004956 -65.659698493866017 0 -65.659698493866017 94.751306699356064 0 0 0 0 -89.444271247111828 -52.631495635963802 0 -52.631495635963802 82.850845440494595 0 0 0 0 -93.59358854801394 -68.294699184436467 0 -68.294699184436467 67.004568621036015 0 0 0 0 -123.80625319749379 -50.288878735576873 0 -50.288878735576873 57.184929457420367 0 0 0 0 -103.5552584487923 -31.453225715784356 0 -31.453225715784356 66.242155461659422 0 0 0 0 -85.644654028961668 -40.987650671318988 0 -40.987650671318988 33.628799628640991 0 0 0 0 -78.29637334851941 -51.618191973509965 0 -51.618191973509965 81.763715759268962 0 0 0 0 -53.261087367700384 -23.653950716019608 0 -23.653950716019608 55.471335098787677 0 0 0 0 -54.243373391680507 -30.502320741317817 0 -30.502320741317817 96.632922969685751 0 0 0 0 -47.498800789653615 -4.9038923314510612 0 -4.9038923314510612 12.733288888237439 0 0 0 0 17.272237124878757 -42.308414598725903 0 -42.308414598725903 34.331758449465269 0 0 0 0 -49.913227181394177 -31.488863811420742 0 -31.488863811420742 6.1696754582517315 0 0 0 0 -90.02212057817087 -22.848151004945976 0 -22.848151004945976 56.10368606152042 0 0 0 0 17.473578932971577 -52.837781352143793 0 -52.837781352143793 -53.843294485282968 0 0 0 0 -86.216540651144896 5.2659867858455982 0 5.2659867858455982 -28.47867845663859 0 0 0 0 -70.042817547750019 -33.001535239905934 0 -33.001535239905934 -46.722000328678405 0 0 0 0 -49.728760365738708 -13.364669098897139 0 -13.364669098897139 -104.44742712500738 0 0 0 0 -10.594481494250431 -11.516846607821208 0 -11.516846607821208 -111.24064476734202 0 0 0 0 -106.96056483595385 -25.413984977640212 0 -25.413984977640212 -161.42261974514986 0 0 0 0 -137.18510638042062 -35.154676437552553 0 -35.154676437552553 -103.05201570985537 0 0 0 0 -108.3206758346314 -32.434206883743173 0 -32.434206883743173 -18.071246888663154 0 0 0 0 -144.41272666103032 34.517272371536819 0 34.517272371536819 -106.0900827842197 0 0 0 0 -341.02863056400383 -311.11481064705004 0 -311.11481064705004 -423.2474256734713 0 0 0 0 -0.65946840079130098 -0.6204831270433715 0 -0.6204831270433715 0.72963418250527212 0 0 0 0 -110.73993907912882 -38.197698525713349 0 -38.197698525713349 -31.361977683904115 0 0 0 0 -125.72192395101592 -25.322318318096222 0 -25.322318318096222 27.51187397436297 0 0 0 0 -158.61307980390484 -45.040495811552319 0 -45.040495811552319 -12.377561498084106 0 0 0 0 -17.873419662285642 -143.40941572256543 0 -143.40941572256543 -67.346304916805821 0 0 0 0 -96.902012377648134 -87.030338688309712 0 -87.030338688309712 -64.433869752825558 0 0 0 0 -16.770118169033594 -124.6876813048475 0 -124.6876813048475 -92.988816114506335 0 0 0 0 -68.802573440211802 -137.84070689833652 0 -137.84070689833652 -57.311392558702209 0 0 0 0 4.483725930839995 -4.5816803421835886 0 -4.5816803421835886 3.5576045004397656 0 0 0 0 -81.105933097016532 -30.651113526277186 0 -30.651113526277186 -77.280913656126359 0 0 0 0 33.913944906291363 -42.299530377982592 0 -42.299530377982592 -68.054708662795292 0 0 0 0 -45.673784686393674 -1.6069357931428385 0 -1.6069357931428385 123.49928487951547 0 0 0 0 84.166242657027396 -103.39399479793792 0 -103.39399479793792 -77.104183340429699 0 0 0 0 1.8819738674405215 -1.8943420467290224 0 -1.8943420467290224 1.8681131083273783 0 0 0 0 117.32375741980218 21.589696667232147 0 21.589696667232147 -34.664778644008038 0 0 0 0 -41.879300694644826 -76.273080699014827 0 -76.273080699014827 -6.6126620156137506 0 0 0 0 24.395855519941051 -8.8795877810316597 0 -8.8795877810316597 -8.2265408016974106 0 0 0 0 304.17302546282735 -37.677189404845194 0 -37.677189404845194 -70.327750393726092 0 0 0 0 257.95106726920312 -208.4038238349458 0 -208.4038238349458 179.65097700575279 0 0 0 0 159.30858814816747 -76.531962731562089 0 -76.531962731562089 8.7971287141263019 0 0 0 0 212.47887667330815 -48.969653982421733 0 -48.969653982421733 9.0438273488689447 0 0 0 0 181.6371805722365 -42.160403014710027 0 -42.160403014710027 27.274856217984052 0 0 0 0 53.786609345112083 83.025471294437011 0 83.025471294437011 164.05720215779729 0 0 0 0 197.32408183642701 -74.350951478833849 0 -74.350951478833849 16.297866604509181 0 0 0 0 47.491096869725936 -19.80358462132574 0 -19.80358462132574 306.39991129461123 0 0 0 0 -30.495574253465747 -167.70329183103604 0 -167.70329183103604 377.55048226533108 0 0 0 0 -105.2690590585803 -164.23791559767596 0 -164.23791559767596 382.5189254885845 0 0 0 0 212.01490145243315 -259.58128590061824 0 -259.58128590061824 341.87401064273581 0 0 0 0 358.97368479839406 -14.465231311696698 0 -14.465231311696698 -160.09178834751583 0 0 0 0 5.4287964264590389 -1.814811388073224 0 -1.814811388073224 0.76147663409899025 0 0 0 0 -43.880843683147532 -171.2065026439077 0 -171.2065026439077 536.74805741554883 0 0 0 0 71.18673034684025 70.909250458353199 0 70.909250458353199 -81.781417263468029 0 0 0 0 29.060404659478081 72.267158919934445 0 72.267158919934445 -3.2979015998780596 0 0 0 0 -1.7789162687868156 28.504183764025584 0 28.504183764025584 -10.483516792468436 0 0 0 0 13.162267405720574 -5.4292890308481248 0 -5.4292890308481248 1.7378328527322893 0 0 0 0 109.36634759309322 -56.139328668687085 0 -56.139328668687085 -371.28146884867601 0 0 0 0 126.72929998159452 169.30940421219748 0 169.30940421219748 -68.125908619458642 0 0 0 0 -25.281573589132108 57.919922621809746 0 57.919922621809746 298.12193438681425 0 0 0 0 57.723656641806656 -231.6294774110047 0 -231.6294774110047 127.56157133023225 0 0 0 0 14.981726853020048 -7.3551396111256793 0 -7.3551396111256793 2.6768036308612722 0 0 0 0 75.612885376380746 51.160378078700887 0 51.160378078700887 -2.8581531078234548 0 0 0 0 -50.106759547987167 -109.46296147751127 0 -109.46296147751127 -17.390649692846637 0 0 0 0 2.6625307029246894 -19.326517197030604 0 -19.326517197030604 67.904440274451872 0 0 0 0 -152.81891619882663 -122.91356264435308 0 -122.91356264435308 28.353281248935673 0 0 0 0 -215.43136469443971 -21.96251750988813 0 -21.96251750988813 167.3902450705209 0 0 0 0 -2.9811174400832883 -11.243473301316996 0 -11.243473301316996 10.852347714711442 0 0 0 0 -25.379648398694371 224.27701885749411 0 224.27701885749411 60.415706941115786 0 0 0 0 -326.17192342702629 -45.339682598663785 0 -45.339682598663785 139.13006341431173 0 0 0 0 -733.82915834117466 -286.93848600563797 0 -286.93848600563797 214.53244363350677 0 0 0 0 -115.35034150673891 -93.428074635514349 0 -93.428074635514349 99.407876848214073 0 0 0 0 4.4190312617911403 -22.531974634972936 0 -22.531974634972936 65.273454204287532 0 0 0 0 105.57964670415276 -546.52314611477777 0 -546.52314611477777 116.78027567015852 0 0 0 0 -114.6185298134078 -25.60072122013662 0 -25.60072122013662 164.25677639594869 0 0 0 0 -79.854554656635628 -17.849607788182766 0 -17.849607788182766 105.87587473410531 0 0 0 0 -52.838616227298644 58.801980378011649 0 58.801980378011649 166.58688940474531 0 0 0 0 -54.230993732538991 56.022833955972601 0 56.022833955972601 184.71584632120312 0 0 0 0 134.93713415027014 82.582390364248567 0 82.582390364248567 109.24778259855248 0 0 0 0 27.292437950958629 142.62061154629919 0 142.62061154629919 209.56146322652057 0 0 0 0 362.45649697165845 115.58938782681798 0 115.58938782681798 153.79744510736055 0 0 0 0 99.020724905218231 -4.3398334343146416 0 -4.3398334343146416 124.72245507316984 0 0 0 0 36.510709086500356 116.81540031021359 0 116.81540031021359 435.74366520413605 0 0 0 0 228.52587732365828 -295.31699553263388 0 -295.31699553263388 277.82417455540417 0 0 0 0 -72.128311300029964 71.294256832001338 0 71.294256832001338 95.919760006778233 0 0 0 0 -56.688974057797168 -208.16649376132045 0 -208.16649376132045 81.508291183208712 0 0 0 0 -20.130523825971977 -2.6871044914951199 0 -2.6871044914951199 200.80482468732203 0 0 0 0 70.768974838571012 -80.000845780981763 0 -80.000845780981763 -7.620336768020934 0 0 0 0 140.98737853283092 -157.05735585118236 0 -157.05735585118236 -8.0472310584427191 0 0 0 0 216.60823502843959 -26.131185069203639 0 -26.131185069203639 -20.046738848701352 0 0 0 0 16.76538653057105 -16.654049015192868 0 -16.654049015192868 -13.233873891887924 0 0 0 0 -26.377973274882606 -41.574906224763254 0 -41.574906224763254 -43.215067174583965 0 0 0 0 124.26724871409624 -150.6335573223223 0 -150.6335573223223 -29.411245284410143 0 0 0 0 69.40142862369612 30.743653881574573 0 30.743653881574573 -68.880271015663311 0 0 0 0 -0.27519910748060283 49.698829293793096 0 49.698829293793096 -63.479392922992702 0 0 0 0 -129.63857554330525 -143.22596955199879 0 -143.22596955199879 68.127451221625961 0 0 0 0 -294.91305246344746 -46.34610795642584 0 -46.34610795642584 33.731697094262927 0 0 0 0 2.0934812387230508 -1.2403024287671442 0 -1.2403024287671442 15.208900842921139 0 0 0 0 -107.73813917287544 96.745811596312706 0 96.745811596312706 91.06374753676846 0 0 0 0 0.9683445508230637 8.0877086596497705 0 8.0877086596497705 53.004003471600242 0 0 0 0 7.8502048072591606 70.11281001156749 0 70.11281001156749 18.537812495684193 0 0 0 0 53.721715838643831 13.016175387670955 0 13.016175387670955 6.2815896462343517 0 0 0 0 20.411981704451591 -13.085557503633026 0 -13.085557503633026 87.337003130433004 0 0 0 0 81.108018816144096 -104.35172155205487 0 -104.35172155205487 221.75416534626129 0 0 0 0 -57.646985684702031 11.403495344613475 0 11.403495344613475 106.08782390172564 0 0 0 0 58.067244009466776 56.622612251536339 0 56.622612251536339 120.67317542203091 0 0 0 0 -40.224117298636429 -76.094475628597138 0 -76.094475628597138 567.38656878706388 0 0 0 0 226.63488477681835 -198.96844580288052 0 -198.96844580288052 280.57704617855779 0 0 0 0 52.846301900450726 14.081862528157217 0 14.081862528157217 320.37551081143465 0 0 0 0 -38.949154840349365 -12.154737103755906 0 -12.154737103755906 10.474472844405682 0 0 0 0 70.191072574219106 -0.14848136116052046 0 -0.14848136116052046 -133.28096573601306 0 0 0 0 374.30774368966377 -173.51264578018163 0 -173.51264578018163 -29.028868509114545 0 0 0 0 5.1604130871136054 -1.2920613953489948 0 -1.2920613953489948 0.47416275406020958 0 0 0 0 45.692977508304466 538.42140754915454 0 538.42140754915454 41.491184952872572 0 0 0 0 88.053098156182386 -29.936125198757509 0 -29.936125198757509 -92.6853266870894 0 0 0 0 46.819186381754662 55.61425631590464 0 55.61425631590464 -9.6730632522376254 0 0 0 0 41.081350821477827 -92.016261415581539 0 -92.016261415581539 34.426763896975899 0 0 0 0 29.609077438110035 -20.525609779455408 0 -20.525609779455408 -119.58942366591691 0 0 0 0 15.36252189325285 -3.4799581354753286 0 -3.4799581354753286 0.72185629654630645 0 0 0 0 -18.436533568714367 -11.326472082342661 0 -11.326472082342661 334.48930263682814 0 0 0 0 2.5206983207053781 -38.75176300763269 0 -38.75176300763269 303.21423096642684 0 0 0 0 1.7525521302322886 -16.506343519511574 0 -16.506343519511574 252.72208304575179 0 0 0 0 4.1232577828224066 -20.100712586965528 0 -20.100712586965528 286.11822649715759 0 0 0 0 -37.240189558073439 -29.931339256505453 0 -29.931339256505453 286.93805049917137 0 0 0 0 -34.714257194898437 -52.336076517276524 0 -52.336076517276524 356.04549482569564 0 0 0 0 13.28831481866473 -12.558143293495959 0 -12.558143293495959 252.80880963101015 0 0 0 0 31.542269614797078 39.994598420391412 0 39.994598420391412 136.12184654986049 0 0 0 0 16.674382454474994 49.187995060972753 0 49.187995060972753 70.789941623006598 0 0 0 0 78.557764249290187 31.653686343102891 0 31.653686343102891 -161.87471813075899 0 0 0 0 37.286454397495135 -137.8361607550396 0 -137.8361607550396 -146.7585484473384 0 0 0 0 -1.7132313205675445 -2.9828846560951092 0 -2.9828846560951092 11.188214924116068 0 0 0 0 -1.0370357577876519 -2.6818624047282782 0 -2.6818624047282782 -0.86300083493463831 0 0 0 0 53.247305892058662 -34.616171096109611 0 -34.616171096109611 227.95646751099412 0 0 0 0 75.284227038555855 -355.74438631466546 0 -355.74438631466546 405.83067089262477 0 0 0 0 -0.24248769677858423 -1.2268397682539103 0 -1.2268397682539103 1.323135517952295 0 0 0 0 44.530699915440209 12.861946924786025 0 12.861946924786025 15.097803846205352 0 0 0 0 1.4508252958035825 43.331220042071436 0 43.331220042071436 272.70057055279904 0 0 0 0 98.395767116046954 327.64527050215111 0 327.64527050215111 856.18300844480837 0 0 0 0 57.116875348829467 178.18639803621045 0 178.18639803621045 659.43497361180198 0 0 0 0 -0.1642125831483825 -0.16994132890719982 0 -0.16994132890719982 2.196772840679472 0 0 0 0 -14.278538860768549 23.995008323268848 0 23.995008323268848 270.01056939751834 0 0 0 0 -0.95149207658346313 156.44418302665872 0 156.44418302665872 706.66151176887797 0 0 0 0 0.11934522223585856 -0.51890295921468521 0 -0.51890295921468521 -0.86796952261461513 0 0 0 0 0.1537357060951231 -33.429047542569606 0 -33.429047542569606 156.9024184353766 0 0 0 0 0.32350997664393089 -114.35711266508406 0 -114.35711266508406 262.36808939302864 0 0 0 0 -0.17242436108351347 -49.153920744345669 0 -49.153920744345669 251.72621426851038 0 0 0 0 58.617174111930254 -8.8597465286729857 0 -8.8597465286729857 279.12055397418226 0 0 0 0 -36.146389881938148 27.502240487105155 0 27.502240487105155 347.85864169568231 0 0 0 0 16.98548032787491 -6.3952827229149989 0 -6.3952827229149989 351.13326022734691 0 0 0 0 0.3171735089619207 -0.43436601351397996 0 -0.43436601351397996 1.2742730710661192 0 0 0 0 172.99004592061942 -42.261066686569393 0 -42.261066686569393 33.775674485383206 0 0 0 0 86.276277487842947 19.384803506529352 0 19.384803506529352 -4.6550991901895031 0 0 0 0 -15.025646489860634 59.743777565301571 0 59.743777565301571 103.65279960270709 0 0 0 0 47.387284130367334 -47.651029094326077 0 -47.651029094326077 150.62350031053211 0 0 0 0 -55.891259349732337 -108.15941384644975 0 -108.15941384644975 471.48033319151727 0 0 0 0 37.376357770389632 -185.02328585534997 0 -185.02328585534997 260.18919699568505 0 0 0 0 -13.922930690614407 -23.844023485013167 0 -23.844023485013167 387.06863496976439 0 0 0 0 28.575939622113992 -152.63755564538587 0 -152.63755564538587 486.77053629911097 0 0 0 0 108.83814426899002 -57.769044484379265 0 -57.769044484379265 416.06665502564283 0 0 0 0 105.25546736958353 -237.11834001270472 0 -237.11834001270472 1049.408572742439 0 0 0 0 248.7013997094659 68.312680824808922 0 68.312680824808922 318.58619645498402 0 0 0 0 -26.258408066731931 92.05652375594218 0 92.05652375594218 551.65730297208938 0 0 0 0 57.754755495346132 21.16544153662835 0 21.16544153662835 74.625178973801667 0 0 0 0 165.88367797009019 -15.004904914101644 0 -15.004904914101644 23.96425730586634 0 0 0 0 -39.569422959197141 42.320153075866983 0 42.320153075866983 330.05579960196701 0 0 0 0 -32.312820712855896 -30.348684070420859 0 -30.348684070420859 6.6041326942367959 0 0 0 0 -66.684193922053794 -91.051723119482631 0 -91.051723119482631 53.365592959751666 0 0 0 0 15.120206881440744 -14.818387688456241 0 -14.818387688456241 7.1938084119021255 0 0 0 0 -24.054190030951432 -54.554511439964699 0 -54.554511439964699 11.993126734523685 0 0 0 0 19.308175721722961 -88.236219434576924 0 -88.236219434576924 -127.44450186096947 0 0 0 0 -1.3634929516148442 -6.3713770205213791 0 -6.3713770205213791 2.5030925763873526 0 0 0 0 -77.155264139361435 61.593052160358639 0 61.593052160358639 66.657548787014093 0 0 0 0 120.63089621908667 -97.609239932055061 0 -97.609239932055061 -32.502046394220088 0 0 0 0 26.471005662719108 -41.916375918182894 0 -41.916375918182894 -57.424789674782005 0 0 0 0 24.495059142306967 -6.3541965215161724 0 -6.3541965215161724 0.51445252294499255 0 0 0 0 41.878728653067071 -51.721898538045934 0 -51.721898538045934 148.84994809152704 0 0 0 0 6.8083475614727229 -0.80119080080360305 0 -0.80119080080360305 -3.3928045010365508 0 0 0 0 -2.852300546574952 -3.8804069003672339 0 -3.8804069003672339 54.279034725870588 0 0 0 0 -6.2527010619796783 -15.342472698277561 0 -15.342472698277561 15.643199524958618 0 0 0 0 0.8369091992126414 -39.521850377321243 0 -39.521850377321243 14.824311193093308 0 0 0 0 0.43613121241105546 -16.162106884949026 0 -16.162106884949026 7.1552486386608507 0 0 0 0 14.600329762377182 -10.27759436504104 0 -10.27759436504104 0.95878075088847936 0 0 0 0 1.9955283757251436 -14.912960259556712 0 -14.912960259556712 5.1341614196644514 0 0 0 0 -5.7572297022070416 -18.161225583819032 0 -18.161225583819032 10.113896107439359 0 0 0 0 10.972823334331224 0.30195212632315815 0 0.30195212632315815 5.0439147992001381 0 0 0 0 6.2836486622354641 -3.6692583227104478 0 -3.6692583227104478 17.358472250693012 0 0 0 0 -14.15135446690299 -39.530580185066356 0 -39.530580185066356 11.449335768484161 0 0 0 0 0.11317237171468891 -27.606074283354246 0 -27.606074283354246 -7.4409671350731514 0 0 0 0 -29.024547928881965 -26.933820146805374 0 -26.933820146805374 2.3645852754125372 0 0 0 0 -0.22748961293293035 -1.5381619442817502 0 -1.5381619442817502 3.3416359251244501 0 0 0 0 29.898797881393364 -30.200801936531207 0 -30.200801936531207 -5.6939529547162238 0 0 0 0 51.873072602545221 -13.064255916899128 0 -13.064255916899128 -7.2961012421292253 0 0 0 0 44.59367037292111 -14.30809223952383 0 -14.30809223952383 6.1310689579768223 0 0 0 0 48.870436457802356 -15.21863294877403 0 -15.21863294877403 -16.10696183257096 0 0 0 0 17.337238566116419 -16.20902156846941 0 -16.20902156846941 6.1483627489571404 0 0 0 0 3.8629512640377213 -9.1250232593675662 0 -9.1250232593675662 8.0253983047809498 0 0 0 0 34.882787327805474 -11.771628899310599 0 -11.771628899310599 9.6329389232414542 0 0 0 0 -15.983828913008878 5.8787377360094979 0 5.8787377360094979 3.4042568217682856 0 0 0 0 -0.096513327854227088 -0.057014880689465031 0 -0.057014880689465031 2.3052255530999872 0 0 0 0 -17.389410287656769 -11.014866221335978 0 -11.014866221335978 -20.151310020693927 0 0 0 0 -18.339100452583381 -12.977538263356109 0 -12.977538263356109 -3.1245371492514096 0 0 0 0 0.1844133238871058 25.347613379053655 0 25.347613379053655 -22.515523666399531 0 0 0 0 0.56656976669720049 -0.40872584584574412 0 -0.40872584584574412 3.7119311983316834 0 0 0 0 27.947698304871665 -34.391996597227262 0 -34.391996597227262 17.647599098083447 0 0 0 0 -146.31319697420372 -9.3843298807769315 0 -9.3843298807769315 115.64268243165861 0 0 0 0 20.813973924653599 -27.197284749724279 0 -27.197284749724279 27.259896835052245 0 0 0 0 17.390246744004799 -36.501843245861892 0 -36.501843245861892 23.66635927803145 0 0 0 0 28.011652961216896 -39.188520143732603 0 -39.188520143732603 23.649901596561961 0 0 0 0 0.0017039493763447849 -0.17434903117260703 0 -0.17434903117260703 0.97813366864846785 0 0 0 0 22.363159110726457 -78.153027197917254 0 -78.153027197917254 -247.15805951188668 0 0 0 0 74.283659143207643 -69.838194121057313 0 -69.838194121057313 63.305949146597413 0 0 0 0 8.236103197708772 -4.9893708312611977 0 -4.9893708312611977 -4.1252176662948301 0 0 0 0 15.605559651401563 -7.332330868288409 0 -7.332330868288409 -10.973581871505303 0 0 0 0 11.661442466938752 -15.893073933533742 0 -15.893073933533742 -2.2820839261694346 0 0 0 0 11.696010151394148 -10.040182405587984 0 -10.040182405587984 2.7290087859437335 0 0 0 0 16.662749675128932 -6.4417090256273326 0 -6.4417090256273326 2.4554709704423203 0 0 0 0 12.572646180809897 -14.986633570846607 0 -14.986633570846607 -7.4744667930790456 0 0 0 0 11.89460825985816 -9.8625002137459887 0 -9.8625002137459887 -9.0306725368864136 0 0 0 0 19.840034749623555 -3.7216360793681815 0 -3.7216360793681815 -7.8948358987399843 0 0 0 0 28.690816141886899 -27.539855358481873 0 -27.539855358481873 8.9156612884689821 0 0 0 0 16.168464335847602 -10.079420530229982 0 -10.079420530229982 0.62898502909229137 0 0 0 0 30.982889604212687 -31.99625567162002 0 -31.99625567162002 13.616797989743645 0 0 0 0 48.933673256015027 -38.289610237276065 0 -38.289610237276065 4.3634283841020078 0 0 0 0 29.322898399940186 -44.701276634456917 0 -44.701276634456917 17.202044484205544 0 0 0 0 40.241216634214652 -29.487227613870346 0 -29.487227613870346 0.70347159673110582 0 0 0 0 48.132837214092433 -22.65033750377188 0 -22.65033750377188 -1.4322415764781908 0 0 0 0 73.19543648474064 -49.18330772696936 0 -49.18330772696936 7.7496200875320937 0 0 0 0 47.23804630374579 -23.724412965520642 0 -23.724412965520642 5.4701790849019716 0 0 0 0 94.412553418180323 -39.522798465608503 0 -39.522798465608503 -2.6718346754278173 0 0 0 0 25.450402994026263 -49.399709896806598 0 -49.399709896806598 26.648709353656159 0 0 0 0 49.548507624938793 -55.92103516482166 0 -55.92103516482166 22.969854654300434 0 0 0 0 6.433436720533745 5.6147036039633562 0 5.6147036039633562 -7.2744300926123913 0 0 0 0 6.0632242173284467 1.9770100368826888 0 1.9770100368826888 8.152920393774437 0 0 0 0 17.730959001004067 -11.305264159095714 0 -11.305264159095714 -6.3141030317201512 0 0 0 0 20.747777208925982 2.60267499780457 0 2.60267499780457 3.2434790763945784 0 0 0 0 -4.8626794746739961 -3.5521894787353858 0 -3.5521894787353858 6.8204321140517692 0 0 0 0 60.571630111235208 -5.089535047467507 0 -5.089535047467507 -1.7569726205256302 0 0 0 0 -35.677923826384358 16.233409669279354 0 16.233409669279354 12.396597774462862 0 0 0 0 23.910315105763054 -17.579753455453535 0 -17.579753455453535 16.036806225057489 0 0 0 0 27.71431630486768 -65.941501920839073 0 -65.941501920839073 19.430373537470587 0 0 0 0 -1.7606769281524066 12.669695569594296 0 12.669695569594296 4.2877303686836967 0 0 0 0 3.4727095362390799 3.0434695779763103 0 3.0434695779763103 0.54611808043830479 0 0 0 0 89.158073190483265 48.813568859128281 0 48.813568859128281 -30.871455361819244 0 0 0 0 5.3256283651009113 -17.260737630427688 0 -17.260737630427688 1.6548125905423205 0 0 0 0 -130.46892196498811 33.398343988330453 0 33.398343988330453 227.95954701650771 0 0 0 0 -6.3655297726929803 -24.872986342397326 0 -24.872986342397326 -7.4371724250449915 0 0 0 0 81.0150940886233 -72.579639017058071 0 -72.579639017058071 -57.71157680900069 0 0 0 0 7.2773600807917163 -13.925594021680951 0 -13.925594021680951 17.909329105529338 0 0 0 0 1.0330291779833622 -14.109441273149386 0 -14.109441273149386 16.40814905022755 0 0 0 0 -0.049013094255371925 0.77266464052874539 0 0.77266464052874539 -0.87289177792710859 0 0 0 0 -12.641789297177866 -30.87315040293106 0 -30.87315040293106 -73.748405099715455 0 0 0 0 88.341913425974781 -56.961031391329016 0 -56.961031391329016 53.012027662054606 0 0 0 0 7.5908598793294022 -6.5012696452773993 0 -6.5012696452773993 -15.903237138499605 0 0 0 0 4.7436132104121498 -9.7060234825185034 0 -9.7060234825185034 -7.6071097190142609 0 0 0 0 29.946364897214153 -21.752214936966993 0 -21.752214936966993 7.0583749059369438 0 0 0 0 -15.30437481651461 -61.127958208569908 0 -61.127958208569908 -17.313456022873652 0 0 0 0 94.512947265342518 -3.1719559233752079 0 -3.1719559233752079 -91.567461419275787 0 0 0 0 71.046049167063757 -97.140320938611694 0 -97.140320938611694 -5.8322938220826472 0 0 0 0 0.93457511441544838 -0.28473850133696033 0 -0.28473850133696033 -0.20323455956000203 0 0 0 0 13.720895970526726 -96.522941501905734 0 -96.522941501905734 115.90105594851411 0 0 0 0 27.963111366287194 -27.218582240706382 0 -27.218582240706382 -45.973724971372576 0 0 0 0 -12.723024691890714 -14.386638536816463 0 -14.386638536816463 -41.189035719267849 0 0 0 0 0.010157224250178842 -20.54922189154604 0 -20.54922189154604 -53.111310146576216 0 0 0 0 0.93880350258457668 -0.45764833569992902 0 -0.45764833569992902 0.39955418053338576 0 0 0 0 33.068745470140129 -43.864097075093014 0 -43.864097075093014 -102.57568284859008 0 0 0 0 8.6844600280646773 -8.0124807955671713 0 -8.0124807955671713 -42.062818738850183 0 0 0 0 1.3145609325975336 -0.71515532980197349 0 -0.71515532980197349 0.14796347043443348 0 0 0 0 -18.932458405777197 -5.7594653751948499 0 -5.7594653751948499 44.705368531380373 0 0 0 0 12.491986633037413 12.931200262617494 0 12.931200262617494 -51.48350798616184 0 0 0 0 3.2659820276959799 -23.173736115108042 0 -23.173736115108042 30.026871774011582 0 0 0 0 11.940349154623139 -13.277211717124878 0 -13.277211717124878 0.36021258212454654 0 0 0 0 -24.712406675560487 -64.560484513072879 0 -64.560484513072879 -64.403322046418907 0 0 0 0 -20.937508960901368 -72.009044324271599 0 -72.009044324271599 -66.314854405776714 0 0 0 0 8.0144148502877215 -26.546468655404169 0 -26.546468655404169 54.44721190421842 0 0 0 0 20.05006214912828 -70.238247286288242 0 -70.238247286288242 4.7194561708311085 0 0 0 0 7.2363919270556671 -6.5285946281363039 0 -6.5285946281363039 -9.0569290907802156 0 0 0 0 -41.033987331897151 6.4348905430088053 0 6.4348905430088053 90.975972746498883 0 0 0 0 122.79715461355227 71.696044082418666 0 71.696044082418666 63.171132956718793 0 0 0 0 217.05853740480234 -557.4429763553635 0 -557.4429763553635 -282.72972008993383 0 0 0 0 4.562091857257311 -23.317504509161552 0 -23.317504509161552 53.436183283668811 0 0 0 0 -56.56367163494906 -28.619020105208619 0 -28.619020105208619 -53.945130465532202 0 0 0 0 5.0042162136404791 -2.8690555284864274 0 -2.8690555284864274 2.3232614334576738 0 0 0 0 -22.092614609205611 -25.846614310166842 0 -25.846614310166842 21.966076444150531 0 0 0 0 -24.630286756249006 -11.024852020949766 0 -11.024852020949766 10.151761326633277 0 0 0 0 -29.510315927410829 -7.1598683481279295 0 -7.1598683481279295 7.1204710575984791 0 0 0 0 -18.677846045443403 -5.0761163663846673 0 -5.0761163663846673 -4.420743296155706 0 0 0 0 -12.15655774228162 -10.393450938332535 0 -10.393450938332535 -0.11242155779473251 0 0 0 0 -4.08052355359996 -54.508607350828242 0 -54.508607350828242 91.843210310806171 0 0 0 0 102.54604345091684 -71.051478926918207 0 -71.051478926918207 4.0812849833455402 0 0 0 0 130.30202925215713 -33.30089052326548 0 -33.30089052326548 -16.098179735301528 0 0 0 0 0.58921902356426248 -1.9394249833462878 0 -1.9394249833462878 1.2361703971552345 0 0 0 0 11.530018758022379 5.7562209721945692 0 5.7562209721945692 21.048376526989159 0 0 0 0 87.409728382584944 -5.8195744482800364 0 -5.8195744482800364 0.94304815452778712 0 0 0 0 -23.03026071106342 -4.1886347747640684 0 -4.1886347747640684 15.141242512545432 0 0 0 0 -7.1328973988818127 -20.846861763120828 0 -20.846861763120828 29.59328372880212 0 0 0 0 -20.015576692866489 -77.591428426414495 0 -77.591428426414495 -4.8577951551415026 0 0 0 0 45.268543914726251 -63.766384067916078 0 -63.766384067916078 11.245540651201736 0 0 0 0 2.0211461396892219 5.2042329836876888 0 5.2042329836876888 77.888593291383586 0 0 0 0 3.1030216132093074 4.8064189712249572 0 4.8064189712249572 61.524464357222314 0 0 0 0 0.14961516847864686 -0.50942263743490912 0 -0.50942263743490912 79.637625583360204 0 0 0 0 3.4710911973451744 8.3614324219056471 0 8.3614324219056471 68.376297274357057 0 0 0 0 2.2411499493766769 14.147885626611242 0 14.147885626611242 54.605113893165253 0 0 0 0 0.074629378578947581 14.679675014533132 0 14.679675014533132 59.98547896360833 0 0 0 0 0.76259365783130306 -2.114644641540508 0 -2.114644641540508 43.943003030086402 0 0 0 0 6.8216397487428821 6.4356865475056111 0 6.4356865475056111 59.972725443487434 0 0 0 0 6.2157328685491393 7.7964342547056731 0 7.7964342547056731 67.395674798843174 0 0 0 0 -0.54158796618203775 2.5385068558692012 0 2.5385068558692012 13.942986572959285 0 0 0 0 -36.71781366092182 2.9345208292943425 0 2.9345208292943425 63.948895564273698 0 0 0 0 10.657214101649515 8.0192063040922221 0 8.0192063040922221 73.17748510063393 0 0 0 0 6.1104515703304969 14.552556968534191 0 14.552556968534191 75.158646124627921 0 0 0 0 5.654122114293159 10.678711651375124 0 10.678711651375124 72.39247939627603 0 0 0 0 -0.378337513410969 2.1563158977426156 0 2.1563158977426156 47.213508324508439 0 0 0 0 1.4695070189500525 4.1439394176362798 0 4.1439394176362798 47.407750035988244 0 0 0 0 -3.774051829106444 19.079238529754363 0 19.079238529754363 58.399890643012121 0 0 0 0 -13.657453139607924 14.474312173873841 0 14.474312173873841 58.072996035691176 0 0 0 0 2.7752541576572414 6.1158351024746143 0 6.1158351024746143 60.348415066258205 0 0 0 0 -27.65798419524932 18.635193194098168 0 18.635193194098168 88.911740779002216 0 0 0 0 22.007760260666601 -32.013875087886845 0 -32.013875087886845 110.4264539517153 0 0 0 0 -2.1335157528514515 11.927968708248954 0 11.927968708248954 86.750175567300175 0 0 0 0 19.27576936660634 -38.78393123470596 0 -38.78393123470596 132.10318054934032 0 0 0 0 7.5641421935660036 -16.361079392363834 0 -16.361079392363834 28.984927730295226 0 0 0 0 29.200873303633102 -73.149813872059894 0 -73.149813872059894 138.50798883286188 0 0 0 0 1.2108218204832832 3.2861567921331343 0 3.2861567921331343 9.3071826732684713 0 0 0 0 17.395416062483037 4.6398234977859829 0 4.6398234977859829 30.312138379220414 0 0 0 0 11.202432033257992 16.603477904289321 0 16.603477904289321 45.860772449148499 0 0 0 0 -0.6880023220595759 0.16176322805855037 0 0.16176322805855037 16.750262844023268 0 0 0 0 5.209295608661705 36.172511384669633 0 36.172511384669633 14.922452276448894 0 0 0 0 20.161379285972998 3.0592376273016271 0 3.0592376273016271 11.680892051816045 0 0 0 0 16.192860805794226 19.047005365056975 0 19.047005365056975 27.934041003747552 0 0 0 0 21.798164675452654 50.411265052432555 0 50.411265052432555 2.9905066246865317 0 0 0 0 -28.408543556944096 60.284078557480825 0 60.284078557480825 52.813008172101036 0 0 0 0 -31.794908542286066 60.698519727789972 0 60.698519727789972 52.918331191845937 0 0 0 0 -9.6470488921631841 27.815762186992288 0 27.815762186992288 66.374729083108832 0 0 0 0 -2.3293536558549022 21.199514458654448 0 21.199514458654448 48.030253963413998 0 0 0 0 1.9207395145519968 15.879720197724964 0 15.879720197724964 48.479143864111393 0 0 0 0 1.7241675624058688 9.9100865673419349 0 9.9100865673419349 54.89062559401971 0 0 0 0 -11.349372086740914 22.118901623529382 0 22.118901623529382 50.623854656372714 0 0 0 0 -4.3400932812353403 15.006398756115232 0 15.006398756115232 55.561703716943157 0 0 0 0 -3.6368219111091094 15.353509600699908 0 15.353509600699908 48.883249077836808 0 0 0 0 947.45286782831499 -170.86740781384287 0 -170.86740781384287 188.68684750154443 0 0 0 0 -4.2312566743541629 2.5229627310522531 0 2.5229627310522531 8.8538324027689725 0 0 0 0 -7.5009949264922398 14.880190714364289 0 14.880190714364289 63.893753545104119 0 0 0 0 -13.572939594681884 16.521804977477586 0 16.521804977477586 59.277823773882119 0 0 0 0 -5.028232483076863 16.354487302807684 0 16.354487302807684 58.749187488338066 0 0 0 0 -37.979337344308988 -42.769391842348341 0 -42.769391842348341 -4.2829834926560579 0 0 0 0 -53.963376792182089 21.342209262471442 0 21.342209262471442 130.09367112608743 0 0 0 0 -11.32532581003818 4.7376203590365549 0 4.7376203590365549 56.651495419253479 0 0 0 0 -53.930630043170822 16.319204508996336 0 16.319204508996336 63.40586178959893 0 0 0 0 0.17558429059681657 5.5919686899796943 0 5.5919686899796943 56.548947078761103 0 0 0 0 -93.801985441642955 14.278252050287847 0 14.278252050287847 193.19948180565552 0 0 0 0 -0.018870828095252534 -0.48242129343239526 0 -0.48242129343239526 -0.5923401880027086 0 0 0 0 81.873962043554684 140.87666193782388 0 140.87666193782388 137.16790046632741 0 0 0 0 -826.67943062441373 600.32285934878746 0 600.32285934878746 308.62440798181342 0 0 0 0 129.21876474925693 -115.10620609839134 0 -115.10620609839134 34.373735648892762 0 0 0 0 -64.398428200820263 -98.825409858420244 0 -98.825409858420244 253.16873341286919 0 0 0 0 69.15359793506434 -145.91536956552955 0 -145.91536956552955 124.92267409675696 0 0 0 0 -0.057963657253866652 -2.0240797347310737 0 -2.0240797347310737 5.8820462023478228 0 0 0 0 -3.5200354325297476 -0.65024322911188293 0 -0.65024322911188293 43.5104305452316 0 0 0 0 -15.47025341602432 -11.080107620672607 0 -11.080107620672607 36.065502745204867 0 0 0 0 -102.69245076778952 -5.9801541471310884 0 -5.9801541471310884 129.89273910524935 0 0 0 0 -0.76382306919627974 0.86553693926923359 0 0.86553693926923359 17.837459079734629 0 0 0 0 6.8382368397897153 25.654018820721831 0 25.654018820721831 54.556584821619253 0 0 0 0 -1.8618429220326789 14.618615151421182 0 14.618615151421182 67.265034038464364 0 0 0 0 -2.0616643075313732 11.807474245160847 0 11.807474245160847 59.112152600131594 0 0 0 0 -3.3731807753747489 18.068234096081142 0 18.068234096081142 59.775502282918751 0 0 0 0 -0.83400786574497943 10.004151210530836 0 10.004151210530836 58.609663074166747 0 0 0 0 1.0857476125064216 14.482961685520987 0 14.482961685520987 48.380774717067695 0 0 0 0 -29.53791001157515 7.106094680406386 0 7.106094680406386 75.98392110268469 0 0 0 0 -0.77241122944757878 -1.5201478402347419 0 -1.5201478402347419 49.0932268507297 0 0 0 0 -1.2133062716180802 -1.8328331093126735 0 -1.8328331093126735 48.156262216698451 0 0 0 0 -15.853060082556112 33.193480748981528 0 33.193480748981528 99.394639751859359 0 0 0 0 -3.7100541671425162 5.587469720513127 0 5.587469720513127 64.143883309290686 0 0 0 0 -0.75490603928920308 5.1826925752677839 0 5.1826925752677839 44.444452446842789 0 0 0 0 2.3851414215487239 10.584872027460051 0 10.584872027460051 53.863873847194554 0 0 0 0 8.3270811291581595 16.169143879887997 0 16.169143879887997 66.464102047912093 0 0 0 0 8.4194384815575631 4.3523866981386163 0 4.3523866981386163 60.256955158820347 0 0 0 0 -1.1944875038462897 17.040679614676947 0 17.040679614676947 79.009643047622376 0 0 0 0 2.153962544701983 23.167554491576539 0 23.167554491576539 86.111174476796805 0 0 0 0 8.9891936315752332 -4.8163741975422454 0 -4.8163741975422454 58.51185459125054 0 0 0 0 3.1548079618605698 -4.7274138350594512 0 -4.7274138350594512 49.933804730654401 0 0 0 0 7.6956438587918683 3.5387621189497622 0 3.5387621189497622 43.137046764526531 0 0 0 0 9.8514117774361694 -30.067868438463847 0 -30.067868438463847 47.138657031038747 0 0 0 0 -3.3763179159328334 20.148673845794498 0 20.148673845794498 30.593469740363091 0 0 0 0 -0.5238980316537476 -6.4853382308417906 0 -6.4853382308417906 12.767665132811295 0 0 0 0 -0.62740308558500146 1.1233074982969811 0 1.1233074982969811 33.73244200186673 0 0 0 0 5.0879335670956607 27.102895031772277 0 27.102895031772277 81.842230991989709 0 0 0 0 -26.224284069426858 34.118318709210143 0 34.118318709210143 179.76373742866235 0 0 0 0 -0.034724376486375608 -0.25874604202179796 0 -0.25874604202179796 -0.60550064307950535 0 0 0 0 44.555163594654687 -8.7124232801261314 0 -8.7124232801261314 63.322353126222879 0 0 0 0 34.025304877733944 29.065136274239194 0 29.065136274239194 39.449628681682952 0 0 0 0 1.2248868278734073 -5.3352066275522638 0 -5.3352066275522638 2.6816292981323642 0 0 0 0 0.31679291995180248 -0.6362385199729399 0 -0.6362385199729399 1.1792716666739924 0 0 0 0 -37.926921995580415 -21.162766489565911 0 -21.162766489565911 174.53861671119193 0 0 0 0 3.3779214035268978 18.942595336035083 0 18.942595336035083 50.436850275760662 0 0 0 0 223.55543489916727 248.23998813019125 0 248.23998813019125 328.56437023383478 0 0 0 0 -4.4826025402761545 19.869455070163923 0 19.869455070163923 29.690130175462176 0 0 0 0 60.928142140448472 -60.8197820788846 0 -60.8197820788846 35.54211721493084 0 0 0 0 -8.6184790394956963 -27.591203013769245 0 -27.591203013769245 1.4436625321541214 0 0 0 0 -350.20609437825806 -157.40906842502045 0 -157.40906842502045 423.65482937175602 0 0 0 0 -6.039716572622865 15.8522536425412 0 15.8522536425412 30.304431049122286 0 0 0 0 77.399583492114971 115.05884283523892 0 115.05884283523892 146.67348976602307 0 0 0 0 -7.0763618507203319 -45.923605925645916 0 -45.923605925645916 32.60364471483831 0 0 0 0 0.0088132656279993338 0.34470165838327826 0 0.34470165838327826 3.0373405381788636 0 0 0 0 82.939453652058887 -39.935675266716771 0 -39.935675266716771 9.5403412019022653 0 0 0 0 34.039519887417555 -11.455529086185379 0 -11.455529086185379 2.8812571391572419 0 0 0 0 -0.58054350872430405 -8.3359757107573387 0 -8.3359757107573387 20.742397455574064 0 0 0 0 -3.573982186568168 -5.4786121355250721 0 -5.4786121355250721 10.127895993439669 0 0 0 0 -0.54493154382220188 -1.3518235903514135 0 -1.3518235903514135 8.0728033853405599 0 0 0 0 2.9858488254035365 10.163020769854256 0 10.163020769854256 33.855463197956851 0 0 0 0 0.1475406278796072 0.64205278352255846 0 0.64205278352255846 51.372617522364635 0 0 0 0 -1.4250764095261275 8.3173966872291203 0 8.3173966872291203 42.236618446915941 0 0 0 0 -2.6025847499670922 1.7211756845880046 0 1.7211756845880046 33.566858497459727 0 0 0 0 -6.9751845654617064 16.276017903032844 0 16.276017903032844 30.417976179976336 0 0 0 0 -11.175530650008639 -16.2994635781412 0 -16.2994635781412 65.330754170180626 0 0 0 0 15.480901926339357 24.761828817967398 0 24.761828817967398 72.299499518472345 0 0 0 0 4.3740457057788777 -10.372765720434211 0 -10.372765720434211 16.893668844680963 0 0 0 0 2.7387089305251351 20.244819478318959 0 20.244819478318959 88.120133810394918 0 0 0 0 8.0831152577061403 13.260899674999237 0 13.260899674999237 72.345303596206136 0 0 0 0 6.5545630717710992 19.281548790523232 0 19.281548790523232 77.389859428626139 0 0 0 0 5.4796215345388033 6.1877293978182859 0 6.1877293978182859 40.264516786675685 0 0 0 0 9.9462401475602746 6.6125761900565578 0 6.6125761900565578 80.760441761358834 0 0 0 0 12.040711514030527 9.8276634436858945 0 9.8276634436858945 10.072381376297175 0 0 0 0 65.853014762790735 62.475072751557491 0 62.475072751557491 22.760634132247105 0 0 0 0 -62.289419912049198 59.962733239288355 0 59.962733239288355 167.21639563649842 0 0 0 0 12.192601293870212 -4.2753201724406154 0 -4.2753201724406154 -17.095755580749938 0 0 0 0 2.8555087604148315 -2.5884145645381658 0 -2.5884145645381658 -2.7909387811982951 0 0 0 0 36.397818983267371 120.76790502998938 0 120.76790502998938 107.36737513733897 0 0 0 0 26.59905807872974 111.88376066459932 0 111.88376066459932 140.52564151478509 0 0 0 0 12.171738334002384 59.980117340212018 0 59.980117340212018 169.78288418872489 0 0 0 0 39.569767178473285 107.65492814746176 0 107.65492814746176 93.658949631822907 0 0 0 0 57.158183374456712 22.41036413943948 0 22.41036413943948 37.141171785704501 0 0 0 0 -2.1044452491541961 -2.4025219164404916 0 -2.4025219164404916 13.312829564088133 0 0 0 0 -0.25129262484957415 2.5329577591450558 0 2.5329577591450558 7.3353827408018564 0 0 0 0 -2.9953270248722212 -0.28001747994376203 0 -0.28001747994376203 10.769411655796276 0 0 0 0 -2.6959803294230369 2.8542753025158163 0 2.8542753025158163 12.57211052137427 0 0 0 0 -5.0933554984340201 5.7728635036656852 0 5.7728635036656852 20.803987058653174 0 0 0 0 -0.089275445192470215 1.8727129431820231 0 1.8727129431820231 6.0311980910082639 0 0 0 0 4.3735603074183018 3.4251126029084844 0 3.4251126029084844 16.349620554490684 0 0 0 0 6.3113269549232864 8.3691313892966956 0 8.3691313892966956 2.023424657196558 0 0 0 0 10.397677512701875 11.15751250471908 0 11.15751250471908 34.990178910951727 0 0 0 0 1.6693291921468723 9.95057324396703 0 9.95057324396703 9.1747010132180264 0 0 0 0 0.77150113332711623 1.0809339954796791 0 1.0809339954796791 6.9577296986845703 0 0 0 0 10.882180640833667 18.355573229952256 0 18.355573229952256 63.56762057340984 0 0 0 0 9.6916081430044869 20.989120841516069 0 20.989120841516069 59.317963737632908 0 0 0 0 5.8380939681767883 7.4404046675835502 0 7.4404046675835502 -2.5562423241565551 0 0 0 0 87.214113593196544 102.15084929198747 0 102.15084929198747 67.526689757429267 0 0 0 0 57.322847540501584 90.595282030312774 0 90.595282030312774 64.882998549874173 0 0 0 0 50.498089624339741 92.38744706169382 0 92.38744706169382 96.133759652122535 0 0 0 0 16.763551883418359 16.538945821714151 0 16.538945821714151 88.017017601909174 0 0 0 0 89.914725393995241 26.98620507681153 0 26.98620507681153 -21.325419670845804 0 0 0 0 -0.047605948226393746 2.7610009926246519 0 2.7610009926246519 4.0239457801481109 0 0 0 0 -1.3271546655234943 5.3055077292349324 0 5.3055077292349324 8.7436719618817733 0 0 0 0 3.4260410108345241 13.986731798788242 0 13.986731798788242 60.490727780099405 0 0 0 0 18.24381779645887 -3.9831760294873675 0 -3.9831760294873675 -26.182108247280667 0 0 0 0 90.715817529951892 60.419991444260631 0 60.419991444260631 40.220706888692803 0 0 0 0 -6.4138768775201527e-05 2.4492222211712065 0 2.4492222211712065 -1.0714937652174612 0 0 0 0 317.95965186195872 34.250679191040035 0 34.250679191040035 -67.88028599768586 0 0 0 0 119.28285362195743 193.09667118742254 0 193.09667118742254 170.14062393099084 0 0 0 0 62.872497687495297 114.1292928062885 0 114.1292928062885 72.373236374613043 0 0 0 0 63.078283315966019 117.57506332628236 0 117.57506332628236 71.108333498768843 0 0 0 0 44.413200266180183 127.46885905700856 0 127.46885905700856 153.13579569470676 0 0 0 0 80.304880851812186 70.861789964885247 0 70.861789964885247 197.45218199023657 0 0 0 0 101.91304312931288 252.84668214723024 0 252.84668214723024 313.61692293886608 0 0 0 0 1.4187699080382243 -0.97359216553336836 0 -0.97359216553336836 -1.8322276829515651 0 0 0 0 230.38863153994907 144.83340487958776 0 144.83340487958776 119.94050195541058 0 0 0 0 71.387568570049552 57.285899676040572 0 57.285899676040572 40.482018962025904 0 0 0 0 -67.992737483482415 98.907356601433094 0 98.907356601433094 111.75562403581898 0 0 0 0 -163.0112270736895 7.3600422008094029 0 7.3600422008094029 116.34538921632975 0 0 0 0 -6.6010772392492578 13.109500733161097 0 13.109500733161097 100.03551655144881 0 0 0 0 50.200318654394323 106.53807319546831 0 106.53807319546831 68.281128534737945 0 0 0 0 33.71268984512426 130.87848112976735 0 130.87848112976735 122.81679925796197 0 0 0 0 -22.061800516134554 69.270857602734395 0 69.270857602734395 75.277680648939622 0 0 0 0 -29.525381748449263 81.021712661919537 0 81.021712661919537 82.741884722270697 0 0 0 0 -30.721008321016143 70.409725928720945 0 70.409725928720945 137.75241477667942 0 0 0 0 -18.010019211439612 14.057749314706598 0 14.057749314706598 75.721078538677091 0 0 0 0 -34.527355320690731 12.390411744974926 0 12.390411744974926 88.344867844436521 0 0 0 0 -27.483811464549945 13.499863464721784 0 13.499863464721784 88.272544410962837 0 0 0 0 -23.042185335970316 22.761092867807747 0 22.761092867807747 99.497952943800556 0 0 0 0 -19.768959152205753 4.2929826471145134 0 4.2929826471145134 101.85167471126988 0 0 0 0 -16.497976648417445 27.089863320068297 0 27.089863320068297 59.224005202260187 0 0 0 0 -20.641951524040678 -23.583061307861499 0 -23.583061307861499 128.24200496976118 0 0 0 0 -31.015622368766344 21.066889339018417 0 21.066889339018417 78.196808293880167 0 0 0 0 -8.7716053727829362 17.774045707047762 0 17.774045707047762 82.956209329935348 0 0 0 0 -29.969801345758455 22.945463026233377 0 22.945463026233377 57.702151980310958 0 0 0 0 -47.237023086560157 15.084542225393761 0 15.084542225393761 94.231282677767013 0 0 0 0 329.04873583737981 105.03375570624848 0 105.03375570624848 53.63437140530732 0 0 0 0 -38.122876622776857 73.975611371897685 0 73.975611371897685 162.14212489614874 0 0 0 0 -73.780407329541049 43.853834565765283 0 43.853834565765283 143.54013800153916 0 0 0 0 83.014907941113506 106.85974479300057 0 106.85974479300057 53.641351265570847 0 0 0 0 118.31308243722071 -9.7344953233105116 0 -9.7344953233105116 -7.5892144985482446 0 0 0 0 302.35485197489265 -270.45824067334252 0 -270.45824067334252 21.23781661765679 0 0 0 0 -0.21248009250253075 0.26055643279163476 0 0.26055643279163476 5.3578666172801093 0 0 0 0 -38.048144592033736 -65.378956680488045 0 -65.378956680488045 143.70370605645803 0 0 0 0 -83.107385245622254 1.4811088188798749 0 1.4811088188798749 170.2695050781731 0 0 0 0 525.86694440226711 287.19696046749596 0 287.19696046749596 573.79785645008087 0 0 0 0 -3.5401800625468978 -4.4284586301877908 0 -4.4284586301877908 17.429946685425264 0 0 0 0 -6.3070382038041402 13.400016141053227 0 13.400016141053227 94.724418619424952 0 0 0 0 -15.085962929244943 20.857176346489268 0 20.857176346489268 87.307300895213302 0 0 0 0 -73.713906630458951 -152.16222161866608 0 -152.16222161866608 -61.542096746328752 0 0 0 0 120.5532282031154 351.04398440203295 0 351.04398440203295 511.75291937745351 0 0 0 0 -552.18311161137353 -220.68184667585592 0 -220.68184667585592 897.52433381789888 0 0 0 0 -116.09800468366484 -71.276948608647217 0 -71.276948608647217 313.90250571348588 0 0 0 0 -212.6730057837276 -344.1229341951439 0 -344.1229341951439 26.203053146105958 0 0 0 0 -51.244325533382835 -240.70185045723156 0 -240.70185045723156 184.83614124596352 0 0 0 0 -96.670752462300698 -21.795890762867202 0 -21.795890762867202 13.991633179510245 0 0 0 0 -0.29404150536313267 0.74885853023184268 0 0.74885853023184268 0.36818568903304083 0 0 0 0 48.628498504594063 -118.83243858737296 0 -118.83243858737296 53.046399089958868 0 0 0 0 -13.092422536061804 25.56360783591299 0 25.56360783591299 90.293904559670409 0 0 0 0 -47.089013606097069 59.165006682640978 0 59.165006682640978 58.363148728797569 0 0 0 0 -339.68173530605509 -132.78874187262045 0 -132.78874187262045 142.11658377880667 0 0 0 0 -2.2797873728772062 14.909270468937297 0 14.909270468937297 108.32741147608199 0 0 0 0 -477.29994576603485 50.120414308268664 0 50.120414308268664 211.09930467863524 0 0 0 0 -338.85041274468222 -88.847266025935824 0 -88.847266025935824 380.92812511098236 0 0 0 0 -77.184287090443831 -284.30620503240061 0 -284.30620503240061 252.85955990136608 0 0 0 0 -13.28259600040019 -245.02784672663711 0 -245.02784672663711 80.905089719584794 0 0 0 0 -206.79239466928175 -147.47160126107883 0 -147.47160126107883 163.62971571704838 0 0 0 0 0.82806190548321634 -2.3874944604072645 0 -2.3874944604072645 4.6495592736056039 0 0 0 0 -143.19226672154309 41.153764283699275 0 41.153764283699275 154.03979877768506 0 0 0 0 -177.84612290633959 -51.966170966770733 0 -51.966170966770733 253.8140525946219 0 0 0 0 -168.09318051627633 -69.028835145170888 0 -69.028835145170888 111.37905981276344 0 0 0 0 -56.209988958335998 -37.34897772550903 0 -37.34897772550903 97.702122615970438 0 0 0 0 -142.01217802977447 -45.907061391591697 0 -45.907061391591697 -23.384799650259083 0 0 0 0 -150.63477951364257 5.7392808569929912 0 5.7392808569929912 86.903899864828418 0 0 0 0 -256.28443841406283 -76.556301226766664 0 -76.556301226766664 45.569400423468323 0 0 0 0 -83.545701820095246 16.092172674528229 0 16.092172674528229 32.619850124094228 0 0 0 0 -114.93132870301088 -43.963957617219421 0 -43.963957617219421 10.437447880292893 0 0 0 0 -146.42209930919398 -44.29406596589979 0 -44.29406596589979 37.20509786374032 0 0 0 0 -199.77809524131089 -17.927113807010755 0 -17.927113807010755 15.519671845606354 0 0 0 0 -135.63949640850296 -42.926533295543777 0 -42.926533295543777 -25.85792137635508 0 0 0 0 -140.16989273198487 -63.421675973233505 0 -63.421675973233505 -79.250442636373919 0 0 0 0 -167.82198090307338 -12.761357614890585 0 -12.761357614890585 73.463270774875127 0 0 0 0 -43.538311993305797 69.592794410331408 0 69.592794410331408 68.362773964322514 0 0 0 0 -71.800781010485025 2.8124214954168565 0 2.8124214954168565 56.149229806789663 0 0 0 0 -117.53746028327078 27.786489388439804 0 27.786489388439804 67.118745541920362 0 0 0 0 -117.71829942802333 -45.395711429951916 0 -45.395711429951916 -91.493461225691135 0 0 0 0 -75.129735607008115 -134.55142717334093 0 -134.55142717334093 24.526151240221225 0 0 0 0 -121.38352479740752 -115.94235473881417 0 -115.94235473881417 17.694887154091703 0 0 0 0 -302.32402529635692 -97.525043879562872 0 -97.525043879562872 50.510605872186716 0 0 0 0 1.3567265465228093 -5.1532825512310492 0 -5.1532825512310492 13.024453089554015 0 0 0 0 131.90718650716599 -112.00131369477094 0 -112.00131369477094 -395.07218133071365 0 0 0 0 -61.263240448232182 -88.608026977221016 0 -88.608026977221016 233.42092023008445 0 0 0 0 11.908346374084996 -7.6301210680528868 0 -7.6301210680528868 3.4971965386122363 0 0 0 0 -25.977447960741983 -189.75381705473046 0 -189.75381705473046 -31.460025519298142 0 0 0 0 19.198525951463125 63.583140290586016 0 63.583140290586016 107.2591391020851 0 0 0 0 33.229641423793964 39.047503411438811 0 39.047503411438811 74.904922770627309 0 0 0 0 -28.279185774995312 29.296604182844021 0 29.296604182844021 166.76869278268532 0 0 0 0 7.0799524362454456 -6.7308741950715358 0 -6.7308741950715358 3.7274203459804625 0 0 0 0 -30.379668646050504 51.164483958379151 0 51.164483958379151 100.36802232557238 0 0 0 0 -55.723952811967138 -14.286323195061414 0 -14.286323195061414 62.777315171233568 0 0 0 0 -70.253297475794398 -1.2516173376097868 0 -1.2516173376097868 15.299738126210286 0 0 0 0 -76.106878490806594 5.3186851869686507 0 5.3186851869686507 68.588335545995506 0 0 0 0 3.4064855537280891 25.904753134102066 0 25.904753134102066 40.606359617770067 0 0 0 0 -26.289909153141707 47.8066117791941 0 47.8066117791941 81.095694039373484 0 0 0 0 3.5527844844989573 43.496965782983935 0 43.496965782983935 102.59229169652099 0 0 0 0 30.372568597492773 52.510270298282194 0 52.510270298282194 79.914109531371651 0 0 0 0 35.833869880382736 24.497513767226337 0 24.497513767226337 64.763097179849865 0 0 0 0 33.430107838731601 10.567844299857825 0 10.567844299857825 159.36647458497828 0 0 0 0 42.887597213973493 37.216275360514715 0 37.216275360514715 102.87985886409297 0 0 0 0 30.062805509749069 48.724116270464947 0 48.724116270464947 110.34154206611129 0 0 0 0 74.983466033279001 -21.418456727491503 0 -21.418456727491503 58.669105709159339 0 0 0 0 179.32607760751111 -11.115032734266492 0 -11.115032734266492 47.312148971330316 0 0 0 0 156.06254407691199 -81.831950466573289 0 -81.831950466573289 102.08488025926636 0 0 0 0 -2.4790765582656604 -4.6374628143967129 0 -4.6374628143967129 107.25552985275135 0 0 0 0 75.291671122367234 -19.556140774309824 0 -19.556140774309824 50.116764597936708 0 0 0 0 -3.9520959748042515 -6.7073143166053342 0 -6.7073143166053342 84.194399505664478 0 0 0 0 -88.658703213924127 -19.282573222477367 0 -19.282573222477367 66.47846786441005 0 0 0 0 -22.848586573428292 -42.478624682105874 0 -42.478624682105874 35.108032601987361 0 0 0 0 -2.3182005284909337 -3.1270946981449015 0 -3.1270946981449015 33.404621565372508 0 0 0 0 -89.726147441979379 -37.373942007574897 0 -37.373942007574897 -1.1745350092387525 0 0 0 0 -102.3807339069119 -85.389227465733256 0 -85.389227465733256 -1.4752593213415821 0 0 0 0 -102.44511991354355 -84.717242255500537 0 -84.717242255500537 91.786142549448414 0 0 0 0 -243.78017564058791 -148.13952365752994 0 -148.13952365752994 150.20421904497562 0 0 0 0 -191.56845870131292 -13.357486046937993 0 -13.357486046937993 239.90223957495982 0 0 0 0 -96.562808502937571 -17.270827110086202 0 -17.270827110086202 141.1397952887346 0 0 0 0 -92.717622756073069 -69.043902355067985 0 -69.043902355067985 112.29028400486277 0 0 0 0 9.1735631385272427 -26.931334591376071 0 -26.931334591376071 75.632726007939709 0 0 0 0 79.996471164357899 36.41288297846404 0 36.41288297846404 101.75424688687053 0 0 0 0 -16.522083294035838 11.247493977436534 0 11.247493977436534 135.62355295082671 0 0 0 0 -12.850228902045274 2.1540703612963625 0 2.1540703612963625 131.64617453770916 0 0 0 0 175.18762686351147 32.035353093640879 0 32.035353093640879 123.21728167279798 0 0 0 0 90.382530127227255 84.601306950327853 0 84.601306950327853 178.0582681824817 0 0 0 0 149.46717285565319 4.1712317644542054 0 4.1712317644542054 100.55793949787039 0 0 0 0 200.55241881128313 28.60812475966668 0 28.60812475966668 76.627228622688563 0 0 0 0 106.19352630122103 -6.4044305111965514 0 -6.4044305111965514 65.334566526093113 0 0 0 0 5.9396453259219015 300.00083213749167 0 300.00083213749167 413.03745529128355 0 0 0 0 -40.158851807879728 118.1098903971033 0 118.1098903971033 -69.934688963836834 0 0 0 0 -50.680200833157869 149.11803811669597 0 149.11803811669597 73.712129164399812 0 0 0 0 -88.972597834326734 87.218585705330042 0 87.218585705330042 200.12144398732198 0 0 0 0 -90.844567161672785 61.870074049460527 0 61.870074049460527 92.450205957713479 0 0 0 0 -85.511041715945794 58.12682267252967 0 58.12682267252967 13.253826961423329 0 0 0 0 -28.016475699676448 50.255342440079403 0 50.255342440079403 -14.12920772853613 0 0 0 0 -71.534732094170522 3.1428985496977475 0 3.1428985496977475 -21.540429192631564 0 0 0 0 -151.95513495552564 17.511002836625266 0 17.511002836625266 -12.6443807300966 0 0 0 0 -101.99347485495946 -12.288641308237857 0 -12.288641308237857 -47.147292148519227 0 0 0 0 -285.00778523523786 -249.24750552373098 0 -249.24750552373098 -138.3423823373887 0 0 0 0 -286.93163637702037 -59.005017737534217 0 -59.005017737534217 15.310403155388485 0 0 0 0 1.5953930836724677 -6.6578677240861559 0 -6.6578677240861559 18.288752372978564 0 0 0 0 -196.94583163840889 -93.895283373010898 0 -93.895283373010898 3.2746562729971629 0 0 0 0 -170.29371002825519 -17.639757818476937 0 -17.639757818476937 38.245117559261416 0 0 0 0 -202.16521776969967 -53.516116079215863 0 -53.516116079215863 44.889190084115398 0 0 0 0 -177.68347483031357 -104.95834585902776 0 -104.95834585902776 -35.395924381267832 0 0 0 0 288.89170860175818 141.64821950902478 0 141.64821950902478 -452.31659278902407 0 0 0 0 -545.57128488187436 -193.61489754932882 0 -193.61489754932882 821.64847220268348 0 0 0 0 0.5747816155771952 -5.0301441459557132 0 -5.0301441459557132 17.156581290263631 0 0 0 0 -315.07517808574357 -126.4896499809729 0 -126.4896499809729 41.370794429796661 0 0 0 0 -211.70320611634816 -31.861878945117496 0 -31.861878945117496 16.312371845415328 0 0 0 0 58.135661677794815 279.13351975998557 0 279.13351975998557 18.1546147402114 0 0 0 0 -64.15842370314931 -222.58969783727116 0 -222.58969783727116 13.999324253865069 0 0 0 0 0.1845827760558052 -1.5633182541491326 0 -1.5633182541491326 6.8749682927854678 0 0 0 0 166.54934780050075 -84.370841891911368 0 -84.370841891911368 11.380917973176111 0 0 0 0 -0.019403802731919662 -1.1143096806359649 0 -1.1143096806359649 10.039986884179797 0 0 0 0 -123.27539254393287 153.5809310601453 0 153.5809310601453 -52.88699511093364 0 0 0 0 -24.263883348947274 33.335118749302637 0 33.335118749302637 313.97559438436474 0 0 0 0 0.58396110647320754 0.47281054057657457 0 0.47281054057657457 -0.15281767821753789 0 0 0 0 163.40981655131029 -262.3205773074946 0 -262.3205773074946 -20.448306044912897 0 0 0 0 178.47583287455427 -202.46068487733828 0 -202.46068487733828 -216.70590075391374 0 0 0 0 -91.71461666025516 -10.66872744153261 0 -10.66872744153261 7.8164328696802841 0 0 0 0 -34.629758475065955 -191.78053106460357 0 -191.78053106460357 526.76476520236611 0 0 0 0 -99.484653396073099 -55.445434188948639 0 -55.445434188948639 68.084815410820738 0 0 0 0 -128.70698075143082 -29.283543176952662 0 -29.283543176952662 175.63966058173764 0 0 0 0 46.017016982139467 0.41937663404314662 0 0.41937663404314662 134.54667485373648 0 0 0 0 -28.168949709591516 -1.7827681801400104 0 -1.7827681801400104 147.2189082611294 0 0 0 0 36.366422864591186 -26.967218611367571 0 -26.967218611367571 32.188702917299452 0 0 0 0 5.7852282825951988 -11.795893521571998 0 -11.795893521571998 24.79939596420445 0 0 0 0 37.334468366265767 1.4734459002390281 0 1.4734459002390281 19.881364979410137 0 0 0 0 -14.369070606788227 -22.537526543599597 0 -22.537526543599597 132.204688237136 0 0 0 0 227.36415907074115 -126.11558341197087 0 -126.11558341197087 -24.787346140758018 0 0 0 0 0.33285581912330608 -2.7500322510027946 0 -2.7500322510027946 26.85385725862028 0 0 0 0 139.54929033219514 -178.4776515680478 0 -178.4776515680478 -56.049088494284661 0 0 0 0 -437.5898725021716 -61.634033931180966 0 -61.634033931180966 450.18657008408991 0 0 0 0 -3.5759272648003981 -5.6606252978498945 0 -5.6606252978498945 37.936147772787621 0 0 0 0 -86.940795973724619 -108.76033798951516 0 -108.76033798951516 -58.889551030715666 0 0 0 0 -81.92011241012915 9.051488414654159 0 9.051488414654159 12.956597778855212 0 0 0 0 -20.397625755637179 -12.838600871702042 0 -12.838600871702042 2.8449718009448191 0 0 0 0 6.2595035593826651 -19.547097071344979 0 -19.547097071344979 39.447625167345905 0 0 0 0 -5.2352437416438349 -5.9724437751337121 0 -5.9724437751337121 7.6314498659469265 0 0 0 0 7.3807143857629853 -16.146014263586039 0 -16.146014263586039 18.35168488389445 0 0 0 0 -5.4792110775497349 -14.623314089394626 0 -14.623314089394626 31.915063248539809 0 0 0 0 17.856077288382039 -13.095480700634653 0 -13.095480700634653 14.122679885662365 0 0 0 0 4.4424477969598684 -12.69002076801462 0 -12.69002076801462 19.978897326982406 0 0 0 0 -3.5756663016998118 -25.592132051257067 0 -25.592132051257067 12.444428364637133 0 0 0 0 6.8868369901363167 -11.996769481277624 0 -11.996769481277624 12.018336914363317 0 0 0 0 12.685816089061518 3.0249835056711163 0 3.0249835056711163 19.986569503961277 0 0 0 0 -8.6586675245557387 -5.275466668722629 0 -5.275466668722629 27.619703342719731 0 0 0 0 98.876451043414818 -75.059803480906339 0 -75.059803480906339 187.97620541892684 0 0 0 0 370.71307349211963 -87.991461940510021 0 -87.991461940510021 44.529238180919492 0 0 0 0 382.74160742615823 -293.61054714494094 0 -293.61054714494094 409.31017338162928 0 0 0 0 298.20546253598604 -9.8866641822423844 0 -9.8866641822423844 203.2016163993685 0 0 0 0 123.65291679932307 109.58558131346945 0 109.58558131346945 221.48220595852763 0 0 0 0 79.096747734452947 46.510437555298267 0 46.510437555298267 178.16799897131796 0 0 0 0 74.805706663909405 180.12300269104708 0 180.12300269104708 125.98938021894719 0 0 0 0 -133.01745547564133 103.10933073595152 0 103.10933073595152 250.64408882994758 0 0 0 0 -119.41978844680995 25.124740041579798 0 25.124740041579798 260.05914662556461 0 0 0 0 86.530869840799824 12.729334891564577 0 12.729334891564577 -424.22120359634209 0 0 0 0 93.024518209066514 34.523969333051582 0 34.523969333051582 -252.18386469985126 0 0 0 0 -526.95367404955641 176.55301856059668 0 176.55301856059668 237.69773600805638 0 0 0 0 -166.30330045352889 -254.35787480867111 0 -254.35787480867111 294.18179543672886 0 0 0 0 -457.65622426022856 -195.8803207224737 0 -195.8803207224737 334.78897827368837 0 0 0 0 -8.4611171736370032 -1.9942559803698714 0 -1.9942559803698714 -1.9266702111157059 0 0 0 0 -334.39315218605589 206.88003965980533 0 206.88003965980533 -85.656045573508891 0 0 0 0 -145.41571454325185 77.029786043307467 0 77.029786043307467 -26.733869412935746 0 0 0 0 -87.712077666456025 5.8062654305440446 0 5.8062654305440446 28.007952946038131 0 0 0 0 -310.06597069986151 -100.34904822551289 0 -100.34904822551289 111.18039317806324 0 0 0 0 -608.49024227288464 -238.94003069800328 0 -238.94003069800328 64.326322459637595 0 0 0 0 21.851587384328923 -196.07620980945285 0 -196.07620980945285 33.530628825392341 0 0 0 0 445.47025485042514 -247.73053812755768 0 -247.73053812755768 -41.497708592785784 0 0 0 0 127.96154318808476 -78.86214892004682 0 -78.86214892004682 49.402915902915993 0 0 0 0 577.98543046264422 35.371724156293567 0 35.371724156293567 -75.451475970730826 0 0 0 0 272.60776424421186 -129.61426952076317 0 -129.61426952076317 28.386197277468455 0 0 0 0 70.976724807316259 -155.11361378584843 0 -155.11361378584843 82.523087831963494 0 0 0 0 -27.724702994384188 -82.131671288103462 0 -82.131671288103462 96.584731343067688 0 0 0 0 34.408296095842161 -123.54349523115525 0 -123.54349523115525 84.497733021914428 0 0 0 0 -140.30610360506375 -67.736608010947748 0 -67.736608010947748 106.76507487517665 0 0 0 0 -38.269732839966309 -84.548365044163802 0 -84.548365044163802 83.442366389834206 0 0 0 0 -40.941477835494084 -105.00791239069713 0 -105.00791239069713 92.588481016489823 0 0 0 0 -97.4286634508519 -17.333795338232449 0 -17.333795338232449 28.23794575077352 0 0 0 0 -123.67119285876049 -48.176889414346078 0 -48.176889414346078 95.599291264192289 0 0 0 0 -140.57651076198351 -20.285066986147655 0 -20.285066986147655 67.116630362223077 0 0 0 0 -112.86428232323453 -49.409915962211926 0 -49.409915962211926 82.895860176162387 0 0 0 0 -116.55954812887384 -57.855281950949575 0 -57.855281950949575 88.539327985046839 0 0 0 0 -116.81182601907847 -98.221850207923126 0 -98.221850207923126 -23.501438505183614 0 0 0 0 -125.9451492434273 -83.0730997549108 0 -83.0730997549108 20.301318638856173 0 0 0 0 -126.11714681117655 -79.050011480925605 0 -79.050011480925605 -3.3143126003415091 0 0 0 0 -82.243000997707668 -73.098092929806626 0 -73.098092929806626 62.606605626373494 0 0 0 0 -85.567236311777833 -57.423420236465972 0 -57.423420236465972 -7.4902134646035847 0 0 0 0 -19.748325353979453 -109.69230355215768 0 -109.69230355215768 -7.8176433883963909 0 0 0 0 3.7094138552101867 -127.37139785734689 0 -127.37139785734689 79.796706849752809 0 0 0 0 -26.854841809505615 -65.55337976561168 0 -65.55337976561168 77.118803788769583 0 0 0 0 -29.227205830285811 -75.472873511615035 0 -75.472873511615035 83.459349853474123 0 0 0 0 -29.399567126444254 -78.137103422101063 0 -78.137103422101063 46.86166710098405 0 0 0 0 83.484693892468385 -89.891988005720123 0 -89.891988005720123 58.784394872905978 0 0 0 0 45.683313853891832 -100.53080324935479 0 -100.53080324935479 80.870018438676198 0 0 0 0 44.728660178252539 -89.127188877519075 0 -89.127188877519075 66.226189537730534 0 0 0 0 0.51089349870099809 1.5735740428362135 0 1.5735740428362135 4.4307522592081892 0 0 0 0 64.414916977002576 -102.67330146619133 0 -102.67330146619133 46.699912998512445 0 0 0 0 40.416703394020715 -140.24531310256771 0 -140.24531310256771 171.92432574736449 0 0 0 0 51.452383839749018 -72.034450193532393 0 -72.034450193532393 96.855717503345659 0 0 0 0 -26.115575139629073 -67.534725512596196 0 -67.534725512596196 -47.631192660136776 0 0 0 0 52.402682220044881 -67.874674733011489 0 -67.874674733011489 104.38711585262718 0 0 0 0 13.853802851295768 -55.145421651985089 0 -55.145421651985089 226.94524919240575 0 0 0 0 -0.067999426327176593 0.85396826036105722 0 0.85396826036105722 3.7177119257907236 0 0 0 0 9.1108503858981749 -18.033221204053916 0 -18.033221204053916 28.825854332797462 0 0 0 0 -3.887657284338502 -6.8801919922861998 0 -6.8801919922861998 12.806460711130057 0 0 0 0 2.9773295161896201 -10.827854748578204 0 -10.827854748578204 16.653224273363023 0 0 0 0 -6.8577210589461082 -0.20671581512569048 0 -0.20671581512569048 20.701250190692452 0 0 0 0 22.366265507902426 -22.901423999981489 0 -22.901423999981489 46.941394983019109 0 0 0 0 71.411396247597395 -63.073848127052088 0 -63.073848127052088 71.726863801530271 0 0 0 0 77.167907229179946 -71.238771063526656 0 -71.238771063526656 52.975860494425433 0 0 0 0 5.5482463732363954 -17.736176164983817 0 -17.736176164983817 24.105192344570241 0 0 0 0 -8.492555175328107 -20.667095354650883 0 -20.667095354650883 24.374274283081832 0 0 0 0 3.5675323797947556 -24.889670308565883 0 -24.889670308565883 38.053892205607553 0 0 0 0 5.7141594930853898 -18.698628247904708 0 -18.698628247904708 26.413882483402404 0 0 0 0 -6.8830928764246959 -1.5309393621994545 0 -1.5309393621994545 -1.1663036908989213 0 0 0 0 2.4774754036402555 -33.860235690395712 0 -33.860235690395712 40.377138447211109 0 0 0 0 -3.8515091191438842 -26.924321057627822 0 -26.924321057627822 39.152901109917366 0 0 0 0 -3.0476241156347159 -19.259024114345578 0 -19.259024114345578 27.768875708791427 0 0 0 0 -73.295722734900664 13.743733630315546 0 13.743733630315546 -0.2576653479518427 0 0 0 0 -49.833933449469669 -15.108447685543524 0 -15.108447685543524 -65.191167096796562 0 0 0 0 -56.94278512132928 -48.390305535864172 0 -48.390305535864172 42.470041188680625 0 0 0 0 -78.070887167959029 -123.68337626559878 0 -123.68337626559878 124.68517146544036 0 0 0 0 -126.16481424800929 -60.053473863274121 0 -60.053473863274121 40.57364802869597 0 0 0 0 -70.728253087463486 -60.077899369710394 0 -60.077899369710394 406.7819460494502 0 0 0 0 1.4400240372443274 -17.230527889722229 0 -17.230527889722229 21.249040300314292 0 0 0 0 10.759609148773961 -103.97003733613747 0 -103.97003733613747 -11.821260243670622 0 0 0 0 220.69934984691673 89.404630740132234 0 89.404630740132234 -263.69990418383532 0 0 0 0 -134.06520710465907 -20.082073162353481 0 -20.082073162353481 32.086715236251621 0 0 0 0 2.2764317165530366 -2.468324572672028 0 -2.468324572672028 -0.10632511347758111 0 0 0 0 -165.32586847711286 -48.426777977150778 0 -48.426777977150778 119.66688530641466 0 0 0 0 7.0830889212117132 -7.2314083094809831 0 -7.2314083094809831 -0.2298011097569912 0 0 0 0 -197.46039651629872 -109.21897077945687 0 -109.21897077945687 7.1564642425219063 0 0 0 0 58.765885387042545 -28.137024915363327 0 -28.137024915363327 -9.9430983288948482 0 0 0 0 -170.90559466347509 -116.05968950030365 0 -116.05968950030365 -4.6059065305817057 0 0 0 0 5.7605920828153874 -20.91791785890188 0 -20.91791785890188 11.630165778432087 0 0 0 0 -4.3066113179938839 -19.932465083880743 0 -19.932465083880743 10.081577236691373 0 0 0 0 7.8552278874285548 -20.991372131338721 0 -20.991372131338721 60.317920264689747 0 0 0 0 47.74265218059918 -65.570730896773966 0 -65.570730896773966 -84.285220535501139 0 0 0 0 3.6269657937159856 -13.238880941744092 0 -13.238880941744092 8.9210623402731635 0 0 0 0 3.9333882760238339 -13.604820846261646 0 -13.604820846261646 14.622659145064063 0 0 0 0 4.5294027808703277 -14.570617832800053 0 -14.570617832800053 26.047232433993486 0 0 0 0 3.8222944270951302 -16.520513068061518 0 -16.520513068061518 22.862571475823643 0 0 0 0 6.5139321555792549 -17.043708834949939 0 -17.043708834949939 19.022962997689319 0 0 0 0 42.53590505923421 9.2647907068840141 0 9.2647907068840141 -53.595538849868717 0 0 0 0 9.8320325707731335 -12.735713700615392 0 -12.735713700615392 8.4784097999725212 0 0 0 0 -42.669199267716749 8.8528000956348478 0 8.8528000956348478 31.551469358360919 0 0 0 0 -1.277077913076937 -11.460425492956347 0 -11.460425492956347 -4.2383079569481197 0 0 0 0 2.7804834382729702 -1.6107817123029431 0 -1.6107817123029431 0.023391536149574677 0 0 0 0 12.243359657926703 -26.16290744352591 0 -26.16290744352591 -42.811092774651115 0 0 0 0 5.069180306925313 -2.383203379716198 0 -2.383203379716198 -4.8340705152627237 0 0 0 0 5.2451099936082954 -4.6117301660464012 0 -4.6117301660464012 5.2741223835764544 0 0 0 0 40.521854967470063 -6.7366807407488523 0 -6.7366807407488523 -44.319937940672389 0 0 0 0 -1.8897068476680943 -22.21524652843982 0 -22.21524652843982 -21.163905669549422 0 0 0 0 5.3174308825687362 -3.2029653676861223 0 -3.2029653676861223 -1.5918054293032355 0 0 0 0 -3.2065909057018871 -15.992496212973492 0 -15.992496212973492 -12.695289344876073 0 0 0 0 9.12069346581651 -2.1608257446090455 0 -2.1608257446090455 -12.8075627198455 0 0 0 0 1.3020814822957618 -12.557440696591584 0 -12.557440696591584 4.2605456871829119 0 0 0 0 10.71873406548184 -8.1653945711232154 0 -8.1653945711232154 11.844197642571089 0 0 0 0 14.347251146759845 -8.5956355137386709 0 -8.5956355137386709 -2.7464869495506719 0 0 0 0 -0.1333805058238795 -3.6417786274287209 0 -3.6417786274287209 10.795279358066182 0 0 0 0 -1.4825764244924358 -5.9487899882587953 0 -5.9487899882587953 -1.4781025564279844 0 0 0 0 2.1317452801663048 -0.19907796986732862 0 -0.19907796986732862 0.23588797546429419 0 0 0 0 6.8811995678443054 -10.722002885384427 0 -10.722002885384427 17.636847920628497 0 0 0 0 -50.296068384444652 3.4378191789382981 0 3.4378191789382981 29.140612082877851 0 0 0 0 6.0932259520677183 -10.863684979525821 0 -10.863684979525821 17.644333639951796 0 0 0 0 10.374788124719998 -11.093932938474609 0 -11.093932938474609 11.895916411696817 0 0 0 0 -0.26405045580714415 -0.34911997220916646 0 -0.34911997220916646 0.77353444352599254 0 0 0 0 119.94542451842062 73.256996023781539 0 73.256996023781539 7.9448410482364125 0 0 0 0 13.396879583402551 -18.819409989218912 0 -18.819409989218912 1.9987563556769601 0 0 0 0 8.7396308850091309 -7.5233816041966612 0 -7.5233816041966612 8.1724560072360148 0 0 0 0 79.178032071330108 -73.394980178116384 0 -73.394980178116384 -25.339666934254637 0 0 0 0 -120.89834038634763 -82.333312030175875 0 -82.333312030175875 51.222871478210436 0 0 0 0 -46.428184068449809 27.083259512590303 0 27.083259512590303 94.471946800018486 0 0 0 0 8.2005178335909861 -13.276010420157945 0 -13.276010420157945 27.661823208603892 0 0 0 0 8.0982072910005627 -14.191622313232074 0 -14.191622313232074 21.197265744776814 0 0 0 0 -3.5629831491630135 -0.81140933778929281 0 -0.81140933778929281 10.153057033692257 0 0 0 0 4.1266659172866049 2.1692654859810387 0 2.1692654859810387 4.4841438530417719 0 0 0 0 -0.31887754546150937 1.2226260583769673 0 1.2226260583769673 0.96125544687629905 0 0 0 0 32.132384487136733 -17.831498816964086 0 -17.831498816964086 14.851224843204818 0 0 0 0 3.225299898135745 9.7576475159057736 0 9.7576475159057736 13.485876188093243 0 0 0 0 19.872465079434733 -15.913433026289567 0 -15.913433026289567 17.990922736527864 0 0 0 0 38.942902127330399 -2.8366795708975587 0 -2.8366795708975587 14.161831717079622 0 0 0 0 17.752005530173847 -2.1124397946168756 0 -2.1124397946168756 26.576930913936849 0 0 0 0 18.360850838992519 -3.0032535733989789 0 -3.0032535733989789 8.411698515498756 0 0 0 0 16.615313131687799 -15.066509735908767 0 -15.066509735908767 14.161711974013997 0 0 0 0 12.053208815226753 -1.6027576066917391 0 -1.6027576066917391 10.738351697917096 0 0 0 0 18.654926064418078 1.8447725728251498 0 1.8447725728251498 0.57938853873383778 0 0 0 0 5.5673335895971832 -12.783012411495747 0 -12.783012411495747 10.271914604069025 0 0 0 0 4.1956564887618146 -3.6695795076049005 0 -3.6695795076049005 -1.2426424300890204 0 0 0 0 19.280077498428909 -13.187582673221186 0 -13.187582673221186 10.283233850284887 0 0 0 0 10.971410267833562 -11.769459188821202 0 -11.769459188821202 3.8218887308048579 0 0 0 0 7.3570392012309771 -5.5390512030991994 0 -5.5390512030991994 8.9382597248495301 0 0 0 0 -216.56949250548041 18.965218033161364 0 18.965218033161364 51.853265451063635 0 0 0 0 2.7542600414526532 -3.2014797490119236 0 -3.2014797490119236 0.38884309747663792 0 0 0 0 5.6117665548251718 -1.9607755452048536 0 -1.9607755452048536 11.481573960019972 0 0 0 0 7.6415331421526504 -3.8414696877835368 0 -3.8414696877835368 4.0689646589726465 0 0 0 0 8.565113428943226 1.3793480452448819 0 1.3793480452448819 3.4707771486174543 0 0 0 0 37.899826260102145 -2.6159750739684569 0 -2.6159750739684569 1.1348735528335965 0 0 0 0 1.1548180364378497 1.1756856561479019 0 1.1756856561479019 11.926006156399282 0 0 0 0 10.602098006365395 1.2245287162058958 0 1.2245287162058958 16.17485632766693 0 0 0 0 7.6043250923106598 -1.705167081549007 0 -1.705167081549007 14.931399990142381 0 0 0 0 6.4347350253088962 -0.34522123869692223 0 -0.34522123869692223 14.723746409159503 0 0 0 0 15.234482802439061 -0.85326964340129052 0 -0.85326964340129052 15.674180261677066 0 0 0 0 1.8852228610927924 -0.96053821263349404 0 -0.96053821263349404 11.842361487883139 0 0 0 0 14.70282762988063 -2.6847547827192102 0 -2.6847547827192102 9.4174124634009786 0 0 0 0 1.6499144239860248 1.3289382788216102 0 1.3289382788216102 0.75081267067282198 0 0 0 0 10.22118870884151 9.0013856175428373 0 9.0013856175428373 11.376139203217463 0 0 0 0 3.4428916380356895 1.7874554624868324 0 1.7874554624868324 13.229188025517942 0 0 0 0 15.534901351626559 0.81275401362290722 0 0.81275401362290722 10.595467696221021 0 0 0 0 2.9850758906423667 -3.5996442323507405 0 -3.5996442323507405 10.524770444023979 0 0 0 0 13.000614803030089 -2.9985544737628516 0 -2.9985544737628516 5.9984732097655069 0 0 0 0 4.444523652998364 -3.8541477489480975 0 -3.8541477489480975 8.1979229963295523 0 0 0 0 14.487774589796118 -0.033636711646977346 0 -0.033636711646977346 13.82116681574189 0 0 0 0 1.3188689609512243 0.91157467598118558 0 0.91157467598118558 14.294868250046321 0 0 0 0 9.2201460277027536 1.6032224332057012 0 1.6032224332057012 16.19467460166743 0 0 0 0 6.1065640400906318 -0.65564030769746751 0 -0.65564030769746751 14.834407812120844 0 0 0 0 14.481131866862725 -0.23928583964902828 0 -0.23928583964902828 7.8606269424053608 0 0 0 0 -5.9530620573080428 -3.3141418049477878 0 -3.3141418049477878 5.9561411234760513 0 0 0 0 4.0677203445111445 -18.444031827584695 0 -18.444031827584695 35.213369140607028 0 0 0 0 4.7051442397682877 -5.3560056796559365 0 -5.3560056796559365 29.723268529718553 0 0 0 0 1.0305046653679788 -4.7612033570133958 0 -4.7612033570133958 0.3067377967250593 0 0 0 0 -7.2544076859232405 -0.69090231733298424 0 -0.69090231733298424 7.8042671862931456 0 0 0 0 -1.3669990953438094 -3.7376165822469001 0 -3.7376165822469001 15.728710102739413 0 0 0 0 -0.19112853067743885 -2.1253912797190573 0 -2.1253912797190573 29.53089335307223 0 0 0 0 2.8955706781582125 -0.77418856505587286 0 -0.77418856505587286 12.74564082160353 0 0 0 0 143.98681903789929 67.928283775469026 0 67.928283775469026 -41.536749323622644 0 0 0 0 -48.662262534311594 -90.703980941580085 0 -90.703980941580085 8.5174390779939131 0 0 0 0 1.4610417996602605 0.23415013978971366 0 0.23415013978971366 11.925070133064892 0 0 0 0 16.202095821261082 12.581746282688982 0 12.581746282688982 -0.13557815174863208 0 0 0 0 3.1326161159782666 -0.27345900750364649 0 -0.27345900750364649 4.9015852012341483 0 0 0 0 -0.17123645863276571 -0.68841092566168705 0 -0.68841092566168705 26.952282808019731 0 0 0 0 39.775251990059019 50.910537313657187 0 50.910537313657187 0.72526016513074865 0 0 0 0 -33.584809613013931 24.388542419619625 0 24.388542419619625 43.223787789156631 0 0 0 0 -7.983757814528758 -9.0017559439515935 0 -9.0017559439515935 22.636366789112799 0 0 0 0 -20.510193153537784 -15.02640903243082 0 -15.02640903243082 41.014905192290826 0 0 0 0 -31.884274308120325 2.0168505563160579 0 2.0168505563160579 22.485532207472716 0 0 0 0 -12.384743720390816 -23.921893383621864 0 -23.921893383621864 19.404422290142975 0 0 0 0 -25.695253291089102 -12.460267668619053 0 -12.460267668619053 18.117196910753592 0 0 0 0 -33.185245032424746 -24.977657682848076 0 -24.977657682848076 10.404281445335073 0 0 0 0 -55.305547273292632 8.9055493991654657 0 8.9055493991654657 3.7413084474874267 0 0 0 0 -2.9164006333556358 -136.29590118733904 0 -136.29590118733904 28.930652519473597 0 0 0 0 97.110951558840782 72.676674798860404 0 72.676674798860404 17.846842183676927 0 0 0 0 -27.582253328756792 149.49675074972765 0 149.49675074972765 45.33224645457085 0 0 0 0 -0.33015780595140071 -1.0611598229337469 0 -1.0611598229337469 22.856840197241667 0 0 0 0 -153.09761763840493 69.680922204947819 0 69.680922204947819 99.380807266679767 0 0 0 0 -62.679798075802182 -11.977073111931531 0 -11.977073111931531 29.771117212287209 0 0 0 0 -100.58614736453723 4.9134696671044367 0 4.9134696671044367 46.756458301730163 0 0 0 0 13.393626239158294 -33.612463603945798 0 -33.612463603945798 -0.36879955531304631 0 0 0 0 1.623520573676656 -3.2722685833628864 0 -3.2722685833628864 20.900004218469419 0 0 0 0 80.33656473442602 9.462752575174818 0 9.462752575174818 -4.5480504422412196 0 0 0 0 -2.0751758057001553 -0.94151611625238729 0 -0.94151611625238729 16.084849255013978 0 0 0 0 10.108433485669707 -2.1918470168157 0 -2.1918470168157 20.766235567523836 0 0 0 0 3.2688224070445844 1.0347900514342641 0 1.0347900514342641 11.960781248068933 0 0 0 0 5.7758220000275688 -1.8630672726747086 0 -1.8630672726747086 12.874473740464246 0 0 0 0 1.7541322143726505 4.7628596351235011 0 4.7628596351235011 11.088273102537002 0 0 0 0 6.3739855306231732 -3.4394763005166169 0 -3.4394763005166169 17.115262475816053 0 0 0 0 0.48359161949099416 2.9171636780556582 0 2.9171636780556582 24.019641700130705 0 0 0 0 5.4420102495592317 -1.2812555720770433 0 -1.2812555720770433 18.46963840542594 0 0 0 0 4.5591589316198835 3.8894397879470226 0 3.8894397879470226 15.330973867286083 0 0 0 0 -11.208509977462796 -1.9954151160982292 0 -1.9954151160982292 28.297046843602402 0 0 0 0 0.58395313453004016 -0.21088945013255689 0 -0.21088945013255689 11.257434623571413 0 0 0 0 -3.6914749873176333 -0.80318385990358365 0 -0.80318385990358365 13.903167674150609 0 0 0 0 4.385874706625069 -5.2285280922000084 0 -5.2285280922000084 32.613603890750319 0 0 0 0 5.8357303842794863 -29.159576592852318 0 -29.159576592852318 84.135051741885036 0 0 0 0 18.144962311292829 38.401720159920842 0 38.401720159920842 36.419573988539923 0 0 0 0 -8.9062628251520195 5.5585228326426659 0 5.5585228326426659 31.095222456147894 0 0 0 0 61.457288104770214 44.794373644304869 0 44.794373644304869 106.69175996581544 0 0 0 0 37.171315683510784 -5.1138942465840955 0 -5.1138942465840955 53.384102740383241 0 0 0 0 130.12779105032325 -47.996828570961952 0 -47.996828570961952 51.872754281059315 0 0 0 0 -1.2583879608072071 -1.7419827671157648 0 -1.7419827671157648 12.500035217543228 0 0 0 0 -12.623878465583402 12.236972631517347 0 12.236972631517347 37.568555423426005 0 0 0 0 -2.066367351083727 -0.9790523401406972 0 -0.9790523401406972 15.871804295427864 0 0 0 0 -2.6096336262910169 -13.42954016891229 0 -13.42954016891229 43.371151573605545 0 0 0 0 4.2646226766804389 4.0047548703694558 0 4.0047548703694558 28.683974734555726 0 0 0 0 1.5502368679513936 1.1023966512922136 0 1.1023966512922136 28.658625720249503 0 0 0 0 -16.411859900749732 4.6365069771345588 0 4.6365069771345588 12.775998229470133 0 0 0 0 111.73930515380326 7.7007946726735099 0 7.7007946726735099 26.561251753490069 0 0 0 0 40.467132368971534 5.3269135492355417 0 5.3269135492355417 81.764726447348949 0 0 0 0 1.1616223969426158 -8.8361534143817195 0 -8.8361534143817195 66.190327700065438 0 0 0 0 104.58654519219908 -24.535363164646697 0 -24.535363164646697 66.791697175271111 0 0 0 0 -3.4971918338666192 -1.7432635977204143 0 -1.7432635977204143 18.144016130124328 0 0 0 0 79.727404707685082 4.5205337637271441 0 4.5205337637271441 58.876394440667355 0 0 0 0 40.43157050759487 -34.710183474366204 0 -34.710183474366204 91.151488392846659 0 0 0 0 66.887780694557023 -19.929141410873854 0 -19.929141410873854 13.55766981022316 0 0 0 0 33.273419867438321 -55.546913348005546 0 -55.546913348005546 42.988108494188054 0 0 0 0 -29.796864169087485 -24.441127301319284 0 -24.441127301319284 134.95042424793792 0 0 0 0 47.548421427462472 -6.9298094703140123 0 -6.9298094703140123 95.781480514833675 0 0 0 0 128.46559454178146 240.57614957084502 0 240.57614957084502 91.368531655345578 0 0 0 0 0.56677761959436879 -0.93408220474721215 0 -0.93408220474721215 2.5461064565827307 0 0 0 0 -20.754661336692152 -27.659335059268415 0 -27.659335059268415 109.71594578286749 0 0 0 0 -3.9521216562093286 5.4496503726095398 0 5.4496503726095398 137.8936442004815 0 0 0 0 0.67795676627815737 -10.664464682821745 0 -10.664464682821745 -10.320029689810326 0 0 0 0 9.1449878532068851 -46.886229073116738 0 -46.886229073116738 139.87393644038343 0 0 0 0 -0.24134874029984688 -7.6731633869975591 0 -7.6731633869975591 5.4966719437644116 0 0 0 0 -91.518162343628319 -29.40354560470405 0 -29.40354560470405 457.28260667514041 0 0 0 0 -269.47674055893174 222.45351171426955 0 222.45351171426955 101.62805087090419 0 0 0 0 0.88628615479831296 7.7826336741190971 0 7.7826336741190971 68.163567331966988 0 0 0 0 6.0083489849197651 -6.7840524698576949 0 -6.7840524698576949 10.411623991679633 0 0 0 0 209.90281482507504 -149.51603409718791 0 -149.51603409718791 -61.041628420325196 0 0 0 0 -0.13914809365780334 -10.672570406471358 0 -10.672570406471358 43.597517201073828 0 0 0 0 0.93187847788718781 -7.9197725637840666 0 -7.9197725637840666 36.03304520622342 0 0 0 0 -13.674627678500883 -10.408602744202653 0 -10.408602744202653 24.609857509320136 0 0 0 0 -0.68968026359193813 -8.0267312305837422 0 -8.0267312305837422 55.298478338669383 0 0 0 0 4.6262178775873508 5.5744282214218401 0 5.5744282214218401 60.769632164134237 0 0 0 0 24.850713947585064 -62.383038918284001 0 -62.383038918284001 37.888511701479729 0 0 0 0 88.157357341272473 -72.497819688927848 0 -72.497819688927848 38.696597282716539 0 0 0 0 1.0782067683310288 -37.321769341199797 0 -37.321769341199797 51.147787366353441 0 0 0 0 76.658016498404322 10.070874200071557 0 10.070874200071557 71.238209868060949 0 0 0 0 23.050101020539387 -45.118456353840884 0 -45.118456353840884 31.839904284912336 0 0 0 0 52.33829910426266 -50.547689965154859 0 -50.547689965154859 32.45289725883049 0 0 0 0 33.969307427462581 -72.621418521972373 0 -72.621418521972373 42.452406953962054 0 0 0 0 0.81405746188397643 -71.708510726228269 0 -71.708510726228269 45.600964158584247 0 0 0 0 -32.409337758801826 4.693647757787403 0 4.693647757787403 9.3771992230085743 0 0 0 0 72.955664320374353 -59.57825999443412 0 -59.57825999443412 -18.699839452230663 0 0 0 0 -45.917422718851867 -6.7487090884023928 0 -6.7487090884023928 -17.43614052546036 0 0 0 0 -34.370284799700357 25.575023379584309 0 25.575023379584309 45.636254411379923 0 0 0 0 -31.288417806631514 -31.252476035846485 0 -31.252476035846485 39.854936382369488 0 0 0 0 -0.34805054157897675 -1.8181428886120123 0 -1.8181428886120123 16.013638191934561 0 0 0 0 -142.2281315662126 -36.921265375109442 0 -36.921265375109442 94.92881905395916 0 0 0 0 -88.922211034734914 6.4816155526348211 0 6.4816155526348211 59.089195196953369 0 0 0 0 -7.8850090635050378 -7.5648340647958321 0 -7.5648340647958321 61.975974044883515 0 0 0 0 -4.3498702521141581 -5.1460213518857927 0 -5.1460213518857927 63.09636954909729 0 0 0 0 -6.0085822124459156 0.15561874662023456 0 0.15561874662023456 54.539116948222727 0 0 0 0 -0.7504571124808308 -2.5882798609577549 0 -2.5882798609577549 55.851171524368965 0 0 0 0 -4.0538805438509371 -4.8671088631945167 0 -4.8671088631945167 48.310449413981587 0 0 0 0 1.117951719301459 4.9746059168023748 0 4.9746059168023748 40.008577454751503 0 0 0 0 -3.561937462121449 13.626824021959237 0 13.626824021959237 45.757867052868278 0 0 0 0 1.0917865669186995 2.1314251039498231 0 2.1314251039498231 29.845135072061566 0 0 0 0 -4.6962231283042684 15.695833702209711 0 15.695833702209711 77.24585080248653 0 0 0 0 4.3940732175152011 -6.4286499060377125 0 -6.4286499060377125 3.8661874612099041 0 0 0 0 -7.0429565767914823 41.584636701824365 0 41.584636701824365 -10.958242986263485 0 0 0 0 -79.965656061544252 71.725152734084531 0 71.725152734084531 224.85274678284077 0 0 0 0 316.98701570882452 -238.56654005762539 0 -238.56654005762539 12.960446069177124 0 0 0 0 -5.874802680743187 -42.558639629778554 0 -42.558639629778554 97.911045202155037 0 0 0 0 50.900700567643653 -125.95707545635855 0 -125.95707545635855 193.29555020472071 0 0 0 0 104.45333113736382 -49.579908877421076 0 -49.579908877421076 25.429164604331163 0 0 0 0 -13.046767531516593 -20.330555604162328 0 -20.330555604162328 69.521013452569605 0 0 0 0 -7.5921417297830658 -12.300107793963434 0 -12.300107793963434 80.982086542441152 0 0 0 0 3.9558580888858614 -25.850197406774669 0 -25.850197406774669 71.308327122971605 0 0 0 0 21.561490350936651 -30.177679760604406 0 -30.177679760604406 43.506966255410589 0 0 0 0 -0.0071279669852799543 -16.357189383991454 0 -16.357189383991454 55.107271734163078 0 0 0 0 6.7183818588457029 9.6190186689427719 0 9.6190186689427719 25.838271105191779 0 0 0 0 49.90668609964132 7.7820020643866883 0 7.7820020643866883 -2.3168341693976799 0 0 0 0 65.216648023928116 -56.811983239564142 0 -56.811983239564142 49.033838567110251 0 0 0 0 19.847119080616544 -22.361633960968334 0 -22.361633960968334 27.792651428793761 0 0 0 0 3.0117518125733795 13.385833572261618 0 13.385833572261618 23.399645932416433 0 0 0 0 11.942539755002628 -18.504247981284152 0 -18.504247981284152 34.946550855851456 0 0 0 0 0.30291571479479695 5.5835406269626304 0 5.5835406269626304 8.4581895369917213 0 0 0 0 17.452613391420925 -18.086499290510801 0 -18.086499290510801 29.078394815627689 0 0 0 0 -0.78912285972808149 -16.547862813774373 0 -16.547862813774373 55.168820681275974 0 0 0 0 10.190380120302734 -11.634185191104052 0 -11.634185191104052 47.561797252368706 0 0 0 0 15.3430141369588 -15.819863129668192 0 -15.819863129668192 41.248830225843676 0 0 0 0 0.15250025001614059 2.2724685163726743 0 2.2724685163726743 0.26827591060701295 0 0 0 0 8.1514685132192426 -23.722722812575739 0 -23.722722812575739 41.791318032006529 0 0 0 0 20.00601143622805 -20.201434104280906 0 -20.201434104280906 41.318938022805924 0 0 0 0 -0.080625450977549917 -20.637062050838551 0 -20.637062050838551 48.143593083192172 0 0 0 0 -1.4406310244149836 -15.277693500345777 0 -15.277693500345777 62.685661553169439 0 0 0 0 2.5481119776892456 -14.200270310173892 0 -14.200270310173892 53.758104325705062 0 0 0 0 5.9405338304831048 -4.3376430756534319 0 -4.3376430756534319 51.454017471559382 0 0 0 0 7.6276410424895857 0.82112235158547264 0 0.82112235158547264 42.525187968244609 0 0 0 0 31.561361241434895 -0.96137149636683716 0 -0.96137149636683716 38.772967726623392 0 0 0 0 46.015373880382754 -35.801995646354499 0 -35.801995646354499 34.848121123281089 0 0 0 0 -11.481301780715853 -23.246111987243239 0 -23.246111987243239 44.915721734760155 0 0 0 0 -6.297260031589806 -8.1448999373962181 0 -8.1448999373962181 16.733917017085332 0 0 0 0 -5.3857586900140326 15.924830244975041 0 15.924830244975041 62.038586782605307 0 0 0 0 38.002809712015846 37.014406185359121 0 37.014406185359121 36.706953254583368 0 0 0 0 3.8589332050323151 1.5956908892894717 0 1.5956908892894717 16.305312530340416 0 0 0 0 5.2635376087001475 -2.0350751278090229 0 -2.0350751278090229 19.668376490861192 0 0 0 0 -0.13404740992638153 0.60016815631001919 0 0.60016815631001919 17.193195127543731 0 0 0 0 -0.3606023303137087 -0.63792855587417208 0 -0.63792855587417208 1.9051652455477601 0 0 0 0 -8.1289750277199602 -6.1735009219714811 0 -6.1735009219714811 14.858515020814139 0 0 0 0 -0.41232842590084717 0.49761049043069916 0 0.49761049043069916 13.252935776685057 0 0 0 0 6.7909862585004035 0.91191259168681427 0 0.91191259168681427 11.776309109882277 0 0 0 0 5.8602525655357454 2.1950481346921151 0 2.1950481346921151 13.170370605615972 0 0 0 0 3.1649840629109462 1.0746685224817156 0 1.0746685224817156 12.787967450838551 0 0 0 0 -0.80217506951737505 13.828215485116743 0 13.828215485116743 21.57148474958467 0 0 0 0 0.43591082474456344 0.48373843823441054 0 0.48373843823441054 11.029202700512393 0 0 0 0 -9.4241604680083668 6.019764141638916 0 6.019764141638916 20.014634636125265 0 0 0 0 5.3085819702721437 8.5284668856511416 0 8.5284668856511416 14.516749670855461 0 0 0 0 2.3558001760576919 8.2944583865514456 0 8.2944583865514456 7.5208219104278609 0 0 0 0 5.6204133055938854 9.0582158174199776 0 9.0582158174199776 14.888194172654039 0 0 0 0 3.2125863479917598 8.5363187408711383 0 8.5363187408711383 14.775739852682818 0 0 0 0 2.1980637278249371 4.8684207794397159 0 4.8684207794397159 12.317122760703199 0 0 0 0 0.92278851619153102 8.9120106884311099 0 8.9120106884311099 26.530535409059667 0 0 0 0 7.7312802863801835 13.672301825699833 0 13.672301825699833 6.7665794986314722 0 0 0 0 -1.054197888539635 0.48351404184330349 0 0.48351404184330349 2.2670212662999329 0 0 0 0 4.0591645358830046 4.7269048822287445 0 4.7269048822287445 3.0013876483035826 0 0 0 0 17.886471912725028 7.5027295542386128 0 7.5027295542386128 -13.133358947721717 0 0 0 0 2.2901944306897803 3.5216357384524599 0 3.5216357384524599 7.0677584036802727 0 0 0 0 2.5392348483935789 2.3178516541279421 0 2.3178516541279421 5.1925483120059024 0 0 0 0 3.6405074925112615 2.4181167658545064 0 2.4181167658545064 7.3491499319225113 0 0 0 0 96.666127917505037 8.9184223135766842 0 8.9184223135766842 -13.490822570556702 0 0 0 0 0.35818463730664618 -0.58387699292488637 0 -0.58387699292488637 0.70344943262338688 0 0 0 0 86.116017209932807 14.46077137644761 0 14.46077137644761 -14.404282150841027 0 0 0 0 2.9369145230193681 10.870387406588634 0 10.870387406588634 19.656093575233172 0 0 0 0 5.804969013894862 8.6563970708932629 0 8.6563970708932629 14.397501287703562 0 0 0 0 0.92392650519010555 -0.25625260674158401 0 -0.25625260674158401 3.5903241608729424 0 0 0 0 11.829164329296816 16.151534542304034 0 16.151534542304034 16.46245846687134 0 0 0 0 3.5602926648334119 -17.956373268688367 0 -17.956373268688367 28.869720391355258 0 0 0 0 53.378658121949911 -9.1355230260687676 0 -9.1355230260687676 13.691174052171846 0 0 0 0 71.748414262012034 172.55965604892822 0 172.55965604892822 476.68170711154926 0 0 0 0 0.80599620920965576 0.33576111890112692 0 0.33576111890112692 2.771198775316142 0 0 0 0 30.951387427500869 28.188481817710169 0 28.188481817710169 301.0547419241484 0 0 0 0 1.9911032954343768 -4.286422436583587 0 -4.286422436583587 13.667743519316048 0 0 0 0 35.357372581339185 130.86445152821176 0 130.86445152821176 435.20427028646009 0 0 0 0 -12.226893049767114 186.65474055948562 0 186.65474055948562 843.74954781772158 0 0 0 0 150.77742589865545 252.62407142583231 0 252.62407142583231 277.22717733853642 0 0 0 0 126.57942300696266 355.1378437244241 0 355.1378437244241 549.30184860070585 0 0 0 0 -13.089756699113195 170.4873668880573 0 170.4873668880573 646.62706091154541 0 0 0 0 3.1749476751655266 136.03406619901943 0 136.03406619901943 570.2572053461663 0 0 0 0 -5.5875415600805241 51.017591049117755 0 51.017591049117755 577.91087180293107 0 0 0 0 -37.523623093544757 153.23922243689049 0 153.23922243689049 692.95503477457623 0 0 0 0 14.268965048371228 112.10029390873024 0 112.10029390873024 715.09970615627935 0 0 0 0 55.443551615614069 -79.57976050621437 0 -79.57976050621437 680.36352582015479 0 0 0 0 126.94668039912347 -66.534453325840332 0 -66.534453325840332 553.7075774195946 0 0 0 0 -0.78762049205670337 83.6663433190879 0 83.6663433190879 760.82200372074294 0 0 0 0 -7.3654410749034014 18.833795014625139 0 18.833795014625139 606.76908130090305 0 0 0 0 27.455129737605034 19.049695337049798 0 19.049695337049798 493.34258433050854 0 0 0 0 -22.263141465271929 114.8541695741178 0 114.8541695741178 861.49436645471314 0 0 0 0 46.906871872899728 16.366847168672848 0 16.366847168672848 763.60569835496972 0 0 0 0 15.406036910567906 83.701565352970704 0 83.701565352970704 1242.1993327849013 0 0 0 0 365.85660176372949 -5.8975742714801527 0 -5.8975742714801527 762.15837946093711 0 0 0 0 131.75500978962918 302.51906030724922 0 302.51906030724922 1093.4441261686625 0 0 0 0 11.324477044659943 129.19087012913769 0 129.19087012913769 866.94730689765674 0 0 0 0 45.443985708719538 -8.0617881193757057 0 -8.0617881193757057 579.63952873650123 0 0 0 0 -137.88649853471452 -197.67186523607779 0 -197.67186523607779 1256.0538862037843 0 0 0 0 46.603496255381287 -96.290085948310661 0 -96.290085948310661 518.04913407987624 0 0 0 0 160.21518422605277 -82.116580745042484 0 -82.116580745042484 -8.3096054191082658 0 0 0 0 33.167068050011608 -258.49366325606888 0 -258.49366325606888 264.40781004139535 0 0 0 0 1.5954353328562654 -2.1222951244896127 0 -2.1222951244896127 4.4677451327192763 0 0 0 0 344.87771259870965 635.04040505764897 0 635.04040505764897 940.85055923346636 0 0 0 0 23.457974748159359 74.213429485322195 0 74.213429485322195 -13.462886062943653 0 0 0 0 2.0828051187547683 1.2916529367371639 0 1.2916529367371639 -0.53707644465790594 0 0 0 0 -66.303863340552425 5.9130804119013192 0 5.9130804119013192 33.623713916200359 0 0 0 0 66.812914191477176 39.259499367267154 0 39.259499367267154 -9.4044526450452395 0 0 0 0 -9.7780977793313468 4.5678635940621461 0 4.5678635940621461 23.528192296710586 0 0 0 0 -28.581397896162343 81.750001459942723 0 81.750001459942723 -4.5020797471715923 0 0 0 0 -65.275351943823267 44.287587023282299 0 44.287587023282299 -4.5687696842760488 0 0 0 0 101.59788639268208 -11.183976656679079 0 -11.183976656679079 -63.417053541539644 0 0 0 0 89.930859976331021 77.292734302875033 0 77.292734302875033 45.633250002323621 0 0 0 0 72.891095044924441 133.83225875247444 0 133.83225875247444 19.48494504356313 0 0 0 0 -2.1653166374890134 -18.261719736393388 0 -18.261719736393388 -44.628563346410374 0 0 0 0 25.624369584645592 -10.110741633664475 0 -10.110741633664475 16.865328684325505 0 0 0 0 16.961371560757811 -12.540281570173647 0 -12.540281570173647 16.337519449290994 0 0 0 0 0.72281289348705036 -0.33408132511715394 0 -0.33408132511715394 -0.49741338141374314 0 0 0 0 20.484344961746046 -4.1867474346454401 0 -4.1867474346454401 14.323866008091045 0 0 0 0 19.29978363690816 -5.8767392914123775 0 -5.8767392914123775 18.548244213405269 0 0 0 0 45.815901874369672 -14.582816854105431 0 -14.582816854105431 686.77495068708231 0 0 0 0 9.9953173513392812 -77.116862746030165 0 -77.116862746030165 91.836256995657095 0 0 0 0 0.99458699290091168 1.6406440744003206 0 1.6406440744003206 0.48745603246767621 0 0 0 0 2.0060995304813787 -0.32827704110309242 0 -0.32827704110309242 9.9223176559680724 0 0 0 0 -3.3347068450170809 -5.3022245245210797 0 -5.3022245245210797 11.527359115854779 0 0 0 0 0.3888709180365133 -1.2980925635001874 0 -1.2980925635001874 3.2379397553697018 0 0 0 0 2.2412773042706249 -2.3849010769627057 0 -2.3849010769627057 6.0824350643260914 0 0 0 0 9.7481549054327843 0.073080740512523334 0 0.073080740512523334 15.29486234437627 0 0 0 0 3.4038370324151401 4.1384721134545543 0 4.1384721134545543 18.905227151469717 0 0 0 0 4.0530389415243917 -6.6456962801648842 0 -6.6456962801648842 14.645571996074068 0 0 0 0 6.3732670937934017 -2.1540764061901427 0 -2.1540764061901427 30.345489125314998 0 0 0 0 2.1547720041170813 2.9985380027590409 0 2.9985380027590409 0.31375423235780109 0 0 0 0 36.985368839949842 96.934246195070045 0 96.934246195070045 563.07159376813161 0 0 0 0 1.5207144233357894 3.9036872220219649 0 3.9036872220219649 1.0250360289668921 0 0 0 0 -1.6754153777155807 3.0660682536627064 0 3.0660682536627064 16.626222244813107 0 0 0 0 110.72095111825365 112.59867795433001 0 112.59867795433001 383.4129799880011 0 0 0 0 26.098076953526288 110.71838939780719 0 110.71838939780719 761.67539595655853 0 0 0 0 -83.150075103100789 36.762496244010435 0 36.762496244010435 762.96414916045433 0 0 0 0 -65.744988339278734 55.355632470044839 0 55.355632470044839 967.93249123860369 0 0 0 0 -3.7930509445468488 49.390970165271938 0 49.390970165271938 966.6539673609052 0 0 0 0 -74.751935783674526 0.88463132288825364 0 0.88463132288825364 1181.2799507253694 0 0 0 0 -29.878876157954437 108.03549839466814 0 108.03549839466814 863.77171886434644 0 0 0 0 10.177083294989643 135.06572344760934 0 135.06572344760934 855.57724533591681 0 0 0 0 62.702825306813793 117.95479826336941 0 117.95479826336941 791.17868644218174 0 0 0 0 -51.737437860690989 21.347275999259182 0 21.347275999259182 774.22237051252159 0 0 0 0 -26.885694147068989 140.55588307567996 0 140.55588307567996 885.08432030859694 0 0 0 0 15.297449150897592 97.993960306784174 0 97.993960306784174 904.05347713559195 0 0 0 0 -7.4417118793764985 133.81395464454317 0 133.81395464454317 873.79811787176186 0 0 0 0 -94.017525620075958 -68.51045083573581 0 -68.51045083573581 724.20740638620555 0 0 0 0 167.79865663434248 126.77633841079478 0 126.77633841079478 866.88904875217759 0 0 0 0 -29.002160871071737 99.285172389496438 0 99.285172389496438 1053.0764465962784 0 0 0 0 -60.447311964369874 -241.90137075166149 0 -241.90137075166149 778.92071619550734 0 0 0 0 152.58206254584366 -45.233658718084143 0 -45.233658718084143 78.2931232893161 0 0 0 0 2.6795306311933018 3.6893019741505668 0 3.6893019741505668 587.7752314256204 0 0 0 0 90.328591770300363 -105.54818028096201 0 -105.54818028096201 184.78245306621284 0 0 0 0 -30.32231563131063 -106.27750011740136 0 -106.27750011740136 1138.8124297797185 0 0 0 0 -6.938910276561046 32.967323974216583 0 32.967323974216583 972.40281337120359 0 0 0 0 61.573397143088187 -88.512486139421753 0 -88.512486139421753 1154.906180586735 0 0 0 0 11.795126620359042 115.63929833609473 0 115.63929833609473 1280.8160237736602 0 0 0 0 -2.6631233193905963 23.093735408083745 0 23.093735408083745 14.236158517487517 0 0 0 0 374.90470925212139 240.66853001334675 0 240.66853001334675 -437.15619962235724 0 0 0 0 4.0538483307489379 1.9788907080163991 0 1.9788907080163991 11.288990488400641 0 0 0 0 -15.307093663088381 71.390687345166953 0 71.390687345166953 49.758366702971216 0 0 0 0 20.603773694981975 19.305079602501372 0 19.305079602501372 10.207482441808249 0 0 0 0 -19.327579232356545 6.471830549042167 0 6.471830549042167 9.7248662624690354 0 0 0 0 -65.268317376615869 49.502149218447812 0 49.502149218447812 213.76511805554946 0 0 0 0 -15.662978980434218 -284.63723243400636 0 -284.63723243400636 -7.142725053250615 0 0 0 0 -154.77999423744018 65.13033766941362 0 65.13033766941362 17.684348549617425 0 0 0 0 210.52979911265265 -426.14564510700711 0 -426.14564510700711 468.6224730180229 0 0 0 0 -186.63932925834592 -73.347861599590942 0 -73.347861599590942 1138.2531952166955 0 0 0 0 -2.3102872301961082 23.834774228131817 0 23.834774228131817 14.006370055011837 0 0 0 0 237.67860799910011 401.2079067198697 0 401.2079067198697 -156.74520266533 0 0 0 0 -243.41096222555291 -9.794251371133214 0 -9.794251371133214 338.80243088038333 0 0 0 0 -266.20609940142413 -141.96276197458246 0 -141.96276197458246 -68.676959718230137 0 0 0 0 737.4162138195361 324.360646836456 0 324.360646836456 147.94171491443376 0 0 0 0 -263.07208076698521 219.3484482394897 0 219.3484482394897 1076.0515749212991 0 0 0 0 -211.7945310739849 -60.093354834566526 0 -60.093354834566526 287.21292534121403 0 0 0 0 -9.8272702502513951 23.163830824646922 0 23.163830824646922 13.925547986671521 0 0 0 0 27.058146819606918 -4.2981244526263254 0 -4.2981244526263254 241.33182904641717 0 0 0 0 -105.49262048325352 6.3434893701551118 0 6.3434893701551118 166.06382210520678 0 0 0 0 6.6051680083460269 -69.702264923381335 0 -69.702264923381335 209.3048152976844 0 0 0 0 13.867355568367202 -52.768728324156655 0 -52.768728324156655 105.87263150673789 0 0 0 0 21.100472657246542 -36.914161729579519 0 -36.914161729579519 82.996436373601682 0 0 0 0 -30.400234078439933 -36.42619614180137 0 -36.42619614180137 30.983179215578275 0 0 0 0 -0.96672665183473183 -12.981784357452762 0 -12.981784357452762 45.871373702654139 0 0 0 0 -3.0673237386288554 2.6281078935308102 0 2.6281078935308102 3.8360015412288675 0 0 0 0 216.60607384000218 -285.11226363664855 0 -285.11226363664855 322.02402493726549 0 0 0 0 -40.17010479476761 112.42461668430371 0 112.42461668430371 493.58600879296137 0 0 0 0 229.65574732830873 -153.19248008867726 0 -153.19248008867726 63.977462423855286 0 0 0 0 43.089192586807485 -237.94350493399816 0 -237.94350493399816 704.22521365284047 0 0 0 0 -18.414162402414828 17.239384255998626 0 17.239384255998626 18.868753858730315 0 0 0 0 77.860535323762178 91.777289131158795 0 91.777289131158795 97.4729846971386 0 0 0 0 -18.909174857542894 -136.74509678159484 0 -136.74509678159484 352.62829802223405 0 0 0 0 -48.294201781193351 -84.858276957546877 0 -84.858276957546877 498.81409147044542 0 0 0 0 85.589875633645988 -182.97291197156028 0 -182.97291197156028 497.86262822620586 0 0 0 0 249.62027343191244 -154.03915618952891 0 -154.03915618952891 782.66386659381533 0 0 0 0 31.29486397277833 -229.40861249764839 0 -229.40861249764839 665.06849802657553 0 0 0 0 266.55267278978545 -250.37835831488428 0 -250.37835831488428 487.35762134788638 0 0 0 0 94.867607214239342 -164.80482280228534 0 -164.80482280228534 445.21593204528563 0 0 0 0 77.817449615095938 -129.38114357269478 0 -129.38114357269478 421.28065931407946 0 0 0 0 77.025493225930404 -158.16606481778172 0 -158.16606481778172 456.52375868506533 0 0 0 0 6.429060401744664 -152.45732267597759 0 -152.45732267597759 524.76662233958814 0 0 0 0 88.814537957846653 -79.355149297817547 0 -79.355149297817547 568.32012056066196 0 0 0 0 -34.343395740901087 -33.594532898308898 0 -33.594532898308898 633.3581656766595 0 0 0 0 140.19229037936339 3.0593968354114622 0 3.0593968354114622 629.39257367087157 0 0 0 0 -15.749854131646742 -123.46514540484645 0 -123.46514540484645 455.51015381769139 0 0 0 0 -81.818336310160021 -65.568122262749966 0 -65.568122262749966 447.97406273035085 0 0 0 0 66.763063244847672 -104.10565104961597 0 -104.10565104961597 440.03539876124523 0 0 0 0 -93.868889180090264 25.797159563982859 0 25.797159563982859 116.9566132287855 0 0 0 0 -31.637816202980716 12.669626285912663 0 12.669626285912663 14.277521560332325 0 0 0 0 -18.125854445964933 15.69813398187307 0 15.69813398187307 50.831798560240713 0 0 0 0 -8.3697963095884731 -10.779198310600869 0 -10.779198310600869 63.799064171404652 0 0 0 0 -9.2609477248820653 4.6139491997071929 0 4.6139491997071929 -2.6437637317598046 0 0 0 0 -208.78652995739503 301.41042982166255 0 301.41042982166255 -175.44964807023644 0 0 0 0 -4.8211214105076579 106.49886859117578 0 106.49886859117578 -32.846047646427905 0 0 0 0 -447.60964193648397 269.69000061837687 0 269.69000061837687 233.63463074696665 0 0 0 0 -180.61070580479691 -68.822345246212535 0 -68.822345246212535 371.40382801957094 0 0 0 0 -187.51510470169069 -8.0522777596397646 0 -8.0522777596397646 146.72471845823748 0 0 0 0 -142.97332363114674 7.2731013881439139 0 7.2731013881439139 52.251228289478604 0 0 0 0 -137.79862342610159 -15.056021126358246 0 -15.056021126358246 95.130223511299846 0 0 0 0 -1.3988229202789713 -14.352931680549659 0 -14.352931680549659 52.264792390693017 0 0 0 0 -137.97018021173244 -37.648358363994703 0 -37.648358363994703 60.998411501248484 0 0 0 0 -62.777194437658181 -76.165929732171207 0 -76.165929732171207 70.137913700415083 0 0 0 0 -38.555428736526324 -62.179794316639914 0 -62.179794316639914 8.2227715456028818 0 0 0 0 -3.3726067747544799 -14.422315735096735 0 -14.422315735096735 39.888142271536793 0 0 0 0 1.209668063860164 -3.9424067081135519 0 -3.9424067081135519 10.132193368320777 0 0 0 0 -7.7994052170324721 -16.353789832095572 0 -16.353789832095572 48.339315550507308 0 0 0 0 38.304072137960929 -142.57344822339292 0 -142.57344822339292 -0.73659213127393741 0 0 0 0 44.127352461505325 -119.91406697562525 0 -119.91406697562525 -9.1010678554957849 0 0 0 0 -65.551715648456593 -87.477688126691646 0 -87.477688126691646 26.893899796759797 0 0 0 0 -47.56762859491846 -125.28583566142515 0 -125.28583566142515 66.887000501465081 0 0 0 0 -99.993775348231793 -108.74187663553948 0 -108.74187663553948 181.74687793479097 0 0 0 0 -11.041723799395868 -223.70188807833301 0 -223.70188807833301 192.81787632659325 0 0 0 0 116.2471931970349 -169.62085222741734 0 -169.62085222741734 -43.385053664795123 0 0 0 0 36.556764989011469 -86.720594731217716 0 -86.720594731217716 -35.696406593553547 0 0 0 0 505.40490433693776 -228.80811728106346 0 -228.80811728106346 -8.1873797384814679 0 0 0 0 19.365236098512469 -148.17823194114862 0 -148.17823194114862 7.1686260554961336 0 0 0 0 10.723348510939218 -104.60617068108968 0 -104.60617068108968 -47.988657107649487 0 0 0 0 -11.592392039296101 -93.936699954755568 0 -93.936699954755568 6.8732190695227473 0 0 0 0 37.524583285576227 -140.44372318244859 0 -140.44372318244859 -6.1206260086546536 0 0 0 0 -176.69503220472461 -70.52372963884045 0 -70.52372963884045 -35.787803287414135 0 0 0 0 -112.2512285697826 -106.60107755832723 0 -106.60107755832723 -13.290079520436848 0 0 0 0 -129.52396572531359 -73.822061621103785 0 -73.822061621103785 -71.809412970746052 0 0 0 0 -277.5970860749303 -169.53578348735755 0 -169.53578348735755 -114.98861974972533 0 0 0 0 -160.71208764892003 -96.996014976066363 0 -96.996014976066363 5.1595936513185734 0 0 0 0 -111.58198682307307 -65.459515319853381 0 -65.459515319853381 -31.15263131003303 0 0 0 0 -71.666995891925126 -105.45356042727508 0 -105.45356042727508 -10.177242578312871 0 0 0 0 -57.346756372228356 -84.09339541564259 0 -84.09339541564259 -3.8031969494331861 0 0 0 0 -22.116098887515363 -129.6174978220115 0 -129.6174978220115 -16.710968831890568 0 0 0 0 -75.907051464081178 -98.566196810723341 0 -98.566196810723341 -4.4884125213720836 0 0 0 0 -92.344218055623969 -125.78597022523536 0 -125.78597022523536 -44.199602282053092 0 0 0 0 -97.314692109390762 -113.11260780267912 0 -113.11260780267912 -57.760186617204454 0 0 0 0 -240.28649030533415 -82.199116328527452 0 -82.199116328527452 17.477970559149981 0 0 0 0 -174.05997320952065 -274.94416856194039 0 -274.94416856194039 -62.180648538747846 0 0 0 0 8.0535195942097122 -15.178693268687663 0 -15.178693268687663 23.137954244607009 0 0 0 0 -107.12778032985025 -117.45566286761687 0 -117.45566286761687 -16.81127929098875 0 0 0 0 -59.358498788443057 -80.16547362228448 0 -80.16547362228448 0.14048690402705688 0 0 0 0 -105.61043414447931 -126.54132539727107 0 -126.54132539727107 -12.102439798205523 0 0 0 0 -45.036468369320573 -259.54949846870113 0 -259.54949846870113 903.90289652277897 0 0 0 0 2.8948651735269855 -5.289083017174101 0 -5.289083017174101 9.3356010304963419 0 0 0 0 693.74083977114924 -347.89599988418558 0 -347.89599988418558 65.169160969107907 0 0 0 0 -379.05591548259667 -78.55129876016963 0 -78.55129876016963 810.22510822549157 0 0 0 0 -269.19555072806543 -198.81380613709189 0 -198.81380613709189 191.30521070205077 0 0 0 0 -150.71005922330278 -432.97657823357622 0 -432.97657823357622 384.79864547375473 0 0 0 0 -665.62434252718003 457.25066331919152 0 457.25066331919152 104.89341926381167 0 0 0 0 -1095.1337615568818 -410.57415867538839 0 -410.57415867538839 1397.4937338490145 0 0 0 0 460.63683448195115 -744.69557672004339 0 -744.69557672004339 543.59217035903566 0 0 0 0 -325.06167386513835 860.53172140184506 0 860.53172140184506 171.07265349527734 0 0 0 0 815.37805526113289 288.15419578129695 0 288.15419578129695 -679.95027244198354 0 0 0 0 -510.42922001211264 -149.59549743837488 0 -149.59549743837488 22.971641853817346 0 0 0 0 112.45042373945307 300.02402099559549 0 300.02402099559549 340.98030016271878 0 0 0 0 579.95154227548755 -305.31359163436332 0 -305.31359163436332 754.01563856169014 0 0 0 0 134.42959683786876 157.17899749781827 0 157.17899749781827 1033.4317409084742 0 0 0 0 344.66531042822862 133.96272975983538 0 133.96272975983538 861.47801301152322 0 0 0 0 390.5663328376022 392.63945944094939 0 392.63945944094939 1534.0437669296716 0 0 0 0 340.43185470359276 -60.784712951368419 0 -60.784712951368419 970.54426262344714 0 0 0 0 337.5643595390145 76.820291032597652 0 76.820291032597652 89.441951960920051 0 0 0 0 -51.445531166240471 102.72366012940984 0 102.72366012940984 945.51864714018302 0 0 0 0 0.84220170206414835 -1.2934048165905221 0 -1.2934048165905221 2.6763038336248073 0 0 0 0 129.45793075680558 -297.011476591666 0 -297.011476591666 695.37397449943546 0 0 0 0 -94.804252629058112 142.72869651613337 0 142.72869651613337 1005.6177228971574 0 0 0 0 -11.034736699841233 -292.13319069208592 0 -292.13319069208592 -117.46660840131392 0 0 0 0 77.595946359527716 63.539123768500758 0 63.539123768500758 -106.03220089298338 0 0 0 0 212.76489897657302 -140.22494068661945 0 -140.22494068661945 -178.19443211683028 0 0 0 0 121.42508899454333 25.699896802693274 0 25.699896802693274 -20.495855211265734 0 0 0 0 38.294207751939211 -50.774038983871833 0 -50.774038983871833 -141.04541067636819 0 0 0 0 -78.18135825522495 -82.748987001568821 0 -82.748987001568821 -142.99052081700574 0 0 0 0 20.317154837882541 -18.902763196852675 0 -18.902763196852675 10.858274749217951 0 0 0 0 -1.9310463193237832 -2.3677015957165679 0 -2.3677015957165679 3.4443567704518401 0 0 0 0 -119.75032048008933 -109.65908888448433 0 -109.65908888448433 -91.850206000457547 0 0 0 0 4.6834617524563171 -9.8561741579804689 0 -9.8561741579804689 -1.6564884429107565 0 0 0 0 29.449298442310464 -9.3143653060105862 0 -9.3143653060105862 -234.71350734531734 0 0 0 0 -25.1683178275307 -121.47741414661868 0 -121.47741414661868 -157.58034928233974 0 0 0 0 -89.299597752822592 73.583646361081264 0 73.583646361081264 -10.497119388845022 0 0 0 0 91.54888530473545 -1.0761113429198303 0 -1.0761113429198303 -198.69475111574684 0 0 0 0 136.77100920385965 35.032612740116747 0 35.032612740116747 -10.275011369496497 0 0 0 0 115.91855301939972 156.97593743695006 0 156.97593743695006 53.399628791528812 0 0 0 0 9.7476367249000759 -4.8548459727626323 0 -4.8548459727626323 75.386840153596495 0 0 0 0 35.198880620248019 -84.265596300358084 0 -84.265596300358084 140.98432728898661 0 0 0 0 65.220565775929572 -9.4635870334113861 0 -9.4635870334113861 7.7050476276695008 0 0 0 0 26.282275962986205 -3.0822804536710464 0 -3.0822804536710464 -135.16893536194402 0 0 0 0 -0.074013554988596297 34.51460137226195 0 34.51460137226195 54.142593865191884 0 0 0 0 3.7987128183192276 -3.5267784539809028 0 -3.5267784539809028 3.7151855566798346 0 0 0 0 88.557433270685578 171.45541053852139 0 171.45541053852139 96.06206809089781 0 0 0 0 3.1019536072847131 -3.1116952310966788 0 -3.1116952310966788 3.8046700890278089 0 0 0 0 -15.48219837418219 -39.12635401825537 0 -39.12635401825537 110.77720997530196 0 0 0 0 77.745702149379213 33.227577290563204 0 33.227577290563204 135.52373197702127 0 0 0 0 107.99861415455416 57.149151177643944 0 57.149151177643944 -67.634407057819772 0 0 0 0 61.747766694612437 -16.479660436223639 0 -16.479660436223639 12.798256881269481 0 0 0 0 168.78157647806074 82.514995736561104 0 82.514995736561104 62.957230417123355 0 0 0 0 64.693468764568024 -10.703561372487457 0 -10.703561372487457 10.811052999564708 0 0 0 0 8.0536743882039445 -67.904929372158222 0 -67.904929372158222 -43.935774236862926 0 0 0 0 108.01682782972057 7.6374621860359184 0 7.6374621860359184 -85.116723841107159 0 0 0 0 -8.2404161027152441 -3.5898457144576241 0 -3.5898457144576241 -11.275767674480448 0 0 0 0 4.3144931028097471 -2.3178145402168706 0 -2.3178145402168706 2.467711052835682 0 0 0 0 24.365688591089565 -0.91436491353670135 0 -0.91436491353670135 -10.729668088741164 0 0 0 0 48.727542977024996 58.585402708095671 0 58.585402708095671 18.558157525891147 0 0 0 0 -0.019700516655575484 -12.70909397075593 0 -12.70909397075593 -3.9865562442573719 0 0 0 0 3.2082009949628194 -1.9660331526740293 0 -1.9660331526740293 1.0471392612344772 0 0 0 0 1.9033046412933281 -1.8173584910954155 0 -1.8173584910954155 2.0241416949121742 0 0 0 0 3.5526969726124662 -15.346200804091495 0 -15.346200804091495 -13.531497402946115 0 0 0 0 22.640202636337563 23.568404252491746 0 23.568404252491746 -1.58048319860427 0 0 0 0 -18.45035786146218 0.80451229681966652 0 0.80451229681966652 33.064282043989806 0 0 0 0 -0.69034332369153617 -0.99671307501037987 0 -0.99671307501037987 6.8888406421395416 0 0 0 0 0.13149004904661155 0.40320181782866626 0 0.40320181782866626 1.6967874822528879 0 0 0 0 24.845610870566816 6.7295770629480103 0 6.7295770629480103 -23.415800524119732 0 0 0 0 0.10017449389509281 0.93989223498808006 0 0.93989223498808006 1.5100035078080296 0 0 0 0 -4.7455527451738817 177.11141001490341 0 177.11141001490341 743.48931876451206 0 0 0 0 75.011199767846847 213.18651894004506 0 213.18651894004506 748.20051705706624 0 0 0 0 -90.761941436840516 107.30457199927832 0 107.30457199927832 1081.3299595240715 0 0 0 0 222.38897663585703 405.71878830187779 0 405.71878830187779 517.57608187839833 0 0 0 0 -47.58695214875479 60.439980515746356 0 60.439980515746356 954.95289178217899 0 0 0 0 134.67079817499871 -153.5207340534489 0 -153.5207340534489 1493.9727945938353 0 0 0 0 61.155023250890508 392.85870933716001 0 392.85870933716001 1271.254718215394 0 0 0 0 33.593033032891981 2.7426703489509237 0 2.7426703489509237 1071.0822818016227 0 0 0 0 -62.42702347196655 52.459222926069742 0 52.459222926069742 1393.8333466157219 0 0 0 0 12.052477855757399 11.143143119314704 0 11.143143119314704 7.109949891344705 0 0 0 0 -30.076725556355836 -237.04744744619543 0 -237.04744744619543 1604.1207253396424 0 0 0 0 -158.94382719867463 160.57503090519458 0 160.57503090519458 -82.060059614539568 0 0 0 0 -169.57186532387141 172.44659645776983 0 172.44659645776983 214.51313613374077 0 0 0 0 -1.1951607510363829 11.133223771197663 0 11.133223771197663 48.694882042436802 0 0 0 0 -171.54418304190995 48.139437936153627 0 48.139437936153627 595.16912838108692 0 0 0 0 -106.61610246947362 -20.258140487256242 0 -20.258140487256242 432.55769377775505 0 0 0 0 84.953967353647386 125.31025519956347 0 125.31025519956347 536.91995527773724 0 0 0 0 -15.137080136452676 -0.8140904302391192 0 -0.8140904302391192 5.0554141733965139 0 0 0 0 -307.7061086228623 11.602743135318633 0 11.602743135318633 196.81564152604915 0 0 0 0 -233.1341120012703 -52.853743602594477 0 -52.853743602594477 51.095138188487908 0 0 0 0 -306.53266596263711 -20.539824298295571 0 -20.539824298295571 37.892642616154717 0 0 0 0 -554.97220079189992 -809.31467277021511 0 -809.31467277021511 -277.74404370031789 0 0 0 0 46.99316335833646 482.55408961740432 0 482.55408961740432 1081.4613160251356 0 0 0 0 -266.96395712478807 251.67367755455052 0 251.67367755455052 1883.0792500203752 0 0 0 0 -6.216724972835685 -0.84042647640772827 0 -0.84042647640772827 3.8579280426914835 0 0 0 0 -895.14864413155919 -424.08272384747397 0 -424.08272384747397 957.96887934247934 0 0 0 0 -487.71552061446755 57.529775110780975 0 57.529775110780975 640.23184333341851 0 0 0 0 -225.68941313679079 238.8791083169408 0 238.8791083169408 471.86809042132154 0 0 0 0 -34.181814101962857 350.52110533297798 0 350.52110533297798 256.91230544813152 0 0 0 0 -1.9103860711888387 610.36887377993014 0 610.36887377993014 716.32617341748846 0 0 0 0 -101.18162070170001 -168.59282892192641 0 -168.59282892192641 2730.345566121403 0 0 0 0 3.9228594123307765 3.4120110860083841 0 3.4120110860083841 3.234038006082173 0 0 0 0 -37.932484153535825 360.56088672618989 0 360.56088672618989 -398.00746844672358 0 0 0 0 79.37200905102236 703.17922205120249 0 703.17922205120249 571.31151048829361 0 0 0 0 -41.16332452761344 676.47974787395106 0 676.47974787395106 944.65331184963725 0 0 0 0 150.49857611860807 646.93991090992313 0 646.93991090992313 505.60997386071551 0 0 0 0 130.94531370578397 662.90421346814946 0 662.90421346814946 668.85203377505968 0 0 0 0 173.53054724257117 414.06216727085848 0 414.06216727085848 526.83945039415994 0 0 0 0 489.33953148803948 487.13396079298582 0 487.13396079298582 774.28744701135565 0 0 0 0 -81.134344719062256 587.06609785178989 0 587.06609785178989 826.49590235673168 0 0 0 0 191.81285783250416 727.96750428976429 0 727.96750428976429 1140.5781301233983 0 0 0 0 -255.4776391661253 102.18304586618433 0 102.18304586618433 1003.8214389292898 0 0 0 0 148.27988479773285 570.1020478384562 0 570.1020478384562 614.48965588201463 0 0 0 0 -193.68759743428507 315.38539037870123 0 315.38539037870123 1696.2639153936143 0 0 0 0 18.799480565194699 136.41241100442858 0 136.41241100442858 1185.7450512532596 0 0 0 0 119.38469219654326 -60.859525625082824 0 -60.859525625082824 390.8344259061414 0 0 0 0 276.99345045421524 -663.7428954481893 0 -663.7428954481893 984.63001440426888 0 0 0 0 2.9926144374161536 -5.8651619583664072 0 -5.8651619583664072 9.4818391324329028 0 0 0 0 182.53855709216293 -326.89843256629729 0 -326.89843256629729 59.190432154780865 0 0 0 0 215.85817934805908 167.8500205204009 0 167.8500205204009 1719.9622351352009 0 0 0 0 -202.32477100349024 386.22752986034902 0 386.22752986034902 2057.5451718708318 0 0 0 0 -165.40532026096855 547.39206340863939 0 547.39206340863939 2332.7397826424494 0 0 0 0 -200.59275321315238 372.48573854917049 0 372.48573854917049 2063.309835164695 0 0 0 0 -180.27388973620384 748.98154583781798 0 748.98154583781798 980.96070796429558 0 0 0 0 237.81649210217597 322.28781911276383 0 322.28781911276383 1249.7228659693064 0 0 0 0 381.90330790900725 303.38618986038637 0 303.38618986038637 910.56711900525261 0 0 0 0 124.87128254462709 46.82289511502313 0 46.82289511502313 914.30709674560057 0 0 0 0 357.18690474932657 135.52787928893167 0 135.52787928893167 765.24086374072067 0 0 0 0 537.03509947832526 708.61645709494042 0 708.61645709494042 1128.596887653759 0 0 0 0 355.31531895967623 -194.72651568553192 0 -194.72651568553192 2164.2715571848312 0 0 0 0 174.42780330763708 666.67913535160187 0 666.67913535160187 1810.3499949325196 0 0 0 0 1927.7087252677625 525.23391008164617 0 525.23391008164617 1696.8371879548613 0 0 0 0 786.79673193067629 1606.2697996071329 0 1606.2697996071329 2126.2484176159996 0 0 0 0 1.0522356025726536 2.2263875347240898 0 2.2263875347240898 18.779439429509978 0 0 0 0 796.81836687233272 1217.1038471289921 0 1217.1038471289921 1573.8139927559096 0 0 0 0 199.80861393271493 -626.38192851206804 0 -626.38192851206804 1353.9287079155329 0 0 0 0 78.540014819925545 61.845428165630437 0 61.845428165630437 3286.2006411730617 0 0 0 0 -123.21219687519783 177.18963485037602 0 177.18963485037602 16.871537509434802 0 0 0 0 316.51367381326929 79.877581984163044 0 79.877581984163044 21.364899942615011 0 0 0 0 362.43814421070135 617.24031566826125 0 617.24031566826125 618.76806525339271 0 0 0 0 -76.940722890287788 210.07174679857417 0 210.07174679857417 273.35481503505616 0 0 0 0 314.75130137887061 207.65122514556788 0 207.65122514556788 226.03260819386924 0 0 0 0 25.72843227061685 -115.53952748595339 0 -115.53952748595339 -51.623669491480541 0 0 0 0 -142.83012599117001 79.070336071243219 0 79.070336071243219 289.81645633310291 0 0 0 0 -6.8484813849013273 5.4920312958689692 0 5.4920312958689692 48.34544905659429 0 0 0 0 -122.3677819782406 -59.715535045867 0 -59.715535045867 145.20880710233905 0 0 0 0 -35.862938703184682 12.411809627788898 0 12.411809627788898 48.26638477970846 0 0 0 0 -38.412320597440612 100.0595667990674 0 100.0595667990674 24.684124740205789 0 0 0 0 -4.4484186169494233 -1.1142327044266978 0 -1.1142327044266978 6.6959941460976609 0 0 0 0 -9.633909604211226 -131.48679226665263 0 -131.48679226665263 -6.5681689435400585 0 0 0 0 -258.52140228210544 9.5838641429313611 0 9.5838641429313611 64.157817579740367 0 0 0 0 -24.025907789642588 33.304768506313849 0 33.304768506313849 4.4244038367796747 0 0 0 0 -180.86979774564429 39.022349397148901 0 39.022349397148901 200.44522181680804 0 0 0 0 -89.718202227590893 80.207290074766206 0 80.207290074766206 35.197185675564469 0 0 0 0 6.3861724394369048 61.601645986418589 0 61.601645986418589 43.316157608996946 0 0 0 0 -50.709652346624722 32.259605459190425 0 32.259605459190425 88.573023160686716 0 0 0 0 1.8770239867043628 10.738684060582026 0 10.738684060582026 34.25776092225199 0 0 0 0 163.80473477773739 23.388243466642962 0 23.388243466642962 -21.316638167609199 0 0 0 0 -25.519693422572459 36.511771872362715 0 36.511771872362715 51.81086989583855 0 0 0 0 46.447710601483095 43.152849059502842 0 43.152849059502842 48.714589467737824 0 0 0 0 -14.108585312207168 -3.3916544154219821 0 -3.3916544154219821 9.2605699584653394 0 0 0 0 60.321669272257623 25.95158242342859 0 25.95158242342859 52.78708767434 0 0 0 0 11.160124796328375 19.007931055324661 0 19.007931055324661 85.635788028579555 0 0 0 0 0.11709342462854722 5.2710987416650585 0 5.2710987416650585 37.405966861497575 0 0 0 0 -26.091850079425967 29.043737621948821 0 29.043737621948821 87.001459805767809 0 0 0 0 12.808235563728886 11.115153337399533 0 11.115153337399533 53.57023362943437 0 0 0 0 -6.2220142407543335 -3.6528702851646813 0 -3.6528702851646813 11.871645008126507 0 0 0 0 -9.0697038411748778 -3.8426235545077603 0 -3.8426235545077603 29.770607813752108 0 0 0 0 1.9832952515489859 -3.8518924179400642 0 -3.8518924179400642 27.639748187717444 0 0 0 0 -90.946744756979399 -298.63767611915591 0 -298.63767611915591 154.21503635527915 0 0 0 0 118.74847374653496 -618.67362281041551 0 -618.67362281041551 -50.354343691724353 0 0 0 0 -325.34999374514905 106.20076564866395 0 106.20076564866395 -544.12993030108555 0 0 0 0 8.7427354195644362 -12.600671246670039 0 -12.600671246670039 15.253043342302085 0 0 0 0 650.99213724782373 -137.62457454227842 0 -137.62457454227842 -376.21669280064089 0 0 0 0 147.40001482601951 191.85865663607547 0 191.85865663607547 1006.6959796422598 0 0 0 0 -17.448219067089667 99.202876144030597 0 99.202876144030597 -13.882519365164626 0 0 0 0 -140.66765689996282 9.1627734295179835 0 9.1627734295179835 52.555465055774221 0 0 0 0 -86.39936715708393 -2.6379483379605517 0 -2.6379483379605517 86.195014630016885 0 0 0 0 -61.494305005822639 -50.976493783841761 0 -50.976493783841761 178.34102673076995 0 0 0 0 10.239989106244593 -110.30887603253996 0 -110.30887603253996 -42.09832782009471 0 0 0 0 -8.959677017447035 -4.903721107021525 0 -4.903721107021525 1.910875423234085 0 0 0 0 252.13919146659964 -182.55560187394349 0 -182.55560187394349 250.83726984537861 0 0 0 0 -85.978238740044617 -46.571918343452126 0 -46.571918343452126 -184.04356297215418 0 0 0 0 -115.4697676237663 -30.666980707920629 0 -30.666980707920629 132.14758395504032 0 0 0 0 -113.50476867333919 -160.44104453364162 0 -160.44104453364162 209.36933747398598 0 0 0 0 78.241509354605171 -60.733711828256673 0 -60.733711828256673 257.42356725193895 0 0 0 0 -1.8547353005224003 -0.17801408119667173 0 -0.17801408119667173 0.39530903781598425 0 0 0 0 -19.428164133336168 -314.75670129437458 0 -314.75670129437458 552.62226309393373 0 0 0 0 -364.18422264871737 472.55920666118618 0 472.55920666118618 -335.99008654724821 0 0 0 0 -142.03696377580383 63.48604413812609 0 63.48604413812609 -208.4637831004593 0 0 0 0 -48.742446067286437 -154.32198138669992 0 -154.32198138669992 410.13875241967799 0 0 0 0 -6.8614464291155857 0.041410422163096428 0 0.041410422163096428 2.6777369059494092 0 0 0 0 1.9854268940280235 -51.268782164404911 0 -51.268782164404911 241.19075438045911 0 0 0 0 -30.791261721169576 39.979718757382216 0 39.979718757382216 224.49007030650318 0 0 0 0 -62.868263948584172 48.471320657694378 0 48.471320657694378 222.42685087281279 0 0 0 0 -85.217843202349968 70.096950174021913 0 70.096950174021913 250.2331793132762 0 0 0 0 -72.850826419946316 -3.5747828099283652 0 -3.5747828099283652 212.8847885748437 0 0 0 0 -139.36055728330712 -0.008110331689749728 0 -0.008110331689749728 296.508495566688 0 0 0 0 -175.15565121495183 -35.583057203643875 0 -35.583057203643875 49.519781787712418 0 0 0 0 -247.83123297961356 -112.4371707568971 0 -112.4371707568971 164.98739463947641 0 0 0 0 -3.3170622734916808 -2.4944192976784123 0 -2.4944192976784123 1.9921300564909181 0 0 0 0 -992.13386562618689 -621.57919090731593 0 -621.57919090731593 1867.5282097733871 0 0 0 0 -114.22686591103775 -384.20290714792645 0 -384.20290714792645 -482.19512048172146 0 0 0 0 -492.84319857921037 -452.57649705050426 0 -452.57649705050426 179.13331449996622 0 0 0 0 -490.20515346318246 -184.14178623104408 0 -184.14178623104408 803.29143953988387 0 0 0 0 -54.502589063607957 62.497194766852772 0 62.497194766852772 334.91125988326712 0 0 0 0 -247.32942808121584 13.537348457168264 0 13.537348457168264 341.82634656278606 0 0 0 0 -67.891279032218335 50.39969402585848 0 50.39969402585848 232.70250183423377 0 0 0 0 -69.559490020828775 48.933298271694639 0 48.933298271694639 309.80244616993878 0 0 0 0 -40.39024787337803 81.867288103399915 0 81.867288103399915 333.64091914567689 0 0 0 0 -21.028491436672994 -51.623279099550928 0 -51.623279099550928 475.09397061926575 0 0 0 0 -112.108548232864 61.07456177187305 0 61.07456177187305 639.43244532491372 0 0 0 0 -108.60235598134113 108.65482616253939 0 108.65482616253939 588.12279373202114 0 0 0 0 -107.29235996700163 83.374088685093739 0 83.374088685093739 496.26044936624385 0 0 0 0 -5.4909548361288216 114.54865497030733 0 114.54865497030733 336.28506229164122 0 0 0 0 -32.791826465059785 114.81955037268563 0 114.81955037268563 336.32597911756966 0 0 0 0 -47.941843604184214 51.711698922518963 0 51.711698922518963 496.15445177900983 0 0 0 0 76.469525994641117 130.76047881413251 0 130.76047881413251 179.68199770011779 0 0 0 0 22.679042006083819 50.640577037991534 0 50.640577037991534 164.62037299186341 0 0 0 0 37.576056841802256 58.456019528854085 0 58.456019528854085 137.99467048419319 0 0 0 0 -22.437676730659405 94.704994960578915 0 94.704994960578915 255.27300631307662 0 0 0 0 -0.003416297218791442 76.241047425111901 0 76.241047425111901 221.92486456363258 0 0 0 0 -41.114564768137825 74.997921297548601 0 74.997921297548601 243.66951924917157 0 0 0 0 -12.609737279521141 63.380335572986951 0 63.380335572986951 193.15257279408252 0 0 0 0 -8.2765921034915664 75.999342302598961 0 75.999342302598961 221.95417065353877 0 0 0 0 9.8445120476008015 28.970947932351919 0 28.970947932351919 114.72761568938222 0 0 0 0 -32.893796547388774 29.980846940943593 0 29.980846940943593 180.32777136220193 0 0 0 0 14.788246710556905 -0.22566939301486855 0 -0.22566939301486855 79.152141805861902 0 0 0 0 -1.0513487016132785 29.810781908618083 0 29.810781908618083 140.05464803873338 0 0 0 0 -0.015047626566229155 4.981858144637954 0 4.981858144637954 58.986308286021085 0 0 0 0 -14.417681865203349 -33.007904749425506 0 -33.007904749425506 46.363316542934626 0 0 0 0 -12.774057237105808 -10.901990898237273 0 -10.901990898237273 101.96334290142477 0 0 0 0 7.2467125014816247 -2.5348816978275863 0 -2.5348816978275863 65.566798305218981 0 0 0 0 -9.9974807028171995 -7.5330881822492302 0 -7.5330881822492302 67.828656255296664 0 0 0 0 -15.386156746448105 -4.3905723391513831 0 -4.3905723391513831 9.5567422065530607 0 0 0 0 -155.72458818418875 90.121866685320128 0 90.121866685320128 32.387027655373913 0 0 0 0 -15.707518484173193 -38.12453268345098 0 -38.12453268345098 30.842789049944258 0 0 0 0 -5.5743922335421008 -17.956008023662886 0 -17.956008023662886 38.753107189039653 0 0 0 0 -0.80991619180895214 -156.48473398996794 0 -156.48473398996794 62.468178915019962 0 0 0 0 -17.508548921417514 -11.508031740238948 0 -11.508031740238948 46.537773843398099 0 0 0 0 -236.34702208104864 291.96978270428372 0 291.96978270428372 286.87547699245988 0 0 0 0 -17.238489571819262 6.1269730029281924 0 6.1269730029281924 31.69228868920171 0 0 0 0 -0.70346022900096894 -3.1479937922134447 0 -3.1479937922134447 20.106844059207489 0 0 0 0 -9.4435156994877332 86.484691673826092 0 86.484691673826092 1228.1081554388984 0 0 0 0 -137.42768720734338 223.50814641963552 0 223.50814641963552 1224.2617708983162 0 0 0 0 130.3760696670623 1169.5868756065911 0 1169.5868756065911 2497.0419583090552 0 0 0 0 303.59345025140129 -253.98794212973098 0 -253.98794212973098 53.356301529438497 0 0 0 0 1.7211615074529958 -1.672190750046731 0 -1.672190750046731 6.404982153043548 0 0 0 0 -0.11648675890417776 -8.0585219223497333 0 -8.0585219223497333 15.564409394879831 0 0 0 0 -392.08147056057874 -56.440403214141043 0 -56.440403214141043 68.07002337925951 0 0 0 0 -15.795942095696844 3.3830597743933595 0 3.3830597743933595 166.17541987154254 0 0 0 0 -302.62972117812706 147.71394484535995 0 147.71394484535995 407.56134682176344 0 0 0 0 -202.62395019469599 206.89926922754694 0 206.89926922754694 2491.2060947223199 0 0 0 0 93.456210932140863 -585.08275314250568 0 -585.08275314250568 -214.5541187906274 0 0 0 0 2.4700239088251656 -3.8151974434644842 0 -3.8151974434644842 6.1739486167475803 0 0 0 0 221.21786897446333 -1138.1263864809775 0 -1138.1263864809775 1727.6854348989509 0 0 0 0 -97.350795391109983 207.51813933513404 0 207.51813933513404 266.49599045151626 0 0 0 0 11.361937157781142 245.79814859757789 0 245.79814859757789 40.157698209673981 0 0 0 0 -160.32023903089885 110.1571471232819 0 110.1571471232819 -23.730651689140359 0 0 0 0 -17.621058613675359 -13.09952113777581 0 -13.09952113777581 151.52501237027172 0 0 0 0 -23.244447281214775 -20.995588890955787 0 -20.995588890955787 205.60242336666488 0 0 0 0 -117.36542918234466 240.78773370336785 0 240.78773370336785 -162.03553294358608 0 0 0 0 -10.860121238620282 -0.51255866926032922 0 -0.51255866926032922 2.4577156979125903 0 0 0 0 142.1354543360294 -930.14126553062852 0 -930.14126553062852 2497.093106705252 0 0 0 0 -229.14611348775449 -590.6128582944184 0 -590.6128582944184 2362.1844250368067 0 0 0 0 -214.3416324374715 295.24432042945955 0 295.24432042945955 -250.82439721303672 0 0 0 0 -116.56452373157879 57.256965652265919 0 57.256965652265919 -131.72199465650192 0 0 0 0 -90.741678709448109 -51.344930468442726 0 -51.344930468442726 15.975498880474333 0 0 0 0 0.00082374982689181753 8.469122671350874 0 8.469122671350874 18.570921132691183 0 0 0 0 -125.60056859536869 135.14687586642867 0 135.14687586642867 -16.544487893010228 0 0 0 0 -25.282232577586612 117.51158785474945 0 117.51158785474945 -13.573511100519227 0 0 0 0 674.24579926279034 -1376.2502192931988 0 -1376.2502192931988 1852.9006703397899 0 0 0 0 -0.63076264984337194 2.321534078522518 0 2.321534078522518 8.7539006012808613 0 0 0 0 -240.97603758365273 -354.29711792134276 0 -354.29711792134276 1776.6895489848903 0 0 0 0 6.934674106256125 -262.80995894159423 0 -262.80995894159423 599.73292825152748 0 0 0 0 -315.02633330430967 -319.00790003173097 0 -319.00790003173097 1779.3804370689272 0 0 0 0 66.17287278828347 -491.32358579224092 0 -491.32358579224092 1438.3237295214158 0 0 0 0 -74.539313782735917 205.71217842728947 0 205.71217842728947 -25.974241792657267 0 0 0 0 3.0934729941846077 13.056151342594482 0 13.056151342594482 26.145049995067282 0 0 0 0 1.9150005752641657 3.5286284366803464 0 3.5286284366803464 -2.5239289975205565 0 0 0 0 21.621729949960468 92.602158082074311 0 92.602158082074311 552.32440762881743 0 0 0 0 117.31514892880078 -336.26681264011768 0 -336.26681264011768 15.817009730425525 0 0 0 0 126.62067743966364 -389.05774791076152 0 -389.05774791076152 -116.30543230943567 0 0 0 0 7.7830089972156884 -504.86344018237082 0 -504.86344018237082 418.86209410245374 0 0 0 0 659.00882172532101 -246.97974785102815 0 -246.97974785102815 -0.76654395771765849 0 0 0 0 488.05611093541052 -90.504997414836907 0 -90.504997414836907 102.92499550322509 0 0 0 0 202.91749250452392 -216.36717485975305 0 -216.36717485975305 29.307885423389621 0 0 0 0 -236.05173227002669 -137.3212493655185 0 -137.3212493655185 41.675495570415706 0 0 0 0 76.858815186173686 -26.916561098032503 0 -26.916561098032503 -18.415015667874059 0 0 0 0 553.11202079603163 -90.970795945854661 0 -90.970795945854661 -13.87058730370336 0 0 0 0 272.19361681368673 -32.068723376942216 0 -32.068723376942216 36.346000139403259 0 0 0 0 2.9363811618310303 -9.8752542255447331 0 -9.8752542255447331 24.596186221596739 0 0 0 0 177.42271114579808 -79.758266299511888 0 -79.758266299511888 42.872864888680851 0 0 0 0 -48.454739718372736 -62.458567716947385 0 -62.458567716947385 13.383321162984885 0 0 0 0 3.9301017804145197 -13.522961417153576 0 -13.522961417153576 34.903771997071587 0 0 0 0 145.651320589835 -58.931033657970147 0 -58.931033657970147 29.288314723115036 0 0 0 0 102.84693269679067 -206.22115918440136 0 -206.22115918440136 33.287518867786275 0 0 0 0 -69.651327479982243 -180.67585719033104 0 -180.67585719033104 123.55161107181539 0 0 0 0 310.96419250647415 -201.97884428925818 0 -201.97884428925818 29.204348828418006 0 0 0 0 -64.401331165719554 -234.3059711995902 0 -234.3059711995902 366.02761630607392 0 0 0 0 -327.53485611017732 -494.11063452267899 0 -494.11063452267899 860.69767716689194 0 0 0 0 -157.57337020003661 -356.25518695919072 0 -356.25518695919072 207.95174282655171 0 0 0 0 -75.381966745677801 -549.40277934708456 0 -549.40277934708456 160.0419624433016 0 0 0 0 -226.91759187507887 -153.96958154152071 0 -153.96958154152071 -19.659012982509012 0 0 0 0 -273.7702912136242 -467.69408603343618 0 -467.69408603343618 181.49719484641309 0 0 0 0 -123.67050684730657 139.10457151573883 0 139.10457151573883 532.68372664193157 0 0 0 0 36.77050820698787 451.0565314461146 0 451.0565314461146 1082.2771511049546 0 0 0 0 635.7198768339822 607.93964275596591 0 607.93964275596591 506.55629818351372 0 0 0 0 1.399047347626249 -3.859845951232642 0 -3.859845951232642 13.322339078434894 0 0 0 0 1.0237283671141286 -8.1610367811448974 0 -8.1610367811448974 36.552970926136297 0 0 0 0 -13.552401351381377 185.24815235349888 0 185.24815235349888 533.37139857276998 0 0 0 0 55.841625358035344 89.335302508015957 0 89.335302508015957 246.37563160701575 0 0 0 0 200.5048041482296 188.99406351828475 0 188.99406351828475 192.08290337526705 0 0 0 0 64.677153861209263 43.002918564758147 0 43.002918564758147 112.09631028885633 0 0 0 0 45.510869633741095 -16.136758705772081 0 -16.136758705772081 52.731710647272848 0 0 0 0 109.0272157274876 121.97360186863261 0 121.97360186863261 140.0939526730981 0 0 0 0 -648.84953009766241 -411.62813166226533 0 -411.62813166226533 183.72483040596308 0 0 0 0 94.519122031894767 51.196921858148926 0 51.196921858148926 -43.087145313378642 0 0 0 0 503.95281942194561 -200.41969834720749 0 -200.41969834720749 -89.617730664685951 0 0 0 0 -115.12616713277657 -371.45354138924085 0 -371.45354138924085 398.88641351464139 0 0 0 0 -647.44444702024339 71.784824625676265 0 71.784824625676265 285.35728681483124 0 0 0 0 -4.1298045702578747 6.3032005807217502 0 6.3032005807217502 84.700382833834738 0 0 0 0 -12.891031020031733 -27.602501013883739 0 -27.602501013883739 93.498205226882419 0 0 0 0 -627.79707445388999 94.676906408610876 0 94.676906408610876 71.695385963455919 0 0 0 0 -0.24972154298804838 -13.329497512205553 0 -13.329497512205553 48.171017029195745 0 0 0 0 1.4553248699812684 -3.4546657154842251 0 -3.4546657154842251 101.19473775504594 0 0 0 0 496.18562294219737 562.60171420196639 0 562.60171420196639 192.9207015151901 0 0 0 0 -332.90572484854783 166.79073920217979 0 166.79073920217979 483.96658260877757 0 0 0 0 -3.9457912119139733 1.6063696277505697 0 1.6063696277505697 0.43092390691411353 0 0 0 0 -801.03792981242896 -1035.4307459509562 0 -1035.4307459509562 -726.42908780944163 0 0 0 0 -939.77727223956788 -734.02344347355711 0 -734.02344347355711 144.5961349239742 0 0 0 0 -349.61109437483049 -109.12820947539194 0 -109.12820947539194 112.40762278639727 0 0 0 0 -517.2947510145367 145.40534651652126 0 145.40534651652126 307.15880246775941 0 0 0 0 -255.90665598705846 -121.28075682295002 0 -121.28075682295002 578.63940432256368 0 0 0 0 -708.60969652640892 -378.95444298468794 0 -378.95444298468794 278.5090088271445 0 0 0 0 -893.18356463400232 -132.28411494057127 0 -132.28411494057127 -42.95710719853605 0 0 0 0 -462.31146058193076 46.602700842367085 0 46.602700842367085 619.10190205516301 0 0 0 0 -497.20179355684718 149.18804694174469 0 149.18804694174469 467.02190381267565 0 0 0 0 -681.55583469856265 -221.53572746178884 0 -221.53572746178884 332.11966259429028 0 0 0 0 -428.97566144557618 158.83143151311197 0 158.83143151311197 555.16412988532829 0 0 0 0 -343.04475926536338 527.97235657582132 0 527.97235657582132 1082.2287796194623 0 0 0 0 -435.1040015028583 404.36155602140866 0 404.36155602140866 1113.4512683429248 0 0 0 0 128.00934617673101 -30.211399432718281 0 -30.211399432718281 -246.52177202508756 0 0 0 0 -1.8268172809197978 -14.581706070462531 0 -14.581706070462531 39.876529216434591 0 0 0 0 7.7836481868216651 9.7796069693886238 0 9.7796069693886238 67.960908721161104 0 0 0 0 -4.4480480894090491 3.6982905889626183 0 3.6982905889626183 7.5642214655117286 0 0 0 0 -237.23460727644124 610.20009697429759 0 610.20009697429759 289.38638637984741 0 0 0 0 -13.334251196399082 4.7603301002651817 0 4.7603301002651817 5.5865486995696827 0 0 0 0 -949.12744798184349 -733.30104434891973 0 -733.30104434891973 -79.32202739143122 0 0 0 0 -394.32541330144636 -228.79773782199982 0 -228.79773782199982 -286.63570723282828 0 0 0 0 -509.67800086867265 24.483601114689918 0 24.483601114689918 150.15813821303618 0 0 0 0 -395.94728070569045 209.15689968108381 0 209.15689968108381 438.23773053806372 0 0 0 0 -531.92984915055683 -67.431450764203873 0 -67.431450764203873 346.181591638393 0 0 0 0 0.10983857599259128 -3.2674322060232401 0 -3.2674322060232401 1.1045516834616578 0 0 0 0 -18.661474079194477 9.0296220280642192 0 9.0296220280642192 12.64750512843246 0 0 0 0 62.251302979560023 -12.613650278537534 0 -12.613650278537534 -39.574518111536236 0 0 0 0 -122.69678244722263 -47.625349800801359 0 -47.625349800801359 298.30996091668203 0 0 0 0 -534.26755232461392 -117.58671786545256 0 -117.58671786545256 100.98790506704427 0 0 0 0 18.455853938200562 -85.080957238747487 0 -85.080957238747487 223.43677134698009 0 0 0 0 -407.37764201280891 93.794068313327443 0 93.794068313327443 -12.136216149388019 0 0 0 0 4.6001112314817494 11.768886243300564 0 11.768886243300564 13.888533555296931 0 0 0 0 102.75368554405429 222.85767519908404 0 222.85767519908404 693.48602589881557 0 0 0 0 -407.38932581413292 75.987451962377236 0 75.987451962377236 70.134502412940492 0 0 0 0 -221.83154847362684 325.89907520560291 0 325.89907520560291 363.44685710421436 0 0 0 0 -277.80316825666165 355.38461291769454 0 355.38461291769454 412.3302630773087 0 0 0 0 -320.61277877802797 663.40837459196609 0 663.40837459196609 2965.6329752068741 0 0 0 0 506.34133759408144 1224.1717694602175 0 1224.1717694602175 3117.0759233190624 0 0 0 0 263.69045541904921 493.4286501216302 0 493.4286501216302 2501.0627274195249 0 0 0 0 128.34514715641433 1381.5261845980222 0 1381.5261845980222 1176.6546065755429 0 0 0 0 -8.939147624430575 -364.99404236495684 0 -364.99404236495684 3503.6048292419873 0 0 0 0 -6.4214799474008828 879.93830193720896 0 879.93830193720896 -393.04492301660503 0 0 0 0 3.7326556394860271 3.7047083956673319 0 3.7047083956673319 4.332804561362039 0 0 0 0 18.999320057570159 -695.33476595063621 0 -695.33476595063621 1514.6529720261242 0 0 0 0 -31.136512189200424 598.38842483406916 0 598.38842483406916 2515.3522119533063 0 0 0 0 -482.21352168411289 631.87997765464763 0 631.87997765464763 1801.920765336843 0 0 0 0 -297.5099396024815 308.12352082691359 0 308.12352082691359 1178.1530101467806 0 0 0 0 -397.46422621536112 515.40457425208933 0 515.40457425208933 1107.7839460196146 0 0 0 0 -121.3504400027789 714.40625473636646 0 714.40625473636646 928.95411062519815 0 0 0 0 -445.61218059549634 705.33253202476908 0 705.33253202476908 1765.2110802286315 0 0 0 0 -653.51815918184377 801.16372788273611 0 801.16372788273611 2499.6698968068422 0 0 0 0 -324.4794167736913 917.94659557917657 0 917.94659557917657 1781.3355855604195 0 0 0 0 -577.20839684315729 555.45472411037827 0 555.45472411037827 1837.0410498808978 0 0 0 0 -556.5568502804191 432.66572502922781 0 432.66572502922781 2499.4449803591506 0 0 0 0 -198.85398655749191 118.34234116016171 0 118.34234116016171 1839.0176580022026 0 0 0 0 -172.34711873268796 214.4208946090821 0 214.4208946090821 1834.2794465290381 0 0 0 0 -299.70979605166372 400.04411660063488 0 400.04411660063488 1671.3941493007728 0 0 0 0 65.458913256619837 12.178198445941689 0 12.178198445941689 1107.4322990778337 0 0 0 0 90.021801887353874 134.69907275436776 0 134.69907275436776 1629.2733050150405 0 0 0 0 477.86889663859313 -689.68972966695458 0 -689.68972966695458 1444.8174684143523 0 0 0 0 -231.97514322341726 108.90145017856503 0 108.90145017856503 1107.7803048514133 0 0 0 0 307.50141229564355 -246.36893825192192 0 -246.36893825192192 324.74982550639561 0 0 0 0 -346.29925361199759 264.40578532033487 0 264.40578532033487 1057.696413064737 0 0 0 0 1.8989381546538082 -4.2060310441861084 0 -4.2060310441861084 9.5176787089575079 0 0 0 0 1561.0873522207173 -487.12846397287444 0 -487.12846397287444 230.28644248353066 0 0 0 0 428.98040317325155 -380.52470637762889 0 -380.52470637762889 1673.1717880534204 0 0 0 0 447.06573852017664 -14.612613942873395 0 -14.612613942873395 1583.8440024104912 0 0 0 0 -28.709485171724367 -624.04769145433295 0 -624.04769145433295 1601.3854165751452 0 0 0 0 -183.24431457959409 -486.86321842916203 0 -486.86321842916203 1759.8862658225978 0 0 0 0 -95.028236986706673 -196.28309879351377 0 -196.28309879351377 2499.6254671727065 0 0 0 0 -252.67397104698591 -813.89615728736965 0 -813.89615728736965 1706.6022511312917 0 0 0 0 -248.83528735794911 -570.26452986503011 0 -570.26452986503011 2499.18716872492 0 0 0 0 -255.6431565485376 -1018.8514364985576 0 -1018.8514364985576 2500.2263098755438 0 0 0 0 -8.8447913365401973 -614.87428013907538 0 -614.87428013907538 1050.5532858146214 0 0 0 0 -82.359484111769916 -676.98516175396048 0 -676.98516175396048 1763.6435838701545 0 0 0 0 57.591432024411418 -1110.6896862121523 0 -1110.6896862121523 1749.1935248565037 0 0 0 0 635.93082538897409 -1775.441671084729 0 -1775.441671084729 2496.9698614304216 0 0 0 0 72.421461566666466 -1200.4387317771245 0 -1200.4387317771245 1624.677993967324 0 0 0 0 -68.725043357135419 -949.44517988462576 0 -949.44517988462576 1626.8490285746343 0 0 0 0 274.64274092582957 -944.18832222708124 0 -944.18832222708124 890.29424754803244 0 0 0 0 382.90395517499815 -548.85157999927287 0 -548.85157999927287 510.23916887938867 0 0 0 0 688.94868477501689 -1316.6284311975548 0 -1316.6284311975548 1162.9669958333475 0 0 0 0 175.50822996318573 -716.04345218108392 0 -716.04345218108392 659.48305562973792 0 0 0 0 208.28500270787987 -796.82347064327541 0 -796.82347064327541 526.1698226380604 0 0 0 0 575.00416584551965 -543.94844831203727 0 -543.94844831203727 374.06082208942098 0 0 0 0 86.941767268612011 11.891510428034195 0 11.891510428034195 -204.95705003344477 0 0 0 0 -202.34086763640153 -17.997856634636264 0 -17.997856634636264 154.87393881595744 0 0 0 0 -255.50194497889242 -217.06914019912892 0 -217.06914019912892 -325.87643522174767 0 0 0 0 374.75432078408198 -545.62161536743315 0 -545.62161536743315 -63.243642158895 0 0 0 0 0.18068321581700264 -2.41760470973554 0 -2.41760470973554 1.4683894493153451 0 0 0 0 -42.94472386023449 -252.08008621748158 0 -252.08008621748158 251.79802567266776 0 0 0 0 102.86831127681481 -734.74778137288274 0 -734.74778137288274 816.02091002820998 0 0 0 0 110.19949759733854 -471.5888793120256 0 -471.5888793120256 463.10774297325236 0 0 0 0 45.628583833077712 -447.86260185808351 0 -447.86260185808351 588.50235400101076 0 0 0 0 -224.64854469974858 -315.92822044941596 0 -315.92822044941596 835.49430095244793 0 0 0 0 -173.50112801679091 -2.3417861551853321 0 -2.3417861551853321 342.05280675496579 0 0 0 0 -230.9984285052102 -162.12599976042731 0 -162.12599976042731 27.025017169264174 0 0 0 0 -0.607452103675301 -6.84545188755878 0 -6.84545188755878 -1.7735517073898739 0 0 0 0 -360.03060122685565 104.37886206406299 0 104.37886206406299 264.15951338769582 0 0 0 0 -15.346642437793548 -283.43705623903986 0 -283.43705623903986 1128.1185758612723 0 0 0 0 -339.29663851748097 41.3251115816539 0 41.3251115816539 145.6452914030051 0 0 0 0 -0.3333351046171345 -1.6886127159872957 0 -1.6886127159872957 2.2809255953416852 0 0 0 0 332.55656582360922 -456.37121673596641 0 -456.37121673596641 786.82632906320737 0 0 0 0 213.80758765614553 31.614643813975334 0 31.614643813975334 -4.2499896401345723 0 0 0 0 89.561013843331338 -31.651940815427906 0 -31.651940815427906 -32.9099260778911 0 0 0 0 -150.43517427498739 -80.828310424132724 0 -80.828310424132724 -20.795949925088507 0 0 0 0 -0.63345709538123218 -2.8478377160703316 0 -2.8478377160703316 3.0958567062210953 0 0 0 0 -181.04165270022975 -76.629664916929869 0 -76.629664916929869 4.5409506354919813 0 0 0 0 -1.0231604797068115 -1.0041635539745903 0 -1.0041635539745903 -0.30423367251634748 0 0 0 0 -439.68406479933901 112.08299958564521 0 112.08299958564521 1.9838607091394493 0 0 0 0 -210.77271976191548 -135.13371966923017 0 -135.13371966923017 -16.975582065172148 0 0 0 0 -111.44650470393799 -121.34035687569803 0 -121.34035687569803 -31.475780820204591 0 0 0 0 -120.5379853238705 -137.60541614132063 0 -137.60541614132063 96.086666799427348 0 0 0 0 -120.81834107019083 -131.20579097911389 0 -131.20579097911389 -41.585736853160142 0 0 0 0 -46.843717737656107 -103.63083505265513 0 -103.63083505265513 -144.51812496371167 0 0 0 0 -0.34091983464789966 -0.35886035496761348 0 -0.35886035496761348 0.23554649930432792 0 0 0 0 -11.099182240875493 -14.879494909641238 0 -14.879494909641238 -8.6401509382612858 0 0 0 0 -11.129849803941624 -8.1126364067722534 0 -8.1126364067722534 -26.763178895410476 0 0 0 0 42.446538888086423 -26.19150714953139 0 -26.19150714953139 8.1985925121825858 0 0 0 0 -0.9817491361458065 -3.5203985912569058 0 -3.5203985912569058 1.3952322577324363 0 0 0 0 13.534414375807756 -43.603778027583758 0 -43.603778027583758 17.079526787608074 0 0 0 0 -141.4599687860902 -68.111777677825387 0 -68.111777677825387 -5.3833757170777972 0 0 0 0 47.370281579809443 -36.790188487713294 0 -36.790188487713294 26.139184103042226 0 0 0 0 35.548252187862317 -46.325871998259345 0 -46.325871998259345 36.389931542935187 0 0 0 0 0.81003637647904947 -9.4692619182280033 0 -9.4692619182280033 11.565179664618746 0 0 0 0 -238.73030157769608 -295.59493408232913 0 -295.59493408232913 -326.02835866841696 0 0 0 0 -2.083379597206191 -3.2713629145988108 0 -3.2713629145988108 3.7036289650458447 0 0 0 0 -244.62499850452741 -173.773016741947 0 -173.773016741947 164.47919094812346 0 0 0 0 -1.3287224262792785 -3.8813046402538047 0 -3.8813046402538047 7.4116853917767047 0 0 0 0 -2.9428298396542232 89.989463790432069 0 89.989463790432069 464.45530798337677 0 0 0 0 566.40009367258699 -385.36119787305961 0 -385.36119787305961 96.950106402397523 0 0 0 0 -4.4425253043950761 -8.3932495053645653 0 -8.3932495053645653 68.132778472802556 0 0 0 0 -10.614356486204635 -7.1121544970625479 0 -7.1121544970625479 1.1583262140514998 0 0 0 0 56.118171584900324 -123.59665728014215 0 -123.59665728014215 109.53355855906784 0 0 0 0 -7.0042281492422749 -3.3527785038428242 0 -3.3527785038428242 -1.5288634699781287 0 0 0 0 75.162153579620309 -56.659860564634528 0 -56.659860564634528 121.18169680573646 0 0 0 0 44.057609508331439 -63.850467473777144 0 -63.850467473777144 42.864255091623136 0 0 0 0 128.14925984509028 -82.345398240665531 0 -82.345398240665531 23.507100814990395 0 0 0 0 73.060840199381346 -42.931929955794317 0 -42.931929955794317 10.930742055543533 0 0 0 0 192.3776952230252 -154.12545543168474 0 -154.12545543168474 31.37697926405599 0 0 0 0 95.494288737428036 -158.51766616014538 0 -158.51766616014538 39.538139533479125 0 0 0 0 158.60704840347358 -149.86727107603917 0 -149.86727107603917 49.48213347932392 0 0 0 0 160.73952899674089 -78.392592885313917 0 -78.392592885313917 24.106062155192603 0 0 0 0 2.2331024900804666 -6.3541952667345694 0 -6.3541952667345694 9.868175256779157 0 0 0 0 166.75446843551356 -79.017808605226946 0 -79.017808605226946 19.82976174341843 0 0 0 0 -225.18556883899123 43.203179203751631 0 43.203179203751631 164.31453059565649 0 0 0 0 -312.62586106880235 -473.65798700243647 0 -473.65798700243647 22.592537884031721 0 0 0 0 -618.92606995195206 -278.73498811430863 0 -278.73498811430863 69.934268689180954 0 0 0 0 -338.61761880169729 129.57922877461365 0 129.57922877461365 66.530611225405892 0 0 0 0 -44.773888370646318 -83.379525204054573 0 -83.379525204054573 151.44200566719542 0 0 0 0 0.69906586080004507 -2.2570098557685259 0 -2.2570098557685259 4.132222759327659 0 0 0 0 -699.7500607174245 -76.622285057299194 0 -76.622285057299194 304.07913390672309 0 0 0 0 707.4423740718338 -182.72711316823046 0 -182.72711316823046 -15.53935851900701 0 0 0 0 463.09032841247188 -212.27093770662862 0 -212.27093770662862 -103.07651164957872 0 0 0 0 -13.190717003426016 -97.011092575797875 0 -97.011092575797875 -128.16030999081954 0 0 0 0 -219.89572852038009 -215.15611800665431 0 -215.15611800665431 306.27487066161575 0 0 0 0 -2.3487544658696859 -25.91465185945383 0 -25.91465185945383 4.6693850581443659 0 0 0 0 -8.6427971148533143 -11.473375125065271 0 -11.473375125065271 26.58903707211666 0 0 0 0 19.036000489350485 -38.659922651378366 0 -38.659922651378366 37.751107885446238 0 0 0 0 -136.38050787601969 -112.71139691892677 0 -112.71139691892677 110.19356236191015 0 0 0 0 -332.67017049584933 6.2494090704646261 0 6.2494090704646261 207.44967714893397 0 0 0 0 14.040747309360313 -20.947508319546841 0 -20.947508319546841 113.65031850731427 0 0 0 0 -84.526827433546714 -106.58891923775082 0 -106.58891923775082 96.879232758204125 0 0 0 0 -36.854472954643398 -50.281497278895387 0 -50.281497278895387 94.567252679962962 0 0 0 0 54.889555691665592 -74.54468161859154 0 -74.54468161859154 35.102180741782746 0 0 0 0 430.94390641054378 -106.97978102680622 0 -106.97978102680622 22.474874324771875 0 0 0 0 40.024935836298425 -60.8188065373472 0 -60.8188065373472 126.96625757080557 0 0 0 0 109.09136891316452 -177.29960295094392 0 -177.29960295094392 170.00215449046732 0 0 0 0 363.47951446031493 -388.90250745620727 0 -388.90250745620727 336.19472698362426 0 0 0 0 -174.41931282013576 -45.566075314407612 0 -45.566075314407612 365.01238703284992 0 0 0 0 55.907857744740539 110.09445371261235 0 110.09445371261235 -129.70424302424351 0 0 0 0 31.057620624966745 -92.108492406131802 0 -92.108492406131802 64.112773313494642 0 0 0 0 -0.52226012845009961 -23.073704816063763 0 -23.073704816063763 -2.3444573476102324 0 0 0 0 -67.344968990283633 -84.75940761156744 0 -84.75940761156744 -9.678148187606439 0 0 0 0 -3.9667267354043663 -4.3676878712561784 0 -4.3676878712561784 35.174146622847452 0 0 0 0 85.648609463946087 -280.21903383758126 0 -280.21903383758126 194.81141349887548 0 0 0 0 27.097164213164653 -352.43374438612045 0 -352.43374438612045 622.4189378562769 0 0 0 0 -7.961405758354271 223.81238907894863 0 223.81238907894863 116.29466217024674 0 0 0 0 -579.78128273194352 468.14068274542387 0 468.14068274542387 2495.4623184941993 0 0 0 0 165.26465588556795 116.83339873550176 0 116.83339873550176 195.3555476734885 0 0 0 0 -127.70716501381902 167.3044422127532 0 167.3044422127532 2097.7678043775304 0 0 0 0 -123.16815361022104 326.45110565913456 0 326.45110565913456 2104.253590039847 0 0 0 0 189.09085298245279 1065.5260497868348 0 1065.5260497868348 1453.2135786260878 0 0 0 0 2530.3090648363718 -1819.2141619655386 0 -1819.2141619655386 1145.5197165427326 0 0 0 0 1.4857964244687625 -1.6016188457454357 0 -1.6016188457454357 13.821219781633381 0 0 0 0 71.933506106249325 388.91703187470762 0 388.91703187470762 765.37464271583667 0 0 0 0 -180.45079541362543 -41.566925930914294 0 -41.566925930914294 88.925958831136086 0 0 0 0 -42.610945338001642 -11.022583895059611 0 -11.022583895059611 12.338895714490864 0 0 0 0 -2.3511341484428212 3.89025028437689 0 3.89025028437689 22.437851574615607 0 0 0 0 134.23066486836623 62.444784758559763 0 62.444784758559763 -249.85983746899501 0 0 0 0 -27.590339007719944 -170.93569861619108 0 -170.93569861619108 48.355840429398086 0 0 0 0 -2.1775062494002899 -4.6125881792350523 0 -4.6125881792350523 3.6449609244869166 0 0 0 0 67.536668443952109 294.66453302371247 0 294.66453302371247 1599.0492175732506 0 0 0 0 -54.902317330119757 130.26086513701762 0 130.26086513701762 2500.7859420477762 0 0 0 0 -123.01725748604157 -451.49437247754395 0 -451.49437247754395 2119.8913539034629 0 0 0 0 -75.161973283026299 -528.11196334762053 0 -528.11196334762053 1034.4585508546334 0 0 0 0 1.7408170715977966 2.6940779427275601 0 2.6940779427275601 6.6549902903570484 0 0 0 0 14.655945646984534 -1071.5364105206663 0 -1071.5364105206663 2496.6349154915274 0 0 0 0 -183.63685755486028 446.85964550207609 0 446.85964550207609 200.72744285528825 0 0 0 0 -51.113592080002036 -152.96333486459025 0 -152.96333486459025 126.11734352005442 0 0 0 0 192.90088802523724 -30.154513869978473 0 -30.154513869978473 -137.20501791162042 0 0 0 0 -21.390631426960699 -2.1043329936682582 0 -2.1043329936682582 -1.2532427900973744 0 0 0 0 -365.97415613989341 -360.52161803109448 0 -360.52161803109448 1009.9679584744226 0 0 0 0 -448.66808968844123 543.93029434499749 0 543.93029434499749 2495.4405433216689 0 0 0 0 -275.60975672968476 -88.126436753012968 0 -88.126436753012968 1267.3873894901008 0 0 0 0 311.40092005240922 -1016.1741429370322 0 -1016.1741429370322 2497.0370878859794 0 0 0 0 1731.8893941112456 1627.057834080483 0 1627.057834080483 1040.9134721866831 0 0 0 0 3.287672329525952 1.0153711552417937 0 1.0153711552417937 22.47690214370202 0 0 0 0 1529.2114488443149 -1189.4710958698615 0 -1189.4710958698615 1082.485681431408 0 0 0 0 2011.6363083045628 -189.05891818661621 0 -189.05891818661621 -558.15617130332976 0 0 0 0 861.97107278760848 3.5173996323364918 0 3.5173996323364918 634.5039864654791 0 0 0 0 1156.6438025804496 -357.77530835161269 0 -357.77530835161269 -771.28743197189033 0 0 0 0 -5.4426755582065773 0.631113825922057 0 0.631113825922057 0.2261197887777584 0 0 0 0 339.82160357970452 -339.56286015931437 0 -339.56286015931437 532.79784669084711 0 0 0 0 367.58374170425577 -308.7149608893551 0 -308.7149608893551 101.72619263772503 0 0 0 0 567.36708539149367 -388.09060423592564 0 -388.09060423592564 272.44011852112271 0 0 0 0 -0.026884043163521332 -0.24043242329864078 0 -0.24043242329864078 64.818535518489369 0 0 0 0 -494.53159221172791 397.77853662562188 0 397.77853662562188 469.26474348372722 0 0 0 0 269.88570745328479 380.98785124923234 0 380.98785124923234 64.201353389813448 0 0 0 0 422.15708747182828 -197.97277990555403 0 -197.97277990555403 67.626600121484444 0 0 0 0 117.46032248456322 -78.44098573057363 0 -78.44098573057363 -75.831942072774837 0 0 0 0 130.7918430179858 264.38449804555694 0 264.38449804555694 192.9392154199827 0 0 0 0 17.14932850612249 -19.573593943301798 0 -19.573593943301798 25.533057936346143 0 0 0 0 44.051057835740721 -217.13681120475849 0 -217.13681120475849 -13.145585528120591 0 0 0 0 -5.248164212478855 3.7638086135207232 0 3.7638086135207232 73.56094400224174 0 0 0 0 -52.62540506071673 -3.9534746489771351 0 -3.9534746489771351 85.285749240458244 0 0 0 0 -131.02053443228215 -38.513289777636601 0 -38.513289777636601 93.35257381790143 0 0 0 0 6.6323174097478841 -54.908798580212078 0 -54.908798580212078 83.867824285669485 0 0 0 0 -33.942702945731071 -92.675431307792678 0 -92.675431307792678 373.33930711051289 0 0 0 0 28.820349214654016 -70.414987989957808 0 -70.414987989957808 207.62973213624264 0 0 0 0 140.68700205371499 694.16868476776335 0 694.16868476776335 1000.1097309438992 0 0 0 0 -631.35352857727355 -39.462356844353963 0 -39.462356844353963 1282.7648658966755 0 0 0 0 -2.0401814848366824 0.51294756728250945 0 0.51294756728250945 8.8957660322701884 0 0 0 0 -270.2195600265012 702.36786641026083 0 702.36786641026083 2496.4190536448477 0 0 0 0 137.78720824535185 700.36897385059092 0 700.36897385059092 996.71868964287205 0 0 0 0 331.75422152055 1109.413024924037 0 1109.413024924037 1543.0067705059757 0 0 0 0 50.844441031258839 939.62540862141213 0 939.62540862141213 1553.3903994376633 0 0 0 0 329.40292324027109 1486.3817650235251 0 1486.3817650235251 2496.390943301989 0 0 0 0 864.01755284411615 615.05829549364717 0 615.05829549364717 80.421744814437261 0 0 0 0 485.08955420876021 324.29583345817082 0 324.29583345817082 371.26834936714295 0 0 0 0 51.28564784806008 87.902892996396986 0 87.902892996396986 336.15133541682371 0 0 0 0 297.36444092367736 -15.011193052582257 0 -15.011193052582257 556.94209080901783 0 0 0 0 4.5734366191326528 -1.6022377327528687 0 -1.6022377327528687 0.051439666351615898 0 0 0 0 214.05397868392677 64.726396118658158 0 64.726396118658158 650.80945861492728 0 0 0 0 226.46200345680148 567.75558470532087 0 567.75558470532087 1033.5730864603283 0 0 0 0 30.163607230794753 430.16532282491244 0 430.16532282491244 937.45669862339128 0 0 0 0 78.259053449650636 32.056829710546481 0 32.056829710546481 593.1896843802715 0 0 0 0 -112.06864607843863 277.9163119372497 0 277.9163119372497 981.71447736962091 0 0 0 0 211.34967065800652 208.39248246888747 0 208.39248246888747 1242.0773431777452 0 0 0 0 -85.268945234840999 52.060279799752607 0 52.060279799752607 1394.4523047702096 0 0 0 0 218.48421353667243 881.51633152960312 0 881.51633152960312 1189.7281454570502 0 0 0 0 55.624992500964709 506.34204162690367 0 506.34204162690367 1385.6584988711475 0 0 0 0 -64.515960791382497 462.03739835913439 0 462.03739835913439 1429.8764719051251 0 0 0 0 -22.43063813510603 13.353356541679616 0 13.353356541679616 78.251621255964409 0 0 0 0 -74.430936997455547 107.73738164221322 0 107.73738164221322 -5.8102153042709688 0 0 0 0 -67.768727709557425 81.360627820997252 0 81.360627820997252 28.801686791877728 0 0 0 0 2.295380579597889 5.9551392421958411 0 5.9551392421958411 -3.7928861831306335 0 0 0 0 334.42683048400704 462.37566406817132 0 462.37566406817132 360.34204511208372 0 0 0 0 10.533916215840836 -5.4371260949483968 0 -5.4371260949483968 11.648101674935436 0 0 0 0 34.739777100827268 -5.385790123098559 0 -5.385790123098559 69.009916744389557 0 0 0 0 40.822976443172365 9.1232900170239191 0 9.1232900170239191 65.675562416538014 0 0 0 0 45.903260040377518 -9.6088113744262955 0 -9.6088113744262955 63.870166295597301 0 0 0 0 29.375444863324446 -3.636406003488446 0 -3.636406003488446 84.850205870874561 0 0 0 0 8.2756443024595683 13.906033453440614 0 13.906033453440614 67.640957426301611 0 0 0 0 29.423145950761182 30.175830323147238 0 30.175830323147238 72.330821494571865 0 0 0 0 83.25543245685202 2.2857263674313799 0 2.2857263674313799 20.839282832905155 0 0 0 0 -1.3932897640508486 -57.762670423236159 0 -57.762670423236159 9.1031163273692073 0 0 0 0 33.755599880100362 -49.02005002862461 0 -49.02005002862461 109.88297822142795 0 0 0 0 -36.890195826589775 -23.783019725683516 0 -23.783019725683516 128.13940923836708 0 0 0 0 -21.217788786031534 10.642430690368002 0 10.642430690368002 90.661283537350357 0 0 0 0 70.362341636913698 -35.733991070608681 0 -35.733991070608681 66.409818320982595 0 0 0 0 -20.503816278862583 9.3372758337921269 0 9.3372758337921269 87.939472824223969 0 0 0 0 -218.13561984394073 175.61129510655155 0 175.61129510655155 5.3083874962903792 0 0 0 0 18.00407190057922 11.002670840978681 0 11.002670840978681 2.0424533226814674 0 0 0 0 -82.3060587185646 148.84879679176811 0 148.84879679176811 -45.87568651899528 0 0 0 0 -86.341864290487138 87.880689665704267 0 87.880689665704267 -8.9496291911200387 0 0 0 0 -46.734009270919159 123.7716388519475 0 123.7716388519475 -5.0260574654821539 0 0 0 0 -1.4059749481020845 49.506196987504154 0 49.506196987504154 -0.7072342330502579 0 0 0 0 1107.5558801918446 -277.35115274794589 0 -277.35115274794589 -149.44293572638935 0 0 0 0 189.83249643659019 -579.26038959974335 0 -579.26038959974335 753.90549905689545 0 0 0 0 -101.79035917100828 -91.838479959782433 0 -91.838479959782433 214.1214418603081 0 0 0 0 777.98235153087592 -99.574246014467917 0 -99.574246014467917 -113.40559988702535 0 0 0 0 228.52237910235863 364.11613222892311 0 364.11613222892311 743.47467278025363 0 0 0 0 7.5374211969319322 -6.9707563490634152 0 -6.9707563490634152 7.1761227663195921 0 0 0 0 425.03876929947108 -744.5351477896254 0 -744.5351477896254 261.71115091978027 0 0 0 0 -239.17272043427056 -265.8946621986438 0 -265.8946621986438 137.19512002060628 0 0 0 0 -516.80622855322679 -350.78472749891625 0 -350.78472749891625 280.09920658425699 0 0 0 0 -1.2536855315560786 -0.60362358930059212 0 -0.60362358930059212 97.573265267510592 0 0 0 0 247.05661350201194 721.12316822180355 0 721.12316822180355 604.08299305079936 0 0 0 0 -760.14833764190917 100.24784778043531 0 100.24784778043531 417.29123971176307 0 0 0 0 399.08490948055646 -20.55879971738085 0 -20.55879971738085 -130.81745727206862 0 0 0 0 -177.57203040691525 -47.327597873823834 0 -47.327597873823834 101.35865487965748 0 0 0 0 -1.2016165954010887 1.9083670859253754 0 1.9083670859253754 115.34833583339656 0 0 0 0 -31.644088506879768 -23.537991416606928 0 -23.537991416606928 97.427994433903223 0 0 0 0 -106.8709242051375 -19.465625095930591 0 -19.465625095930591 135.36695571994824 0 0 0 0 -0.37009718884486742 5.1331779854208879 0 5.1331779854208879 121.60562266477666 0 0 0 0 -395.85591402524022 -24.985414744208441 0 -24.985414744208441 128.66003516019828 0 0 0 0 -189.04536745070095 20.251941584901033 0 20.251941584901033 -67.010123470417284 0 0 0 0 -15.054902095752368 -320.59928639834811 0 -320.59928639834811 189.92591369145725 0 0 0 0 64.11853761014828 -195.34604273861987 0 -195.34604273861987 65.145007809589515 0 0 0 0 384.33152788233701 -440.89126983304368 0 -440.89126983304368 -137.69328709099977 0 0 0 0 191.21374064959082 -199.49752265539479 0 -199.49752265539479 -132.98170254171851 0 0 0 0 -127.6968819377737 -75.745912789617478 0 -75.745912789617478 -9.5687217287156727 0 0 0 0 269.58095791379105 -589.52175662447212 0 -589.52175662447212 -298.20095637323726 0 0 0 0 20.638898370308198 -696.60675093110626 0 -696.60675093110626 -98.725453371645926 0 0 0 0 132.35773619162001 -566.61420696994537 0 -566.61420696994537 27.41484035979181 0 0 0 0 -142.61050058099835 -306.67235751829253 0 -306.67235751829253 236.53593092344454 0 0 0 0 -115.73349727397232 -521.61563259744605 0 -521.61563259744605 630.30131874665949 0 0 0 0 -116.88954271868533 -125.74049947957587 0 -125.74049947957587 449.90295728292699 0 0 0 0 282.49238737610585 -197.06788924209513 0 -197.06788924209513 252.01190558444159 0 0 0 0 83.822556386353881 15.746676050828682 0 15.746676050828682 316.82804642889823 0 0 0 0 -24.956143431234523 21.221217670307851 0 21.221217670307851 200.13134931268314 0 0 0 0 -23.993209283510168 -132.01265291919026 0 -132.01265291919026 359.97766398768226 0 0 0 0 -324.71357032582773 -75.562991157150464 0 -75.562991157150464 263.50537172605254 0 0 0 0 -117.56586937221891 -110.16905380230264 0 -110.16905380230264 306.15538055261959 0 0 0 0 -187.93271754279971 18.235682804918952 0 18.235682804918952 269.43231781419672 0 0 0 0 -127.39002678680936 -176.69955045313532 0 -176.69955045313532 217.40751664338421 0 0 0 0 -251.97618255790599 -91.038076678024709 0 -91.038076678024709 175.09801388637425 0 0 0 0 -237.2672231101842 -63.719684656961363 0 -63.719684656961363 99.331544119796945 0 0 0 0 -46.343919698869286 -1.2288193131353182 0 -1.2288193131353182 121.44740479394022 0 0 0 0 -36.276150928950187 -17.563626044058765 0 -17.563626044058765 121.85678378753801 0 0 0 0 -49.725960923882596 -1.3664710569532872 0 -1.3664710569532872 103.04106271418277 0 0 0 0 -467.64263501221888 45.906948416161867 0 45.906948416161867 212.53823713911197 0 0 0 0 -1.3532336932960853 1.7328894667793435 0 1.7328894667793435 124.59206277659354 0 0 0 0 -425.46230603995804 110.87131977077706 0 110.87131977077706 190.2973378655679 0 0 0 0 -351.18325587615982 36.204647351356471 0 36.204647351356471 145.58488066368227 0 0 0 0 -366.65258211797345 8.2646620415562211 0 8.2646620415562211 71.216875366681506 0 0 0 0 -399.27816658598204 126.36104117107743 0 126.36104117107743 152.55351334916395 0 0 0 0 -9.8112215689981461 27.552146360456284 0 27.552146360456284 61.049916931719522 0 0 0 0 -699.38321450176841 -45.29288037752849 0 -45.29288037752849 195.26794667632157 0 0 0 0 -3.4916611549825629 20.388615759796672 0 20.388615759796672 9.4692388380317816 0 0 0 0 -22.558602289237566 3.2089935281940285 0 3.2089935281940285 95.991084224465666 0 0 0 0 -68.721422846642895 35.642320100812867 0 35.642320100812867 122.7262512644711 0 0 0 0 -114.55151658450814 -88.735901920239485 0 -88.735901920239485 132.32312712954445 0 0 0 0 -386.72923353862757 60.057245380853601 0 60.057245380853601 110.89958716208139 0 0 0 0 -92.463457229866322 12.030276846980087 0 12.030276846980087 82.066881065824418 0 0 0 0 -444.38918614913769 97.883051746196543 0 97.883051746196543 160.30853334337007 0 0 0 0 -4.0907152779262796 4.4507431348435551 0 4.4507431348435551 79.458736276371326 0 0 0 0 -8.2151364033622887 -30.760228418706394 0 -30.760228418706394 69.352079503003097 0 0 0 0 -309.2877445176905 87.538222137368393 0 87.538222137368393 111.13816524880986 0 0 0 0 -312.77687870814566 93.164399442542617 0 93.164399442542617 198.2769396388494 0 0 0 0 -179.08935018144848 35.57206239535617 0 35.57206239535617 145.26372533702829 0 0 0 0 -255.67068861006192 114.84699015779734 0 114.84699015779734 127.94901709974715 0 0 0 0 -233.39583966612292 7.3683120586788391 0 7.3683120586788391 187.87158100434135 0 0 0 0 -83.879492666994793 -20.747191696596019 0 -20.747191696596019 167.84232575522401 0 0 0 0 -183.19594259806547 30.168782588333215 0 30.168782588333215 225.23227755649714 0 0 0 0 -105.39715609162931 -78.818249596638452 0 -78.818249596638452 256.42436013431711 0 0 0 0 -3.7324454533614926 -26.77394579728832 0 -26.77394579728832 257.74320635537242 0 0 0 0 -195.4034238585848 -20.653974286783978 0 -20.653974286783978 241.23746453265858 0 0 0 0 -292.03665196196516 111.15166905678461 0 111.15166905678461 145.09093948962004 0 0 0 0 -122.65626139158903 48.669958187104498 0 48.669958187104498 159.16613631640757 0 0 0 0 -100.24012355275408 39.58492686050522 0 39.58492686050522 550.31152461389865 0 0 0 0 -49.223390985064725 70.523957843630342 0 70.523957843630342 124.51465940356866 0 0 0 0 80.789185153520748 -184.96905859461913 0 -184.96905859461913 245.83233077176556 0 0 0 0 -281.59826424251969 -74.151496546204726 0 -74.151496546204726 595.66949753220251 0 0 0 0 -340.71381670128767 282.95071153313984 0 282.95071153313984 22.120835195193649 0 0 0 0 167.32201062779234 158.05975192810138 0 158.05975192810138 -30.161134015179414 0 0 0 0 -334.57463734182556 89.29890141613032 0 89.29890141613032 142.78191000094375 0 0 0 0 -22.370178455984121 10.517350750280251 0 10.517350750280251 90.932184944291464 0 0 0 0 -109.4679183079802 -120.93731413769456 0 -120.93731413769456 277.45046355924569 0 0 0 0 -113.71363267389006 -192.71607714899801 0 -192.71607714899801 96.657370993205404 0 0 0 0 -141.38018141924658 -94.501437616378098 0 -94.501437616378098 29.481579730207159 0 0 0 0 -30.671054707761868 -215.58410877742062 0 -215.58410877742062 147.95061055354017 0 0 0 0 0.38326331094514465 -1.0582176765707452 0 -1.0582176765707452 6.3838306560818694 0 0 0 0 91.710094073379423 211.53635747992121 0 211.53635747992121 349.65206516011676 0 0 0 0 33.723121166504825 71.812559590769524 0 71.812559590769524 69.781655595190387 0 0 0 0 -0.57487844819570455 -40.465894431225024 0 -40.465894431225024 47.928143659192756 0 0 0 0 -38.994783950376586 99.378234905252611 0 99.378234905252611 409.02000999492157 0 0 0 0 0.13898155183733252 -7.6034949855329614 0 -7.6034949855329614 13.594090404221788 0 0 0 0 -1.7777546388679184 -7.3723653235538222 0 -7.3723653235538222 25.329433979837631 0 0 0 0 14.832613361057156 -6.8729212022444699 0 -6.8729212022444699 7.2923446947402226 0 0 0 0 -4.1443814929587539 -3.1657347260789663 0 -3.1657347260789663 2.3782961419992716 0 0 0 0 -0.53031362111426361 -6.8489402456799127 0 -6.8489402456799127 7.5930702788428022 0 0 0 0 11.495921591213119 -32.480443701468175 0 -32.480443701468175 7.8641983539855573 0 0 0 0 1.7581497104547452 -17.44099346944131 0 -17.44099346944131 3.8988454864011146 0 0 0 0 2.1810860141221582 -1.2137239837491336 0 -1.2137239837491336 -3.9125464086071418 0 0 0 0 -6.722272304497892 -2.7236820191319566 0 -2.7236820191319566 0.13277039829699788 0 0 0 0 -5.1110674826923059 -3.5462026671157219 0 -3.5462026671157219 8.346835989606916 0 0 0 0 -4.7256059542671061 -7.4074978354907728 0 -7.4074978354907728 10.214864052532704 0 0 0 0 -2.8048534456593188 -14.888662100689544 0 -14.888662100689544 -2.2753784881206229 0 0 0 0 -3.4027024421647667 -3.7841566633422161 0 -3.7841566633422161 12.868135709324847 0 0 0 0 28.07179580508955 -5.5522808304576756 0 -5.5522808304576756 13.629170956177404 0 0 0 0 -0.84128915441003915 -3.1425788537151043 0 -3.1425788537151043 17.317164217285722 0 0 0 0 -220.35430011700919 63.172177183238091 0 63.172177183238091 5.1480860735609895 0 0 0 0 -31.424561582419301 -15.290981798789289 0 -15.290981798789289 33.795062451186823 0 0 0 0 -323.19389053518898 -82.135096342100951 0 -82.135096342100951 65.550104179084883 0 0 0 0 -428.03541084259632 -325.93396795527951 0 -325.93396795527951 -176.85452257258294 0 0 0 0 -560.44319480916965 -178.14344048529165 0 -178.14344048529165 -24.915192594897235 0 0 0 0 -2.0545410868344121 1.2662404281916793 0 1.2662404281916793 4.4695723956047289 0 0 0 0 -322.98049944706872 -202.9607589537336 0 -202.9607589537336 -115.19481813948369 0 0 0 0 -92.730606398657983 -10.09102666999388 0 -10.09102666999388 -36.209915702143917 0 0 0 0 -3.668093071961013 -4.7365676781247714 0 -4.7365676781247714 9.0821415625257771 0 0 0 0 -576.70287639838352 -121.62012988585047 0 -121.62012988585047 46.651904135665973 0 0 0 0 -0.67562651145964736 -0.72619165566435129 0 -0.72619165566435129 2.3226362623409074 0 0 0 0 -425.06336584366363 -292.7214227448203 0 -292.7214227448203 -105.81483657241915 0 0 0 0 -286.49083963514386 -118.58471282989194 0 -118.58471282989194 -32.557711440385901 0 0 0 0 -428.31942624000658 -207.18010033198516 0 -207.18010033198516 -30.489367882848455 0 0 0 0 -419.16609030838663 -244.38092793391843 0 -244.38092793391843 -41.206659774339641 0 0 0 0 -292.21280608279994 9.5989239399641519 0 9.5989239399641519 -85.865548665680762 0 0 0 0 -60.836026267381385 -33.356320780003443 0 -33.356320780003443 -125.69858463218407 0 0 0 0 -285.49463543826641 -127.66998873860939 0 -127.66998873860939 -5.2067848943843273 0 0 0 0 -144.86792895459439 -170.92672450024838 0 -170.92672450024838 -110.87212379564698 0 0 0 0 -74.624619735588567 -61.931341432049521 0 -61.931341432049521 21.928326583802118 0 0 0 0 -32.115254852376893 -117.96227770035694 0 -117.96227770035694 44.499816159361217 0 0 0 0 73.151358289713244 50.441086362925489 0 50.441086362925489 23.912870173437113 0 0 0 0 -66.425068594817276 -44.723448539116362 0 -44.723448539116362 22.103867679004907 0 0 0 0 -84.489692261327036 59.622490966388796 0 59.622490966388796 182.66523206980492 0 0 0 0 83.975111613141962 91.689394526429169 0 91.689394526429169 111.11971933563473 0 0 0 0 124.68658202816687 39.924309161522615 0 39.924309161522615 -26.994020694502979 0 0 0 0 -0.91900335641730635 -0.18775861389804049 0 -0.18775861389804049 81.820595391734969 0 0 0 0 -7.639853661339302 -0.3503344631990899 0 -0.3503344631990899 16.359553670664681 0 0 0 0 135.42318230734236 -68.749745645167422 0 -68.749745645167422 100.37493450433249 0 0 0 0 -3.3168480442663686 11.833896065548458 0 11.833896065548458 6.0477374354260292 0 0 0 0 -264.58502400405632 -294.86494800520813 0 -294.86494800520813 514.16532793016813 0 0 0 0 388.13390393926238 398.11970051658864 0 398.11970051658864 386.6061881838541 0 0 0 0 128.30572035364094 315.62344472241966 0 315.62344472241966 387.04841604307876 0 0 0 0 234.10219786855578 -30.803437671522261 0 -30.803437671522261 168.05938657082152 0 0 0 0 476.55741743025465 -340.87120047264398 0 -340.87120047264398 408.43898661833373 0 0 0 0 -92.777753371290601 -120.3772917479364 0 -120.3772917479364 323.26445743221848 0 0 0 0 754.19928439838623 111.45604610964074 0 111.45604610964074 196.94360572013102 0 0 0 0 -188.52693445179102 -104.51232528991386 0 -104.51232528991386 812.78822684586339 0 0 0 0 -239.74177022471713 78.613613095676556 0 78.613613095676556 292.60912905864825 0 0 0 0 -346.91963933686748 -34.94068251853605 0 -34.94068251853605 427.55553424845129 0 0 0 0 -84.808367874511532 -168.92964134112663 0 -168.92964134112663 206.8484727407631 0 0 0 0 -228.62991437598794 -145.31993847039848 0 -145.31993847039848 140.05012801739213 0 0 0 0 -231.00775010780853 -59.505965444157482 0 -59.505965444157482 130.28497715294179 0 0 0 0 -39.485768956044922 -34.592563852660533 0 -34.592563852660533 63.649496747453668 0 0 0 0 296.7692533583413 7.3127151586450054 0 7.3127151586450054 66.195646675514581 0 0 0 0 -192.14409781773429 -51.710754811399966 0 -51.710754811399966 20.306829358240066 0 0 0 0 -0.36413667055512633 -86.188646954484284 0 -86.188646954484284 5.8035515474621207 0 0 0 0 -489.42803529952107 -181.57510096736769 0 -181.57510096736769 71.198890777857741 0 0 0 0 -468.46171747902918 -183.84465790908871 0 -183.84465790908871 -59.398210698927869 0 0 0 0 -288.19058649629733 -77.945799016481033 0 -77.945799016481033 68.790108408207743 0 0 0 0 -291.21716095953525 -177.2870269946834 0 -177.2870269946834 36.367079069663305 0 0 0 0 -350.20868140273524 -120.40163375531847 0 -120.40163375531847 -15.901465956547327 0 0 0 0 -367.75158765070591 -177.43451442147489 0 -177.43451442147489 -129.78001514627249 0 0 0 0 -446.53183383074065 -105.6140461404284 0 -105.6140461404284 28.657793993523228 0 0 0 0 -387.32903660058628 -130.67235247278768 0 -130.67235247278768 -27.310455085797003 0 0 0 0 -370.28021733601054 -67.242538521895767 0 -67.242538521895767 133.59413531120299 0 0 0 0 -361.19924166791498 -181.5332449189591 0 -181.5332449189591 70.252081998682115 0 0 0 0 -302.69581946235121 -155.09175813385082 0 -155.09175813385082 244.99536107340828 0 0 0 0 -373.60790946711131 45.54935990669037 0 45.54935990669037 201.94531869614912 0 0 0 0 -358.01775617435487 210.25368382176384 0 210.25368382176384 404.44220454969764 0 0 0 0 -447.44523627081071 75.134833372314461 0 75.134833372314461 201.55813175591175 0 0 0 0 -386.23522353709268 186.18987502281379 0 186.18987502281379 88.927440768384258 0 0 0 0 -402.11616932232846 1.7792294742321246 0 1.7792294742321246 176.53445375927549 0 0 0 0 -452.85373052099385 59.785890274841222 0 59.785890274841222 111.36463584848389 0 0 0 0 -35.875907120918782 -3.0495001085691911 0 -3.0495001085691911 30.639721880786965 0 0 0 0 0.033188018153152754 -1.0144269484996329 0 -1.0144269484996329 1.7196142233501064 0 0 0 0 200.05037530919253 -243.39641316013149 0 -243.39641316013149 -284.34177115838975 0 0 0 0 -470.14417221911026 40.091256689331203 0 40.091256689331203 122.9999929099431 0 0 0 0 -446.77187107396117 72.378159216851145 0 72.378159216851145 11.143638462381205 0 0 0 0 -21.252386897687757 -5.8199787139819819 0 -5.8199787139819819 22.178380077239126 0 0 0 0 -0.10285145880054181 -3.8459126138731428 0 -3.8459126138731428 4.1063644803913348 0 0 0 0 13.114339780750925 -15.228069834836788 0 -15.228069834836788 6.8461149270297028 0 0 0 0 -14.330163328419985 -17.866608316642669 0 -17.866608316642669 37.304366571450373 0 0 0 0 4.5737761513664736 -24.629361978884845 0 -24.629361978884845 24.155449944875727 0 0 0 0 -5.3832224310062884 -13.961617274850141 0 -13.961617274850141 24.235978943965165 0 0 0 0 -3.8976095082280153 -13.178673308899306 0 -13.178673308899306 8.6795912014204077 0 0 0 0 -376.94827973405017 104.49736406687043 0 104.49736406687043 -2.7430928378344106 0 0 0 0 -352.39979252368767 188.4393569043973 0 188.4393569043973 34.723214326480047 0 0 0 0 -253.58270130079427 62.651229975195292 0 62.651229975195292 12.782030433564387 0 0 0 0 -345.4114506757561 40.678785959561083 0 40.678785959561083 144.83151149015157 0 0 0 0 -178.41252668966172 50.136535361421011 0 50.136535361421011 112.7213340296621 0 0 0 0 -326.96113878389014 159.61991931882687 0 159.61991931882687 57.939555747389932 0 0 0 0 -346.09585113842081 166.68665607900795 0 166.68665607900795 35.648857659393798 0 0 0 0 -340.60484465953778 79.610287597770366 0 79.610287597770366 132.62451520581089 0 0 0 0 3.2252869853919872 10.533404156278625 0 10.533404156278625 59.06818124671679 0 0 0 0 -34.729086713830839 -9.3850850518501829 0 -9.3850850518501829 85.936933888293424 0 0 0 0 -2.2374516687584727 -1.1007394353581244 0 -1.1007394353581244 69.221561633139302 0 0 0 0 -424.27213656505012 192.57175871977347 0 192.57175871977347 74.639746634717085 0 0 0 0 66.236230933625848 -31.788436416456534 0 -31.788436416456534 114.18268706114668 0 0 0 0 -63.593365689001985 -5.5002093179155054 0 -5.5002093179155054 109.01659416612893 0 0 0 0 -7.1180420866932455 -10.687910008457678 0 -10.687910008457678 97.304852307034565 0 0 0 0 3.1085122737890671 -14.704527122807374 0 -14.704527122807374 82.426228582355378 0 0 0 0 135.25609814775817 34.941143038191512 0 34.941143038191512 4.3920784456568072 0 0 0 0 -19.873780353238544 -7.3964934561245173 0 -7.3964934561245173 75.92839281331544 0 0 0 0 26.801742997800943 8.6971970431759473 0 8.6971970431759473 66.878493951127894 0 0 0 0 -23.963946998118445 -4.3322307525977521 0 -4.3322307525977521 87.397103262519522 0 0 0 0 38.900235052670951 -20.320311205049165 0 -20.320311205049165 67.839551116947646 0 0 0 0 -1.1384421052195519 -13.070853816431631 0 -13.070853816431631 86.554808560365274 0 0 0 0 -10.979309154383373 -14.134967523626983 0 -14.134967523626983 80.485671697275393 0 0 0 0 -0.71838625978671189 -2.6360032659158605 0 -2.6360032659158605 81.59388445354125 0 0 0 0 -8.0824645482662163 -3.9119346050247259 0 -3.9119346050247259 87.150652530444859 0 0 0 0 -7.7700347577992943 -2.7908873524138471 0 -2.7908873524138471 86.480423588760459 0 0 0 0 -1.4004632887854385 -8.6202981124862355 0 -8.6202981124862355 74.008121926405096 0 0 0 0 47.19419922889665 -35.017140195803222 0 -35.017140195803222 87.974763924316534 0 0 0 0 -566.91750937410666 347.55205407894664 0 347.55205407894664 -71.397210409362174 0 0 0 0 -0.38614093226880453 14.957906001415012 0 14.957906001415012 42.911259412456296 0 0 0 0 33.681468115992629 -19.087139942876092 0 -19.087139942876092 87.449061150050511 0 0 0 0 -531.56605514892283 74.552383501382877 0 74.552383501382877 26.200862369487368 0 0 0 0 -1003.9161974658364 440.08389772788428 0 440.08389772788428 35.877774157495992 0 0 0 0 -354.35020101432292 145.30742162808747 0 145.30742162808747 -167.58762822307017 0 0 0 0 -14.297653185238005 139.6892266840531 0 139.6892266840531 213.09335043847022 0 0 0 0 -146.42264267496239 -82.24799736451132 0 -82.24799736451132 -49.288003222708483 0 0 0 0 -62.793048344400177 -105.90024764067925 0 -105.90024764067925 176.99152869432692 0 0 0 0 -404.07783831813435 167.57747634676844 0 167.57747634676844 69.068030353687391 0 0 0 0 -355.57065512596682 -31.246427743063578 0 -31.246427743063578 92.194341151674735 0 0 0 0 -137.80147258988336 29.734705300450969 0 29.734705300450969 58.315362218348127 0 0 0 0 -269.58353174699596 -41.829922034133233 0 -41.829922034133233 155.68012774789895 0 0 0 0 -2.5750973649419393 -85.344161846966927 0 -85.344161846966927 141.99918841106864 0 0 0 0 -164.06962421132243 -7.4318886659245891 0 -7.4318886659245891 200.8652650724971 0 0 0 0 1.3237764409554984 -159.88806329578256 0 -159.88806329578256 217.95905056904977 0 0 0 0 -111.3218890607568 -80.37631412293922 0 -80.37631412293922 220.82665335418187 0 0 0 0 -180.27508434313404 -79.035083557168946 0 -79.035083557168946 198.7407920612136 0 0 0 0 -88.29269035641903 -35.62163978581134 0 -35.62163978581134 123.03967212775478 0 0 0 0 175.72840969079516 -218.3754531659979 0 -218.3754531659979 321.50593135143254 0 0 0 0 131.96652445365282 -178.73282652921193 0 -178.73282652921193 292.17552674778199 0 0 0 0 147.42179732360773 -162.72090839995735 0 -162.72090839995735 308.71622983024463 0 0 0 0 68.777996274418001 -112.01392388789236 0 -112.01392388789236 260.19665784948916 0 0 0 0 109.11757585771693 -190.50780928547374 0 -190.50780928547374 263.10401242065859 0 0 0 0 6.7107351115729728 -153.81043832955169 0 -153.81043832955169 240.97787772278298 0 0 0 0 47.350819401674016 -43.439757261461182 0 -43.439757261461182 186.43576292108742 0 0 0 0 62.934974764532399 -100.53373505578702 0 -100.53373505578702 296.70254961992123 0 0 0 0 151.00924791245973 -125.94859692321506 0 -125.94859692321506 350.12562230693129 0 0 0 0 118.62745333352177 -79.256951597927127 0 -79.256951597927127 283.32462682019104 0 0 0 0 121.72884135358578 10.3989322757634 0 10.3989322757634 412.55955288575024 0 0 0 0 118.98881071649805 -12.564948938539999 0 -12.564948938539999 225.98070516291591 0 0 0 0 36.676177426284085 52.365259209902888 0 52.365259209902888 354.06049696344235 0 0 0 0 39.142874175025099 58.560925976712042 0 58.560925976712042 91.079930127896887 0 0 0 0 -13.657146517249657 242.88465142699806 0 242.88465142699806 110.4426338794101 0 0 0 0 147.86691123349112 121.06910970741046 0 121.06910970741046 233.56923922719511 0 0 0 0 157.5067379301056 170.26825011092069 0 170.26825011092069 471.95249479518588 0 0 0 0 256.53943815489845 144.66189776875626 0 144.66189776875626 248.86796937588497 0 0 0 0 400.331725909684 336.52978215945086 0 336.52978215945086 492.2857975217978 0 0 0 0 -0.015048713229772803 0.37220941709037136 0 0.37220941709037136 5.9237592926616323 0 0 0 0 600.33379821820699 571.90461920339499 0 571.90461920339499 659.65897961515191 0 0 0 0 469.95410526892164 320.7408950826682 0 320.7408950826682 176.43086468072761 0 0 0 0 237.96536536994711 29.032233423497019 0 29.032233423497019 914.20146602553882 0 0 0 0 417.73295262307147 -14.211721874585237 0 -14.211721874585237 509.05901374711993 0 0 0 0 194.16822055068974 64.551586676218449 0 64.551586676218449 631.30874374171776 0 0 0 0 206.58680277265421 51.825750830925699 0 51.825750830925699 312.21688921522218 0 0 0 0 246.75965284806728 55.376238735318793 0 55.376238735318793 466.78333859859777 0 0 0 0 -25.644666585729851 -127.16012456314911 0 -127.16012456314911 415.98637143929682 0 0 0 0 -106.63196472164915 -206.5184458345625 0 -206.5184458345625 167.16734168834955 0 0 0 0 -73.951412579656562 -27.23570670592062 0 -27.23570670592062 701.29895102377668 0 0 0 0 45.873198360414733 95.869644478531882 0 95.869644478531882 618.12401418509035 0 0 0 0 295.83222262541369 359.40527506955414 0 359.40527506955414 835.09838976508468 0 0 0 0 6.3877933779618274 120.23135351239057 0 120.23135351239057 643.21192091848206 0 0 0 0 19.65751423106019 134.18656971511837 0 134.18656971511837 635.52333601264263 0 0 0 0 45.40816119350427 81.17858964567813 0 81.17858964567813 552.34647631893495 0 0 0 0 -44.548338232099013 134.69140809962391 0 134.69140809962391 644.00493375609744 0 0 0 0 122.82200617413594 163.19758810510075 0 163.19758810510075 626.07258101809407 0 0 0 0 88.50556233857526 3.733114025829309 0 3.733114025829309 479.44430059210254 0 0 0 0 13.892887938778983 19.731592269728935 0 19.731592269728935 301.58192908455567 0 0 0 0 -61.017812234729718 26.235945971853653 0 26.235945971853653 541.27824533455077 0 0 0 0 198.03884805278767 -73.544298939259534 0 -73.544298939259534 383.11351510449367 0 0 0 0 185.91025592461824 -112.88512134490975 0 -112.88512134490975 518.90817312494232 0 0 0 0 201.29446247400085 -33.683307663585538 0 -33.683307663585538 437.64211669462111 0 0 0 0 239.91898092269616 24.733730436154474 0 24.733730436154474 503.58775008148848 0 0 0 0 125.0906093311055 -33.165414513550331 0 -33.165414513550331 447.00091715244798 0 0 0 0 24.321698023596582 -114.5871002468657 0 -114.5871002468657 388.26134568511907 0 0 0 0 136.99360303267576 -162.50424190170952 0 -162.50424190170952 382.79248485061282 0 0 0 0 158.4656910666028 -162.45221646093489 0 -162.45221646093489 356.23690834867557 0 0 0 0 86.756308362025948 -187.5129021478806 0 -187.5129021478806 390.09794843264081 0 0 0 0 57.234814577815996 -123.36041227650912 0 -123.36041227650912 349.63420174844896 0 0 0 0 5.2153012143702426 -12.06773210949541 0 -12.06773210949541 5.7920448429204043 0 0 0 0 114.98159160702073 -91.996954710279851 0 -91.996954710279851 249.74138233852409 0 0 0 0 -2.2767301833872029 -0.25883314645660427 0 -0.25883314645660427 2.0887051726424009 0 0 0 0 -46.662977606441927 -2.0689372378342341 0 -2.0689372378342341 518.14715975329182 0 0 0 0 0.55901052760761427 -3.9970600490840305 0 -3.9970600490840305 0.69625952680081959 0 0 0 0 -32.394090666517968 -43.236583662519479 0 -43.236583662519479 565.33203292427424 0 0 0 0 46.027907027200797 -98.025376962919609 0 -98.025376962919609 425.67321320660722 0 0 0 0 -61.419460752620807 91.712300931352274 0 91.712300931352274 255.75211877099764 0 0 0 0 87.702259922979394 -131.09864712207258 0 -131.09864712207258 -10.208720193295449 0 0 0 0 -0.75423881850069829 0.24631818903822023 0 0.24631818903822023 0.53706450682524753 0 0 0 0 -49.923486029711171 20.107667951454459 0 20.107667951454459 8.4760625589292431 0 0 0 0 -15.382795252499136 33.312500820603418 0 33.312500820603418 815.38092813358526 0 0 0 0 56.478615552527685 -51.296174908441117 0 -51.296174908441117 507.13597511015269 0 0 0 0 54.872271367560188 29.030049829629206 0 29.030049829629206 688.91749414520928 0 0 0 0 0.039694452836100513 -0.98105210254269615 0 -0.98105210254269615 0.91124045031742651 0 0 0 0 -52.601269983107613 -79.125673807521707 0 -79.125673807521707 955.4256735980299 0 0 0 0 -18.55783951258627 -127.62296094663725 0 -127.62296094663725 797.11381143945653 0 0 0 0 26.200373260614015 -123.36145716411011 0 -123.36145716411011 407.38044799118393 0 0 0 0 -0.58543171068959055 -99.481387133042517 0 -99.481387133042517 773.77897468359242 0 0 0 0 67.889515679425131 -167.07334168835951 0 -167.07334168835951 418.14764179509348 0 0 0 0 33.193431637723279 -117.70352721037216 0 -117.70352721037216 473.74768832523841 0 0 0 0 8.4881130805143812 -170.12921694122042 0 -170.12921694122042 625.00896829286467 0 0 0 0 70.941648149941557 -137.23420041146073 0 -137.23420041146073 615.45781438050471 0 0 0 0 45.459286946311266 -191.16064764611906 0 -191.16064764611906 441.34067013920139 0 0 0 0 47.517434693951145 -156.04309772261877 0 -156.04309772261877 385.70795125744371 0 0 0 0 44.718894936350353 -190.46844252339542 0 -190.46844252339542 367.26075015057359 0 0 0 0 1.8603280207800026 -105.98065192239278 0 -105.98065192239278 268.73697489685583 0 0 0 0 35.848712826725205 -208.41816347094573 0 -208.41816347094573 264.82833182048125 0 0 0 0 62.514914405464879 -188.766470373841 0 -188.766470373841 325.9421844232329 0 0 0 0 53.933654225868622 -124.66561766012455 0 -124.66561766012455 455.83757248596885 0 0 0 0 56.798143920452958 -78.773835195678203 0 -78.773835195678203 545.76962959022421 0 0 0 0 8.095648978582858 -154.47231963273589 0 -154.47231963273589 563.7727862531965 0 0 0 0 58.54677028873526 -150.83118085755774 0 -150.83118085755774 400.65957141753825 0 0 0 0 51.55061652466361 -91.062485419934546 0 -91.062485419934546 339.15116416824276 0 0 0 0 0.92409498324481554 -1.6441274437634101 0 -1.6441274437634101 -1.043484386875833 0 0 0 0 86.567979342666831 -156.95154130092578 0 -156.95154130092578 276.35598553804789 0 0 0 0 103.81821817356831 -161.70832974806376 0 -161.70832974806376 262.11381867220825 0 0 0 0 133.0174866738862 -154.10560405071965 0 -154.10560405071965 255.11908995398949 0 0 0 0 98.972522221709141 -155.92723965780897 0 -155.92723965780897 274.52652787896295 0 0 0 0 64.694819398070649 -195.69773731375517 0 -195.69773731375517 228.39105828546599 0 0 0 0 97.429988203693938 4.0245816230690252 0 4.0245816230690252 10.119779775161078 0 0 0 0 -4.3852392110372698 -3.9065441219760046 0 -3.9065441219760046 6.958825965804218 0 0 0 0 -7.3082089902814857 -20.257216941149863 0 -20.257216941149863 19.880837330676513 0 0 0 0 -140.16091122284479 -177.14116652425764 0 -177.14116652425764 145.70667624964699 0 0 0 0 38.362581075478374 -110.0100392375407 0 -110.0100392375407 252.47338522436985 0 0 0 0 -78.028480163085533 -199.05229793464059 0 -199.05229793464059 267.11827793609723 0 0 0 0 -97.284440174386873 -98.941564259924007 0 -98.941564259924007 272.72897921565163 0 0 0 0 -0.41665417760270373 -1.729426226856845 0 -1.729426226856845 0.19340135567122019 0 0 0 0 48.823913603560868 -58.899038652594754 0 -58.899038652594754 133.50304688675971 0 0 0 0 69.292130703771363 -189.18991009982165 0 -189.18991009982165 137.57233476301553 0 0 0 0 -38.283719783228548 -113.12097626003515 0 -113.12097626003515 277.42851324473122 0 0 0 0 -120.35632054637722 -175.95658019636903 0 -175.95658019636903 397.57618073095364 0 0 0 0 2.5694486537449848 -81.845509522048815 0 -81.845509522048815 448.06405950212684 0 0 0 0 -88.730693876796607 -8.8821812490388083 0 -8.8821812490388083 398.34878396906424 0 0 0 0 -11.634811562217237 -59.014759412684725 0 -59.014759412684725 523.97431666024113 0 0 0 0 51.55753109632974 -97.097250616291603 0 -97.097250616291603 320.78206158876083 0 0 0 0 -135.32651362576348 -1.7763418703843854 0 -1.7763418703843854 273.17108647364785 0 0 0 0 -189.60971967272451 -336.5904669110505 0 -336.5904669110505 463.61833825064809 0 0 0 0 109.76713464539449 -83.494140956348588 0 -83.494140956348588 197.39161548312495 0 0 0 0 -2.4740493806041082 -1.3009968593368688 0 -1.3009968593368688 -0.26983098558159568 0 0 0 0 -146.96927585597416 -223.28524198642663 0 -223.28524198642663 244.81523461725305 0 0 0 0 57.395038489266199 -106.52691974880281 0 -106.52691974880281 -38.342630685511267 0 0 0 0 -240.75947136920249 -318.74406026225671 0 -318.74406026225671 133.46374011881198 0 0 0 0 36.81398373835134 -162.15178188602994 0 -162.15178188602994 271.91092679857138 0 0 0 0 21.347357120997344 -95.700509926628001 0 -95.700509926628001 104.95805356682922 0 0 0 0 -72.753213556055471 -188.10379209396262 0 -188.10379209396262 351.01438037611479 0 0 0 0 33.984838116389483 -100.86532048935987 0 -100.86532048935987 404.52242898932673 0 0 0 0 112.05297770052744 -163.98256569257046 0 -163.98256569257046 241.38469398522602 0 0 0 0 -1.4101538932323781 -3.6014608738748803 0 -3.6014608738748803 -1.6696186546666594 0 0 0 0 27.972630464618987 -270.9174071592513 0 -270.9174071592513 323.5708306569627 0 0 0 0 -2.3575643564333859 -80.344583206327343 0 -80.344583206327343 155.20444447849854 0 0 0 0 -106.42516861940749 -225.99675845670458 0 -225.99675845670458 314.22120764582905 0 0 0 0 -28.359751305678628 -109.18298510092939 0 -109.18298510092939 419.1103918602148 0 0 0 0 -112.20146304232503 -240.80027398933748 0 -240.80027398933748 556.17583666009227 0 0 0 0 812.36801048333837 92.209382688937922 0 92.209382688937922 -13.830439270690249 0 0 0 0 89.780588966941195 -353.56048642616111 0 -353.56048642616111 613.36204674273904 0 0 0 0 -0.27399777755705657 -1.2632159438498869 0 -1.2632159438498869 -0.13556184061089738 0 0 0 0 40.200222043605208 -119.2794545094921 0 -119.2794545094921 480.46670889967163 0 0 0 0 146.16015670544215 -269.2261826521044 0 -269.2261826521044 381.79080869781865 0 0 0 0 56.619343824832413 -190.84459314842479 0 -190.84459314842479 344.46868824612011 0 0 0 0 147.47522336414852 -149.46955642610632 0 -149.46955642610632 366.4669590078629 0 0 0 0 41.458222725834275 -189.65787452069787 0 -189.65787452069787 364.60828058725201 0 0 0 0 41.899511013887604 -197.07733254958839 0 -197.07733254958839 345.79284017443024 0 0 0 0 42.495671824447527 -96.25554220070444 0 -96.25554220070444 243.69418010434583 0 0 0 0 -1.6355138194808205 -134.69747255565062 0 -134.69747255565062 231.9107811037984 0 0 0 0 -90.481790521788298 -44.052475588244306 0 -44.052475588244306 201.44519122709971 0 0 0 0 -111.20142546735497 -68.17484283933527 0 -68.17484283933527 269.0445191588019 0 0 0 0 10.660747294967678 -112.39211927189126 0 -112.39211927189126 265.92796213874817 0 0 0 0 32.223615906850625 -129.41676810807871 0 -129.41676810807871 248.00539612029388 0 0 0 0 35.621568857027341 -212.4214023687714 0 -212.4214023687714 322.60484257153166 0 0 0 0 29.573665061474287 -185.33106649836859 0 -185.33106649836859 336.60325995385756 0 0 0 0 78.960330560335024 -196.16657948220836 0 -196.16657948220836 324.01080365385678 0 0 0 0 84.390346311814483 -173.46072953698422 0 -173.46072953698422 418.10898260227714 0 0 0 0 114.67234108786033 -165.66528713994239 0 -165.66528713994239 332.29224121505285 0 0 0 0 144.30637143796275 -270.47098094103467 0 -270.47098094103467 486.16607482956533 0 0 0 0 185.87613011189887 -170.06130756059156 0 -170.06130756059156 324.62822077190231 0 0 0 0 -29.375151888869084 -182.8545489255356 0 -182.8545489255356 480.76892664573597 0 0 0 0 1.1243534207213566 -1.5439705975075775 0 -1.5439705975075775 -0.0079442655834343068 0 0 0 0 209.1160351402923 -137.90407776682059 0 -137.90407776682059 72.944267585030161 0 0 0 0 -3.5799352965299138 -4.4083265074160733 0 -4.4083265074160733 -0.75057713706621865 0 0 0 0 69.787766800720647 -290.31270314435119 0 -290.31270314435119 471.34249156561782 0 0 0 0 46.171161861091605 -221.04699446751238 0 -221.04699446751238 428.46488916784892 0 0 0 0 68.841703740704531 -247.77945293382368 0 -247.77945293382368 384.22758091738069 0 0 0 0 30.925874625327424 -202.41237631570175 0 -202.41237631570175 414.02882763030721 0 0 0 0 -61.011344160557641 -146.23111827883781 0 -146.23111827883781 1133.7572884288093 0 0 0 0 24.385870821938852 316.31029268585553 0 316.31029268585553 1292.0767911309031 0 0 0 0 -57.489245875780966 -210.15778138351743 0 -210.15778138351743 2270.5956379429626 0 0 0 0 0.99722481029761501 493.56145287066829 0 493.56145287066829 1582.9150563054245 0 0 0 0 -0.091106356863794868 102.01056097710534 0 102.01056097710534 -100.57991915986349 0 0 0 0 0.37963009948950532 2.3735852991636648 0 2.3735852991636648 5.0755060392331472 0 0 0 0 2.7288344980388821 7.2166561126736894 0 7.2166561126736894 6.3612901218986906 0 0 0 0 3.5920524333832873 51.927972267883888 0 51.927972267883888 849.52940438016958 0 0 0 0 49.744038800554335 -6.5395807419226912 0 -6.5395807419226912 645.00131341027009 0 0 0 0 1.565295624933734 7.1406472414981152 0 7.1406472414981152 -0.5176994364147518 0 0 0 0 -55.258391455941137 143.47975984537698 0 143.47975984537698 1040.8491274192274 0 0 0 0 -72.920789490223342 173.15722523103977 0 173.15722523103977 1182.5288152991634 0 0 0 0 -4.38959815914518 177.74401176970969 0 177.74401176970969 1025.9074115807161 0 0 0 0 -0.22130842345988036 5.64518960481238 0 5.64518960481238 2.1040936122986409 0 0 0 0 13.791974116497023 21.98222446609725 0 21.98222446609725 105.54793131728366 0 0 0 0 -23.703335269118782 20.03365591484544 0 20.03365591484544 117.27755733722006 0 0 0 0 -41.403322993369898 -13.356761066173931 0 -13.356761066173931 71.851713288488099 0 0 0 0 21.752711314992808 -14.219093956844517 0 -14.219093956844517 80.049191873215022 0 0 0 0 -8.5418668978691237 -2.6415190443962899 0 -2.6415190443962899 2.1341045173601003 0 0 0 0 -35.393180567575129 19.125991551482002 0 19.125991551482002 114.54824302231646 0 0 0 0 0.062862102439397494 40.171472983727654 0 40.171472983727654 249.57475148216326 0 0 0 0 62.969279041408768 104.22031880286522 0 104.22031880286522 202.96927449440409 0 0 0 0 -2.7950083060658337 -0.54692170179841071 0 -0.54692170179841071 2.0652462373560354 0 0 0 0 70.541532406766862 290.1779920050576 0 290.1779920050576 1269.0877399160236 0 0 0 0 56.495840419436142 41.494124592176377 0 41.494124592176377 85.711216798097666 0 0 0 0 -13.236854908796994 46.090259141030401 0 46.090259141030401 339.56695049368864 0 0 0 0 -277.93644899911584 571.99958839014835 0 571.99958839014835 2495.3814001827814 0 0 0 0 41.332395051468467 110.78383682124695 0 110.78383682124695 -82.588479135403759 0 0 0 0 71.33712476323997 356.21646282119468 0 356.21646282119468 805.44754368271242 0 0 0 0 129.67206303538126 476.31487485719481 0 476.31487485719481 837.86320272273224 0 0 0 0 0.94773221741846181 119.0302002799624 0 119.0302002799624 1515.6133533553002 0 0 0 0 99.304982540989414 281.83984633651016 0 281.83984633651016 1203.6101067263808 0 0 0 0 251.65722521564771 1190.2637104192254 0 1190.2637104192254 1873.8678520616704 0 0 0 0 1312.1747391893653 1184.2139246498118 0 1184.2139246498118 626.48268924958029 0 0 0 0 -1.9757647399995379 0.75218995077051787 0 0.75218995077051787 41.657406731952733 0 0 0 0 143.80313178544949 -80.796649551353767 0 -80.796649551353767 496.40085196188238 0 0 0 0 94.194544200202927 113.94364199640768 0 113.94364199640768 173.21603697961109 0 0 0 0 0.66093286929444905 -0.063467637503848096 0 -0.063467637503848096 -0.15854812757112313 0 0 0 0 71.303933156138925 497.2850996618763 0 497.2850996618763 896.40194919679925 0 0 0 0 -51.491337339715841 2.7472013889273512 0 2.7472013889273512 98.684738988056779 0 0 0 0 -44.435707629322422 54.580484978403547 0 54.580484978403547 0.97380913687811699 0 0 0 0 37.344064854806234 60.664604249058357 0 60.664604249058357 42.74680630696821 0 0 0 0 -2.2545325460982868 -0.92953817364333702 0 -0.92953817364333702 7.8708906135415191 0 0 0 0 -21.95730303926149 136.43909598739265 0 136.43909598739265 -38.799267616428551 0 0 0 0 -2.0984089199901916 53.562517013924662 0 53.562517013924662 -72.331928450992564 0 0 0 0 -0.13079186667179954 20.233726062226992 0 20.233726062226992 23.535999508199737 0 0 0 0 -20.712638577039954 12.267903435043991 0 12.267903435043991 -103.392475583335 0 0 0 0 23.753250477565384 104.44766670200261 0 104.44766670200261 -140.93216331458825 0 0 0 0 198.31421991949722 27.47882946953905 0 27.47882946953905 -102.63585386330669 0 0 0 0 51.628020827604985 114.36758362234832 0 114.36758362234832 -5.9080969108326826 0 0 0 0 241.6103386199276 -2.0528668845508946 0 -2.0528668845508946 29.546090064757664 0 0 0 0 -32.99377680568044 292.85742949398991 0 292.85742949398991 182.52203140182246 0 0 0 0 -290.93870594306406 90.873644702314778 0 90.873644702314778 103.38186889042117 0 0 0 0 236.61629099679635 -234.81237056586178 0 -234.81237056586178 57.269538038107385 0 0 0 0 154.27202765217098 196.1008682806023 0 196.1008682806023 524.53211402802845 0 0 0 0 182.6616663005982 -585.28093026519673 0 -585.28093026519673 1350.8538467046455 0 0 0 0 -392.85876522744098 -779.53078992167138 0 -779.53078992167138 2495.5319673691702 0 0 0 0 -323.21689855683383 -370.23231396132178 0 -370.23231396132178 1720.9148519705705 0 0 0 0 484.52826650439908 -1072.659884282537 0 -1072.659884282537 1234.8428851510835 0 0 0 0 1.4902483799314439 -0.339967051727875 0 -0.339967051727875 17.763297716035368 0 0 0 0 4.3455502932637842 -161.05665351584139 0 -161.05665351584139 2785.0359398148721 0 0 0 0 520.0970000905578 -461.47960538898042 0 -461.47960538898042 2500.7166788407485 0 0 0 0 -364.15882420838028 -573.701541420789 0 -573.701541420789 2698.6211394895508 0 0 0 0 -64.376678810973402 710.96614651015989 0 710.96614651015989 1399.1472174073169 0 0 0 0 -514.86288924045903 -857.97373104039434 0 -857.97373104039434 2593.5630229791059 0 0 0 0 -74.395899619436264 -1291.2413966586482 0 -1291.2413966586482 965.82791265487322 0 0 0 0 -0.41151538252241221 -0.13750394172865477 0 -0.13750394172865477 13.319564970328855 0 0 0 0 -592.19602118250111 220.54296696033998 0 220.54296696033998 -300.77712130123109 0 0 0 0 -162.57700596642354 -46.506647927566519 0 -46.506647927566519 72.923086427952512 0 0 0 0 -2111.5154958105495 -81.976559169230313 0 -81.976559169230313 633.80092099339527 0 0 0 0 -1.6025778094576726 3.0322996439065588 0 3.0322996439065588 27.215984173505063 0 0 0 0 -108.42115031310867 -98.852920048433589 0 -98.852920048433589 110.91393200020684 0 0 0 0 272.06041767902161 -105.9397623845648 0 -105.9397623845648 87.854109497384343 0 0 0 0 60.777841144681432 -33.437018634682317 0 -33.437018634682317 -155.34275696975237 0 0 0 0 112.59561483360474 -133.50506151104673 0 -133.50506151104673 11.871913185255835 0 0 0 0 -82.90098550484683 -3.4672086015052628 0 -3.4672086015052628 -74.033590958817513 0 0 0 0 -1021.9745023448206 -575.87220915473154 0 -575.87220915473154 -227.48298647733463 0 0 0 0 -101.07513198438971 -47.104170753740618 0 -47.104170753740618 25.187153972525266 0 0 0 0 -964.11011774461645 600.47352602576575 0 600.47352602576575 -473.83255640100106 0 0 0 0 -2.6145483709215256 11.098843637644261 0 11.098843637644261 19.315277685374156 0 0 0 0 -8.4015260054033689 13.081474189744768 0 13.081474189744768 -8.0081036446063081 0 0 0 0 -2093.6587281474917 537.02210631583148 0 537.02210631583148 808.00497274716327 0 0 0 0 -15.615877352246329 41.152848146994074 0 41.152848146994074 -101.39571174696175 0 0 0 0 -18.243378398180926 6.9890648595494582 0 6.9890648595494582 17.036040437778425 0 0 0 0 -46.046705363349986 -0.62153088197374018 0 -0.62153088197374018 64.693684908634168 0 0 0 0 -1465.3788130184466 95.513978453935124 0 95.513978453935124 304.55119435640518 0 0 0 0 1756.0843166684263 1721.8743050816411 0 1721.8743050816411 1673.6488554511379 0 0 0 0 -5.292727388313935 6.9165514918629505 0 6.9165514918629505 15.147427611584931 0 0 0 0 -898.55458135756544 1621.5598648918603 0 1621.5598648918603 -1617.4460229417091 0 0 0 0 -4.8198227079211353 0.94184894501385941 0 0.94184894501385941 5.1235040524942548 0 0 0 0 685.34026586387336 -1516.8410624918101 0 -1516.8410624918101 2123.6436471480847 0 0 0 0 -321.22190070639772 351.04863384323835 0 351.04863384323835 3556.2420692794767 0 0 0 0 911.95647027089467 -585.223319571498 0 -585.223319571498 3699.6608659083722 0 0 0 0 -910.37424383203779 2496.5725883790292 0 2496.5725883790292 2967.3888635822077 0 0 0 0 -360.60966663267482 75.291081563977059 0 75.291081563977059 1720.6578565155578 0 0 0 0 -374.14186997628531 -4.5832672513879515 0 -4.5832672513879515 1920.9263945852726 0 0 0 0 200.45494381817662 -220.78667031306395 0 -220.78667031306395 830.1412437076724 0 0 0 0 -21.52092005084296 -482.78018491306102 0 -482.78018491306102 1350.9604786699347 0 0 0 0 -34.016764052676081 -102.88984730377706 0 -102.88984730377706 635.99446998257918 0 0 0 0 -9.617793889439838 -16.194933882883561 0 -16.194933882883561 52.499751846698928 0 0 0 0 -1.6430205322555578 0.11452446151565709 0 0.11452446151565709 10.944620951445913 0 0 0 0 -53.049306722179651 31.505565018855123 0 31.505565018855123 34.974524417950306 0 0 0 0 -14.613366547181913 10.912173882067421 0 10.912173882067421 15.215391774035012 0 0 0 0 -50.773416793709202 -33.608827097265021 0 -33.608827097265021 1089.2394997549854 0 0 0 0 -0.28696446572560186 23.453741047756296 0 23.453741047756296 19.785264337905971 0 0 0 0 -15.529948528748207 23.20299346297179 0 23.20299346297179 103.43402609556506 0 0 0 0 -14.048547393786636 -3.8775520370578818 0 -3.8775520370578818 10.650096170393212 0 0 0 0 -35.801707098509723 11.290859381791961 0 11.290859381791961 892.40879948049405 0 0 0 0 -43.851259768840919 116.72967083616095 0 116.72967083616095 989.5640341142971 0 0 0 0 -100.36510602449812 113.16334296819332 0 113.16334296819332 1098.1348200241846 0 0 0 0 -123.79453414659383 86.275978077246691 0 86.275978077246691 1076.755940958652 0 0 0 0 -288.16909357890017 149.79073158273241 0 149.79073158273241 1181.241827515958 0 0 0 0 -63.491961209463852 306.12201407883185 0 306.12201407883185 1240.5106828686985 0 0 0 0 -38.416355844930422 200.11863003974577 0 200.11863003974577 1056.8138672076184 0 0 0 0 -47.427646379447197 125.73204038590484 0 125.73204038590484 206.32781398376756 0 0 0 0 5.4037303671913737 6.918010908541234 0 6.918010908541234 -3.0445334812492817 0 0 0 0 -33.171107448211842 143.67852679144744 0 143.67852679144744 920.51271844032453 0 0 0 0 8.5727199520411936 8.3821311935002996 0 8.3821311935002996 -3.7161312862961893 0 0 0 0 95.049024867772914 -179.2995640757108 0 -179.2995640757108 220.18105825539533 0 0 0 0 149.01322375244763 287.90920686910977 0 287.90920686910977 360.66894589225558 0 0 0 0 17.618814403419947 27.870614233172091 0 27.870614233172091 52.006350826251946 0 0 0 0 1548.5248756748074 -226.00988401789073 0 -226.00988401789073 262.53696059810318 0 0 0 0 1.0503926348283112 9.7466707304365485 0 9.7466707304365485 -5.4662499079204565 0 0 0 0 65.719577347114864 -217.5262569944025 0 -217.5262569944025 1263.4143848550902 0 0 0 0 2778.5624470801495 957.19631310865589 0 957.19631310865589 1486.7287668805075 0 0 0 0 -78.676935271512775 528.64326815730965 0 528.64326815730965 734.1316317936944 0 0 0 0 -371.37935168562126 800.37013297498925 0 800.37013297498925 1757.9681595533148 0 0 0 0 -2.7701053028827118 12.93489102247986 0 12.93489102247986 61.719668457379157 0 0 0 0 -20.021364903931126 17.941121423368656 0 17.941121423368656 -1.4065818382508581 0 0 0 0 -667.11638001891299 208.1576275848463 0 208.1576275848463 3.5114111377915833 0 0 0 0 -657.54512135841287 416.5634292348841 0 416.5634292348841 1299.0143999406355 0 0 0 0 -25.879275563504962 90.882709323813287 0 90.882709323813287 235.42098667669052 0 0 0 0 10.700098390469975 -79.938390677030839 0 -79.938390677030839 137.91159443605829 0 0 0 0 2.7587204070493776 5.6111238207329066 0 5.6111238207329066 14.271334960840989 0 0 0 0 -6.1861074690550595 13.504195730522042 0 13.504195730522042 4.8278296800272074 0 0 0 0 -72.310914530484297 59.271070394584967 0 59.271070394584967 38.061000233872619 0 0 0 0 -25.864317909685724 5.9962455001113995 0 5.9962455001113995 16.690218719719269 0 0 0 0 -40.939454099399427 27.411886205756673 0 27.411886205756673 8.9497331833263161 0 0 0 0 -22.373851576437119 28.725054881837423 0 28.725054881837423 105.56207821181488 0 0 0 0 -1.232181192393238 14.575963065310795 0 14.575963065310795 16.005797672708439 0 0 0 0 -5.883882643391189 29.462220665296627 0 29.462220665296627 21.215653855579149 0 0 0 0 -14.319439409230103 19.193721937924209 0 19.193721937924209 -1.8652247480776083 0 0 0 0 -6.7141705228928004 31.343762194108422 0 31.343762194108422 17.040692887239857 0 0 0 0 -5.3379214785355256 16.391544997320068 0 16.391544997320068 11.922026056934968 0 0 0 0 2.3383825521541155 28.126009514650747 0 28.126009514650747 4.6660781741131618 0 0 0 0 -12.61658091769732 46.766768871064414 0 46.766768871064414 133.78702281454844 0 0 0 0 -15.935148463675432 28.843013587364112 0 28.843013587364112 23.673980436862621 0 0 0 0 2.3418564901517129 13.417767519000336 0 13.417767519000336 14.777109831375128 0 0 0 0 151.76670362378633 414.51712529737233 0 414.51712529737233 1385.3940895943379 0 0 0 0 -18.059809432181982 -6.8978246083834733 0 -6.8978246083834733 16.035081846901448 0 0 0 0 172.17679947300863 560.86393761893123 0 560.86393761893123 1522.9843005021103 0 0 0 0 11.687018663761648 465.77340507070767 0 465.77340507070767 1686.6670542554639 0 0 0 0 81.963716671929433 626.00869410432642 0 626.00869410432642 1992.3444241776306 0 0 0 0 274.24936876776292 629.72886850230134 0 629.72886850230134 1477.1599606573218 0 0 0 0 297.19905471975665 747.77563668056973 0 747.77563668056973 1673.9554340452178 0 0 0 0 694.30007237104064 775.79428181774347 0 775.79428181774347 1067.4637906343269 0 0 0 0 1126.7669878740612 517.70519441340002 0 517.70519441340002 692.93095966029796 0 0 0 0 632.47806172893308 803.96277409217146 0 803.96277409217146 1393.1805204756074 0 0 0 0 1095.0347531267921 920.01319227363274 0 920.01319227363274 1373.0802411671812 0 0 0 0 1266.8332614672643 1405.2247746503854 0 1405.2247746503854 2011.5922341091791 0 0 0 0 1094.152700994649 538.18926951824869 0 538.18926951824869 2129.3773456919007 0 0 0 0 1651.8607401079071 1102.0101009723148 0 1102.0101009723148 2084.9124092679413 0 0 0 0 600.66913619988463 854.04316896921955 0 854.04316896921955 3401.4344295287156 0 0 0 0 752.36501980460343 1256.8244237211911 0 1256.8244237211911 4410.7269848138094 0 0 0 0 1848.6288546728895 783.38338438157371 0 783.38338438157371 1956.7961531577166 0 0 0 0 3179.9834842690316 2099.8640979728807 0 2099.8640979728807 2772.0218909122632 0 0 0 0 2231.6426516071215 1991.1102686199883 0 1991.1102686199883 2961.7314462499635 0 0 0 0 247.37706797691749 741.95482020139025 0 741.95482020139025 1673.5061677861668 0 0 0 0 318.79479325767602 1030.429495297125 0 1030.429495297125 2496.0535930537881 0 0 0 0 567.02646226171737 1038.1804597766313 0 1038.1804597766313 2436.3531241983874 0 0 0 0 10.592663298935804 10.922022025792103 0 10.922022025792103 -10.67644504214968 0 0 0 0 222.52862843119715 354.98415062170534 0 354.98415062170534 1681.4647417470405 0 0 0 0 -3.5015869440303748 8.6433309054189635 0 8.6433309054189635 8.802916564260947 0 0 0 0 1.3794773870492918 14.21973163576331 0 14.21973163576331 23.386510363990965 0 0 0 0 -7.272413082827244 3.9918739575136613 0 3.9918739575136613 5.526434953172739 0 0 0 0 600.2470597233746 436.56417245366902 0 436.56417245366902 503.07105364851304 0 0 0 0 6.0450898068800738 18.596982599703026 0 18.596982599703026 1.6365881475077231 0 0 0 0 -901.38831822186057 -464.3410674869956 0 -464.3410674869956 3925.0868582926632 0 0 0 0 324.01259396227442 1377.1955097084065 0 1377.1955097084065 5918.5085266655078 0 0 0 0 1062.4801786263524 87.228399056359194 0 87.228399056359194 -821.69864166119805 0 0 0 0 7.7482480995494614 2.6215870422422825 0 2.6215870422422825 0.40590395779646649 0 0 0 0 350.41588760619652 491.85109798172198 0 491.85109798172198 512.61481303576147 0 0 0 0 2.1967107632514504 1.4895998179652494 0 1.4895998179652494 -1.9336889764354055 0 0 0 0 1037.3899691561564 2464.8974093382567 0 2464.8974093382567 5377.7763926981133 0 0 0 0 2502.175752688966 996.4982375841646 0 996.4982375841646 -284.98043479790795 0 0 0 0 -688.40890865358779 136.71411341636122 0 136.71411341636122 416.78314526108443 0 0 0 0 -1.2543511750651639 27.741625561432784 0 27.741625561432784 3.1616592126650858 0 0 0 0 -491.71322822122784 1487.2677862393029 0 1487.2677862393029 843.86735028110706 0 0 0 0 -1146.9640958981331 1506.7914711943158 0 1506.7914711943158 2315.2847839187889 0 0 0 0 -908.140623046987 847.15248188446458 0 847.15248188446458 1462.9623985998041 0 0 0 0 433.99231568910022 1308.503231082097 0 1308.503231082097 1367.5063034025661 0 0 0 0 1304.9648354992451 2325.0080342906003 0 2325.0080342906003 2541.4537073933461 0 0 0 0 1126.5147724570706 332.73758417220961 0 332.73758417220961 2924.0549913098839 0 0 0 0 -352.1288182903786 971.33126255637035 0 971.33126255637035 2094.9550247535044 0 0 0 0 -374.97625977198459 2036.0123728624458 0 2036.0123728624458 1816.1833941106452 0 0 0 0 -615.51685285077292 1866.0289473642624 0 1866.0289473642624 1833.7094121457048 0 0 0 0 -689.11341094989029 2108.4159911368115 0 2108.4159911368115 1055.3473070175969 0 0 0 0 -868.79691727748468 1313.0003734107158 0 1313.0003734107158 1497.8468591154451 0 0 0 0 -1341.8152443847907 642.94013515329789 0 642.94013515329789 1009.6742594115203 0 0 0 0 -511.64498871902924 1393.2894186840495 0 1393.2894186840495 1005.6395347063371 0 0 0 0 -161.12588243964638 706.4009668303479 0 706.4009668303479 972.89134462070069 0 0 0 0 -730.42867090720574 117.76530076221388 0 117.76530076221388 942.68035503558804 0 0 0 0 301.18206103518901 1353.9462299185107 0 1353.9462299185107 1881.8372232587426 0 0 0 0 212.78452078650889 127.43735585377726 0 127.43735585377726 1808.2832347135936 0 0 0 0 1218.7475079350038 749.48548475169082 0 749.48548475169082 1133.393470801384 0 0 0 0 445.8923127392319 222.43817758135265 0 222.43817758135265 1126.7518157463903 0 0 0 0 331.56169354207714 462.89880504416215 0 462.89880504416215 641.97543204716931 0 0 0 0 -283.03427901443183 -22.41533617884852 0 -22.41533617884852 907.0016251363304 0 0 0 0 -437.67938081205375 285.47206719775568 0 285.47206719775568 368.10258417258592 0 0 0 0 -162.65617531177122 399.92281949092285 0 399.92281949092285 272.6226816092676 0 0 0 0 -743.40462000213165 43.133712688424566 0 43.133712688424566 763.3169336161227 0 0 0 0 500.20286654155848 10.930664450046606 0 10.930664450046606 494.90443797259286 0 0 0 0 -75.203138576738183 -253.96719970531558 0 -253.96719970531558 142.85061445530664 0 0 0 0 381.19353178017536 165.1419893178645 0 165.1419893178645 402.63277466477302 0 0 0 0 -781.95777545724854 -10.75754568915545 0 -10.75754568915545 391.76818108021689 0 0 0 0 420.81821576469559 361.17283397163555 0 361.17283397163555 1062.2253150548349 0 0 0 0 435.05173207200556 73.911381039913977 0 73.911381039913977 551.00022070730483 0 0 0 0 383.5507307099013 486.81920004906351 0 486.81920004906351 835.61905139853479 0 0 0 0 590.19395631296777 325.24801796294923 0 325.24801796294923 694.45348501401168 0 0 0 0 172.05739674028717 -288.81973358071627 0 -288.81973358071627 1012.9349683291166 0 0 0 0 162.46695701096084 -152.53029557062473 0 -152.53029557062473 1422.5757985664823 0 0 0 0 -273.87062028387857 -671.2723882630271 0 -671.2723882630271 456.04705519277195 0 0 0 0 181.45172025712674 -380.56653651383749 0 -380.56653651383749 480.99767476717534 0 0 0 0 -205.16848926952366 -423.84314648737563 0 -423.84314648737563 1107.328541990908 0 0 0 0 -48.752377258728984 -206.74836757500452 0 -206.74836757500452 -28.893449882823916 0 0 0 0 -26.222386497295474 -428.43153121521755 0 -428.43153121521755 560.44395418238673 0 0 0 0 -303.72259956556923 -1037.0454516940335 0 -1037.0454516940335 1136.5895744302941 0 0 0 0 75.896833503803578 -207.18061975576711 0 -207.18061975576711 1403.1106845630347 0 0 0 0 -375.68895581742902 -490.89768869136333 0 -490.89768869136333 1887.1302390535275 0 0 0 0 -365.4643631641311 -552.39265189058187 0 -552.39265189058187 2247.4149121001101 0 0 0 0 -511.58696408013913 -646.87346133056053 0 -646.87346133056053 2499.876411482805 0 0 0 0 -233.96339721456297 -33.886634371681794 0 -33.886634371681794 1923.8228048606979 0 0 0 0 -325.42138571838785 -224.18198772415417 0 -224.18198772415417 2499.7154128745983 0 0 0 0 7.5382602814759991 -116.05701467408653 0 -116.05701467408653 1489.3919397892168 0 0 0 0 28.371822696969133 4.2630872413319594 0 4.2630872413319594 1929.361040452919 0 0 0 0 64.040941143153702 102.1324194652866 0 102.1324194652866 1653.9708164217664 0 0 0 0 222.55793867974307 244.97586465951917 0 244.97586465951917 1546.828294564868 0 0 0 0 115.56772012018179 247.0395437672596 0 247.0395437672596 1653.9387467666841 0 0 0 0 263.88672805248655 218.71977496256295 0 218.71977496256295 1188.3013739072485 0 0 0 0 116.74635710631821 -45.985295216896702 0 -45.985295216896702 1527.0443351815193 0 0 0 0 427.64850514847262 406.38113259879174 0 406.38113259879174 1334.0230100007502 0 0 0 0 231.30993851124356 480.45625062719228 0 480.45625062719228 1395.1919868523401 0 0 0 0 173.22045873934766 444.56967963357965 0 444.56967963357965 1548.7200913230699 0 0 0 0 149.90081140942991 446.72805224213516 0 446.72805224213516 1566.2866455787589 0 0 0 0 152.89859324582463 419.48897236038738 0 419.48897236038738 1735.746405756101 0 0 0 0 166.07095562679979 431.73652607185431 0 431.73652607185431 1747.0908029573766 0 0 0 0 209.67352228541952 472.99113041736564 0 472.99113041736564 1870.2722531979452 0 0 0 0 156.84221298568735 419.55543692353785 0 419.55543692353785 1816.466289600372 0 0 0 0 68.204519877369535 245.72290024772883 0 245.72290024772883 1812.9907522853791 0 0 0 0 86.236162468203503 339.37548764398525 0 339.37548764398525 1955.3653509275937 0 0 0 0 115.67009804891961 299.98238903093272 0 299.98238903093272 1798.5633551795472 0 0 0 0 83.551794202576403 275.96001064843949 0 275.96001064843949 1780.6167800332332 0 0 0 0 69.348685701669922 148.46760682881904 0 148.46760682881904 1810.9322665423751 0 0 0 0 28.340379580843205 230.82576166126455 0 230.82576166126455 1991.9279944316222 0 0 0 0 -16.084445543722268 458.27085577175967 0 458.27085577175967 1908.3099497163166 0 0 0 0 -20.384797728867511 348.29056653798216 0 348.29056653798216 1761.9657368982371 0 0 0 0 -136.34740051609649 455.43877533234274 0 455.43877533234274 1924.1132531415496 0 0 0 0 -194.96639563541814 123.77053402280035 0 123.77053402280035 2499.1627402589293 0 0 0 0 -130.0554984526795 350.05314677372735 0 350.05314677372735 1987.0778914132661 0 0 0 0 265.61610861356911 1437.9326990660193 0 1437.9326990660193 2496.732577628135 0 0 0 0 -288.70674228458756 688.27974554854518 0 688.27974554854518 2500.4050027672856 0 0 0 0 48.921722326739726 948.85703369959811 0 948.85703369959811 1439.4936255011671 0 0 0 0 51.402991814142297 267.37196251581349 0 267.37196251581349 1080.8317528317239 0 0 0 0 -653.54795241352031 -246.75958852069016 0 -246.75958852069016 1487.8196367959008 0 0 0 0 229.51005862032514 1345.2952521952643 0 1345.2952521952643 2447.8756749592285 0 0 0 0 302.94534577822503 1099.9909015780704 0 1099.9909015780704 1740.802380051915 0 0 0 0 -1.7547164238682318 -0.019418177617907872 0 -0.019418177617907872 7.8833083998135862 0 0 0 0 -212.71945680346903 357.53384973614448 0 357.53384973614448 2675.783409302805 0 0 0 0 62.49098570705064 305.73927360562811 0 305.73927360562811 1823.0449369986736 0 0 0 0 -107.83543331929127 386.39237655601573 0 386.39237655601573 2218.2436117955149 0 0 0 0 95.128579317665867 530.39989957884063 0 530.39989957884063 2708.2067566260739 0 0 0 0 226.41372157761103 680.23713587277814 0 680.23713587277814 2106.7808836588883 0 0 0 0 -100.05732592724098 -199.17252556992753 0 -199.17252556992753 -25.561102036452212 0 0 0 0 -4.5187618221259171 -2.0914021329306962 0 -2.0914021329306962 4.7250930812510958 0 0 0 0 159.80440552607848 176.75853051850936 0 176.75853051850936 1605.6381369551527 0 0 0 0 26.645510591720949 209.76495303261618 0 209.76495303261618 1609.1015031377101 0 0 0 0 -351.97734851752455 -218.7575280913079 0 -218.7575280913079 528.45628113440034 0 0 0 0 -310.13549760475576 4.8114048172719777 0 4.8114048172719777 1543.7313287273028 0 0 0 0 145.52581935388548 72.807308156010549 0 72.807308156010549 103.84410654604289 0 0 0 0 -74.100883294564483 65.084268243161205 0 65.084268243161205 73.188420742204471 0 0 0 0 -27.021244927858611 39.426461392015199 0 39.426461392015199 -4.367465388248057 0 0 0 0 -27.171729784844729 218.13280004981607 0 218.13280004981607 355.15903915767558 0 0 0 0 -25.582888959226693 35.456583772684098 0 35.456583772684098 19.484326807476464 0 0 0 0 -34.94729440075389 75.390833702953387 0 75.390833702953387 -52.771821801099577 0 0 0 0 -14.230518407153795 84.307726807546715 0 84.307726807546715 61.183201857013046 0 0 0 0 -6.3769209444435546 56.00187608156557 0 56.00187608156557 94.677547614894138 0 0 0 0 -0.51746771087160326 -0.005655695118349513 0 -0.005655695118349513 0.68486543976398195 0 0 0 0 18.954484408005783 115.26007899262731 0 115.26007899262731 -204.51522773252509 0 0 0 0 -48.64789373572421 1.3130782414809801 0 1.3130782414809801 -31.463478211837355 0 0 0 0 -1.6308899189239128 36.803976496083123 0 36.803976496083123 50.418274392955936 0 0 0 0 -20.303042328178755 40.879732772017292 0 40.879732772017292 -20.648039801806213 0 0 0 0 -139.26382003637627 110.55476677085426 0 110.55476677085426 251.9186285345022 0 0 0 0 -1.0152332245347679 91.059591315417492 0 91.059591315417492 107.16988977791334 0 0 0 0 -39.928750515505953 20.332395406056094 0 20.332395406056094 150.29396911454387 0 0 0 0 -25.12715965200141 19.27485362432526 0 19.27485362432526 126.31939072831301 0 0 0 0 145.38391410954807 527.34791144463452 0 527.34791144463452 1850.9120980985626 0 0 0 0 -21.76820340638551 36.677123469249636 0 36.677123469249636 131.4415294497303 0 0 0 0 -12.047151876378546 -5.8811924081317244 0 -5.8811924081317244 8.1231663499009699 0 0 0 0 159.01418395360758 562.54677489356982 0 562.54677489356982 1655.3572534855266 0 0 0 0 -5.6810058526953071 3.3286473383705015 0 3.3286473383705015 -11.233379604967922 0 0 0 0 -8.9301933833841609 13.23612448953665 0 13.23612448953665 -1.4398670642222129 0 0 0 0 26.855165512823078 41.477197993513983 0 41.477197993513983 67.759610612294637 0 0 0 0 -6.8944242283758701 26.601217086507162 0 26.601217086507162 -11.232213745242337 0 0 0 0 -16.458186356651652 37.675606665124576 0 37.675606665124576 -10.975540336528169 0 0 0 0 -14.509739501270815 68.67769592613331 0 68.67769592613331 -145.3954261511426 0 0 0 0 20.328008700675127 27.807884504640242 0 27.807884504640242 -37.228528556179299 0 0 0 0 -35.272242227803417 37.465128945976176 0 37.465128945976176 161.88157547650917 0 0 0 0 -2.4333196521341165 2.3734105445785474 0 2.3734105445785474 -11.552635785366565 0 0 0 0 3.1924321639962727 38.212622276725597 0 38.212622276725597 -15.506137802192825 0 0 0 0 14.135157048063775 11.001926943456056 0 11.001926943456056 -15.606940397025028 0 0 0 0 1.6789437484258087 19.973381583520677 0 19.973381583520677 19.280622331934865 0 0 0 0 26.575169493175054 48.551789257973724 0 48.551789257973724 27.641650726243824 0 0 0 0 -19.027377537855955 14.177073633609325 0 14.177073633609325 14.136851133502205 0 0 0 0 23.835994825150919 5.7952344495424768 0 5.7952344495424768 12.336958501349727 0 0 0 0 -5.9407299955940402 24.693377621317268 0 24.693377621317268 52.69209977365972 0 0 0 0 84.123744867751157 19.103986248181172 0 19.103986248181172 23.633781291537161 0 0 0 0 91.05551367447606 110.10918188339201 0 110.10918188339201 85.792373217340355 0 0 0 0 25.085980733694669 36.381580646539078 0 36.381580646539078 54.992354333822732 0 0 0 0 11.46617038340446 58.198973943595774 0 58.198973943595774 96.193710844880115 0 0 0 0 9.6346976862641895 64.442481728670828 0 64.442481728670828 97.084169557359928 0 0 0 0 -17.955153684848483 64.816478682456363 0 64.816478682456363 92.388881511505133 0 0 0 0 17.293260632828606 46.939737649838207 0 46.939737649838207 37.533595906032133 0 0 0 0 3.9466838351090701 88.006398783385521 0 88.006398783385521 30.307485181525408 0 0 0 0 -7.3843516084707517 102.7359858126656 0 102.7359858126656 -43.598238945751291 0 0 0 0 -22.099162514556156 96.68153710180195 0 96.68153710180195 53.350740459514782 0 0 0 0 28.671443043656836 67.596457182618906 0 67.596457182618906 46.097208451887127 0 0 0 0 38.877520548930534 71.143807272432241 0 71.143807272432241 46.410991024153191 0 0 0 0 26.705023416521726 55.226326378193335 0 55.226326378193335 34.311501185060479 0 0 0 0 -86.373186352125231 18.522596882310609 0 18.522596882310609 393.38595688678834 0 0 0 0 -39.219251384021845 76.110939957536175 0 76.110939957536175 325.99262567567348 0 0 0 0 -89.015205533782137 -10.737277590604208 0 -10.737277590604208 304.43352777518521 0 0 0 0 -101.56594757900984 -0.83366295256928424 0 -0.83366295256928424 353.70993704714056 0 0 0 0 -18.537680974954583 15.690909142131204 0 15.690909142131204 210.32666949635313 0 0 0 0 -38.782316088198058 58.989931907184655 0 58.989931907184655 249.03802344751239 0 0 0 0 3.0492184908325726 10.300167322438938 0 10.300167322438938 84.58871084627981 0 0 0 0 10.301571804760442 91.714229166844234 0 91.714229166844234 217.2393733576755 0 0 0 0 -32.694827145512136 88.729330623074929 0 88.729330623074929 218.89786293519865 0 0 0 0 1.2395773818661837 7.1118188128348265 0 7.1118188128348265 60.958127209079976 0 0 0 0 234.18892704465543 218.69461806564505 0 218.69461806564505 46.508693717623828 0 0 0 0 -10.203086886896926 240.55917788974693 0 240.55917788974693 558.30675781323225 0 0 0 0 48.817489816206944 8.1541656880253868 0 8.1541656880253868 10.030033798851946 0 0 0 0 -25.953707080069762 5.2581715160813474 0 5.2581715160813474 212.07939071526198 0 0 0 0 429.85143495164357 30.19729552078752 0 30.19729552078752 198.18753022018427 0 0 0 0 -90.494463821311001 -99.273250044840097 0 -99.273250044840097 614.03621628468863 0 0 0 0 -0.9998580871134557 -0.2759827205773604 0 -0.2759827205773604 0.52966305278954451 0 0 0 0 0.93682070680279139 -94.971537816254568 0 -94.971537816254568 363.00420012513496 0 0 0 0 -65.418783729824099 -12.809043830800874 0 -12.809043830800874 373.53791307583015 0 0 0 0 -81.172117425142915 -35.573545969975385 0 -35.573545969975385 343.09620841851574 0 0 0 0 -59.285311780401571 47.280527410417562 0 47.280527410417562 275.43572813345236 0 0 0 0 -9.1191753224666172 -46.783099249492807 0 -46.783099249492807 164.09148937667487 0 0 0 0 -2.2989898296035669 -0.92904360615185055 0 -0.92904360615185055 -0.27616310473723615 0 0 0 0 -2.6908999690849669 13.268754686825559 0 13.268754686825559 135.9840027811133 0 0 0 0 10.433165488930172 -7.0628184581137248 0 -7.0628184581137248 8.7713164065571618 0 0 0 0 7.9772485354678793 -11.988674142114178 0 -11.988674142114178 13.808814515119593 0 0 0 0 7.6199081515151192 -4.7677891906041623 0 -4.7677891906041623 7.0767545889975736 0 0 0 0 0.4528927462476986 -2.1321063389150368 0 -2.1321063389150368 7.4300793526344933 0 0 0 0 0.37001735813828418 -7.2770950998310582 0 -7.2770950998310582 10.827332408429356 0 0 0 0 1.5352481088812056 -8.80361592942063 0 -8.80361592942063 12.720093581356196 0 0 0 0 2.0358363785489928 -6.5990467659394199 0 -6.5990467659394199 11.099687710262515 0 0 0 0 0.25532827188544616 -1.4562661467425642 0 -1.4562661467425642 4.1597933555894997 0 0 0 0 0.53888389813227278 -1.6319448356171762 0 -1.6319448356171762 3.7976193939081782 0 0 0 0 0.5916424260383657 -4.5810272225944573 0 -4.5810272225944573 7.7676566470222781 0 0 0 0 -16.013326375620636 1.6548906474999967 0 1.6548906474999967 14.686154152470408 0 0 0 0 -9.9207470105470748 -4.5810799162500189 0 -4.5810799162500189 18.535823003505357 0 0 0 0 -1.0970492110337489 -2.1325687529752315 0 -2.1325687529752315 10.472598601216021 0 0 0 0 -35.780286649413028 0.92879430708126165 0 0.92879430708126165 2.78144152780078 0 0 0 0 -0.7083917070010628 0.18951268070992455 0 0.18951268070992455 1.8020829741462876 0 0 0 0 -32.36322940395803 16.424562356951355 0 16.424562356951355 23.926589717448223 0 0 0 0 -2.530430674202762 -7.8943899718688044 0 -7.8943899718688044 9.9471651519743318 0 0 0 0 -0.14114871875299428 0.60061770046547736 0 0.60061770046547736 0.17662954673227205 0 0 0 0 2.3230332102941773 -2.3414911373037341 0 -2.3414911373037341 5.0287430528067603 0 0 0 0 -5.110965076022012 -9.5107777919474756 0 -9.5107777919474756 36.960959098476451 0 0 0 0 20.607091369030968 17.334765627223533 0 17.334765627223533 31.994946562408586 0 0 0 0 0.38225438318221805 4.1138372382371529 0 4.1138372382371529 10.431027959543599 0 0 0 0 -24.832048706921341 8.1099655937287025 0 8.1099655937287025 18.925943172424013 0 0 0 0 10.673610352139804 30.322359677815257 0 30.322359677815257 8.978339038323611 0 0 0 0 -11.343680933915493 15.899218904601184 0 15.899218904601184 33.409106118764612 0 0 0 0 -2.4019836892275634 -29.465105122260866 0 -29.465105122260866 108.20990235107456 0 0 0 0 21.617843861109577 -46.629081888822839 0 -46.629081888822839 4.4432601867101766 0 0 0 0 -19.548452960772011 24.37595448761931 0 24.37595448761931 27.181976726142238 0 0 0 0 -57.962805824687166 0.8167530361097306 0 0.8167530361097306 18.277602282185399 0 0 0 0 -39.101172650238368 18.485828411772673 0 18.485828411772673 31.732112664170927 0 0 0 0 -44.386616163352301 -17.117526513589837 0 -17.117526513589837 -1.3265453891071957 0 0 0 0 -54.208949201043197 -2.7131743057398126 0 -2.7131743057398126 24.285509876826836 0 0 0 0 -16.536470878244288 16.515086383974904 0 16.515086383974904 22.50805420998222 0 0 0 0 3.3754719008124994 -2.1991680608825845 0 -2.1991680608825845 18.561504302881076 0 0 0 0 -15.776133203976315 45.524842304101185 0 45.524842304101185 -12.83187887031454 0 0 0 0 -0.11017801421851203 0.82665997914207878 0 0.82665997914207878 1.484013313998048 0 0 0 0 164.21070256407074 48.305975722760195 0 48.305975722760195 -55.168183139510802 0 0 0 0 134.70769769364279 194.783211941849 0 194.783211941849 66.236970400823338 0 0 0 0 -11.883373553363072 105.95774261169936 0 105.95774261169936 47.715721481872606 0 0 0 0 12.828345284265197 64.490562397179019 0 64.490562397179019 54.411471151244768 0 0 0 0 -4.2893564297412468 -17.416146274235871 0 -17.416146274235871 65.679617025605694 0 0 0 0 27.369512554681023 37.920380286781437 0 37.920380286781437 27.37171859240334 0 0 0 0 1.5359722298453562 8.7395418059677468 0 8.7395418059677468 81.573652054292324 0 0 0 0 27.171373065535647 39.070809859253586 0 39.070809859253586 94.073767065106949 0 0 0 0 21.975177355759115 -21.429543996877328 0 -21.429543996877328 50.661006836759043 0 0 0 0 9.652855535128765 -28.736868789743312 0 -28.736868789743312 152.98208769314806 0 0 0 0 -26.71410883763383 2.7902817180583952 0 2.7902817180583952 251.51325857953634 0 0 0 0 -26.427339577918247 5.9429797760603833 0 5.9429797760603833 179.37743742752355 0 0 0 0 -3.2654260561419051 5.7477353247277279 0 5.7477353247277279 168.604245019058 0 0 0 0 -5.4834971448208307 49.255643453536322 0 49.255643453536322 120.29946342451876 0 0 0 0 -9.3218833562117425 38.196953530687097 0 38.196953530687097 161.9930328212431 0 0 0 0 -18.230860820381167 47.937749783632171 0 47.937749783632171 173.96082839284645 0 0 0 0 -9.2028041087746715 80.29727831236778 0 80.29727831236778 123.58728556788992 0 0 0 0 7.7653689040796507 79.919289961457253 0 79.919289961457253 66.856817527208477 0 0 0 0 5.7618691231882622 82.236177964176022 0 82.236177964176022 70.068038540342968 0 0 0 0 3.3066434365318855 52.069526531988231 0 52.069526531988231 120.91673916139553 0 0 0 0 -0.73081618781939106 1.2606306847058875 0 1.2606306847058875 -1.4833531802212008 0 0 0 0 74.334434869861298 91.646300217988028 0 91.646300217988028 71.807730656473723 0 0 0 0 -16.964621668053496 0.57272546569583938 0 0.57272546569583938 88.482736931167892 0 0 0 0 -207.02872322835083 1.2788016332924599 0 1.2788016332924599 88.821024094041604 0 0 0 0 -17.644761515598475 177.3684785984351 0 177.3684785984351 179.65198453443008 0 0 0 0 -0.12033586884944469 0.46021906086616582 0 0.46021906086616582 1.0787025695494776 0 0 0 0 62.50694514696761 139.10189328574052 0 139.10189328574052 619.60573136278254 0 0 0 0 9.2380846749601915 -34.141134083492943 0 -34.141134083492943 124.34967698400123 0 0 0 0 0.9354324921922359 2.01317784327167 0 2.01317784327167 5.2413678919805307 0 0 0 0 183.77595385303084 -353.70748562855806 0 -353.70748562855806 575.75668892454041 0 0 0 0 -10.270265862611268 -96.551273303408379 0 -96.551273303408379 243.9099797629533 0 0 0 0 36.712622958892553 -131.1124028738559 0 -131.1124028738559 237.05323759745079 0 0 0 0 -21.018887033702072 -123.3988105130793 0 -123.3988105130793 286.27740090940642 0 0 0 0 -117.37742348129086 11.617833346015686 0 11.617833346015686 152.29103766353001 0 0 0 0 -80.508551757737223 -75.568304300526506 0 -75.568304300526506 258.78226290518069 0 0 0 0 -146.65431730046021 -47.432954010420872 0 -47.432954010420872 415.69544023808703 0 0 0 0 -140.04086007171372 -61.583024177645711 0 -61.583024177645711 348.9598218955216 0 0 0 0 -94.382160978073443 -57.353101501637866 0 -57.353101501637866 309.99168751080651 0 0 0 0 -54.699450941685882 -112.37432035895108 0 -112.37432035895108 357.11700737603678 0 0 0 0 -16.929218948394123 299.74964165177516 0 299.74964165177516 398.88961693382589 0 0 0 0 0.42437847626735081 -1.6830541084448214 0 -1.6830541084448214 5.9784286799513779 0 0 0 0 -7.7981724293613297 -69.196859619078168 0 -69.196859619078168 8.9949980171477364 0 0 0 0 -13.579277359221578 -254.89203556566281 0 -254.89203556566281 284.35745863177726 0 0 0 0 -156.069897259801 -68.060454136157205 0 -68.060454136157205 659.80124946817523 0 0 0 0 -129.56478940101533 130.90739537129411 0 130.90739537129411 635.91294397932506 0 0 0 0 -83.039104181445282 141.17740578154007 0 141.17740578154007 384.73275473921967 0 0 0 0 -116.40856067837464 198.03063309867457 0 198.03063309867457 403.89912936415203 0 0 0 0 -2.6108816941509758 209.66098758384032 0 209.66098758384032 91.344632099280716 0 0 0 0 -124.05665450643778 168.54238955696565 0 168.54238955696565 396.17850229575379 0 0 0 0 -114.57843295447299 123.34003575605129 0 123.34003575605129 82.348824638902443 0 0 0 0 -372.31490045574537 -11.767917579043569 0 -11.767917579043569 140.59426788037308 0 0 0 0 -145.53161378794084 124.76469490762611 0 124.76469490762611 236.21181114287174 0 0 0 0 -141.91211301441609 118.30640517174379 0 118.30640517174379 208.37719270012894 0 0 0 0 -207.64301668823236 -57.736744650639594 0 -57.736744650639594 2.953925752248324 0 0 0 0 -29.498140408991731 22.994546544483455 0 22.994546544483455 -8.1232183975153021 0 0 0 0 0.50787340775045209 -3.9606903069301822 0 -3.9606903069301822 15.137693873097618 0 0 0 0 -164.0201552343126 -46.63475956151342 0 -46.63475956151342 49.045734300991171 0 0 0 0 -37.274222143112183 36.838507490054326 0 36.838507490054326 24.407943833667559 0 0 0 0 -36.054350563666731 8.455741949735966 0 8.455741949735966 80.707005318225129 0 0 0 0 3.659085158689777 39.494950267573586 0 39.494950267573586 75.141796181051177 0 0 0 0 -3.2120891518982635 3.3491904435435345 0 3.3491904435435345 -3.2947025062544526 0 0 0 0 5.9149280029873808 99.184787159578264 0 99.184787159578264 69.082222054599697 0 0 0 0 -134.24120893399368 -6.5723107304766017 0 -6.5723107304766017 64.321817965268565 0 0 0 0 25.976856561523505 -27.826349108117938 0 -27.826349108117938 -2.6873886488610879 0 0 0 0 4.2652294696699755 60.436904833622975 0 60.436904833622975 197.71099862722258 0 0 0 0 38.404104285282301 121.31266355663683 0 121.31266355663683 165.8249329550963 0 0 0 0 -5.7059723903997277 5.5422604080715416 0 5.5422604080715416 -3.2101581225425093 0 0 0 0 36.754260477448952 115.94556534811636 0 115.94556534811636 215.94969208966359 0 0 0 0 38.622074446750958 85.319773879702552 0 85.319773879702552 241.14733741608507 0 0 0 0 10.794500189756036 88.059520370483369 0 88.059520370483369 306.79928839654895 0 0 0 0 1.2203645758646644 85.39670337696316 0 85.39670337696316 306.05944620052469 0 0 0 0 53.98376895659203 153.43693881935906 0 153.43693881935906 319.24380301589554 0 0 0 0 0.81330763094820213 88.726409148687708 0 88.726409148687708 407.26622603199212 0 0 0 0 -24.65187974399123 47.371807540825102 0 47.371807540825102 433.74966253928142 0 0 0 0 -7.062704270134418 57.353923583083088 0 57.353923583083088 388.17955793379952 0 0 0 0 -25.859017160283656 26.284885155364464 0 26.284885155364464 360.83464359307254 0 0 0 0 -28.461966684043091 33.152344762827852 0 33.152344762827852 342.83905101766868 0 0 0 0 -27.538209059556721 12.207355797683704 0 12.207355797683704 258.6248884432971 0 0 0 0 -22.040682873421019 53.078939023214843 0 53.078939023214843 275.27991032593127 0 0 0 0 411.92515333908523 485.87771990877809 0 485.87771990877809 570.06381227856036 0 0 0 0 -0.27026836211108751 -1.5749547079281285 0 -1.5749547079281285 4.4529951900187825 0 0 0 0 -269.94301468046206 -401.28145279683667 0 -401.28145279683667 -164.53566379496624 0 0 0 0 152.10887727848421 424.64479633476003 0 424.64479633476003 864.965653600113 0 0 0 0 7.447225601228638 173.50454003878986 0 173.50454003878986 1045.6193740611707 0 0 0 0 38.343288567790296 81.002386249252595 0 81.002386249252595 626.45227405375044 0 0 0 0 42.397180913168995 149.41629261987691 0 149.41629261987691 720.54835463901691 0 0 0 0 31.417931197561074 87.21169648160685 0 87.21169648160685 492.35262702754699 0 0 0 0 4.9677134666280836 97.913536023239431 0 97.913536023239431 509.62390290325857 0 0 0 0 53.627377230602178 155.47249750266201 0 155.47249750266201 357.63889869225386 0 0 0 0 114.19233973659175 205.61496927189 0 205.61496927189 412.7173445635708 0 0 0 0 65.356405068010645 223.7242778444197 0 223.7242778444197 475.62542093526827 0 0 0 0 138.78078149989324 185.62833167318604 0 185.62833167318604 204.13194975152146 0 0 0 0 150.63597083525565 267.30971255544864 0 267.30971255544864 381.55641375805135 0 0 0 0 299.24336138622857 333.9195349553338 0 333.9195349553338 432.46684318003827 0 0 0 0 174.68897506898065 315.60357814846793 0 315.60357814846793 601.798400762651 0 0 0 0 240.1865250652063 218.1235861654568 0 218.1235861654568 269.1214121687226 0 0 0 0 -64.664122045745899 238.50420384237077 0 238.50420384237077 282.01794658841391 0 0 0 0 86.90206639401822 88.536078742421523 0 88.536078742421523 161.03571431008459 0 0 0 0 -540.7502117033373 -225.06578238210204 0 -225.06578238210204 57.26596239086939 0 0 0 0 1.171208877646057 -7.2938017730869262 0 -7.2938017730869262 17.948521271666664 0 0 0 0 -0.46454945901895695 -0.15730366758364767 0 -0.15730366758364767 -0.060775153906689638 0 0 0 0 180.61174834051599 245.87060193545767 0 245.87060193545767 161.88827595571638 0 0 0 0 -433.14774015291005 -105.18291047804087 0 -105.18291047804087 -20.773862501009717 0 0 0 0 -346.88824179409676 -118.97009224379144 0 -118.97009224379144 -92.070683390196791 0 0 0 0 -349.79374944375741 -214.86384961360454 0 -214.86384961360454 43.299429828955908 0 0 0 0 -195.09620196396054 -189.76484499334765 0 -189.76484499334765 -64.846210109128151 0 0 0 0 -160.24943060562828 -133.29027337192383 0 -133.29027337192383 76.45100137279951 0 0 0 0 -269.01455759520923 -89.802800518089498 0 -89.802800518089498 93.779461860158335 0 0 0 0 -379.39498464263693 -239.13480187093228 0 -239.13480187093228 -39.335351236048155 0 0 0 0 -47.916383560909253 34.346922686418111 0 34.346922686418111 52.091952927796228 0 0 0 0 -550.29637746551646 -104.00579363504221 0 -104.00579363504221 109.48367176264583 0 0 0 0 1.0766380300707112 -5.8351876125549609 0 -5.8351876125549609 18.779811051281399 0 0 0 0 -274.74928830027557 -39.977651242741558 0 -39.977651242741558 -13.347005021145378 0 0 0 0 -278.58003284810081 -17.463854533818903 0 -17.463854533818903 236.0818246112176 0 0 0 0 17.092728412737642 175.13604672721704 0 175.13604672721704 271.09056013600639 0 0 0 0 -56.723525150519663 47.76548593642292 0 47.76548593642292 107.67744944245351 0 0 0 0 87.868659214728495 -105.73883997832127 0 -105.73883997832127 227.67996255696926 0 0 0 0 33.925053744343131 -204.65304694656515 0 -204.65304694656515 96.640394931491755 0 0 0 0 -149.73050091696297 -76.074067537269002 0 -76.074067537269002 353.3075559054414 0 0 0 0 -170.10327703757014 -109.49396354088822 0 -109.49396354088822 113.66661587206181 0 0 0 0 56.490958797166059 -207.43019691431255 0 -207.43019691431255 18.441119166898716 0 0 0 0 -163.78964952341124 -218.8190007418234 0 -218.8190007418234 457.43352704050631 0 0 0 0 105.805605133271 -284.33909251764271 0 -284.33909251764271 86.060473423636722 0 0 0 0 -3.0083582103394981 -0.51573685512219214 0 -0.51573685512219214 7.9116669110638327 0 0 0 0 230.15782214928004 -407.60785942629445 0 -407.60785942629445 343.77423731500676 0 0 0 0 -255.22745116102772 -272.78038005892108 0 -272.78038005892108 146.0641912848514 0 0 0 0 852.51217853241792 -703.17931706724266 0 -703.17931706724266 296.26791591699293 0 0 0 0 -322.85965628043652 -31.632175601724157 0 -31.632175601724157 331.78180226378026 0 0 0 0 -0.21478469644039916 -1.2002011493030764 0 -1.2002011493030764 8.4241769673810438 0 0 0 0 -0.44086448164818476 -128.43191027419016 0 -128.43191027419016 240.50676071130147 0 0 0 0 -87.579072654358441 48.421922234876547 0 48.421922234876547 -109.92250531683385 0 0 0 0 305.53463816066665 -395.32855693668034 0 -395.32855693668034 272.48078968253685 0 0 0 0 329.66882300460986 -257.57151612668167 0 -257.57151612668167 166.83743323368253 0 0 0 0 130.69084546897622 -365.14644279477216 0 -365.14644279477216 1169.4427943543706 0 0 0 0 197.00594602421614 -396.1191082230107 0 -396.1191082230107 6.4893128196999896 0 0 0 0 -249.48361506849324 -327.15216336633785 0 -327.15216336633785 1050.0518834899121 0 0 0 0 -50.379407396366418 180.76253318709496 0 180.76253318709496 541.10408953252045 0 0 0 0 0.52970631259255574 -40.944309854869061 0 -40.944309854869061 586.21198867646308 0 0 0 0 542.98975653148523 -537.57947521247843 0 -537.57947521247843 947.11389380233595 0 0 0 0 415.34034085120851 186.51000224300242 0 186.51000224300242 307.4156147671747 0 0 0 0 336.19158089763152 -385.32902757179363 0 -385.32902757179363 468.44783088182157 0 0 0 0 -1.1730115591214447 0.17607823572495818 0 0.17607823572495818 4.2801182400786786 0 0 0 0 -68.077699139377273 554.96169275583452 0 554.96169275583452 244.42060743318598 0 0 0 0 91.77787294215085 218.77438345108021 0 218.77438345108021 696.58954037180411 0 0 0 0 80.480971505012164 50.425589372833201 0 50.425589372833201 649.74094981708913 0 0 0 0 113.88304367255918 -40.372557260474423 0 -40.372557260474423 615.48111490715564 0 0 0 0 -0.063033027055944074 95.150503037162707 0 95.150503037162707 457.22873872071068 0 0 0 0 154.80041135314536 144.87983099366829 0 144.87983099366829 291.2494170054706 0 0 0 0 -25.083926021219014 106.17353102249763 0 106.17353102249763 286.16769075099 0 0 0 0 111.25125454235466 245.85736097274093 0 245.85736097274093 227.85002892628108 0 0 0 0 240.25945629994715 50.697405736671499 0 50.697405736671499 365.71108140354045 0 0 0 0 83.378174875213404 87.004874270405708 0 87.004874270405708 279.63369014871569 0 0 0 0 24.841118384017591 239.27923525801452 0 239.27923525801452 355.32617756231411 0 0 0 0 48.654778652005461 169.69380749879201 0 169.69380749879201 169.51116726233158 0 0 0 0 28.691353679190456 211.64335763620329 0 211.64335763620329 278.20093216432724 0 0 0 0 67.100940919042614 275.04756311123492 0 275.04756311123492 232.54057891591947 0 0 0 0 61.64477492409128 287.00312043281156 0 287.00312043281156 299.1415202002172 0 0 0 0 36.63731188442614 291.54208363321959 0 291.54208363321959 322.97829006012762 0 0 0 0 134.92992551742691 311.25378673712839 0 311.25378673712839 250.27385975267316 0 0 0 0 119.37538975029474 141.8098440873182 0 141.8098440873182 219.15423306450248 0 0 0 0 61.892533733667506 257.73665130421068 0 257.73665130421068 352.42622297364142 0 0 0 0 138.44582905528495 29.029735150691977 0 29.029735150691977 0.41632439030945534 0 0 0 0 -7.3207051953886548 72.391547243045352 0 72.391547243045352 302.81770988655626 0 0 0 0 1.939156978167015 2.1419669614968058 0 2.1419669614968058 0.37011218646068755 0 0 0 0 -0.17569356938310421 2.1565885047931914 0 2.1565885047931914 2.1327856047608051 0 0 0 0 -109.42472527836466 200.07976377226532 0 200.07976377226532 134.22476905182702 0 0 0 0 1.2607855201817983 21.007142335853132 0 21.007142335853132 -208.60644127517662 0 0 0 0 -83.831791941463166 27.0061795961592 0 27.0061795961592 7.6249448001326527 0 0 0 0 -60.667663585240433 22.335456838722166 0 22.335456838722166 -41.212610524358752 0 0 0 0 -50.553472905172697 132.22813027742086 0 132.22813027742086 -101.29069838518626 0 0 0 0 0.071835663004359063 159.7925263173347 0 159.7925263173347 153.4824563904258 0 0 0 0 -41.679506368187049 139.90826282472699 0 139.90826282472699 180.06928106522901 0 0 0 0 7.3262586208700213 1.3099223952231114 0 1.3099223952231114 19.557992998030386 0 0 0 0 0.29538006920984117 2.2402948305534665 0 2.2402948305534665 21.289521835082269 0 0 0 0 0.20723763023291802 -41.280359552431037 0 -41.280359552431037 10.12370548428953 0 0 0 0 -18.464366630366001 -20.199204187556461 0 -20.199204187556461 -10.790739466800005 0 0 0 0 -2.2288257308600268 -0.34368926835909974 0 -0.34368926835909974 15.251321607917419 0 0 0 0 -0.76282576963792403 -0.22266823494638288 0 -0.22266823494638288 3.5498609152718643 0 0 0 0 4.782083689286992 4.1042843489049119 0 4.1042843489049119 21.943591892784752 0 0 0 0 8.8929481466059315 6.6564192039586487 0 6.6564192039586487 18.858899224927882 0 0 0 0 1.9704430008712279 6.9884760877030203 0 6.9884760877030203 17.707340185006615 0 0 0 0 4.0806176256585331 2.4609425582602853 0 2.4609425582602853 19.7796554807137 0 0 0 0 -1.7403683760700233 7.3717491303614224 0 7.3717491303614224 19.282834426623594 0 0 0 0 1.7195056361701957 4.8610517215142082 0 4.8610517215142082 10.861924033064071 0 0 0 0 3.1394790161743913 4.7184231113787973 0 4.7184231113787973 14.488515407610976 0 0 0 0 3.389837134435993 6.4681645555901923 0 6.4681645555901923 16.017304803579464 0 0 0 0 3.6378320920983924 9.832214896026926 0 9.832214896026926 11.62052720367501 0 0 0 0 5.0596451501455704 7.8211792896327097 0 7.8211792896327097 3.662189027223576 0 0 0 0 1.5170643497024896 4.7329215375940663 0 4.7329215375940663 -0.46033338508064858 0 0 0 0 0.016867177827745383 3.8131192886444509 0 3.8131192886444509 6.1891450267809773 0 0 0 0 1.2397988725126652 4.9295321103600145 0 4.9295321103600145 7.1712891811912414 0 0 0 0 0.48900697052336373 6.3063173658836149 0 6.3063173658836149 5.2101745893225164 0 0 0 0 -0.10368246912503309 3.7838781973514415 0 3.7838781973514415 21.385967964743031 0 0 0 0 -7.3027799361252619 11.179510001122253 0 11.179510001122253 13.864688374800608 0 0 0 0 0.096511218653121844 0.75471118446117202 0 0.75471118446117202 2.4822652850519376 0 0 0 0 0.78038139988620969 11.390709831048298 0 11.390709831048298 22.075646170879736 0 0 0 0 -0.70571454241162135 2.7691378320424036 0 2.7691378320424036 21.228202965469933 0 0 0 0 -8.7871174263150351 21.532220728240645 0 21.532220728240645 28.683855128416326 0 0 0 0 -2.9228795700067849 3.4905215399703593 0 3.4905215399703593 15.803992396842659 0 0 0 0 36.128621638108825 41.875173815798917 0 41.875173815798917 5.2255454790574731 0 0 0 0 0.61174995965307355 0.63991694766154339 0 0.63991694766154339 0.17537103834777668 0 0 0 0 -13.115721606204033 3.6882350531395787 0 3.6882350531395787 17.4003011824243 0 0 0 0 19.513606981177418 22.412155695463298 0 22.412155695463298 32.923342128022341 0 0 0 0 22.979706684107441 24.564578814930428 0 24.564578814930428 34.206407135548943 0 0 0 0 6.3156810336147373 58.349167281849077 0 58.349167281849077 -2.1570665799226845 0 0 0 0 -1.2552381834303579 5.6462253875902704 0 5.6462253875902704 5.6045725087116693 0 0 0 0 -71.796787796624017 15.836287919864844 0 15.836287919864844 32.581744574432378 0 0 0 0 -39.210880017608133 54.156792144989595 0 54.156792144989595 21.960542625747621 0 0 0 0 -58.715406162225491 32.643953292201331 0 32.643953292201331 55.177670278644655 0 0 0 0 -50.235868609155659 36.410354997438844 0 36.410354997438844 -1.6524723126203753 0 0 0 0 -25.16910720801252 61.274060668380116 0 61.274060668380116 13.142650671266892 0 0 0 0 -0.46887374076513832 7.0329072852747885 0 7.0329072852747885 36.228052616150137 0 0 0 0 -36.317834548854648 28.199882511980832 0 28.199882511980832 9.7760312889877241 0 0 0 0 -27.866124134302652 9.1554237488599028 0 9.1554237488599028 25.088334053900326 0 0 0 0 -19.970157078052338 18.09374011098771 0 18.09374011098771 52.516574147390202 0 0 0 0 -1.9494335348934237 1.0763126577806403 0 1.0763126577806403 20.708753291401933 0 0 0 0 -1.2046157302539768 8.482086119322048 0 8.482086119322048 16.914318123646808 0 0 0 0 -61.306447490094527 -30.368770213914104 0 -30.368770213914104 53.904874151747208 0 0 0 0 -28.215146105648955 33.598304829582048 0 33.598304829582048 39.024016755603952 0 0 0 0 36.35972653112789 70.69528770360921 0 70.69528770360921 79.651065681144246 0 0 0 0 -44.27624959391877 15.040714329400544 0 15.040714329400544 113.37945695256349 0 0 0 0 -0.012132413579694483 0.10908937863221269 0 0.10908937863221269 0.74208272568191092 0 0 0 0 102.53979745333619 60.283288862403424 0 60.283288862403424 26.338857839538832 0 0 0 0 0.012774330268227642 -0.4765245211419824 0 -0.4765245211419824 0.39894512196769938 0 0 0 0 6.5501049844298791 43.35623784159543 0 43.35623784159543 38.562478343250405 0 0 0 0 11.411886951370064 22.458376091250102 0 22.458376091250102 15.351603616196371 0 0 0 0 34.233080568461112 7.8726758355660422 0 7.8726758355660422 20.62119685675134 0 0 0 0 0.12927967277631258 -0.08694106224610465 0 -0.08694106224610465 2.073853661785364 0 0 0 0 17.130270671507745 24.084619174216641 0 24.084619174216641 5.7371123876800993 0 0 0 0 1.5228212065680866 2.8787645138072548 0 2.8787645138072548 6.9869364234400564 0 0 0 0 0.087042698361488494 3.7560451991184181 0 3.7560451991184181 16.858782161494418 0 0 0 0 -160.98393260467691 80.19912076300534 0 80.19912076300534 36.670372006934485 0 0 0 0 -17.478627052428465 8.4462891706934897 0 8.4462891706934897 9.9388456862652674 0 0 0 0 0.47689755185852667 1.3451154478249094 0 1.3451154478249094 14.223906632810326 0 0 0 0 -10.899685736137343 9.4011910969929886 0 9.4011910969929886 13.847575306048384 0 0 0 0 -18.485212788487956 3.951446890936495 0 3.951446890936495 15.271935108437901 0 0 0 0 -112.42632838622274 25.980206714251835 0 25.980206714251835 20.690461747377412 0 0 0 0 -2.1990861391782528 -3.8458165460950369 0 -3.8458165460950369 20.570861451793093 0 0 0 0 15.912624027680863 20.561255536296812 0 20.561255536296812 2.4710752085666172 0 0 0 0 9.5500835340715753 14.78072857331972 0 14.78072857331972 0.8952134937280789 0 0 0 0 -83.081729106889171 89.722177615702094 0 89.722177615702094 -29.820945148720057 0 0 0 0 -0.8042795629649685 -1.1989230553304431 0 -1.1989230553304431 15.078592880955568 0 0 0 0 -233.46973960649973 54.954027190269699 0 54.954027190269699 80.071983530404395 0 0 0 0 -16.600250007050875 4.3628424362977967 0 4.3628424362977967 13.86862638189632 0 0 0 0 -59.006399932942941 1.0290481555930455 0 1.0290481555930455 -32.5349826716199 0 0 0 0 -1.080388148779327 1.3196392543241089 0 1.3196392543241089 17.586206879207396 0 0 0 0 0.21730859515848952 5.9844278640939592 0 5.9844278640939592 24.031821164724533 0 0 0 0 6.5294158608128514 12.554219601581281 0 12.554219601581281 29.604497462409199 0 0 0 0 -0.031253339064550356 1.4447285354435735 0 1.4447285354435735 11.271657706878614 0 0 0 0 -0.1418661501783674 2.3186819947345327 0 2.3186819947345327 4.640257167380895 0 0 0 0 -27.91260745080524 -9.8646185854813666 0 -9.8646185854813666 37.840301812186226 0 0 0 0 0.14929887552410703 1.5605649726533599 0 1.5605649726533599 0.74057825297768431 0 0 0 0 -26.781690246250626 -199.03257987418692 0 -199.03257987418692 164.74291451424142 0 0 0 0 18.749991373175021 36.875915947261092 0 36.875915947261092 -72.670344441001362 0 0 0 0 15.156624873073838 -50.770821134230573 0 -50.770821134230573 236.63730080178357 0 0 0 0 -21.370577071895354 -156.99999661760376 0 -156.99999661760376 342.16509319934994 0 0 0 0 162.67780843761602 -215.17246973625151 0 -215.17246973625151 244.71601253769768 0 0 0 0 187.45179321362059 -300.83954063861438 0 -300.83954063861438 315.37614055459562 0 0 0 0 181.04638509516352 -128.23787748489019 0 -128.23787748489019 116.48274001674145 0 0 0 0 -0.88059659266524015 -1.5861302681227443 0 -1.5861302681227443 22.499215909432678 0 0 0 0 -32.165255467912644 -32.674576445975617 0 -32.674576445975617 -11.874193431780441 0 0 0 0 0.052386904662933532 -22.027524469812104 0 -22.027524469812104 -26.330476334347622 0 0 0 0 -8.3688101521521361 -49.944438653445104 0 -49.944438653445104 -98.850219028403444 0 0 0 0 -2.3535781142434438 -1.1082529869283206 0 -1.1082529869283206 4.3650061369467323 0 0 0 0 -434.58391444607196 154.2332410030649 0 154.2332410030649 508.34383454301496 0 0 0 0 522.25365765999288 -605.13849437336467 0 -605.13849437336467 432.47390138352057 0 0 0 0 120.63234286496117 -452.02496454107313 0 -452.02496454107313 685.31088557506155 0 0 0 0 36.791504395045195 -270.27184202807985 0 -270.27184202807985 382.58399440154608 0 0 0 0 245.74471762439111 -335.66237313369129 0 -335.66237313369129 298.20634781393164 0 0 0 0 167.51733618125581 -197.52809423702274 0 -197.52809423702274 220.69398958755482 0 0 0 0 57.179871958264357 -40.884502810964477 0 -40.884502810964477 241.99693833195943 0 0 0 0 15.949660156368829 -117.74482979357896 0 -117.74482979357896 143.61617778109212 0 0 0 0 48.294926579856565 -158.0172834384357 0 -158.0172834384357 637.17501912871194 0 0 0 0 147.57359530236818 -181.13296165104839 0 -181.13296165104839 295.44550848588551 0 0 0 0 151.21568304624452 -47.107305356919824 0 -47.107305356919824 398.13219457809464 0 0 0 0 205.96799107860784 -156.81413909284493 0 -156.81413909284493 359.63331303132873 0 0 0 0 168.01909122106827 -141.28438234631903 0 -141.28438234631903 219.47248306302936 0 0 0 0 106.83338056473713 -49.467545967410842 0 -49.467545967410842 170.58215749762167 0 0 0 0 115.11245862224257 -44.027101999685328 0 -44.027101999685328 174.87741062945861 0 0 0 0 104.06154008647536 -3.6767357585631544 0 -3.6767357585631544 65.613073529078974 0 0 0 0 114.00728515523292 -82.682553179816296 0 -82.682553179816296 115.46810541235027 0 0 0 0 58.193470499188606 24.556149787524191 0 24.556149787524191 61.790363704250922 0 0 0 0 106.03665251388065 -87.115129782650911 0 -87.115129782650911 138.56466533317871 0 0 0 0 -9.5177006247372447 63.329787651164224 0 63.329787651164224 14.0922407890248 0 0 0 0 -59.528914762757438 1.9336936431564027 0 1.9336936431564027 74.09103894000873 0 0 0 0 22.537487926456151 46.197731865657261 0 46.197731865657261 28.67295059740718 0 0 0 0 50.201525475533799 -20.056662558021344 0 -20.056662558021344 63.898430807952536 0 0 0 0 -63.368764264783749 37.939104461045645 0 37.939104461045645 29.237465502577834 0 0 0 0 -57.235181366520692 76.880141276269569 0 76.880141276269569 13.875528496118932 0 0 0 0 -11.137320858841804 23.494894877039769 0 23.494894877039769 15.942866392229917 0 0 0 0 78.649010830230054 -31.664250755493413 0 -31.664250755493413 62.496080146353052 0 0 0 0 103.35519278740867 -13.036300103893154 0 -13.036300103893154 75.060020391683793 0 0 0 0 97.010515374118768 -91.285268001134682 0 -91.285268001134682 130.28583778028769 0 0 0 0 25.455180182354525 -39.409400380165607 0 -39.409400380165607 113.79399838557219 0 0 0 0 59.692167489748044 -59.7860696281532 0 -59.7860696281532 149.36351350645418 0 0 0 0 39.407047414922658 -79.698135577540597 0 -79.698135577540597 208.59970819372393 0 0 0 0 52.100404001642346 -112.9431460629221 0 -112.9431460629221 204.73505699420639 0 0 0 0 91.768777370477437 -136.45291631837608 0 -136.45291631837608 248.91647512857162 0 0 0 0 132.12838649134846 -115.59224245574296 0 -115.59224245574296 174.3973425925833 0 0 0 0 81.207838270596312 -95.377534644874686 0 -95.377534644874686 261.35560005459411 0 0 0 0 130.43277753335983 -161.82043936943728 0 -161.82043936943728 313.98472894515726 0 0 0 0 124.00452332253917 -82.921952235621575 0 -82.921952235621575 314.31077917217772 0 0 0 0 92.325138139615774 -99.334714320240892 0 -99.334714320240892 386.48406272295688 0 0 0 0 55.557210481902985 -89.361562261925428 0 -89.361562261925428 318.52749559281801 0 0 0 0 34.327201947560297 -128.70858193885033 0 -128.70858193885033 328.41976466233609 0 0 0 0 17.38635631286661 -75.772899195409991 0 -75.772899195409991 365.92341588660202 0 0 0 0 73.598399724337014 -138.01520572768277 0 -138.01520572768277 382.24416056223708 0 0 0 0 62.347861221669518 -113.46109184531088 0 -113.46109184531088 500.29935670539271 0 0 0 0 55.428817213823322 -72.382787570901201 0 -72.382787570901201 465.74030292395037 0 0 0 0 32.511298515965791 -116.42740583943669 0 -116.42740583943669 451.19425024271186 0 0 0 0 17.65217796283423 -19.745240995700442 0 -19.745240995700442 499.59868358635867 0 0 0 0 -8.044564475973857 -39.33599515829701 0 -39.33599515829701 504.36227143985161 0 0 0 0 7.856390576162994 -39.178297486607335 0 -39.178297486607335 706.49743127063266 0 0 0 0 -0.17660680342669366 -89.767478904046584 0 -89.767478904046584 839.51954030840716 0 0 0 0 -47.672435346462862 -212.47191775859028 0 -212.47191775859028 538.59316317510093 0 0 0 0 96.412109436559149 -164.53107729738986 0 -164.53107729738986 543.86898931357428 0 0 0 0 -38.958916702522856 -25.876500644080807 0 -25.876500644080807 296.90573605809186 0 0 0 0 -38.282697139832635 -15.117714495951077 0 -15.117714495951077 312.44107818924385 0 0 0 0 -33.7683479919815 -42.857137574817898 0 -42.857137574817898 343.90527217678027 0 0 0 0 -27.598163927342284 -23.891545109523577 0 -23.891545109523577 398.53092755052785 0 0 0 0 -7.5625306944821205 -24.713090018143703 0 -24.713090018143703 390.66111677688605 0 0 0 0 -4.3170218413324619 -101.61251235541567 0 -101.61251235541567 363.4367859742415 0 0 0 0 -20.993657726951824 -74.983770398226625 0 -74.983770398226625 331.22607965457428 0 0 0 0 9.9590602067974032 -118.25414802198793 0 -118.25414802198793 293.73338799238991 0 0 0 0 -41.328042477315648 -60.376536066367407 0 -60.376536066367407 318.84130436259147 0 0 0 0 -21.048380978659132 -79.874073463901652 0 -79.874073463901652 287.98767569112533 0 0 0 0 -31.659620178152181 -80.334143066844263 0 -80.334143066844263 290.52818719809147 0 0 0 0 -7.1415577775760539 -100.45169194359914 0 -100.45169194359914 249.89433771765471 0 0 0 0 -16.381156630673104 -81.705279943256755 0 -81.705279943256755 231.10509007699147 0 0 0 0 21.766146673282492 -97.732895666216791 0 -97.732895666216791 269.69132652328699 0 0 0 0 17.077416955581612 -108.41272007997759 0 -108.41272007997759 269.30954529397013 0 0 0 0 -7.564856636255854 -95.062418138716566 0 -95.062418138716566 269.87920915766153 0 0 0 0 18.924362875691259 -103.96591723516758 0 -103.96591723516758 219.67731294289115 0 0 0 0 28.866090005349179 -90.013555688463384 0 -90.013555688463384 147.85022722488065 0 0 0 0 5.0204355127125382 -74.517329460701148 0 -74.517329460701148 172.2809293981918 0 0 0 0 30.163360121317965 -75.795393814732961 0 -75.795393814732961 164.09979740400013 0 0 0 0 20.667893537725831 -103.94576014693303 0 -103.94576014693303 219.67083341111447 0 0 0 0 13.713560442626658 -79.453486063430319 0 -79.453486063430319 163.28931585459577 0 0 0 0 -2.1882413141884172 -75.595323827394168 0 -75.595323827394168 173.39917964056076 0 0 0 0 0.39736245697713457 -94.596722341557324 0 -94.596722341557324 213.90560197484228 0 0 0 0 -1.5315856209490448 -58.893516466119763 0 -58.893516466119763 179.38321179079503 0 0 0 0 13.491144666762921 -59.164996034778596 0 -59.164996034778596 117.18776866611734 0 0 0 0 -2.1199028775465756 -0.41849310015847152 0 -0.41849310015847152 0.065076955318861707 0 0 0 0 4.3305268940343922 -36.576058850640038 0 -36.576058850640038 135.43773471882741 0 0 0 0 -8.4973120524218757 -19.716064787160576 0 -19.716064787160576 120.70008425759443 0 0 0 0 -3.3488724678445756 0.6326492047896437 0 0.6326492047896437 1.7189084797850569 0 0 0 0 14.607602677300292 -12.254047261683809 0 -12.254047261683809 42.371162480456405 0 0 0 0 4.4129557701617159 -11.006983753512031 0 -11.006983753512031 44.360261709189217 0 0 0 0 -1.1130989783346195 -43.92710472942963 0 -43.92710472942963 123.2121184811549 0 0 0 0 18.181136975240406 -57.60399300307472 0 -57.60399300307472 91.541175826285325 0 0 0 0 1.7193857800029946 -16.732744815053593 0 -16.732744815053593 78.9991553597647 0 0 0 0 5.7703775186082567 -11.216610770170519 0 -11.216610770170519 63.256350173964165 0 0 0 0 50.569261699846493 -56.845983761770185 0 -56.845983761770185 91.492198982770788 0 0 0 0 24.402552160237065 -30.472027305666415 0 -30.472027305666415 59.985553496531793 0 0 0 0 0.64185457324492745 17.571505264233565 0 17.571505264233565 30.216349311258909 0 0 0 0 86.70743847288486 -20.252498301924788 0 -20.252498301924788 31.666725402486918 0 0 0 0 3.1452142628531874 9.7810764942041715 0 9.7810764942041715 -5.0793219794213655 0 0 0 0 41.159712353954092 1.525476058912318 0 1.525476058912318 13.037449196577654 0 0 0 0 -2.513661160999618 4.7035597604117356 0 4.7035597604117356 13.297471845673499 0 0 0 0 23.125353166650257 -0.47239022830399335 0 -0.47239022830399335 -10.346289681350754 0 0 0 0 5.1633215738218379 4.8711463018497341 0 4.8711463018497341 0.041335106459055027 0 0 0 0 18.185991386695605 -10.998195438427501 0 -10.998195438427501 20.627528656739742 0 0 0 0 -15.310461711094831 -2.7687094619104755 0 -2.7687094619104755 22.314602180225847 0 0 0 0 0.56194325014105306 0.87415228934274225 0 0.87415228934274225 0.19427186653547324 0 0 0 0 -8.7955191925448162 2.1393436905163981 0 2.1393436905163981 11.919946559864911 0 0 0 0 5.491389259507514 8.5420121191818907 0 8.5420121191818907 9.6735082729692294 0 0 0 0 -1.6993983054947912 4.5229133014067742 0 4.5229133014067742 10.489311995451942 0 0 0 0 3.4964371152054809 7.6935852207934659 0 7.6935852207934659 11.611412448961346 0 0 0 0 3.4920320498035835 9.0052432936827245 0 9.0052432936827245 12.274711499214391 0 0 0 0 -12.065323070368322 2.1503108282704488 0 2.1503108282704488 13.757903685900601 0 0 0 0 -12.77515794710871 4.7773425054256222 0 4.7773425054256222 14.323052318923146 0 0 0 0 -13.353066613984083 -0.86720844583396683 0 -0.86720844583396683 12.350219637606642 0 0 0 0 -31.231666012194182 -13.721018563981488 0 -13.721018563981488 15.227067302948853 0 0 0 0 -20.803894650326583 -2.2993293983381591 0 -2.2993293983381591 23.650144867831841 0 0 0 0 -11.407529589236788 -7.6322339128778367 0 -7.6322339128778367 12.665866274699511 0 0 0 0 -9.6946663315549131 -0.37149461826084007 0 -0.37149461826084007 12.286886624264298 0 0 0 0 -10.16574791169478 0.6677677195330034 0 0.6677677195330034 10.340580822491575 0 0 0 0 -21.908035006282262 -22.040461760705512 0 -22.040461760705512 15.831261923598504 0 0 0 0 -21.278001499665152 -20.747224319333327 0 -20.747224319333327 -2.8133502915006829 0 0 0 0 -53.671980185901702 -31.699441402586672 0 -31.699441402586672 19.482772145507624 0 0 0 0 -37.534503129665154 -11.49753283138125 0 -11.49753283138125 44.744219659951341 0 0 0 0 -51.515442429121322 4.7290042155364063 0 4.7290042155364063 67.121746439584967 0 0 0 0 -69.839094626812766 -14.508756181288845 0 -14.508756181288845 80.376142023720604 0 0 0 0 -43.190199736144677 -31.141911057304242 0 -31.141911057304242 105.34481133555164 0 0 0 0 -48.355668640188014 9.0382794903052854 0 9.0382794903052854 101.46127107995562 0 0 0 0 5.3662196484492597 -47.756375354756528 0 -47.756375354756528 126.71755180360924 0 0 0 0 -33.396790545848489 -9.0073373736231588 0 -9.0073373736231588 140.42036309284595 0 0 0 0 -32.840875649800637 -11.545605319068272 0 -11.545605319068272 127.73899691994302 0 0 0 0 1.8794124153200755 -70.0154351200581 0 -70.0154351200581 104.31164274836019 0 0 0 0 -24.259619910209494 -16.96682713865448 0 -16.96682713865448 104.64807228533027 0 0 0 0 -94.686876156419203 -76.593424293809221 0 -76.593424293809221 77.630094824591652 0 0 0 0 -48.153615149939469 -14.17377838129687 0 -14.17377838129687 57.959508326341165 0 0 0 0 -31.330281931745503 -34.611042675793215 0 -34.611042675793215 88.57642659638077 0 0 0 0 -10.263318979015821 -57.29824281594847 0 -57.29824281594847 194.49940662695008 0 0 0 0 -10.486227863645585 -80.165292579183216 0 -80.165292579183216 186.86431650810846 0 0 0 0 -42.212421544256358 -104.95048156757184 0 -104.95048156757184 136.12990503947731 0 0 0 0 -72.322829856435874 -57.146095411386341 0 -57.146095411386341 218.24651807350165 0 0 0 0 -24.966436497494215 -51.648944271371874 0 -51.648944271371874 188.93389595534609 0 0 0 0 -24.799603395989834 -57.300775991905539 0 -57.300775991905539 205.98884150558297 0 0 0 0 -41.32927969398952 -26.039091521888622 0 -26.039091521888622 240.45208615547745 0 0 0 0 -0.68738668532101954 0.16724469981089385 0 0.16724469981089385 0.084210759348049891 0 0 0 0 -36.446094911038927 -79.61819530210596 0 -79.61819530210596 -95.571638670997345 0 0 0 0 -0.77144582941582485 -34.254844391343795 0 -34.254844391343795 200.01777471680543 0 0 0 0 -0.36378731993590918 -36.84219540677077 0 -36.84219540677077 138.05415067684226 0 0 0 0 -17.163921432850657 -73.097461741679581 0 -73.097461741679581 216.3414242391591 0 0 0 0 -16.661146917542737 -74.631332316257613 0 -74.631332316257613 217.18318343907595 0 0 0 0 -39.178212940490084 -64.918308368560247 0 -64.918308368560247 235.6613510970783 0 0 0 0 -39.356834772075445 -64.713020811975184 0 -64.713020811975184 237.34269026208494 0 0 0 0 -33.895491967195085 -76.583008958012215 0 -76.583008958012215 251.17859861358738 0 0 0 0 -16.185516996845962 -88.183107233181886 0 -88.183107233181886 228.27587285415211 0 0 0 0 -33.433986365330384 -74.304437750899524 0 -74.304437750899524 253.32615817270562 0 0 0 0 -31.392540640630841 -79.926964697789117 0 -79.926964697789117 258.94884981897485 0 0 0 0 -42.795012718105681 -51.771745959173131 0 -51.771745959173131 268.52952229497896 0 0 0 0 -39.681816172458639 -72.177146143862046 0 -72.177146143862046 278.2368944785776 0 0 0 0 -39.601864771472719 -61.480770619666146 0 -61.480770619666146 257.6543704411888 0 0 0 0 -41.343087018014558 -64.092667780842021 0 -64.092667780842021 253.98519705545914 0 0 0 0 -30.704827474996819 -47.88499084313662 0 -47.88499084313662 217.82067421109969 0 0 0 0 -42.492289693261569 -41.467090891771932 0 -41.467090891771932 237.27547613684146 0 0 0 0 -38.55471402141211 -10.208272475203557 0 -10.208272475203557 240.30188071042357 0 0 0 0 -42.120912197144833 -45.50836506709993 0 -45.50836506709993 276.59213235406787 0 0 0 0 -20.176263604865198 -109.73021839244211 0 -109.73021839244211 273.78433894924819 0 0 0 0 -26.925142978504482 -55.666998003502158 0 -55.666998003502158 233.38441976762988 0 0 0 0 -10.153656060417234 -66.042163279093074 0 -66.042163279093074 132.22960425378187 0 0 0 0 -42.141358045968445 -75.21870180201222 0 -75.21870180201222 255.33782183678704 0 0 0 0 -39.593695985196284 -62.00402862049603 0 -62.00402862049603 230.76909141722717 0 0 0 0 -26.451968682955112 -44.119954228075585 0 -44.119954228075585 302.36406124515634 0 0 0 0 -9.5753850643915257 -61.297614996216453 0 -61.297614996216453 233.48810969509941 0 0 0 0 -39.492536442328856 -56.432105081199552 0 -56.432105081199552 261.34792518454924 0 0 0 0 -37.484623623315201 -50.280759451623453 0 -50.280759451623453 227.04764354185318 0 0 0 0 -34.535604191434118 -70.052534648814799 0 -70.052534648814799 217.17889546326478 0 0 0 0 -8.082894713486894 -51.723184310565557 0 -51.723184310565557 228.64148794249923 0 0 0 0 48.797043793880221 -48.885000020163716 0 -48.885000020163716 201.22719943996344 0 0 0 0 42.232611293638911 -90.86929298272662 0 -90.86929298272662 202.41643389396995 0 0 0 0 36.426326477457224 -68.120886260770931 0 -68.120886260770931 221.27245574575136 0 0 0 0 94.576361295445167 -116.05444070194062 0 -116.05444070194062 254.37200006259081 0 0 0 0 80.097457556374138 -25.227340313394961 0 -25.227340313394961 247.91995846135615 0 0 0 0 17.016494113947374 92.534095348582923 0 92.534095348582923 305.31371909156587 0 0 0 0 1.9545192897066954 -85.719176729653555 0 -85.719176729653555 352.13734960815782 0 0 0 0 1.3929287617939359 -1.2478989307322479 0 -1.2478989307322479 0.97099880001155725 0 0 0 0 43.549558122732691 -79.088247889738795 0 -79.088247889738795 7.9175754185998812 0 0 0 0 39.363535654851148 -151.42848700429022 0 -151.42848700429022 109.77587218432745 0 0 0 0 7.4180224243882193 -7.3765575190721648 0 -7.3765575190721648 89.265558948129183 0 0 0 0 -6.1965974332924816 -21.828835505235475 0 -21.828835505235475 114.08986658588401 0 0 0 0 12.092678673995124 -6.1334403190085141 0 -6.1334403190085141 61.040098291588947 0 0 0 0 15.906163771012871 -1.0789168250885268 0 -1.0789168250885268 26.706585514242761 0 0 0 0 7.3476012889295816 15.137505902799603 0 15.137505902799603 84.428713245048129 0 0 0 0 19.114825705442854 37.59189106948179 0 37.59189106948179 71.490257642733923 0 0 0 0 7.9426759049867997 -14.409417444218889 0 -14.409417444218889 38.68744611548027 0 0 0 0 31.130981679096294 7.9084273999615107 0 7.9084273999615107 36.240739612525431 0 0 0 0 10.71864504090081 46.212731657484255 0 46.212731657484255 120.96620190468457 0 0 0 0 -23.431132207507744 -19.121066266827256 0 -19.121066266827256 200.51359594345558 0 0 0 0 -11.494415541797025 -36.775426087031519 0 -36.775426087031519 206.1509370872709 0 0 0 0 -24.749493499512027 14.464411860557448 0 14.464411860557448 203.22705864263844 0 0 0 0 28.651486888529689 -91.731800099136308 0 -91.731800099136308 238.69041123396892 0 0 0 0 -25.233566815488302 -32.735255009662069 0 -32.735255009662069 253.45389381335553 0 0 0 0 4.8078329172876693 -63.024994788145705 0 -63.024994788145705 208.93626847987616 0 0 0 0 10.474266823384824 -46.083666084528886 0 -46.083666084528886 203.72063636328676 0 0 0 0 44.529139069822122 -49.86019612590826 0 -49.86019612590826 168.35031152250554 0 0 0 0 26.580744308427256 -55.02689708550588 0 -55.02689708550588 168.40572131460067 0 0 0 0 39.754230478714817 -79.768161546777264 0 -79.768161546777264 184.0167074374549 0 0 0 0 38.78955098985989 -66.949549167591613 0 -66.949549167591613 177.14715712470206 0 0 0 0 36.031187937083814 -81.473049974581954 0 -81.473049974581954 171.95172577207995 0 0 0 0 38.659902900282589 -70.189154285276118 0 -70.189154285276118 180.97253447040566 0 0 0 0 39.694587777045854 -71.109701947643771 0 -71.109701947643771 143.74969865599996 0 0 0 0 4.0889632007051659 -58.891306927673213 0 -58.891306927673213 146.8032289027251 0 0 0 0 46.53596091151212 -71.9649491713717 0 -71.9649491713717 152.0196890252264 0 0 0 0 42.685915495907466 -64.137323978724453 0 -64.137323978724453 153.2991122955882 0 0 0 0 54.450346951462052 -48.578344932677282 0 -48.578344932677282 150.07772356930946 0 0 0 0 39.645059947986738 -72.238547038665274 0 -72.238547038665274 132.98933250571281 0 0 0 0 12.338655996971283 -39.022598050698434 0 -39.022598050698434 132.85543593773781 0 0 0 0 39.726061427093555 -65.33011408335733 0 -65.33011408335733 154.02250621396524 0 0 0 0 31.449003796515171 -37.138165847456548 0 -37.138165847456548 149.08754262561888 0 0 0 0 100.59333718924336 -34.990281362013775 0 -34.990281362013775 163.21426991338376 0 0 0 0 60.127086420272462 -56.494350132830732 0 -56.494350132830732 160.75791128527271 0 0 0 0 55.742209703425942 -40.763296895842359 0 -40.763296895842359 179.20530733724445 0 0 0 0 57.184960989297906 -63.103340757501428 0 -63.103340757501428 143.16860176373302 0 0 0 0 52.202325516665951 -49.838098291580536 0 -49.838098291580536 156.73185721971095 0 0 0 0 74.739000487423255 -40.477813039196917 0 -40.477813039196917 155.26213131941768 0 0 0 0 91.845908060705142 -100.075789184315 0 -100.075789184315 299.42511949068285 0 0 0 0 142.7550458044434 59.836082890527905 0 59.836082890527905 331.78619660892127 0 0 0 0 48.423112513263504 -41.879264360812499 0 -41.879264360812499 234.32702293379407 0 0 0 0 71.767562830232237 -13.430592898854229 0 -13.430592898854229 208.50451726206302 0 0 0 0 66.574163913267512 -70.844322147228013 0 -70.844322147228013 176.33480623344076 0 0 0 0 16.801383531030297 -40.900008385651745 0 -40.900008385651745 209.16416534360542 0 0 0 0 -7.341909698754705 -27.012963664806193 0 -27.012963664806193 150.60683412388607 0 0 0 0 -8.0434767028018541 -38.722473608817381 0 -38.722473608817381 176.50144752256165 0 0 0 0 13.528853548050392 -24.967731389995606 0 -24.967731389995606 166.67138726078338 0 0 0 0 -28.409967077405781 -29.301988196395541 0 -29.301988196395541 199.11424413250643 0 0 0 0 -56.382656299114387 9.2765351694470155 0 9.2765351694470155 166.36330654643825 0 0 0 0 -40.077170737968117 10.95786529979523 0 10.95786529979523 188.96667811128282 0 0 0 0 -80.579632764249254 3.7191683070486761 0 3.7191683070486761 205.36022529378533 0 0 0 0 49.374840338405193 -36.122328119185113 0 -36.122328119185113 203.25611829892659 0 0 0 0 -21.345950669678587 -31.021231450369669 0 -31.021231450369669 267.48516707103408 0 0 0 0 -16.064215086575132 46.56372030278726 0 46.56372030278726 235.59413217637484 0 0 0 0 -8.8393968014770508 15.617078312257945 0 15.617078312257945 367.84234050616578 0 0 0 0 -53.511126052659165 96.476280616952863 0 96.476280616952863 -114.98462582538195 0 0 0 0 16.382734345697827 81.563349765739986 0 81.563349765739986 199.38407616283439 0 0 0 0 1.3749831871592733 0.7056968311290035 0 0.7056968311290035 0.13033196088221644 0 0 0 0 -47.628331418774906 40.775589175565983 0 40.775589175565983 241.22549849837378 0 0 0 0 -194.9368299734233 -17.439069948683027 0 -17.439069948683027 129.91220501695352 0 0 0 0 -63.184893648916841 76.258782960518147 0 76.258782960518147 162.61315624608687 0 0 0 0 -30.588383663840432 131.92231381748206 0 131.92231381748206 -113.86764584493358 0 0 0 0 -52.726696116191306 103.23155359554221 0 103.23155359554221 -104.33440948891803 0 0 0 0 -90.567561083964392 299.83131693922041 0 299.83131693922041 -69.747045084870479 0 0 0 0 -289.01536507106721 220.49125395646843 0 220.49125395646843 -25.473601989433519 0 0 0 0 -89.84687967032005 138.78708801152243 0 138.78708801152243 -114.65660667753582 0 0 0 0 -178.41766600138544 96.635812296924996 0 96.635812296924996 -56.117376773385331 0 0 0 0 -53.478876022271834 90.221424893756193 0 90.221424893756193 -114.56141114285856 0 0 0 0 -95.701248274168393 106.02082646072813 0 106.02082646072813 -104.41083290419192 0 0 0 0 -68.417479288192226 80.037716062084655 0 80.037716062084655 -82.980734439348453 0 0 0 0 -25.800001665673335 21.519325376022607 0 21.519325376022607 12.159836571187043 0 0 0 0 -24.345410031641222 63.089853928395314 0 63.089853928395314 -89.598798429899034 0 0 0 0 57.958155470268821 5.478409214309977 0 5.478409214309977 -1.1693568309856346 0 0 0 0 18.796083739938695 110.4744731707251 0 110.4744731707251 275.66046084510162 0 0 0 0 0.018260382718871426 0.59278331661393224 0 0.59278331661393224 2.0919254435355583 0 0 0 0 67.55966479061135 -160.97456461300317 0 -160.97456461300317 385.58148873665596 0 0 0 0 30.405736156975763 -62.167544052439553 0 -62.167544052439553 122.82748264036491 0 0 0 0 -0.31629574714835229 0.019704849386499745 0 0.019704849386499745 1.5848542259673835 0 0 0 0 -2.8228699196224625 0.46597444191866089 0 0.46597444191866089 19.618289023179386 0 0 0 0 3.4711336898950158 1.9151202863407661 0 1.9151202863407661 2.0262199051610281 0 0 0 0 2.278222640621415 2.2256519807643897 0 2.2256519807643897 3.6677431396539077 0 0 0 0 24.789608798902918 -31.10575803003303 0 -31.10575803003303 137.59347801202239 0 0 0 0 4.3632240990300488 2.4561861815782322 0 2.4561861815782322 10.94488930445732 0 0 0 0 -13.282245762106868 32.969335930720263 0 32.969335930720263 -55.240040662236424 0 0 0 0 -25.692405670288281 55.648811020917492 0 55.648811020917492 -81.742513976867485 0 0 0 0 -66.009233289783879 70.411535061524773 0 70.411535061524773 -41.070914693184022 0 0 0 0 -64.635282614722655 63.713760817274306 0 63.713760817274306 -42.252105849038344 0 0 0 0 -59.722164225884626 71.782874763419386 0 71.782874763419386 -46.149602213219623 0 0 0 0 -49.794838663819974 60.104771793703549 0 60.104771793703549 -42.243777313213286 0 0 0 0 -63.280225735692511 59.261067738851125 0 59.261067738851125 -18.292496074907831 0 0 0 0 -67.26841690148467 68.320744002063293 0 68.320744002063293 -13.848149251291034 0 0 0 0 -35.522663584777547 47.774210097970354 0 47.774210097970354 -15.114228272435867 0 0 0 0 -48.937785460186205 55.710616049458622 0 55.710616049458622 -19.7338654652267 0 0 0 0 -62.156647879106913 59.371048106477247 0 59.371048106477247 5.3046733355877222 0 0 0 0 -60.289565745240566 57.454148581241043 0 57.454148581241043 6.30662538397155 0 0 0 0 -70.713281366018236 59.969541502425272 0 59.969541502425272 7.4971639879004215 0 0 0 0 -60.669956022176621 59.56401363742043 0 59.56401363742043 -4.9893813423404936 0 0 0 0 -64.058752442707373 59.726492970621621 0 59.726492970621621 11.34461071252008 0 0 0 0 -60.684933767141047 57.737027440671227 0 57.737027440671227 7.5999908164158114 0 0 0 0 -17.57305416984309 37.839609285445476 0 37.839609285445476 -1.9517650153666182 0 0 0 0 -56.531857787597801 42.739346603908416 0 42.739346603908416 13.327905817030114 0 0 0 0 -65.453498260669221 54.589090699890221 0 54.589090699890221 10.778985299803935 0 0 0 0 -61.537967508460497 52.537642123694241 0 52.537642123694241 10.66387906470618 0 0 0 0 -74.214451338519211 49.696907878394995 0 49.696907878394995 11.601572280640539 0 0 0 0 -52.599452426133212 47.858408323783806 0 47.858408323783806 7.8645076763350517 0 0 0 0 -65.934143025911908 60.500135771828354 0 60.500135771828354 -1.0420585514075356 0 0 0 0 -58.665084022527935 26.367043095387999 0 26.367043095387999 4.6574665569060016 0 0 0 0 -72.064902224957677 59.661526669406157 0 59.661526669406157 -0.56109320043469779 0 0 0 0 -113.86330054186146 40.468752071850759 0 40.468752071850759 4.3081876942674171 0 0 0 0 -84.386475691100713 71.895168408540485 0 71.895168408540485 -16.566262165586522 0 0 0 0 -82.144035448663999 52.268059036363411 0 52.268059036363411 -5.8281918337670504 0 0 0 0 -73.832419480702356 58.164679043025899 0 58.164679043025899 -1.7289930782135343 0 0 0 0 -75.225575544034655 91.421218548130128 0 91.421218548130128 -81.107083277125639 0 0 0 0 -73.396072993367852 84.951787053563748 0 84.951787053563748 -70.422536729831336 0 0 0 0 -122.56060438791519 72.949424837388506 0 72.949424837388506 -24.786370544352394 0 0 0 0 -88.73858668084722 66.753101408587099 0 66.753101408587099 -25.768430572941725 0 0 0 0 -151.47609656929126 107.11790729963104 0 107.11790729963104 -55.780919478411533 0 0 0 0 -187.01893837377293 -9.1386243429060414 0 -9.1386243429060414 -6.4558087192999665 0 0 0 0 186.24191404327394 -76.299704181241395 0 -76.299704181241395 -46.02354865410598 0 0 0 0 -64.995820223187366 -6.2221950140337867 0 -6.2221950140337867 -10.896585348440567 0 0 0 0 -73.319168275307675 -15.390884723376075 0 -15.390884723376075 -42.595778925297054 0 0 0 0 -1.2161994122595452 -0.0014828016511074793 0 -0.0014828016511074793 0.050598263581605352 0 0 0 0 -60.810369931940841 95.730723436518019 0 95.730723436518019 98.350717615343456 0 0 0 0 8.9947939537660204 1.5074132936588285 0 1.5074132936588285 15.875554524216568 0 0 0 0 30.603986018122669 4.7276056508053443 0 4.7276056508053443 11.397481573600089 0 0 0 0 118.81820477368728 83.358022012176662 0 83.358022012176662 14.587419626186602 0 0 0 0 -2.2897602171271352 3.294112632623218 0 3.294112632623218 -4.2844098574514078 0 0 0 0 -29.136590313999022 28.044761006747649 0 28.044761006747649 -10.615476889339334 0 0 0 0 -62.025509267061352 24.765493834554945 0 24.765493834554945 12.724152916191088 0 0 0 0 18.247191969183632 28.375934293533192 0 28.375934293533192 -4.3606097841548035 0 0 0 0 -13.856591714882597 13.651193582067208 0 13.651193582067208 8.1845114029565593 0 0 0 0 28.899360680530663 41.711333482245209 0 41.711333482245209 4.7367801187283476 0 0 0 0 3.2772287253201817 6.5152935095188624 0 6.5152935095188624 -3.7697762201293585 0 0 0 0 9.6278380646456529 11.511820093212172 0 11.511820093212172 9.8290701180090423 0 0 0 0 -1.2273910837089375 17.059448054232234 0 17.059448054232234 -0.14140445737575646 0 0 0 0 19.064967396370776 33.260042079011328 0 33.260042079011328 1.6499619770474965 0 0 0 0 48.567472617392923 12.0288029818621 0 12.0288029818621 13.133957619982539 0 0 0 0 26.994031833261982 31.233256733095189 0 31.233256733095189 5.0627316749596218 0 0 0 0 17.338249169264479 19.449114961121929 0 19.449114961121929 0.64150370012961844 0 0 0 0 6.4628151881088263 10.134535489774706 0 10.134535489774706 8.7996628808348589 0 0 0 0 -2.9669599883491173 17.733971685869619 0 17.733971685869619 -5.0691995195229538 0 0 0 0 12.036137953717116 30.281101429180126 0 30.281101429180126 8.5560269146371866 0 0 0 0 -12.838565795014802 23.995531184111314 0 23.995531184111314 8.943605322871008 0 0 0 0 199.55359725422375 -73.512982176120204 0 -73.512982176120204 -171.16260886137752 0 0 0 0 -34.118808534197342 -40.98388899600468 0 -40.98388899600468 256.88110720811528 0 0 0 0 6.4708396355463265 18.307840690667945 0 18.307840690667945 -0.44923581206603558 0 0 0 0 104.15643112798784 210.78698940329923 0 210.78698940329923 -108.46781968533469 0 0 0 0 8.3205566014726831 13.617088559929854 0 13.617088559929854 10.70128691065743 0 0 0 0 6.2911302922167351 14.742771141442063 0 14.742771141442063 11.349269285958144 0 0 0 0 12.236540445520745 19.83102321262777 0 19.83102321262777 -0.5602119982795557 0 0 0 0 12.11036726318958 12.944401213767875 0 12.944401213767875 10.25694151970977 0 0 0 0 14.298245163265165 11.858627552468533 0 11.858627552468533 8.3550407282600645 0 0 0 0 11.30149296349893 19.317685095474189 0 19.317685095474189 19.291678065470478 0 0 0 0 9.5018291018066066 12.776572893815398 0 12.776572893815398 12.767864968982366 0 0 0 0 -19.331084327189785 27.549672565729566 0 27.549672565729566 21.694698121282272 0 0 0 0 -19.076277689679955 22.9567524827944 0 22.9567524827944 37.716544367882307 0 0 0 0 -2.8131845772066448 4.0725063599015812 0 4.0725063599015812 2.7235804584565457 0 0 0 0 -8.954804377262235 11.611527825290977 0 11.611527825290977 3.6568253570439992 0 0 0 0 242.10207323013492 -160.21549691325345 0 -160.21549691325345 -137.00297495099221 0 0 0 0 -6.7553496224827541 2.4864510185361723 0 2.4864510185361723 34.876176859341285 0 0 0 0 -122.18148688134897 53.372608280100394 0 53.372608280100394 207.55234906377882 0 0 0 0 -86.559890581062064 -37.712843430783323 0 -37.712843430783323 521.3224568546284 0 0 0 0 106.32552859330372 101.26864278397261 0 101.26864278397261 55.819470515009016 0 0 0 0 1.5035231097164257 1.132580052762826 0 1.132580052762826 0.082055842119956424 0 0 0 0 160.1497644049814 -79.148253012914211 0 -79.148253012914211 437.10177187831141 0 0 0 0 39.684962226711832 81.566514266974991 0 81.566514266974991 -81.827038991439622 0 0 0 0 1.4018816891115229 2.1104040888345281 0 2.1104040888345281 2.0299616252588066 0 0 0 0 67.386895665347765 127.99865553143172 0 127.99865553143172 -4.5245992605196079 0 0 0 0 20.777384287403038 57.309730750093877 0 57.309730750093877 -33.87976275748224 0 0 0 0 -10.893888193008024 12.025573345352313 0 12.025573345352313 -67.107350591075374 0 0 0 0 3.9092759316299635 36.693850951683999 0 36.693850951683999 -39.083985005767317 0 0 0 0 -33.543293081589582 21.070035708791693 0 21.070035708791693 1.0575741010543425 0 0 0 0 -19.115539780291328 35.226471434707491 0 35.226471434707491 18.265234033700835 0 0 0 0 11.294575924025594 57.582880178435516 0 57.582880178435516 -2.5091361636150395 0 0 0 0 -19.829910484295397 29.73007134738873 0 29.73007134738873 6.5381590445376787 0 0 0 0 -33.461961889030135 22.002246524505608 0 22.002246524505608 22.207808228034992 0 0 0 0 -19.756079919769178 27.543777443131376 0 27.543777443131376 3.9595988029905129 0 0 0 0 -20.659453199276868 47.231287566348328 0 47.231287566348328 38.272097340515757 0 0 0 0 -15.094189706680481 73.528657762271905 0 73.528657762271905 48.453905919435783 0 0 0 0 -9.3828543919644289 64.123982479562983 0 64.123982479562983 8.6485439932002919 0 0 0 0 35.326553395609153 89.682717337069334 0 89.682717337069334 17.470132201633533 0 0 0 0 -25.587325213497024 89.310411261363697 0 89.310411261363697 45.557695190247614 0 0 0 0 -38.182926505378418 114.22543523938657 0 114.22543523938657 57.057402285314311 0 0 0 0 -3.7912041765621325 119.23143034845634 0 119.23143034845634 51.245234040019568 0 0 0 0 37.271907464714104 199.70491263786425 0 199.70491263786425 128.48503663286101 0 0 0 0 -64.222301734002485 75.940377200215153 0 75.940377200215153 51.842064833050244 0 0 0 0 -24.391187650309803 83.158824825477495 0 83.158824825477495 26.315049008830101 0 0 0 0 -92.109828444548839 19.903630524157052 0 19.903630524157052 33.876915428743814 0 0 0 0 88.667901239503408 45.339552346165874 0 45.339552346165874 33.697228966644616 0 0 0 0 -35.109708023735038 74.994344852984796 0 74.994344852984796 58.853428187634563 0 0 0 0 -8.9408238811811316 53.359363499985193 0 53.359363499985193 42.950937908091873 0 0 0 0 -28.742928405214116 86.75521317980747 0 86.75521317980747 55.137030674959533 0 0 0 0 -367.12714719447786 58.805947432509129 0 58.805947432509129 21.115884544298751 0 0 0 0 -0.68519893041783586 1.6873828158199231 0 1.6873828158199231 -1.7975998515045433 0 0 0 0 300.45836532298108 97.571946219464735 0 97.571946219464735 -83.948264454258606 0 0 0 0 135.21920274463537 108.1112460835684 0 108.1112460835684 7.3162742409622297 0 0 0 0 93.566141641520517 197.42293421272916 0 197.42293421272916 32.380461937136715 0 0 0 0 -71.802283727283793 233.23112226056401 0 233.23112226056401 26.889887872239342 0 0 0 0 0.79266047713099397 130.75440036973305 0 130.75440036973305 53.094092344472301 0 0 0 0 35.165792329706164 140.28385257499758 0 140.28385257499758 25.773885454575066 0 0 0 0 53.90722175574183 75.065038733744586 0 75.065038733744586 35.489462453027954 0 0 0 0 -31.799881547050973 99.015147145815718 0 99.015147145815718 65.966981231453246 0 0 0 0 -45.687753806298133 142.15620289804792 0 142.15620289804792 53.506461074757681 0 0 0 0 -239.36341492754082 178.94257335778639 0 178.94257335778639 131.00318829467869 0 0 0 0 -126.76668880259422 110.39079596247757 0 110.39079596247757 161.01428042334737 0 0 0 0 -7.0981194540818251 75.975238780971267 0 75.975238780971267 53.339015244942857 0 0 0 0 -9.3574646155939263 92.112539702677168 0 92.112539702677168 42.324475949120824 0 0 0 0 -28.885955682968415 78.781722546802484 0 78.781722546802484 60.570075073461339 0 0 0 0 -24.563144066585664 70.804050778737292 0 70.804050778737292 51.745406060035748 0 0 0 0 -30.567303798536159 86.675841223252064 0 86.675841223252064 86.606413980232901 0 0 0 0 -45.227419994622323 56.439531104755588 0 56.439531104755588 108.03745152415649 0 0 0 0 -45.233919621032221 53.999255489656413 0 53.999255489656413 68.315613410421065 0 0 0 0 -73.429502483015312 54.846236885081453 0 54.846236885081453 155.53716865448223 0 0 0 0 -96.83204109617327 72.223766294479901 0 72.223766294479901 142.63456613587914 0 0 0 0 -61.426488145662006 75.2627792322819 0 75.2627792322819 86.416205283230966 0 0 0 0 -46.99572982628888 14.177014194967342 0 14.177014194967342 146.30232119322682 0 0 0 0 -60.032562858965321 28.505267224722047 0 28.505267224722047 130.71252315588936 0 0 0 0 -48.710394586557413 31.914774908844265 0 31.914774908844265 90.606371267254872 0 0 0 0 -49.506553281037668 32.364347920258297 0 32.364347920258297 92.271045891917311 0 0 0 0 -51.200558385551631 31.475309642795764 0 31.475309642795764 101.10193746129698 0 0 0 0 -55.014658999314634 3.9563623859903601 0 3.9563623859903601 99.405111292864603 0 0 0 0 -46.939826154577531 27.217920914401475 0 27.217920914401475 62.411607531714253 0 0 0 0 -53.660169637955732 7.2829565728497982 0 7.2829565728497982 56.764147938112728 0 0 0 0 -52.155174305236869 13.12506277198554 0 13.12506277198554 78.792706419531896 0 0 0 0 -44.651788599230713 1.4948211943919887 0 1.4948211943919887 42.25636006039349 0 0 0 0 -36.181918052930087 6.5195568273557001 0 6.5195568273557001 42.928968524822267 0 0 0 0 -40.503859562488742 19.660511701753421 0 19.660511701753421 38.639213324728189 0 0 0 0 -39.549170196982232 24.378953872517741 0 24.378953872517741 53.752670480756024 0 0 0 0 -38.277275310874302 16.646507276298507 0 16.646507276298507 39.532159652400878 0 0 0 0 -35.790265793830258 16.188496271133772 0 16.188496271133772 36.630202902386372 0 0 0 0 -33.891454337490359 23.516985648640002 0 23.516985648640002 24.320881440246012 0 0 0 0 -33.16708925118246 28.065942989552241 0 28.065942989552241 43.239658977021463 0 0 0 0 -29.656453645987312 47.112987704414991 0 47.112987704414991 44.489323517940647 0 0 0 0 -32.773546838860057 56.160079774243059 0 56.160079774243059 64.438800831536355 0 0 0 0 -42.699120942215359 28.355220290419311 0 28.355220290419311 59.850945091238827 0 0 0 0 -19.44076266107345 14.872862733569491 0 14.872862733569491 23.420642282231711 0 0 0 0 -6.0341683560181991 9.6472243026728393 0 9.6472243026728393 21.105762624225463 0 0 0 0 -17.656896831738777 18.572601779444085 0 18.572601779444085 14.309577689273283 0 0 0 0 -32.296836932866427 26.701392715323891 0 26.701392715323891 12.544185651087901 0 0 0 0 -32.660851767332133 16.957632243385888 0 16.957632243385888 24.558539765843307 0 0 0 0 -35.569257325207218 18.312780270673102 0 18.312780270673102 27.251797547512979 0 0 0 0 -28.661831307697867 16.023070724288118 0 16.023070724288118 25.219659421029064 0 0 0 0 -24.663818528428237 4.2657419241368189 0 4.2657419241368189 27.531914209499519 0 0 0 0 -30.789166753934296 11.579750579434403 0 11.579750579434403 35.164743348723277 0 0 0 0 -36.175026817762955 6.8061108386827982 0 6.8061108386827982 31.781003158037493 0 0 0 0 -4.4653353036710541 10.126774197113264 0 10.126774197113264 17.266892463492695 0 0 0 0 -17.720207615450818 10.762896130330773 0 10.762896130330773 24.980205305822892 0 0 0 0 -19.55445330252951 11.130694217012206 0 11.130694217012206 25.304454611323308 0 0 0 0 -17.694464427211642 15.825278756412445 0 15.825278756412445 24.560543215749931 0 0 0 0 -4.9783754777718059 8.6788380473790312 0 8.6788380473790312 13.190216796792811 0 0 0 0 -1.9900746755035161 3.9528175469717972 0 3.9528175469717972 12.451103470796312 0 0 0 0 -1.0597145028525574 5.7659949754015543 0 5.7659949754015543 17.298101182190294 0 0 0 0 2.4694548746558667 9.356971146986325 0 9.356971146986325 20.423934545651719 0 0 0 0 1.2986688875697432 2.5538898744577381 0 2.5538898744577381 6.0794109181383504 0 0 0 0 2.3678059415930028 1.3559134508153363 0 1.3559134508153363 6.2556722156738687 0 0 0 0 1.0631464090290876 0.66239803641929029 0 0.66239803641929029 22.413877950079041 0 0 0 0 -5.7894198174865892 14.874836264353235 0 14.874836264353235 26.917691547234426 0 0 0 0 0.46960984354034707 2.6457868978613135 0 2.6457868978613135 3.8404350020011613 0 0 0 0 0.91701585993912715 1.9391533173664861 0 1.9391533173664861 12.214944931405512 0 0 0 0 5.3587924815583392 8.9248973126268538 0 8.9248973126268538 11.624451010757184 0 0 0 0 18.570176359895129 30.640745503028938 0 30.640745503028938 77.476701817111461 0 0 0 0 -2.653008784607664 14.781393625977216 0 14.781393625977216 8.0723780370353779 0 0 0 0 7.6171751001692201 6.8478642735123572 0 6.8478642735123572 5.4988032805651414 0 0 0 0 -9.3792150875004836 -18.255079023616418 0 -18.255079023616418 30.846247673518519 0 0 0 0 2.5970282417680406 0.22936649143004928 0 0.22936649143004928 0.87328845428712043 0 0 0 0 60.516439185929755 -36.073206134979046 0 -36.073206134979046 24.049306848697597 0 0 0 0 -46.985615511762468 48.50635408827111 0 48.50635408827111 79.160395493439864 0 0 0 0 -29.810712991286692 4.2462363424783689 0 4.2462363424783689 63.73864085949026 0 0 0 0 -0.92298170045697159 6.6840339545877185 0 6.6840339545877185 42.232222995373036 0 0 0 0 1.3874797115218769 93.639891250273649 0 93.639891250273649 120.84985690485337 0 0 0 0 -7.5347408639013338 -19.165435806193273 0 -19.165435806193273 107.52421745266838 0 0 0 0 -19.374911912771495 -0.54858687111845938 0 -0.54858687111845938 55.248106656720665 0 0 0 0 52.401562611930331 -35.678066416921865 0 -35.678066416921865 50.612829272999079 0 0 0 0 7.2375831030371955 -26.819939155793691 0 -26.819939155793691 97.221207350210534 0 0 0 0 -12.995657701201708 5.3099882977548987 0 5.3099882977548987 92.522900963313987 0 0 0 0 -5.8328922879691163 10.388620991339849 0 10.388620991339849 8.4384041971497936 0 0 0 0 -9.8705396018031024 17.137294451000344 0 17.137294451000344 -1.218775478657335 0 0 0 0 -36.082120881690571 41.994098315444717 0 41.994098315444717 -18.228323767999882 0 0 0 0 -22.954302378075226 35.136751677804568 0 35.136751677804568 -18.563951971111237 0 0 0 0 -32.642188358624708 25.2955079393696 0 25.2955079393696 12.727616714750184 0 0 0 0 -34.971727957447001 19.426086925421259 0 19.426086925421259 7.66884383076831 0 0 0 0 -29.339340099777928 31.020241602134774 0 31.020241602134774 -9.5932937842007959 0 0 0 0 -12.226099631850047 -40.558774964840268 0 -40.558774964840268 117.91016024550481 0 0 0 0 5.02038260987527 4.7328708281592213 0 4.7328708281592213 3.5618243855155924 0 0 0 0 -52.432164127420037 16.716642987106752 0 16.716642987106752 -16.870948062831303 0 0 0 0 -47.212351164598658 -73.196443592576543 0 -73.196443592576543 143.48158522324957 0 0 0 0 -29.771525765232582 21.430900489605847 0 21.430900489605847 189.91491066020535 0 0 0 0 23.898368413307253 125.54056242286606 0 125.54056242286606 310.25126307229948 0 0 0 0 -74.987356458301292 -109.46927306689759 0 -109.46927306689759 498.26484912389424 0 0 0 0 10.901830645014302 8.6013040483032057 0 8.6013040483032057 -2.9576825532169835 0 0 0 0 81.9275898532469 7.8627648729125212 0 7.8627648729125212 -21.25072933170668 0 0 0 0 -6.6459641881838252 41.797046722247615 0 41.797046722247615 104.1653444263502 0 0 0 0 -17.142291947810918 21.339384290920862 0 21.339384290920862 99.09535017525377 0 0 0 0 3.1972226206939922 34.85730056790635 0 34.85730056790635 39.758482967728924 0 0 0 0 5.1538780398809649 26.83867934907903 0 26.83867934907903 57.699967678068788 0 0 0 0 -13.544923848683538 3.2339422599543468 0 3.2339422599543468 99.053077756310813 0 0 0 0 -21.557088789655609 49.438475274720986 0 49.438475274720986 87.388118111512085 0 0 0 0 13.145018579740281 19.659802668822522 0 19.659802668822522 3.8393961955880513 0 0 0 0 6.2160952298511774 9.9038819975953061 0 9.9038819975953061 -0.2682867142041232 0 0 0 0 3.8970375993276321 13.141978474472126 0 13.141978474472126 15.05365740864363 0 0 0 0 10.018063031175643 26.084931281526224 0 26.084931281526224 35.596621601656807 0 0 0 0 7.9154552870954831 11.647364733908034 0 11.647364733908034 11.145225965687132 0 0 0 0 117.18341714602821 -253.24475744841038 0 -253.24475744841038 202.78821219806559 0 0 0 0 -45.395801380207786 -139.77680621569743 0 -139.77680621569743 475.33792017083033 0 0 0 0 11.069478437072686 12.998266484790165 0 12.998266484790165 9.7008733227392412 0 0 0 0 10.108047052143093 -42.026473939324205 0 -42.026473939324205 71.429330711907824 0 0 0 0 85.776141408969579 -292.0055252511338 0 -292.0055252511338 262.81277183676139 0 0 0 0 58.713638882693431 -321.24889599541166 0 -321.24889599541166 246.51352028762631 0 0 0 0 139.40115300024195 -38.031072813802894 0 -38.031072813802894 97.158687554503558 0 0 0 0 117.7016174909354 -262.32205753848393 0 -262.32205753848393 229.36015112811583 0 0 0 0 33.124265177480652 -380.25293454242637 0 -380.25293454242637 268.8021531342747 0 0 0 0 93.934905082503292 -134.10311781381097 0 -134.10311781381097 -139.18897818915866 0 0 0 0 189.70564829509544 -323.96014297122747 0 -323.96014297122747 222.94527874215964 0 0 0 0 56.079373069679605 -285.45013199594177 0 -285.45013199594177 231.46285699907094 0 0 0 0 95.556864667692707 -378.977472342689 0 -378.977472342689 472.12047076839372 0 0 0 0 86.712991437453184 -333.96282504942792 0 -333.96282504942792 249.43162998276239 0 0 0 0 -41.267502457349906 -168.21891299206618 0 -168.21891299206618 609.85896588973992 0 0 0 0 3.4945610121537811 -283.95400282740229 0 -283.95400282740229 661.66597421665938 0 0 0 0 126.11491360331502 11.02782405079779 0 11.02782405079779 737.50484695193154 0 0 0 0 3.0387696910388824 3.3641737795134716 0 3.3641737795134716 1.1784113238701934 0 0 0 0 93.435033151469042 -220.34605723922868 0 -220.34605723922868 363.95668928121449 0 0 0 0 120.4878572833702 39.150416302030862 0 39.150416302030862 -14.780118309718091 0 0 0 0 8.4545263980935488 133.01480652508326 0 133.01480652508326 119.53364907192008 0 0 0 0 12.590666238112025 11.746846081902731 0 11.746846081902731 1.314163938842313 0 0 0 0 8.5837449679209481 18.638767630373408 0 18.638767630373408 23.944099176548008 0 0 0 0 4.7911757472267027 18.791116140580925 0 18.791116140580925 49.957185522172949 0 0 0 0 9.4594093560490364 23.791388786601601 0 23.791388786601601 43.908066969539504 0 0 0 0 9.438401088566934 23.350191952777095 0 23.350191952777095 43.882427626975186 0 0 0 0 -2.5034492990267836 23.19445142355471 0 23.19445142355471 48.409932369424496 0 0 0 0 5.1436871739506387 28.583056058771035 0 28.583056058771035 37.506564004346728 0 0 0 0 12.41379277325359 5.049998908827547 0 5.049998908827547 24.161851465833024 0 0 0 0 12.668103567973048 -1.8135729834320955 0 -1.8135729834320955 63.464260006221593 0 0 0 0 1.857292884191601 4.9896914566015766 0 4.9896914566015766 15.283305173565168 0 0 0 0 4.8170607277159752 4.8756314641652239 0 4.8756314641652239 13.048720224099824 0 0 0 0 81.738610944212496 167.69048206554726 0 167.69048206554726 -106.24200044458848 0 0 0 0 3.3567667630414832 8.8672500559590759 0 8.8672500559590759 27.22997546723991 0 0 0 0 21.84308591669037 -4.6732065928954398 0 -4.6732065928954398 -55.327721284134896 0 0 0 0 -0.22890018700957615 1.4749212506948197 0 1.4749212506948197 12.627298558394649 0 0 0 0 5.0905590388547353 12.649661037401529 0 12.649661037401529 62.951801469840575 0 0 0 0 1.054486003114671 -2.4555131412599707 0 -2.4555131412599707 23.519848200859336 0 0 0 0 5.1989350003841821 -1.9776501943124458 0 -1.9776501943124458 34.602696754383942 0 0 0 0 1.4685040604054791 -5.7861034157140239 0 -5.7861034157140239 16.07075371335668 0 0 0 0 3.2888943437167639 -3.0251312540552959 0 -3.0251312540552959 3.6374830308361439 0 0 0 0 -8.750011478474562 -17.548489403532585 0 -17.548489403532585 70.88078366847185 0 0 0 0 0.78849040057986941 -1.0262113766829941 0 -1.0262113766829941 4.8578863979997067 0 0 0 0 -1.7957943369036187 -4.2681883653167461 0 -4.2681883653167461 16.124577258051431 0 0 0 0 -53.306769400479197 -15.516142939055499 0 -15.516142939055499 401.35247063105635 0 0 0 0 39.995781261481625 -127.75169487331004 0 -127.75169487331004 269.08996112381283 0 0 0 0 38.66261189724635 -131.79150734207042 0 -131.79150734207042 282.65231177512032 0 0 0 0 106.2076018987658 -326.04341647004003 0 -326.04341647004003 373.83265079683042 0 0 0 0 -299.93158845094888 117.87320528489363 0 117.87320528489363 584.91164852547263 0 0 0 0 -135.90719442081775 -202.83015456706198 0 -202.83015456706198 760.73006236327637 0 0 0 0 -179.93779152145862 -55.878501165658236 0 -55.878501165658236 479.96435999728419 0 0 0 0 -104.37591922571494 -31.380691205213225 0 -31.380691205213225 475.36999713437399 0 0 0 0 -38.137821379573552 -45.620473552015028 0 -45.620473552015028 23.436170845314336 0 0 0 0 -154.21820896827572 174.98758782404002 0 174.98758782404002 283.62360179590905 0 0 0 0 -0.17425859088168405 -0.86418537819853647 0 -0.86418537819853647 5.1337177660375914 0 0 0 0 0.043400140315158334 -70.198430689062661 0 -70.198430689062661 285.98990857599711 0 0 0 0 -22.263569286945881 21.974146462496719 0 21.974146462496719 276.56488837374491 0 0 0 0 -15.139485367894565 -27.27460037144192 0 -27.27460037144192 316.41234882301796 0 0 0 0 -116.0706617761024 -20.564417848463563 0 -20.564417848463563 520.10399799210427 0 0 0 0 -26.609441434080132 -24.436922917871925 0 -24.436922917871925 480.68470143909508 0 0 0 0 51.765415479781211 -61.996419311944919 0 -61.996419311944919 452.25620779271048 0 0 0 0 7.7205921801847666 8.564284602405678 0 8.564284602405678 401.04614873832907 0 0 0 0 0.020185687660816819 26.469467734084901 0 26.469467734084901 570.70572608232033 0 0 0 0 15.370831209422258 -92.896650500806572 0 -92.896650500806572 511.80073734231701 0 0 0 0 -4.3287665742886219 -91.032959972177196 0 -91.032959972177196 93.940663855173625 0 0 0 0 0.92536917836624166 -1.4887500930193625 0 -1.4887500930193625 0.90682342812955596 0 0 0 0 -23.197904283429573 64.626536930876682 0 64.626536930876682 486.91355737514095 0 0 0 0 -96.401779076121684 40.871148011356127 0 40.871148011356127 740.69388532146695 0 0 0 0 15.221327728096739 -52.10976295855653 0 -52.10976295855653 -8.6684250333346426 0 0 0 0 -6.6464390972456471 30.409631418810022 0 30.409631418810022 52.797421888884855 0 0 0 0 -0.42831917235434247 3.5448371940947254 0 3.5448371940947254 4.1459472197748255 0 0 0 0 -6.4006907922038394 2.0781612814316759 0 2.0781612814316759 97.192053919497994 0 0 0 0 0.008403111891187481 19.735181717398518 0 19.735181717398518 70.674403448934754 0 0 0 0 -8.5479684031485732 13.69475486045485 0 13.69475486045485 67.178179130496574 0 0 0 0 -9.2846760590019883 3.5950253275877913 0 3.5950253275877913 66.477304417538107 0 0 0 0 0.012226556302190718 11.775572791837476 0 11.775572791837476 46.815385553803935 0 0 0 0 -7.1178427160226079 -3.8463326284108916 0 -3.8463326284108916 58.031661912056734 0 0 0 0 0.22317905956392181 15.647689164472467 0 15.647689164472467 63.422875222488074 0 0 0 0 -5.053670885664145 5.3965130386204692 0 5.3965130386204692 73.752253172220662 0 0 0 0 28.867200906048978 6.1689588394547172 0 6.1689588394547172 62.628840629062324 0 0 0 0 28.409659576180829 11.785982489556773 0 11.785982489556773 66.532515651531867 0 0 0 0 0.28446098717474821 -0.028001700995190504 0 -0.028001700995190504 0.24333436912843354 0 0 0 0 4.9366139265384135 -28.088713538709271 0 -28.088713538709271 119.94212535023689 0 0 0 0 5.5652522088488467 -8.1751069318925147 0 -8.1751069318925147 59.047550728530041 0 0 0 0 -18.6680734965569 -19.275942094405764 0 -19.275942094405764 61.211823729012394 0 0 0 0 -22.564470084262538 34.690967465383437 0 34.690967465383437 52.972646106005413 0 0 0 0 7.3646941839879787 23.845738061099837 0 23.845738061099837 23.42343849541794 0 0 0 0 6.1296231851984846 4.7753675887001918 0 4.7753675887001918 71.88528126408346 0 0 0 0 24.665006078905648 40.205973863492545 0 40.205973863492545 47.328918736824562 0 0 0 0 1.1697928734000804 -15.950152475441428 0 -15.950152475441428 34.1963281804492 0 0 0 0 0.37810377376633325 1.2712664315252589 0 1.2712664315252589 0.88266367752328279 0 0 0 0 2.989184920858321 11.032378394946136 0 11.032378394946136 12.384810334377107 0 0 0 0 -1.570150611012231 1.0339233523554867 0 1.0339233523554867 23.697815049101337 0 0 0 0 0.44200361568578916 7.14072858949487 0 7.14072858949487 12.751732243428407 0 0 0 0 -1.0243213370519018 2.847030849135642 0 2.847030849135642 15.044736782807661 0 0 0 0 3.1873065665824587 0.77422631104673201 0 0.77422631104673201 22.205190492706606 0 0 0 0 0.049165831134206278 5.5083460767755241 0 5.5083460767755241 33.874621147595406 0 0 0 0 0.35500998114756577 1.0295344317562609 0 1.0295344317562609 10.758034212152808 0 0 0 0 8.3198144551511177 6.9946778717567213 0 6.9946778717567213 15.741442879698297 0 0 0 0 3.3587743904031684 5.4215986271284038 0 5.4215986271284038 12.716597959544572 0 0 0 0 1.6819438003303731 4.7668126577846124 0 4.7668126577846124 14.661507986107608 0 0 0 0 0.03688371208636454 4.1414597453258466 0 4.1414597453258466 10.330229737024638 0 0 0 0 2.5874557747506284 5.206045871136638 0 5.206045871136638 7.8442911046501109 0 0 0 0 -1.4871974931954313 7.5605087842704961 0 7.5605087842704961 20.920958395625348 0 0 0 0 1.8533324511002212 4.0960516193073531 0 4.0960516193073531 8.7274617808053847 0 0 0 0 -1.9693484757612354 3.3396039508397735 0 3.3396039508397735 20.002536005340517 0 0 0 0 4.4542025908361449 7.0825665116540222 0 7.0825665116540222 7.2603830687791628 0 0 0 0 11.685062802073531 14.128648733705631 0 14.128648733705631 5.2409093491150998 0 0 0 0 0.66774516726641353 1.0364124121548244 0 1.0364124121548244 0.91422348816450949 0 0 0 0 13.897180434822547 20.148548202874736 0 20.148548202874736 21.162444089830387 0 0 0 0 0.0029613259500465856 1.9920571952570754 0 1.9920571952570754 7.4464757257483143 0 0 0 0 1.5555194042938765 10.681795134485583 0 10.681795134485583 36.453047380797216 0 0 0 0 -8.9352590505760112 -0.55409061289174133 0 -0.55409061289174133 31.131185993042891 0 0 0 0 12.517229522061896 -2.4725558212667238 0 -2.4725558212667238 10.727279646052921 0 0 0 0 -0.067397308067088754 0.38561258776144314 0 0.38561258776144314 1.6872410641753213 0 0 0 0 3.8709642893040836 17.377332485557417 0 17.377332485557417 33.258625384856714 0 0 0 0 3.5074251016091313 10.131863659466035 0 10.131863659466035 23.491284552568686 0 0 0 0 -3.2131557251662581 6.858601071035082 0 6.858601071035082 28.780348500760738 0 0 0 0 1.1160489568617651 3.7403243214398811 0 3.7403243214398811 3.0510108655805368 0 0 0 0 45.918476861069621 -184.86116685822458 0 -184.86116685822458 396.05351386831899 0 0 0 0 246.61687996389264 251.12589750723419 0 251.12589750723419 179.48605162001058 0 0 0 0 -44.445677971751138 168.29793690118458 0 168.29793690118458 623.99918220707013 0 0 0 0 -43.585541980917242 177.43304683290899 0 177.43304683290899 183.00078675883924 0 0 0 0 -69.505807639252339 219.02028547621921 0 219.02028547621921 263.78981664778166 0 0 0 0 -120.09037405653353 251.19190388039578 0 251.19190388039578 248.88815325114592 0 0 0 0 92.998335547422471 243.74113428585656 0 243.74113428585656 111.85449188646044 0 0 0 0 -6.1707797570184084 166.31385783459791 0 166.31385783459791 151.47995311549676 0 0 0 0 1.5301245441560241 7.899547818477231 0 7.899547818477231 12.231526315352994 0 0 0 0 -3.8163569665605905 5.4568347189212432 0 5.4568347189212432 9.6567508809671896 0 0 0 0 -78.795415540705108 31.892155514743763 0 31.892155514743763 48.530080682201515 0 0 0 0 -42.450875477384216 7.1808410752196323 0 7.1808410752196323 50.379455062960005 0 0 0 0 -1.0238365636705566 15.677478558456642 0 15.677478558456642 48.879914293872389 0 0 0 0 32.883289866814266 -10.914443531291681 0 -10.914443531291681 29.800750203652569 0 0 0 0 -41.401789967207151 -7.817411540942885 0 -7.817411540942885 172.07493188858223 0 0 0 0 -43.513904925273891 -1.5300617873035662 0 -1.5300617873035662 194.78021218632966 0 0 0 0 -45.997064904931904 -11.439014270221378 0 -11.439014270221378 172.59657708190798 0 0 0 0 44.76071941868031 -87.364468964904518 0 -87.364468964904518 97.368822878426727 0 0 0 0 -30.037681462121327 102.22675451859595 0 102.22675451859595 280.34217512101259 0 0 0 0 -27.048237692823022 163.03240771366654 0 163.03240771366654 583.346352219045 0 0 0 0 -55.369237295971288 -36.438753839350284 0 -36.438753839350284 382.39139973823694 0 0 0 0 -110.42133196885698 157.22048958665982 0 157.22048958665982 223.63434470941911 0 0 0 0 -40.692737903596026 77.045038132299396 0 77.045038132299396 218.64131661498323 0 0 0 0 -41.709191928959626 74.803935695607834 0 74.803935695607834 241.96462139879623 0 0 0 0 63.613922497967906 81.527664250726048 0 81.527664250726048 154.59264357536449 0 0 0 0 10.73567436893245 177.41349307886321 0 177.41349307886321 16.390452788440598 0 0 0 0 188.11688930773016 -29.000594725326664 0 -29.000594725326664 16.124907006526527 0 0 0 0 39.567459031907674 -60.479758812011823 0 -60.479758812011823 279.21317626508244 0 0 0 0 69.971949276688065 84.267744159765243 0 84.267744159765243 49.00774799388455 0 0 0 0 -2.2644731507372917 -2.9827593126198906 0 -2.9827593126198906 -1.8725083562490088 0 0 0 0 15.749439019076817 52.049812584300525 0 52.049812584300525 -94.568673878283789 0 0 0 0 42.272038001629625 -108.11338192349399 0 -108.11338192349399 106.08494986116602 0 0 0 0 351.22974729658836 107.17658860003939 0 107.17658860003939 169.28895594813184 0 0 0 0 6.7374801531941557 97.744781066947326 0 97.744781066947326 169.30705830340776 0 0 0 0 135.95096132082381 -133.18036662391569 0 -133.18036662391569 395.21775820262792 0 0 0 0 -82.583273103479314 34.305138925302344 0 34.305138925302344 379.8163467843242 0 0 0 0 30.476579875743255 27.887058375546076 0 27.887058375546076 150.91098690647414 0 0 0 0 -10.382272781663444 -2.9084673500699409 0 -2.9084673500699409 9.1632751957177447 0 0 0 0 -6.4733355959395453 -12.710470169032305 0 -12.710470169032305 -24.842541760863242 0 0 0 0 -9.0297914658554621 1.8705004015768498 0 1.8705004015768498 40.366759017172697 0 0 0 0 -14.27757942724611 2.6816122595409979 0 2.6816122595409979 54.962649886128929 0 0 0 0 1.1951601754572039 -3.395690835608093 0 -3.395690835608093 45.238647823856709 0 0 0 0 -12.610414859745561 -2.9597350927269872 0 -2.9597350927269872 60.776357485397966 0 0 0 0 -9.6452769449110747 7.6771856457661443 0 7.6771856457661443 44.86139729952356 0 0 0 0 -7.7121203188301282 12.298847757378919 0 12.298847757378919 30.483079787567199 0 0 0 0 110.16286910288318 90.313622648311139 0 90.313622648311139 77.968165413956285 0 0 0 0 -65.05252960438736 -49.068067682725996 0 -49.068067682725996 116.7848625561146 0 0 0 0 -90.026153184805793 90.138936182951397 0 90.138936182951397 11.142919314726896 0 0 0 0 -2.8590966769459101 -7.0441609247754968 0 -7.0441609247754968 27.624407284634799 0 0 0 0 -3.8601369350833465 5.2449292271248851 0 5.2449292271248851 30.999914367872407 0 0 0 0 1.4008377637701415 -8.3264994794947143 0 -8.3264994794947143 67.924175529963122 0 0 0 0 -7.5083367469146527 12.509568751218911 0 12.509568751218911 19.827781619365432 0 0 0 0 -28.541358259259766 -30.263325753686104 0 -30.263325753686104 58.79222896470128 0 0 0 0 -51.371198380475107 -9.0580422514117345 0 -9.0580422514117345 133.23244832794444 0 0 0 0 6.0156984967607059 65.160035265908846 0 65.160035265908846 132.16058952959565 0 0 0 0 -7.7864373960265993 15.105074588326715 0 15.105074588326715 74.924397935110846 0 0 0 0 -8.6979595431757275 8.5448733082132549 0 8.5448733082132549 54.99047699415587 0 0 0 0 13.928850775138812 13.629328634929152 0 13.629328634929152 55.829255477709921 0 0 0 0 -16.922657084461321 27.950011522629893 0 27.950011522629893 71.900378933980392 0 0 0 0 15.879210642176986 46.653622542824451 0 46.653622542824451 62.025077322305151 0 0 0 0 28.012790415589848 31.917894155502836 0 31.917894155502836 37.769296513928566 0 0 0 0 13.205924973357014 32.849396176155551 0 32.849396176155551 41.934431071929794 0 0 0 0 12.893800600587383 25.991251933016429 0 25.991251933016429 40.995830382384156 0 0 0 0 0.15352120241641387 25.367090152483797 0 25.367090152483797 36.717615707720142 0 0 0 0 -10.775548727145633 25.789727065470288 0 25.789727065470288 42.18505252348541 0 0 0 0 -1.5964576502506134 34.889548907619428 0 34.889548907619428 44.314319824315135 0 0 0 0 7.6858494810210232 31.819487442278842 0 31.819487442278842 51.832596059372918 0 0 0 0 14.911086948311322 21.589556117400662 0 21.589556117400662 38.724009246438982 0 0 0 0 43.373810224028603 22.792118606931581 0 22.792118606931581 34.156296868954087 0 0 0 0 -2.014085376912393 -2.5920712430985695 0 -2.5920712430985695 10.134111772717429 0 0 0 0 -32.815720176233526 -65.475242532828815 0 -65.475242532828815 129.8595562374212 0 0 0 0 5.3894982492142844 70.244429215329546 0 70.244429215329546 235.42183887105148 0 0 0 0 -3.5482266661081781 149.96905653342492 0 149.96905653342492 163.34243036871158 0 0 0 0 55.045185301002562 44.058939542305325 0 44.058939542305325 45.778795095035093 0 0 0 0 -7.5307788657039394 2.3544677094495503 0 2.3544677094495503 59.902050718129487 0 0 0 0 -9.8657020442864223 -101.53240589306233 0 -101.53240589306233 47.431528014960463 0 0 0 0 -2.7091232828723584 -4.1077100724954416 0 -4.1077100724954416 3.1188341415756788 0 0 0 0 11.454112440815152 10.161881912626995 0 10.161881912626995 19.981885789855369 0 0 0 0 37.830701977657554 110.33636547799915 0 110.33636547799915 54.826437660842657 0 0 0 0 -19.599687071722201 19.800875356555025 0 19.800875356555025 55.04461051783619 0 0 0 0 1.3971135326115336 13.048479568555567 0 13.048479568555567 44.83638867403134 0 0 0 0 -1.1191273062344504 7.3398072716484863 0 7.3398072716484863 6.2856145001216888 0 0 0 0 -2.4055794597984459 10.691729298596329 0 10.691729298596329 31.078822906875757 0 0 0 0 -36.529745422152928 -18.31239941025251 0 -18.31239941025251 28.56473033187649 0 0 0 0 -4.3194536511869046 9.6570206306569162 0 9.6570206306569162 52.838188653462566 0 0 0 0 -15.391582325599757 15.757858773707994 0 15.757858773707994 50.942382893507329 0 0 0 0 -14.000632224743185 19.930561343424415 0 19.930561343424415 33.941871672277557 0 0 0 0 1.2510633099956072 8.5515683260469491 0 8.5515683260469491 7.1279101086742038 0 0 0 0 206.50371094970535 -24.304611277502829 0 -24.304611277502829 67.188168939530442 0 0 0 0 165.25185022211119 213.94792167024195 0 213.94792167024195 154.05862116603748 0 0 0 0 104.45186979513977 149.02424472508119 0 149.02424472508119 248.21882939490274 0 0 0 0 2.2353527305132177 5.9806598749177873 0 5.9806598749177873 4.1720416564951908 0 0 0 0 636.08990901162338 251.07533888356966 0 251.07533888356966 -179.91108366260767 0 0 0 0 79.89162667843857 67.469546452956592 0 67.469546452956592 8.4770815713509364 0 0 0 0 403.4669387579396 87.550229825072734 0 87.550229825072734 129.45562640322032 0 0 0 0 4.1185495025380625 11.003735853490667 0 11.003735853490667 26.769263826553779 0 0 0 0 3.0655126553772849 5.4333078867060163 0 5.4333078867060163 8.8551240945394056 0 0 0 0 49.895504456527277 47.542048363846789 0 47.542048363846789 -17.407888622286919 0 0 0 0 -52.912245033193813 5.917396997857395 0 5.917396997857395 38.242975609889982 0 0 0 0 -19.817338338215677 4.9961310691478502 0 4.9961310691478502 28.498600398377675 0 0 0 0 -34.1953464826139 30.472035618536211 0 30.472035618536211 25.304249070901278 0 0 0 0 -30.668603723702176 -7.7708844535632124 0 -7.7708844535632124 118.52729715991154 0 0 0 0 -0.57845450613169591 -0.11064450991409291 0 -0.11064450991409291 1.713614682486952 0 0 0 0 1.7220470706317557 3.2866926288093903 0 3.2866926288093903 15.19844847277065 0 0 0 0 878.73155231531359 -134.25949368094945 0 -134.25949368094945 -273.29749851949919 0 0 0 0 2.7539383636990795 4.2669408629450745 0 4.2669408629450745 8.10291029428023 0 0 0 0 12.537828990969295 3.7796141988861791 0 3.7796141988861791 4.6087064703488068 0 0 0 0 331.71246006301186 51.267393400953551 0 51.267393400953551 158.08824568645514 0 0 0 0 31.757141147113543 7.4038642947643893 0 7.4038642947643893 23.034446947501237 0 0 0 0 109.9592291717795 17.049147537648423 0 17.049147537648423 22.95473929844411 0 0 0 0 -6.1668616129454676 33.130911188470236 0 33.130911188470236 49.224648501901356 0 0 0 0 27.517630127495863 40.525205939236457 0 40.525205939236457 39.126759829179719 0 0 0 0 -24.897496113367509 27.267984975024092 0 27.267984975024092 41.907380121858296 0 0 0 0 -7.9657718387154546 17.151192559535957 0 17.151192559535957 30.618512515689872 0 0 0 0 -4.5461703625662722 19.050835366592764 0 19.050835366592764 6.6354712273268888 0 0 0 0 -77.136060867768379 -27.666060719441703 0 -27.666060719441703 30.512442422795402 0 0 0 0 -3.2977686573633491 10.818493704241519 0 10.818493704241519 32.944016820270917 0 0 0 0 49.616979794757412 -31.037065120949137 0 -31.037065120949137 42.996678129670499 0 0 0 0 21.353770676877616 45.121623139032181 0 45.121623139032181 76.058742546099893 0 0 0 0 0.10393306599445395 20.766891301811029 0 20.766891301811029 5.8978313467614498 0 0 0 0 -51.267363236254369 -50.886421791653902 0 -50.886421791653902 7.3305883148919122 0 0 0 0 184.00469986558906 244.82884633979211 0 244.82884633979211 -22.103860596467712 0 0 0 0 -0.19448956108989002 0.42409188116631613 0 0.42409188116631613 0.50882374560357846 0 0 0 0 143.77406018491547 123.94599768844955 0 123.94599768844955 105.08094084413187 0 0 0 0 17.791489192662652 22.248500531642094 0 22.248500531642094 67.477856779608373 0 0 0 0 19.357131938710232 -9.8371443432762362 0 -9.8371443432762362 19.066486740503024 0 0 0 0 1046.5172830019633 -53.588803262248575 0 -53.588803262248575 21.229159594335215 0 0 0 0 1.6533651434916496 2.5503927105620074 0 2.5503927105620074 1.7566556767043267 0 0 0 0 278.49014815584655 239.16398297912269 0 239.16398297912269 385.81563255420372 0 0 0 0 116.53177460711078 160.2306891294802 0 160.2306891294802 -72.773125435727707 0 0 0 0 -0.83217529019118985 -0.1485065466078519 0 -0.1485065466078519 12.927681472511704 0 0 0 0 100.45295917450842 161.7650489562327 0 161.7650489562327 275.91765494974925 0 0 0 0 -159.42279731515021 -68.278490474340742 0 -68.278490474340742 172.81262790400751 0 0 0 0 495.84835964821116 189.68704636282746 0 189.68704636282746 83.588056752260854 0 0 0 0 511.58422306028717 103.32857401934714 0 103.32857401934714 250.44129354765482 0 0 0 0 -47.971761051616795 200.68685602351593 0 200.68685602351593 360.61198941716236 0 0 0 0 185.7937569000137 20.501782308189831 0 20.501782308189831 279.19776409080168 0 0 0 0 201.16953562748267 75.369358955636471 0 75.369358955636471 413.76059292849823 0 0 0 0 0.76357379177534312 133.85976063469684 0 133.85976063469684 378.75992679129513 0 0 0 0 -353.38165677578132 431.94723598669873 0 431.94723598669873 420.46364253317461 0 0 0 0 -272.25185956802852 309.70989719510987 0 309.70989719510987 232.23617051328262 0 0 0 0 -344.99276334511819 147.25928314689469 0 147.25928314689469 -126.89240850422584 0 0 0 0 -260.89239697245722 69.525090690066918 0 69.525090690066918 339.13150192971898 0 0 0 0 -121.68119315057584 41.470970114153147 0 41.470970114153147 269.98860840561758 0 0 0 0 271.27682187961364 186.04043251064058 0 186.04043251064058 220.83349409493655 0 0 0 0 128.57296101564896 -261.53721998339915 0 -261.53721998339915 -145.45638559774346 0 0 0 0 -313.32911374614469 339.69677543859541 0 339.69677543859541 47.946012866781444 0 0 0 0 -151.41605786816444 298.44793342095375 0 298.44793342095375 -423.1740329094194 0 0 0 0 -201.97122910076178 232.71162122384231 0 232.71162122384231 -107.69954521903719 0 0 0 0 -8.0827511252304145 1.1449817180091917 0 1.1449817180091917 5.2845439285309217 0 0 0 0 -159.96751311372441 -87.14777149230008 0 -87.14777149230008 -41.567072064940959 0 0 0 0 -392.6007961975256 23.338778549583424 0 23.338778549583424 101.32923590267794 0 0 0 0 -353.96327740052539 434.25263562163434 0 434.25263562163434 73.558091956583667 0 0 0 0 366.66512383943018 313.4109940041244 0 313.4109940041244 -641.53465351576415 0 0 0 0 -303.75772270058405 511.29476400693693 0 511.29476400693693 -81.233886820560656 0 0 0 0 -79.189711241067016 -100.91319562027456 0 -100.91319562027456 170.39670256360114 0 0 0 0 100.11802557631108 168.05752694091643 0 168.05752694091643 188.96054244120478 0 0 0 0 0.05959536369482521 -11.224243606049185 0 -11.224243606049185 31.906189456389257 0 0 0 0 -21.217569898019498 -1.6869213170588555 0 -1.6869213170588555 3.8037351177986025 0 0 0 0 79.358468355712489 38.974825960562043 0 38.974825960562043 38.021916415064879 0 0 0 0 407.77388353035894 -323.6169458617394 0 -323.6169458617394 367.83232418573152 0 0 0 0 -3.0185936406950353 9.1623632726061377 0 9.1623632726061377 16.161632085060255 0 0 0 0 -386.70785059108584 52.151184820200484 0 52.151184820200484 211.16489423968034 0 0 0 0 -1204.7951739461405 222.52844060737289 0 222.52844060737289 1747.6334035716791 0 0 0 0 820.39670233955349 213.68743747227813 0 213.68743747227813 -367.19429175416371 0 0 0 0 -50.754115447412914 -88.198300331537666 0 -88.198300331537666 158.12728043988227 0 0 0 0 -9.5150032238364055 -10.836234691652852 0 -10.836234691652852 30.154641253301865 0 0 0 0 -594.52246141017895 -103.36493231309214 0 -103.36493231309214 331.29691215351704 0 0 0 0 -625.26418568712734 627.13129371030595 0 627.13129371030595 -95.001366814928588 0 0 0 0 154.9358491005205 -984.02742045774448 0 -984.02742045774448 716.00189097229372 0 0 0 0 -3.4605089569554366 1086.0209549467099 0 1086.0209549467099 -92.927862895310227 0 0 0 0 -791.05903055011106 1106.5172985785512 0 1106.5172985785512 247.55524037792111 0 0 0 0 366.07957581897472 -434.01149793956313 0 -434.01149793956313 180.52744714319306 0 0 0 0 0.70652825474250136 4.4052154374326884 0 4.4052154374326884 11.282230466306258 0 0 0 0 1.4070988137209919 4.5738603380006513 0 4.5738603380006513 5.375570433938778 0 0 0 0 -752.48501436727361 243.60514020837297 0 243.60514020837297 374.97045133824668 0 0 0 0 811.1847653817747 415.42634292340631 0 415.42634292340631 -243.86724753040608 0 0 0 0 172.66561112037834 231.43821159811569 0 231.43821159811569 -6.9522708327215241 0 0 0 0 127.9014529980941 440.37138044917356 0 440.37138044917356 357.22358663640262 0 0 0 0 -395.4461141549109 -105.00530549454481 0 -105.00530549454481 -11.887005206882804 0 0 0 0 -0.86985607784648256 9.8587528210193369 0 9.8587528210193369 32.254907745986777 0 0 0 0 56.582831000281203 42.018945511505081 0 42.018945511505081 307.16716290887098 0 0 0 0 77.35233027750246 -106.98291561227052 0 -106.98291561227052 244.63982259523891 0 0 0 0 94.749253067360769 73.513489096274043 0 73.513489096274043 142.40013511215648 0 0 0 0 188.60848545089175 62.989276450360649 0 62.989276450360649 161.86869505197728 0 0 0 0 -20.109541796895886 55.851329603887429 0 55.851329603887429 98.633134411382102 0 0 0 0 -23.237421334782994 -68.640874479287959 0 -68.640874479287959 203.16524702456809 0 0 0 0 123.98841572673882 202.72428160555137 0 202.72428160555137 45.370656023224001 0 0 0 0 -26.085886254927345 49.784390726159778 0 49.784390726159778 96.360062529190557 0 0 0 0 -9.2332367624844665 -44.171549235290058 0 -44.171549235290058 194.40349169143997 0 0 0 0 -16.545077799193223 19.243252001925043 0 19.243252001925043 171.26687993780433 0 0 0 0 -26.530847777136728 13.562565266144475 0 13.562565266144475 73.368114041360968 0 0 0 0 -10.673058551095323 -12.711810291852089 0 -12.711810291852089 188.79731233093753 0 0 0 0 -9.8114414783681791 4.6152233058856282 0 4.6152233058856282 99.675259662016146 0 0 0 0 -12.713266529454451 14.202275487573857 0 14.202275487573857 50.582208571000805 0 0 0 0 138.46991274091852 -164.87125381616715 0 -164.87125381616715 218.34767531605758 0 0 0 0 172.81560148564677 -277.72551208540608 0 -277.72551208540608 272.52481740895746 0 0 0 0 78.89222883934417 -182.77871878019323 0 -182.77871878019323 595.10783408669522 0 0 0 0 -19.153270499125938 -306.17066560636886 0 -306.17066560636886 513.88586314966233 0 0 0 0 -4.4603676336414892 21.840388751682482 0 21.840388751682482 39.577035181379273 0 0 0 0 -4.2985762064915463 17.405905861270533 0 17.405905861270533 4.0931636571627621 0 0 0 0 528.16227356010313 -287.35381427144239 0 -287.35381427144239 140.08800249598426 0 0 0 0 -64.284221660713229 -168.80977289865405 0 -168.80977289865405 533.75078286973439 0 0 0 0 124.60807826400014 187.59041122671624 0 187.59041122671624 291.5936778502255 0 0 0 0 -71.680247058720852 -225.2570508286426 0 -225.2570508286426 127.11632936412207 0 0 0 0 111.49851102708772 106.45918683978562 0 106.45918683978562 -135.15581420808303 0 0 0 0 -551.68784235315979 195.2010359583619 0 195.2010359583619 81.498921943806636 0 0 0 0 242.5648534082502 74.827273100076127 0 74.827273100076127 -71.486101339227389 0 0 0 0 492.81992367748808 -43.766992826420392 0 -43.766992826420392 -48.37328875795356 0 0 0 0 29.261633764695944 -37.427753699041205 0 -37.427753699041205 116.84659522673246 0 0 0 0 -0.23017231073754374 -111.57922084469465 0 -111.57922084469465 126.80018062010595 0 0 0 0 -1.927766419949922 -30.063659462734016 0 -30.063659462734016 133.74034002625251 0 0 0 0 -68.17756944613393 -87.034207542529657 0 -87.034207542529657 180.18905847952556 0 0 0 0 -65.048422410285639 30.169082842066018 0 30.169082842066018 305.82100622195958 0 0 0 0 -113.94376624958113 -77.153859876139904 0 -77.153859876139904 286.71883111150964 0 0 0 0 -110.31958033075171 94.931424630736728 0 94.931424630736728 187.66546160066355 0 0 0 0 -45.345940142447944 -75.870474793175617 0 -75.870474793175617 165.79323513576696 0 0 0 0 -8.6478637310521851 -30.087005595308945 0 -30.087005595308945 154.56063884922298 0 0 0 0 -17.030524760507134 22.764372898207796 0 22.764372898207796 24.487965550163796 0 0 0 0 -117.24928899164661 -30.386362366309186 0 -30.386362366309186 505.54240492509416 0 0 0 0 262.45256970848004 -278.69573424391274 0 -278.69573424391274 319.80102500367502 0 0 0 0 -1.8069723091284686 -38.94597768017411 0 -38.94597768017411 170.51095422191429 0 0 0 0 5.2540157496760003 -20.651831882782972 0 -20.651831882782972 149.5040700952959 0 0 0 0 -10.982212325910268 -7.4876412985231582 0 -7.4876412985231582 138.25759245394147 0 0 0 0 -72.120584081409106 412.42777580393886 0 412.42777580393886 -73.552171909837853 0 0 0 0 9.3023339752855918 -37.291431429197473 0 -37.291431429197473 137.78945144537283 0 0 0 0 -8.4884302400205343 -46.903288054600125 0 -46.903288054600125 102.72816252378834 0 0 0 0 33.795049992746499 -14.773678734287387 0 -14.773678734287387 -14.951065686313086 0 0 0 0 3.166476859987597 -18.335034738585819 0 -18.335034738585819 86.313027780255652 0 0 0 0 6.6612812610310357 -51.127700415294385 0 -51.127700415294385 67.12564993542037 0 0 0 0 12.958663739151234 -41.734852241235785 0 -41.734852241235785 16.219915008696262 0 0 0 0 1.0896124222993677 5.1094233996212495 0 5.1094233996212495 7.571322516908026 0 0 0 0 -402.50799510638171 269.11089263960457 0 269.11089263960457 24.513706334739254 0 0 0 0 -393.07588163857872 119.32638445871999 0 119.32638445871999 -30.289912080072099 0 0 0 0 -360.3166189866206 153.97456324865925 0 153.97456324865925 120.54968293484126 0 0 0 0 -412.29969236323268 261.84587178404036 0 261.84587178404036 119.52435975170721 0 0 0 0 -337.45959859622144 146.68195149590247 0 146.68195149590247 9.1932946008018916 0 0 0 0 10.961660568555999 -45.456568613426498 0 -45.456568613426498 182.62560432332975 0 0 0 0 -27.088374877601382 174.0118130109513 0 174.0118130109513 -290.62915225527831 0 0 0 0 -411.26379464994716 299.99429932236671 0 299.99429932236671 -268.09832765051851 0 0 0 0 0.702339858987159 2.07668297129905 0 2.07668297129905 2.9236778257914864 0 0 0 0 6.8022148103000291 338.09732071120015 0 338.09732071120015 -24.358705132079194 0 0 0 0 -175.87031029898026 276.16497224813065 0 276.16497224813065 103.51223991747247 0 0 0 0 -185.6127861436762 298.45252295125101 0 298.45252295125101 540.53089348161302 0 0 0 0 -0.087697047052557764 1.4044729071252409 0 1.4044729071252409 9.5710324643557669 0 0 0 0 -155.06904416999987 -244.7024668868653 0 -244.7024668868653 536.52834833968336 0 0 0 0 -22.312921988464041 -359.04889171406285 0 -359.04889171406285 228.1538441269513 0 0 0 0 -521.52982518430781 130.71260908525437 0 130.71260908525437 161.28857525011063 0 0 0 0 139.10661675212214 -229.6301557860279 0 -229.6301557860279 -11.959982462860353 0 0 0 0 -0.32679131087494451 4.5084584928086961 0 4.5084584928086961 23.450393304044013 0 0 0 0 -587.39725003654894 332.47158276212213 0 332.47158276212213 393.97357491725415 0 0 0 0 -276.78472221942502 -119.03529113771219 0 -119.03529113771219 46.172024106803292 0 0 0 0 -0.43589568294002845 4.694445011103749 0 4.694445011103749 25.940653302770016 0 0 0 0 -71.130259246814603 -114.3175245700404 0 -114.3175245700404 -99.009363549077534 0 0 0 0 -12.604834113752986 18.328508345332011 0 18.328508345332011 93.823891899897717 0 0 0 0 -94.83934035688435 107.88318985121441 0 107.88318985121441 341.67118071713048 0 0 0 0 -27.472625827433149 239.30771077630925 0 239.30771077630925 -151.82997028379759 0 0 0 0 29.939050700554617 -155.89674887490764 0 -155.89674887490764 440.98719998393062 0 0 0 0 34.873479735633737 -16.207243903540075 0 -16.207243903540075 118.92049786265488 0 0 0 0 28.632951204141364 -4.481724717103134 0 -4.481724717103134 204.9656544833706 0 0 0 0 18.457274759470238 -35.761447382734332 0 -35.761447382734332 162.72553019915722 0 0 0 0 -16.569261568329239 -29.221665498553193 0 -29.221665498553193 237.93590908536862 0 0 0 0 -7.8302178837730025 -40.794707350014505 0 -40.794707350014505 216.6723627832107 0 0 0 0 -4.4078260090591357 -33.368725878226542 0 -33.368725878226542 178.94613609278531 0 0 0 0 26.390962618392223 -51.938785537195145 0 -51.938785537195145 190.05013265431626 0 0 0 0 11.218335005030895 -69.1475971079999 0 -69.1475971079999 174.74929365444041 0 0 0 0 28.093220827548066 -127.40574118154109 0 -127.40574118154109 70.254174455993962 0 0 0 0 15.252855139188796 -83.359107338405011 0 -83.359107338405011 221.37861920735304 0 0 0 0 -10.021152989382244 -48.414797307225854 0 -48.414797307225854 221.46324873886624 0 0 0 0 -95.370251870084758 -1.5993993393458368 0 -1.5993993393458368 212.54765603318083 0 0 0 0 -135.58458735851309 -13.82131800503339 0 -13.82131800503339 620.47319864495512 0 0 0 0 -234.95812133117897 265.73763762868111 0 265.73763762868111 192.10282747425663 0 0 0 0 -40.56751628603979 -38.569194149637042 0 -38.569194149637042 13.735562540023238 0 0 0 0 183.3650761060544 -381.1319176952602 0 -381.1319176952602 267.23095610741075 0 0 0 0 171.21653764673275 74.072586159897469 0 74.072586159897469 -154.30711289444298 0 0 0 0 -573.54510008967191 309.59602037787408 0 309.59602037787408 -8.2933491039148066 0 0 0 0 -295.38546150690581 -456.90262564303703 0 -456.90262564303703 979.44312526857902 0 0 0 0 1.8450603151050657 3.6535406411207845 0 3.6535406411207845 3.2414897805086298 0 0 0 0 -533.75704196705192 -425.37065335044463 0 -425.37065335044463 1175.3838212823612 0 0 0 0 -182.02975831172353 329.26705725016291 0 329.26705725016291 -107.52149876551994 0 0 0 0 -128.564334417998 98.201245385436778 0 98.201245385436778 41.923803811543621 0 0 0 0 -107.36465347518242 90.356513063656166 0 90.356513063656166 -219.63255392115389 0 0 0 0 -193.95984846619831 63.573540394223528 0 63.573540394223528 7.8418599945434835 0 0 0 0 -111.14622255272116 123.60769515814172 0 123.60769515814172 -147.20158920226095 0 0 0 0 -196.10405122824159 79.566803685214836 0 79.566803685214836 47.496485636773286 0 0 0 0 -112.05010609533201 55.192416871457681 0 55.192416871457681 -8.1707241915282793 0 0 0 0 -89.121840192881791 62.723556918484974 0 62.723556918484974 37.627279022097355 0 0 0 0 -106.21146144138402 59.970028470012039 0 59.970028470012039 75.5279675158381 0 0 0 0 -27.474924761590955 17.551587472393294 0 17.551587472393294 29.803522755290032 0 0 0 0 -55.871027550369035 -23.584726661996683 0 -23.584726661996683 87.652402467982029 0 0 0 0 -47.52914120031528 4.8681821021527867 0 4.8681821021527867 -7.6260462693462614 0 0 0 0 -132.42622110804587 36.600183904753067 0 36.600183904753067 49.298801490484038 0 0 0 0 34.1818189636233 -12.637943465495482 0 -12.637943465495482 88.674486917254399 0 0 0 0 -27.646678520002752 38.261398627138988 0 38.261398627138988 48.135107803263963 0 0 0 0 28.152457017732559 -12.378116459860394 0 -12.378116459860394 75.773269534867723 0 0 0 0 6.7848504302801302 -55.817204528248112 0 -55.817204528248112 148.78405359291355 0 0 0 0 6.3519619468561359 -18.519766447539951 0 -18.519766447539951 104.6896422382415 0 0 0 0 -37.020099457318793 51.481275254529464 0 51.481275254529464 57.446028917765943 0 0 0 0 -16.806772995645588 74.735870573818829 0 74.735870573818829 77.020624070122722 0 0 0 0 2.1021367464563809 19.071764834450732 0 19.071764834450732 214.98965621400657 0 0 0 0 21.156763715402121 -2.2071193119300005 0 -2.2071193119300005 141.56941519858083 0 0 0 0 37.75193152670181 -37.51045547927788 0 -37.51045547927788 168.57794394923621 0 0 0 0 56.571280643904288 -26.91576371902579 0 -26.91576371902579 165.14740940692718 0 0 0 0 34.796667541801526 -32.028459065097195 0 -32.028459065097195 170.28609441492881 0 0 0 0 29.306941708663544 -31.552153835109493 0 -31.552153835109493 171.08636729780847 0 0 0 0 -15.809558095834291 -16.566779145580313 0 -16.566779145580313 135.92118243253572 0 0 0 0 -13.194079733959665 -18.964340958334738 0 -18.964340958334738 131.12948994788272 0 0 0 0 -53.061299191635044 19.889870497609081 0 19.889870497609081 237.06270785010747 0 0 0 0 -3.3595700900696102 -1.7155028828638024 0 -1.7155028828638024 149.76498898320915 0 0 0 0 -14.817075442146574 0.27699456076201301 0 0.27699456076201301 33.664326727096345 0 0 0 0 -26.122544684496916 -25.737014409800622 0 -25.737014409800622 134.64360574756211 0 0 0 0 211.90775123914864 52.057663794334076 0 52.057663794334076 101.79947887435264 0 0 0 0 3.8930616989393201 4.1390147346708943 0 4.1390147346708943 34.449403712929694 0 0 0 0 213.20081356670198 152.7666774334939 0 152.7666774334939 43.720331154028827 0 0 0 0 171.88913102232436 137.91033805471307 0 137.91033805471307 168.69120378236767 0 0 0 0 134.93900792808131 -99.972247292782413 0 -99.972247292782413 -124.73456342592544 0 0 0 0 -29.057015227957891 475.99405166745419 0 475.99405166745419 123.01241565178498 0 0 0 0 -0.28317142936019479 1.6693883453173424 0 1.6693883453173424 12.031880942563163 0 0 0 0 -211.51828607068455 437.73271504604418 0 437.73271504604418 301.22151177894557 0 0 0 0 134.01080345090668 370.01065682611807 0 370.01065682611807 171.63952226191759 0 0 0 0 -136.32364161517944 311.70236652878521 0 311.70236652878521 360.9324417770913 0 0 0 0 198.69652760545705 153.63130347350489 0 153.63130347350489 109.20455840130307 0 0 0 0 -127.23905145361505 -187.25591083662948 0 -187.25591083662948 244.60376518312114 0 0 0 0 -11.457188927155805 -8.6168182772134685 0 -8.6168182772134685 128.61096074467369 0 0 0 0 -59.226839209783066 14.271144730777905 0 14.271144730777905 64.321102372123278 0 0 0 0 29.661701218923554 110.50188503166282 0 110.50188503166282 -23.372515861603006 0 0 0 0 1807.3299087713021 -996.27264849224593 0 -996.27264849224593 45.366267295874422 0 0 0 0 -79.915999818225828 55.804485939181177 0 55.804485939181177 684.60239379493578 0 0 0 0 -202.09311366501061 18.964273804718687 0 18.964273804718687 -114.76623433479836 0 0 0 0 -248.29633741547059 93.6794948631632 0 93.6794948631632 10.586284516903106 0 0 0 0 -2.5705536308093428 -2.3241596159375462 0 -2.3241596159375462 21.61113330678802 0 0 0 0 -209.24895533737345 152.11484111960453 0 152.11484111960453 13.523016649851343 0 0 0 0 -154.05061113633565 129.00529112167715 0 129.00529112167715 11.05731654111878 0 0 0 0 -238.59912836638614 112.93829805791756 0 112.93829805791756 -0.75823657326691318 0 0 0 0 -161.9465840852863 164.02918031558511 0 164.02918031558511 12.065799211442936 0 0 0 0 -151.23052750787792 97.025555084801454 0 97.025555084801454 51.94795490380784 0 0 0 0 -145.11483501005205 95.758597423693573 0 95.758597423693573 30.450327946899051 0 0 0 0 -105.1749146384027 140.66646894960286 0 140.66646894960286 135.32646112163411 0 0 0 0 -10.986772118440058 -54.059942560864329 0 -54.059942560864329 199.82118491577216 0 0 0 0 -6.7890025729268473 20.563203467350085 0 20.563203467350085 20.339550216580307 0 0 0 0 187.52047107525505 -34.261733029121388 0 -34.261733029121388 133.03823151330835 0 0 0 0 137.89261201957925 116.10556469455514 0 116.10556469455514 219.40131604964699 0 0 0 0 36.361491490722983 16.149785611309198 0 16.149785611309198 112.05103084467282 0 0 0 0 52.644003545712621 28.126084723149688 0 28.126084723149688 118.37019301620603 0 0 0 0 0.93535080989568087 5.2942671699129278 0 5.2942671699129278 157.57725054803996 0 0 0 0 14.800635048959521 78.860511986789788 0 78.860511986789788 157.02479758538539 0 0 0 0 7.6041251458336774 30.366763817437459 0 30.366763817437459 138.15073424563161 0 0 0 0 35.520816555925194 54.452414894308276 0 54.452414894308276 158.93107158438215 0 0 0 0 55.22552884214565 80.481382383466553 0 80.481382383466553 161.69398437742711 0 0 0 0 63.185678575981001 49.185894970472873 0 49.185894970472873 159.48396259803303 0 0 0 0 13.365894573376863 -3.9229822440829594 0 -3.9229822440829594 216.86250872939308 0 0 0 0 -17.941173823877762 43.038989352869976 0 43.038989352869976 194.66770763602108 0 0 0 0 -2.4239291527410387 10.714750633500444 0 10.714750633500444 247.44380926945087 0 0 0 0 54.062659882203661 -45.284675532408983 0 -45.284675532408983 197.48057806014185 0 0 0 0 6.1042003719589957 47.63543792149494 0 47.63543792149494 311.12010327852477 0 0 0 0 33.117513442074596 -12.540545254251811 0 -12.540545254251811 170.82186077389633 0 0 0 0 51.302694435599733 4.573061204530859 0 4.573061204530859 41.784144139699492 0 0 0 0 32.453042174123766 13.413136631210364 0 13.413136631210364 38.967620278353934 0 0 0 0 2.7047755172245296 11.837205205965649 0 11.837205205965649 38.704947094614177 0 0 0 0 -81.413785633265434 120.49630842200713 0 120.49630842200713 83.536729415594891 0 0 0 0 -79.744313419287209 90.568259157291322 0 90.568259157291322 77.719180868023614 0 0 0 0 8.3764776636043052 38.967224132490358 0 38.967224132490358 88.657260631451734 0 0 0 0 199.54606843509828 157.0044845966022 0 157.0044845966022 -154.46057874622784 0 0 0 0 4.7438914233346487 15.17254423899729 0 15.17254423899729 -4.5073366793253342 0 0 0 0 -93.85511071382507 -56.503054011484323 0 -56.503054011484323 561.79366680582461 0 0 0 0 -55.361754208968705 139.78051762221003 0 139.78051762221003 24.848983341958956 0 0 0 0 11.966255419179152 50.409970105280578 0 50.409970105280578 102.10704537534619 0 0 0 0 -46.719580853952721 177.73010668989809 0 177.73010668989809 -50.250897306061233 0 0 0 0 -170.27659775704524 121.83287192401622 0 121.83287192401622 82.255351410320145 0 0 0 0 -58.649617493698315 85.950300789096218 0 85.950300789096218 85.973328664248584 0 0 0 0 -70.819862038781139 103.7895938146612 0 103.7895938146612 28.076735191521493 0 0 0 0 -58.374745010794868 75.236442849825835 0 75.236442849825835 38.323003037388844 0 0 0 0 -120.8871716798094 71.224786183709512 0 71.224786183709512 105.23919078051404 0 0 0 0 -91.126474857457652 84.199068992769753 0 84.199068992769753 -9.4202121123489633 0 0 0 0 -19.552821270097411 60.017638731136685 0 60.017638731136685 92.762100309802918 0 0 0 0 -14.088973410038307 6.8826985480918665 0 6.8826985480918665 202.26293959229952 0 0 0 0 -100.60377996932039 75.829294288341771 0 75.829294288341771 175.13871509791352 0 0 0 0 -5.0207671066582407 2.2726854175853077 0 2.2726854175853077 186.41648071539385 0 0 0 0 -94.173590602620607 121.58118927089163 0 121.58118927089163 122.80573354905937 0 0 0 0 -71.314142580693442 62.928696600938565 0 62.928696600938565 175.28164964546158 0 0 0 0 -34.231288154889626 72.006855480001832 0 72.006855480001832 106.57161964119041 0 0 0 0 -77.479056063402822 104.81228682873189 0 104.81228682873189 120.44897874216258 0 0 0 0 -55.535784326333669 56.800239714757481 0 56.800239714757481 127.24858644088636 0 0 0 0 28.781045545212692 1.3775427394139115 0 1.3775427394139115 149.19422048794695 0 0 0 0 6.4820570310390053 0.87175683332304743 0 0.87175683332304743 174.13767778327747 0 0 0 0 -43.533311033988866 19.501740799794788 0 19.501740799794788 182.08120397327002 0 0 0 0 8.5585948564117871 74.907408194646791 0 74.907408194646791 107.53895448461117 0 0 0 0 2.0002686232091946 -62.53396214123859 0 -62.53396214123859 296.22284071489412 0 0 0 0 33.125771008291849 -141.16258998040576 0 -141.16258998040576 235.16622025378092 0 0 0 0 42.194738486299684 -134.32526908230648 0 -134.32526908230648 296.68436417465637 0 0 0 0 132.83113762726862 -184.60577642042335 0 -184.60577642042335 235.76196642263676 0 0 0 0 -55.11654152414485 -25.463314812717726 0 -25.463314812717726 268.80037280984106 0 0 0 0 83.102023751136585 50.940049241005909 0 50.940049241005909 172.6378078146081 0 0 0 0 199.76984613499735 -49.435342747528921 0 -49.435342747528921 145.37311792057881 0 0 0 0 -68.60671151625138 -68.428333233227022 0 -68.428333233227022 132.35024985119969 0 0 0 0 -92.069521228586382 25.462762474402552 0 25.462762474402552 131.08620969745448 0 0 0 0 -116.49563623162612 -29.617387500162295 0 -29.617387500162295 11.965373174112756 0 0 0 0 -133.65123735600901 3.3727959813841153 0 3.3727959813841153 123.41825274260191 0 0 0 0 5.0049033341085618 0.42696822740829532 0 0.42696822740829532 27.466688162660624 0 0 0 0 -122.3438203575115 8.965095863208262 0 8.965095863208262 102.80903526449401 0 0 0 0 6.6798593272224025 -13.006138473278043 0 -13.006138473278043 57.042582391259202 0 0 0 0 -5.3575232246668367 -4.3194328954663082 0 -4.3194328954663082 53.588616857737648 0 0 0 0 -109.83574840426991 1.1392792044644011 0 1.1392792044644011 62.758520351533662 0 0 0 0 -267.32316331952461 134.91563452134142 0 134.91563452134142 -36.435570646659471 0 0 0 0 0.34964475933227845 -3.1449276102101749 0 -3.1449276102101749 12.404635101009376 0 0 0 0 0.098948922164336039 14.1858868927659 0 14.1858868927659 57.010490354716922 0 0 0 0 -3.6760045207083749 14.555880880998302 0 14.555880880998302 47.552633716775745 0 0 0 0 1.8908888382584337 18.257224131903058 0 18.257224131903058 21.0158602053707 0 0 0 0 -111.35744414387591 49.779715744165514 0 49.779715744165514 94.978067384392489 0 0 0 0 -264.20611930252926 -3.6081688235135516 0 -3.6081688235135516 105.06390539690619 0 0 0 0 -130.75986485605154 83.273414254410454 0 83.273414254410454 111.35371689837484 0 0 0 0 -74.026721746038675 103.14942142783548 0 103.14942142783548 97.799898548531928 0 0 0 0 -91.230212577640486 62.609889894141816 0 62.609889894141816 118.67726378460065 0 0 0 0 -41.73695830476413 38.306142198617181 0 38.306142198617181 51.068982223223429 0 0 0 0 -110.94828978238002 113.62671944703106 0 113.62671944703106 -12.014701928623253 0 0 0 0 -25.891378879172407 -57.261813260949566 0 -57.261813260949566 292.59851551257816 0 0 0 0 31.997407252620178 -53.122607139444881 0 -53.122607139444881 209.28059157247117 0 0 0 0 47.089507766150746 -25.053457912125396 0 -25.053457912125396 239.00239966714435 0 0 0 0 32.904469219825955 -50.500877912107171 0 -50.500877912107171 154.37984686880372 0 0 0 0 28.303459977529201 -86.905170349320542 0 -86.905170349320542 238.44738324878563 0 0 0 0 10.541399020416065 -99.606031429910217 0 -99.606031429910217 234.64908803838625 0 0 0 0 -14.672908400593769 -93.073251530120615 0 -93.073251530120615 300.38962386641651 0 0 0 0 93.904518605458179 -202.93953260485068 0 -202.93953260485068 356.79187158060085 0 0 0 0 243.52043884009254 -37.684650776947819 0 -37.684650776947819 215.41018149574666 0 0 0 0 69.62721596386109 -75.94567583729804 0 -75.94567583729804 125.90410308253195 0 0 0 0 35.290770512699964 -30.253923902699171 0 -30.253923902699171 158.90275914059021 0 0 0 0 14.446506997033794 -61.812176451843698 0 -61.812176451843698 121.05151882084465 0 0 0 0 0.26497901397306123 45.190586496937613 0 45.190586496937613 97.519783815740084 0 0 0 0 -74.649236140754056 12.119334649700249 0 12.119334649700249 88.018698847707128 0 0 0 0 -38.542409239983272 -8.9632210609706817 0 -8.9632210609706817 162.30035130598117 0 0 0 0 1.0835318994340923 -60.04230025385732 0 -60.04230025385732 287.25745499771438 0 0 0 0 83.765501804162341 56.719147928422899 0 56.719147928422899 196.34298351729376 0 0 0 0 71.277107437023005 -95.92715480762854 0 -95.92715480762854 200.48918031320864 0 0 0 0 40.049299276252896 -222.03509510735967 0 -222.03509510735967 438.69734774269455 0 0 0 0 51.832211531107532 41.244743800412834 0 41.244743800412834 457.93434305327537 0 0 0 0 24.417183850267065 -155.89705487774518 0 -155.89705487774518 298.63530412808177 0 0 0 0 38.078211405872935 -217.08148111120681 0 -217.08148111120681 256.04751400568784 0 0 0 0 241.19471627234543 -201.5483751038264 0 -201.5483751038264 201.79335398606054 0 0 0 0 18.457087367380154 -52.922318362267106 0 -52.922318362267106 34.637191203568364 0 0 0 0 -0.36005725295610347 1.0188068826854817 0 1.0188068826854817 2.2160084179049848 0 0 0 0 78.397436393262751 -9.4861397704553383 0 -9.4861397704553383 -18.310143064256408 0 0 0 0 0.16898431615771226 -0.82485868062365242 0 -0.82485868062365242 3.8495470263576124 0 0 0 0 56.701922035555981 85.142617997847992 0 85.142617997847992 138.91355954735627 0 0 0 0 2.4350879332990516 0.33563643851283587 0 0.33563643851283587 1.8599621614281086 0 0 0 0 76.330653977152906 7.5528115483066358 0 7.5528115483066358 -49.754375674492621 0 0 0 0 -52.781804282043595 7.5315623189744656 0 7.5315623189744656 493.82020757449209 0 0 0 0 -15.753257584543462 -26.538064489053795 0 -26.538064489053795 181.01470467893523 0 0 0 0 -40.607801648870918 -17.380122132113684 0 -17.380122132113684 278.48958090238011 0 0 0 0 18.228360618482839 -3.5365038604213623 0 -3.5365038604213623 10.545411801766022 0 0 0 0 4.026954089603862 0.98398547887272514 0 0.98398547887272514 1.4650705776329662 0 0 0 0 -44.427677371049867 19.289911836320243 0 19.289911836320243 201.02514466380671 0 0 0 0 -9.017806898341405 34.469829805533664 0 34.469829805533664 59.289444165362511 0 0 0 0 -25.155110691324808 0.52025761361437617 0 0.52025761361437617 158.86295207128569 0 0 0 0 2.3199313494660601 -15.688065518523217 0 -15.688065518523217 64.125655814830679 0 0 0 0 -11.846694076171843 -2.1067704623055761 0 -2.1067704623055761 63.744893730967306 0 0 0 0 3.1660084244079094 2.1212232736188525 0 2.1212232736188525 5.8869302069010674 0 0 0 0 2.1703711696318351 2.9492818950675428 0 2.9492818950675428 1.1796504313242622 0 0 0 0 4.4823437888889401 3.1521144310961233 0 3.1521144310961233 3.8896502727036406 0 0 0 0 22.23700727799951 14.923673835102818 0 14.923673835102818 -1.7304256213101326 0 0 0 0 5.6247950739492847 2.4738614734622573 0 2.4738614734622573 2.4019010167559145 0 0 0 0 -9.8868228874198394 -29.785416446837189 0 -29.785416446837189 139.20320773238564 0 0 0 0 25.931155868639166 -41.000559334918307 0 -41.000559334918307 49.991006218508119 0 0 0 0 -7.0419872748825583 -19.96785466743313 0 -19.96785466743313 142.93736393649669 0 0 0 0 7.6322812247540242 -87.079398256060813 0 -87.079398256060813 247.72942732609226 0 0 0 0 -3.2929544247490412 -50.477396787340695 0 -50.477396787340695 168.91396437813637 0 0 0 0 -38.125491485134262 42.847363049859268 0 42.847363049859268 -9.3258666379051647 0 0 0 0 7.0586532668030486 -1.9262498981042881 0 -1.9262498981042881 9.0905183345932983 0 0 0 0 -7.9738342287578234 12.038524694688931 0 12.038524694688931 -13.484731320873834 0 0 0 0 0.83581979465724565 3.2608735313362516 0 3.2608735313362516 7.9296500201189133 0 0 0 0 3.2970982088227174 -0.16122406721115112 0 -0.16122406721115112 11.303448659675269 0 0 0 0 3.3392020408547296 2.3172115357830876 0 2.3172115357830876 2.0535578111557342 0 0 0 0 9.1419537920219227 1.2572060694838001 0 1.2572060694838001 7.6190517399081727 0 0 0 0 2.8100330666129594 0.94884801002990571 0 0.94884801002990571 14.105821297082002 0 0 0 0 2.7642926135116319 6.0639360810500307 0 6.0639360810500307 11.05587178827696 0 0 0 0 9.7247716804340598 -0.11154120720675564 0 -0.11154120720675564 13.305828979120633 0 0 0 0 -25.957920664263384 28.231620681941422 0 28.231620681941422 6.691068939609977 0 0 0 0 3.1461599717149511 3.5159332351577177 0 3.5159332351577177 14.210462178241869 0 0 0 0 3.508158171112882 1.4419334747872199 0 1.4419334747872199 11.893609435370308 0 0 0 0 5.4097941515688035 4.2156916891472065 0 4.2156916891472065 11.667762897464854 0 0 0 0 3.4208523915622209 1.1139348255674122 0 1.1139348255674122 8.1840289916954134 0 0 0 0 2.6279098627581057 3.3048503024637057 0 3.3048503024637057 4.1511097050617281 0 0 0 0 1.9676585300967417 0.82037275424954714 0 0.82037275424954714 8.701358731763321 0 0 0 0 1.0267650450747681 0.49040199751691915 0 0.49040199751691915 7.4707177237023927 0 0 0 0 -1.5763512793279588 1.4507268872325625 0 1.4507268872325625 4.087003520227185 0 0 0 0 -13.851940747350454 26.997915323707275 0 26.997915323707275 -15.404600791836856 0 0 0 0 44.795154669531257 26.430530728946906 0 26.430530728946906 -2.374873100881814 0 0 0 0 -24.575965182945538 1.2658713443634042 0 1.2658713443634042 38.728396009028074 0 0 0 0 -19.719818218316504 -24.027734636692912 0 -24.027734636692912 -16.223357535961441 0 0 0 0 -19.488080383581291 -36.726906205421983 0 -36.726906205421983 100.24904826882994 0 0 0 0 -11.421886704218196 42.487708937500429 0 42.487708937500429 78.699619379731303 0 0 0 0 2.9440253536849923 6.0612360396517033 0 6.0612360396517033 11.419514943248942 0 0 0 0 -0.086174717996527761 14.753042857641049 0 14.753042857641049 5.7655659631709568 0 0 0 0 0.53461184593865441 2.7406831241027536 0 2.7406831241027536 12.228039292152317 0 0 0 0 11.61152184284947 8.5037057755434944 0 8.5037057755434944 8.4291804837848758 0 0 0 0 1.2351116123245447 8.6401448611868545 0 8.6401448611868545 24.524501246145519 0 0 0 0 4.2010132574662542 -3.6025912215918154 0 -3.6025912215918154 7.1956721119213398 0 0 0 0 -54.203074640768136 -36.582925668397365 0 -36.582925668397365 17.678205215030175 0 0 0 0 -40.611778639677141 -17.541481909887807 0 -17.541481909887807 5.9700944478790916 0 0 0 0 1.1146312018270859 0.32052093139482452 0 0.32052093139482452 13.041784356196075 0 0 0 0 14.798197716114373 2.3712423614415457 0 2.3712423614415457 10.862871158846247 0 0 0 0 -1.2145364132201522 -3.0199290938092123 0 -3.0199290938092123 16.923300492112872 0 0 0 0 -59.872491014308252 -11.216121717396163 0 -11.216121717396163 21.31359239057565 0 0 0 0 -53.38813936716906 -16.704372866304766 0 -16.704372866304766 25.956824319509906 0 0 0 0 -13.830562059981503 -0.95217164984478586 0 -0.95217164984478586 19.216132667817874 0 0 0 0 1.2496292129298183 5.6555119765294677 0 5.6555119765294677 15.337793583536211 0 0 0 0 -6.2464346327423641 -8.9776685556663551 0 -8.9776685556663551 17.863570404339626 0 0 0 0 0.25756701223542677 0.51927350296455188 0 0.51927350296455188 18.830673531847424 0 0 0 0 2.4480290927197075 7.9300080866035998 0 7.9300080866035998 17.112668791636821 0 0 0 0 0.49940492912378431 0.81884881579480862 0 0.81884881579480862 17.858450960542541 0 0 0 0 0.49221700121779577 0.92061260735499673 0 0.92061260735499673 19.434990873021889 0 0 0 0 5.5042144216176894 5.3234597748996748 0 5.3234597748996748 18.947276157370652 0 0 0 0 -49.015204047052976 40.592128729018441 0 40.592128729018441 6.5724794113484677 0 0 0 0 -23.163523698944573 11.487949586002287 0 11.487949586002287 29.191006773857225 0 0 0 0 -59.414033972051584 23.518862922253902 0 23.518862922253902 27.60762813684687 0 0 0 0 -53.569284710005377 44.33032359567369 0 44.33032359567369 26.376906377039631 0 0 0 0 -75.309565466046479 48.619203128662775 0 48.619203128662775 25.568315952779813 0 0 0 0 7.1895063784149897 -51.953152659008992 0 -51.953152659008992 48.307012302080693 0 0 0 0 19.675025753673253 -69.074074630596442 0 -69.074074630596442 37.296404499051278 0 0 0 0 60.210674689944426 -106.19377648982481 0 -106.19377648982481 65.769098667613434 0 0 0 0 7.9911817297161178 -48.976121234318271 0 -48.976121234318271 58.690798882324088 0 0 0 0 -106.4892319313476 14.991655978301424 0 14.991655978301424 90.388651223081979 0 0 0 0 -47.831692773812392 -18.128537734875863 0 -18.128537734875863 46.500570655105548 0 0 0 0 -17.295227690419779 -65.679837041034261 0 -65.679837041034261 88.505928579324973 0 0 0 0 -100.94911485702596 -38.6374156484585 0 -38.6374156484585 155.27328670825227 0 0 0 0 -27.769921587806493 -79.746576615165395 0 -79.746576615165395 99.083052008310915 0 0 0 0 137.66371680830707 -146.09377384173058 0 -146.09377384173058 68.296381897365791 0 0 0 0 37.088270679076231 -163.43856713220885 0 -163.43856713220885 206.92428793075487 0 0 0 0 2.3020176205445786 -2.3182178953957049 0 -2.3182178953957049 0.99390476182890097 0 0 0 0 46.763274827737405 43.272906511690962 0 43.272906511690962 138.85251995723593 0 0 0 0 131.77672780803368 -56.303528792766883 0 -56.303528792766883 -10.526604409365973 0 0 0 0 -47.581951061381915 -0.68806884272635216 0 -0.68806884272635216 19.468778900016332 0 0 0 0 19.18058506876514 15.236577438525273 0 15.236577438525273 -27.791759807267226 0 0 0 0 65.972362300894019 -28.236521356378944 0 -28.236521356378944 -15.787210050024441 0 0 0 0 59.873899007434375 -70.993940554621076 0 -70.993940554621076 5.4017180302907946 0 0 0 0 56.540682548366021 -58.875092354730441 0 -58.875092354730441 18.605627540739079 0 0 0 0 44.50125584296984 -42.103752461091062 0 -42.103752461091062 -0.69324509097350528 0 0 0 0 49.13938013227289 -59.170655513387828 0 -59.170655513387828 30.808212743679178 0 0 0 0 32.889068973712938 -39.164504568434495 0 -39.164504568434495 16.89357791270595 0 0 0 0 32.318788366164426 -27.317746764181493 0 -27.317746764181493 3.7848381164658349 0 0 0 0 25.071053986121115 -31.438273297135311 0 -31.438273297135311 11.030106110454653 0 0 0 0 29.823955272764579 -25.693838844483253 0 -25.693838844483253 12.085737623416207 0 0 0 0 34.473722668060873 -28.166030571377632 0 -28.166030571377632 32.299517732972163 0 0 0 0 33.622642137186631 -31.392360095542244 0 -31.392360095542244 20.434818539855769 0 0 0 0 4.581147536788194 -12.55406631497317 0 -12.55406631497317 0.050374473685224075 0 0 0 0 -7.2876430512505976 -30.010730361340393 0 -30.010730361340393 11.972057002014481 0 0 0 0 3.2497883849791833 -24.98004600997956 0 -24.98004600997956 15.110322562075453 0 0 0 0 3.2636205803064513 -24.815357784653088 0 -24.815357784653088 9.1504719600779936 0 0 0 0 -22.222475023656443 -24.614515831803146 0 -24.614515831803146 19.410909599733714 0 0 0 0 -26.954626829590779 -33.555621664694627 0 -33.555621664694627 19.758088096918073 0 0 0 0 7.5342600698932074 -35.389439416976529 0 -35.389439416976529 11.017503836308606 0 0 0 0 10.853581013328949 -23.95526144546966 0 -23.95526144546966 13.297934582908056 0 0 0 0 23.563407440582523 -29.126703180249024 0 -29.126703180249024 9.8539571967994561 0 0 0 0 26.788393130234908 -11.943159548936819 0 -11.943159548936819 16.003398950539122 0 0 0 0 -23.000504798590555 -51.007725218605628 0 -51.007725218605628 11.02938413132506 0 0 0 0 -57.273401017409924 -21.898297902851482 0 -21.898297902851482 20.48123895591516 0 0 0 0 34.557554817420169 -17.265208762524708 0 -17.265208762524708 27.396904903100221 0 0 0 0 33.718599784409889 -15.794553050218383 0 -15.794553050218383 25.266305534103594 0 0 0 0 18.550013958174532 -21.298259399620292 0 -21.298259399620292 16.438893198745063 0 0 0 0 29.154359148342337 -25.161452458400163 0 -25.161452458400163 14.760651608623448 0 0 0 0 34.461409402290883 -11.627857041232346 0 -11.627857041232346 21.455207961327687 0 0 0 0 34.064175649928075 -12.658780655830924 0 -12.658780655830924 23.729601407816517 0 0 0 0 38.860926198123707 -3.2993803171739273 0 -3.2993803171739273 36.41959227231564 0 0 0 0 33.46298084002774 -2.0894660431731609 0 -2.0894660431731609 38.480507700864109 0 0 0 0 30.021938236783171 -12.381821832328569 0 -12.381821832328569 43.065449127570901 0 0 0 0 33.585680188909464 0.77046200118638808 0 0.77046200118638808 52.848919312942598 0 0 0 0 30.19370051939768 -10.708499247019063 0 -10.708499247019063 55.11094641755335 0 0 0 0 25.053429627896548 -10.886811152686278 0 -10.886811152686278 71.179582929602475 0 0 0 0 24.961510028020712 -9.7149350148829399 0 -9.7149350148829399 57.166346888596308 0 0 0 0 32.786949170520529 -26.735352711897576 0 -26.735352711897576 31.201139383454574 0 0 0 0 35.130614611966394 -13.810124275430098 0 -13.810124275430098 41.281734990130644 0 0 0 0 30.657193229228142 -24.904847345205781 0 -24.904847345205781 49.500636999837297 0 0 0 0 29.458393108121527 -44.764055690320674 0 -44.764055690320674 20.502516156586353 0 0 0 0 29.439569422148338 -39.952149339064839 0 -39.952149339064839 54.731503304697981 0 0 0 0 29.627151667555154 -27.031809881767913 0 -27.031809881767913 45.384814715005632 0 0 0 0 -5.5986253646797195 -29.773169982260697 0 -29.773169982260697 66.921074086174485 0 0 0 0 33.479517608711831 -12.79206650024571 0 -12.79206650024571 70.106227558993851 0 0 0 0 22.953595910115837 -26.002859736512619 0 -26.002859736512619 64.917417314034537 0 0 0 0 31.100326029845746 -12.92825535783777 0 -12.92825535783777 60.670032031523078 0 0 0 0 34.681062999210553 -18.038708683256118 0 -18.038708683256118 73.89083377753559 0 0 0 0 34.633211253079935 -18.504126728810661 0 -18.504126728810661 69.394658633609652 0 0 0 0 49.799770428562624 -16.06453906841125 0 -16.06453906841125 62.558451330762182 0 0 0 0 51.62406928528253 -22.910911726447011 0 -22.910911726447011 70.19635795175418 0 0 0 0 -4.8418026387175281 0.40150122589451875 0 0.40150122589451875 67.785162629538945 0 0 0 0 -482.88139077875712 -67.202154594422609 0 -67.202154594422609 279.59852785347175 0 0 0 0 332.61847969313749 -64.829482953162369 0 -64.829482953162369 -72.180720997203025 0 0 0 0 -5.8741596574238883 73.723898770194182 0 73.723898770194182 116.15956649937289 0 0 0 0 -9.5649299326350956 54.157768583548886 0 54.157768583548886 234.72368441363506 0 0 0 0 2.1184852755460426 -4.222565739011543 0 -4.222565739011543 12.454161303467629 0 0 0 0 -52.260446460173625 94.037075387856021 0 94.037075387856021 18.643923046765849 0 0 0 0 20.878084862466494 -39.283186808166647 0 -39.283186808166647 4.3657048845630015 0 0 0 0 -30.613719033578491 -46.311025203061035 0 -46.311025203061035 32.35269785199489 0 0 0 0 10.37692505367886 -28.634734085662785 0 -28.634734085662785 125.70513580273382 0 0 0 0 0.29230226441973173 -15.037992861431349 0 -15.037992861431349 121.54158622386603 0 0 0 0 -30.781989010991992 -22.8822917653888 0 -22.8822917653888 152.00071574206959 0 0 0 0 2.5392008947219438 -8.9076209091090277 0 -8.9076209091090277 123.65131259102509 0 0 0 0 -32.596785980331333 -12.985959027188073 0 -12.985959027188073 193.81754309833559 0 0 0 0 -43.844209181126644 26.301300265804457 0 26.301300265804457 139.76602749413087 0 0 0 0 -43.766276778816973 20.191628210672206 0 20.191628210672206 247.38566253166937 0 0 0 0 5.3706621822184388 -60.903105019990107 0 -60.903105019990107 5.9668682672381692 0 0 0 0 23.291220764969694 25.590453822094787 0 25.590453822094787 -4.6466687405518314 0 0 0 0 32.181385187559499 -36.351692445316075 0 -36.351692445316075 26.942200643414253 0 0 0 0 42.400704325125389 -55.503243468833716 0 -55.503243468833716 79.266806888537758 0 0 0 0 27.174729444221157 -25.252828027136275 0 -25.252828027136275 25.766701598964573 0 0 0 0 -4.3699855740496787 1.4069406974113008 0 1.4069406974113008 17.819799700966541 0 0 0 0 2.0416812020691779 -5.3200499167087152 0 -5.3200499167087152 -1.346179623257413 0 0 0 0 -4.2012119054052164 -8.3750963297861745 0 -8.3750963297861745 17.431549712458946 0 0 0 0 -4.9476789954104241 -2.2000072202522603 0 -2.2000072202522603 9.6553505038559848 0 0 0 0 2.8915040417559794 -12.014084046484641 0 -12.014084046484641 13.540213644666437 0 0 0 0 -47.613783347813296 -62.032809604190334 0 -62.032809604190334 40.329756034443562 0 0 0 0 -27.495378940570845 -20.742198116793588 0 -20.742198116793588 42.23370262656681 0 0 0 0 -2.1448718582087167 -8.9012929978689499 0 -8.9012929978689499 18.494294956381054 0 0 0 0 -10.25725296661949 -9.1691066052962924 0 -9.1691066052962924 21.341393303675432 0 0 0 0 33.421675743942615 -62.62505254408461 0 -62.62505254408461 35.13982321817457 0 0 0 0 -4.500855992846482 -62.551032646544627 0 -62.551032646544627 42.338616490511413 0 0 0 0 0.41284242223316525 -0.87592635771400396 0 -0.87592635771400396 1.3378734483267891 0 0 0 0 -1.9293163388093433 -14.168101544772332 0 -14.168101544772332 4.2433545691790542 0 0 0 0 -9.6240353058702937 5.7565227931706033 0 5.7565227931706033 6.5114847531456661 0 0 0 0 -24.73079596554453 44.806491065945011 0 44.806491065945011 -2.3372408559371252 0 0 0 0 -8.2474679025235673 -5.561886383467936 0 -5.561886383467936 17.396318716751921 0 0 0 0 -2.9123468115321884 1.1338365572164548 0 1.1338365572164548 26.860452950269973 0 0 0 0 -27.851645179911429 -7.2704511065330735 0 -7.2704511065330735 10.022649103044387 0 0 0 0 -4.8051241998423038 -2.0602524298678944 0 -2.0602524298678944 11.602646897833154 0 0 0 0 -10.135825404809339 -14.709926813961111 0 -14.709926813961111 38.525714337258478 0 0 0 0 -6.7989002804964755 1.7167921167485076 0 1.7167921167485076 15.15643722829877 0 0 0 0 -4.6406068485201928 -2.8644224416522714 0 -2.8644224416522714 15.683363968189951 0 0 0 0 -2.4098865001268628 3.8236622759485002 0 3.8236622759485002 10.853470124965938 0 0 0 0 0.22860754456337418 -10.139857357726214 0 -10.139857357726214 19.284167013127444 0 0 0 0 -5.2672767220137757 3.5883720092679141 0 3.5883720092679141 14.913223374183872 0 0 0 0 -5.6740274651465761 -2.3268848291445199 0 -2.3268848291445199 61.615194252006987 0 0 0 0 -27.454460471610219 -16.942206337218522 0 -16.942206337218522 59.522568609085283 0 0 0 0 -53.307837649481371 -25.128879251255967 0 -25.128879251255967 62.490932050670381 0 0 0 0 14.454877816875523 -23.649661798772286 0 -23.649661798772286 43.74453467582498 0 0 0 0 27.119686355790691 -22.067970436866744 0 -22.067970436866744 34.370342536101816 0 0 0 0 0.95093069596063629 -12.91051476289568 0 -12.91051476289568 37.289959555197456 0 0 0 0 14.46606988725398 -21.097845341555512 0 -21.097845341555512 64.36838227827684 0 0 0 0 32.61767056833196 -39.394980410419521 0 -39.394980410419521 70.183696708962088 0 0 0 0 6.9780865924185491 -39.551267307513626 0 -39.551267307513626 76.571545856058947 0 0 0 0 6.9817471047281288 -40.718786406159779 0 -40.718786406159779 55.515879056460108 0 0 0 0 -15.508218543815019 0.14612171069165925 0 0.14612171069165925 27.577754156260198 0 0 0 0 46.811514861628893 -46.178526031553702 0 -46.178526031553702 47.123160060727969 0 0 0 0 6.4397669559803035 -35.771438843847136 0 -35.771438843847136 51.739573899074458 0 0 0 0 -12.895440741214586 -1.7038725490551165 0 -1.7038725490551165 19.372808241475326 0 0 0 0 8.8817887930563302 -21.63317963794907 0 -21.63317963794907 59.805851521991144 0 0 0 0 8.870948300262171 -15.008348607014341 0 -15.008348607014341 52.463708542753011 0 0 0 0 -9.3570511206622307 6.1193143695570171 0 6.1193143695570171 20.170949299417003 0 0 0 0 2.0402600245234055 13.721531259868035 0 13.721531259868035 23.977472789254676 0 0 0 0 31.549630515130048 -16.265082600148162 0 -16.265082600148162 33.458376218619378 0 0 0 0 1.5854246033795789 6.0557163057528669 0 6.0557163057528669 38.046415183564022 0 0 0 0 -57.811814925433282 -11.593825307347288 0 -11.593825307347288 62.053800737761776 0 0 0 0 -47.70039187346265 -1.1312773913632554 0 -1.1312773913632554 71.531127950682276 0 0 0 0 -7.4802143787510431 -8.3383210276824684 0 -8.3383210276824684 34.222633909412252 0 0 0 0 -10.839446864536512 3.7626277657327591 0 3.7626277657327591 70.600774176651612 0 0 0 0 -6.9559521330414071 0.91518010273397721 0 0.91518010273397721 10.226894997185234 0 0 0 0 -10.294802663447626 -1.5782905943851802 0 -1.5782905943851802 27.760461242367455 0 0 0 0 -11.764220725952526 -7.8738677778383277 0 -7.8738677778383277 19.203281414833523 0 0 0 0 -11.220500796829157 0.44874169420736898 0 0.44874169420736898 20.02355002218485 0 0 0 0 -7.6959635165676445 -0.81159796925476257 0 -0.81159796925476257 29.372349371740711 0 0 0 0 -5.7583030161331763 -0.1856157015452844 0 -0.1856157015452844 22.12510248376654 0 0 0 0 -9.2116564874400559 0.95032349258568516 0 0.95032349258568516 17.875053686169352 0 0 0 0 -12.501593204728124 2.6205379105304019 0 2.6205379105304019 12.960927364576492 0 0 0 0 -30.069365073320114 -20.883143970786477 0 -20.883143970786477 29.00663933333999 0 0 0 0 -11.370221108435544 0.97536889764796797 0 0.97536889764796797 23.520396806481585 0 0 0 0 -9.9108401517469247 -1.8881783505894418 0 -1.8881783505894418 18.43434268519195 0 0 0 0 -9.3040500575848277 -0.38380732392164063 0 -0.38380732392164063 27.378556449293427 0 0 0 0 -25.11992799579366 -26.062127302480803 0 -26.062127302480803 -19.896899257095356 0 0 0 0 -10.082992376950903 5.5575265164254581 0 5.5575265164254581 28.244551723084683 0 0 0 0 -12.718236373268155 -3.3065045396251662 0 -3.3065045396251662 10.351664649169834 0 0 0 0 -11.785388950063862 -17.267370149278577 0 -17.267370149278577 98.019679915101733 0 0 0 0 -3.4853821851025657 -0.93659110839375437 0 -0.93659110839375437 2.3545341640530353 0 0 0 0 10.86144496151519 14.829967413206759 0 14.829967413206759 1.8840886634734488 0 0 0 0 30.879980866489177 18.092526478824311 0 18.092526478824311 -6.3389143276508548 0 0 0 0 -5.067505120509562 4.5911261462343695 0 4.5911261462343695 12.175712103322875 0 0 0 0 -32.173593250952763 47.391516474728633 0 47.391516474728633 4.8798762023670861 0 0 0 0 -5.7298742940297416 8.0891068463188489 0 8.0891068463188489 34.334708432190595 0 0 0 0 -82.532403898635494 -46.088561248903716 0 -46.088561248903716 223.25678054734999 0 0 0 0 -82.834599348234406 -56.960092581608478 0 -56.960092581608478 82.12151080253534 0 0 0 0 -2.6698221764183021 -1.3329797589033561 0 -1.3329797589033561 45.018639355730372 0 0 0 0 16.484672346865409 43.763215213787589 0 43.763215213787589 4.0856917267788049 0 0 0 0 3.1622774103732176 1.9747212003081227 0 1.9747212003081227 8.8552316547498862 0 0 0 0 -27.964036135828792 43.862552209963724 0 43.862552209963724 38.882339545241848 0 0 0 0 -25.338127342614825 46.100122712268785 0 46.100122712268785 37.224908733322081 0 0 0 0 4.2734821708290838 -37.77132896011608 0 -37.77132896011608 16.891362875598134 0 0 0 0 5.0654658395069418 -33.658491949300696 0 -33.658491949300696 36.895428732128494 0 0 0 0 -0.96716628783659964 -2.369894277911655 0 -2.369894277911655 2.8959994413014272 0 0 0 0 5.1317288307304807 -13.763823101694925 0 -13.763823101694925 61.854643538801611 0 0 0 0 4.5516972354039353 -20.865806116989461 0 -20.865806116989461 0.42833195416460512 0 0 0 0 -0.27051928268946313 21.338438198064807 0 21.338438198064807 22.299663071287796 0 0 0 0 -0.2279515938734562 23.438404130863347 0 23.438404130863347 74.610281049030164 0 0 0 0 -1.0322746891818042 1.5452472009450098 0 1.5452472009450098 2.4055462162143471 0 0 0 0 -12.178272372093033 50.700009447953562 0 50.700009447953562 121.24624961147856 0 0 0 0 -51.45298258073035 47.276446151747223 0 47.276446151747223 -219.73264147189184 0 0 0 0 -6.2715188405593061 -5.1790639539349161 0 -5.1790639539349161 41.696948153296674 0 0 0 0 -51.911821943107498 -87.008152864009389 0 -87.008152864009389 282.14171211124631 0 0 0 0 75.436069498829056 -23.631207417305632 0 -23.631207417305632 -90.46702406188524 0 0 0 0 -64.506740105611868 6.2542779924366414 0 6.2542779924366414 154.85624949523481 0 0 0 0 -59.540552164841358 -48.988407710448655 0 -48.988407710448655 110.30163834989435 0 0 0 0 45.006875705580569 -180.74939627856838 0 -180.74939627856838 209.84670964862926 0 0 0 0 -172.75140498814653 101.48791572043956 0 101.48791572043956 362.97082754516669 0 0 0 0 3.494618194520708 2.368294161056701 0 2.368294161056701 -0.90523291572391429 0 0 0 0 -59.408137182781502 48.896409854069134 0 48.896409854069134 194.65288232658713 0 0 0 0 -34.142194838375872 -0.96932663566985866 0 -0.96932663566985866 278.93221868148953 0 0 0 0 33.111555406924253 -10.424589537215724 0 -10.424589537215724 28.022605086829572 0 0 0 0 -60.946440054161002 106.10855602471838 0 106.10855602471838 26.343847125914181 0 0 0 0 20.857067511343303 36.235401930703119 0 36.235401930703119 21.478725241875509 0 0 0 0 48.870030005347871 -13.290629425031511 0 -13.290629425031511 101.72801835149403 0 0 0 0 -11.118486513443713 -28.875953415165895 0 -28.875953415165895 -43.449485201592324 0 0 0 0 -1.0615436543162104 -3.6242981806813077 0 -3.6242981806813077 67.086881165741488 0 0 0 0 -6.9801335698366529 3.8259212514683441 0 3.8259212514683441 57.883666639346757 0 0 0 0 -0.5930214237931164 2.2901005433645096 0 2.2901005433645096 8.3015035265117127 0 0 0 0 -8.5007433761925313 3.0195449468430979 0 3.0195449468430979 59.458342751012424 0 0 0 0 -9.8768872625599808 3.1815273030451445 0 3.1815273030451445 9.8566787634296045 0 0 0 0 0.62374630782687746 5.282580721562681 0 5.282580721562681 41.417237006180585 0 0 0 0 -22.498524567183722 -27.314844692607721 0 -27.314844692607721 11.514851425318739 0 0 0 0 53.470343765116468 76.089810409533584 0 76.089810409533584 -1.9986018064546442 0 0 0 0 -10.833781731643285 12.311992450084745 0 12.311992450084745 59.453382394318993 0 0 0 0 -13.235377183977107 14.793203585556057 0 14.793203585556057 67.256348521674227 0 0 0 0 -13.505072875539554 12.38786406356212 0 12.38786406356212 155.40548736013989 0 0 0 0 20.813865036567222 -38.861897039532778 0 -38.861897039532778 90.765152067307099 0 0 0 0 0.078263593909381868 2.72912563980345 0 2.72912563980345 -0.085154279413899303 0 0 0 0 13.832921168743951 -15.865889790200526 0 -15.865889790200526 21.810249386609939 0 0 0 0 -14.248040420577581 0.23155144355132506 0 0.23155144355132506 76.596023740608643 0 0 0 0 -13.201194336478693 0.36344676016460653 0 0.36344676016460653 61.078826537898749 0 0 0 0 -12.368243775441897 11.482864880907982 0 11.482864880907982 64.640809115326192 0 0 0 0 -6.2665780093475405 17.049242011979459 0 17.049242011979459 59.387135859759837 0 0 0 0 -14.930706390026899 7.276204075330952 0 7.276204075330952 77.523213856604343 0 0 0 0 -5.5218565913924067 -1.2716409440668031 0 -1.2716409440668031 31.639308042778339 0 0 0 0 -1.8941755488040144 1.0171661619078805 0 1.0171661619078805 16.352331608510667 0 0 0 0 3.3762811007909477 5.6406853764601692 0 5.6406853764601692 23.485919188224216 0 0 0 0 -1.3925608163863217 7.4895560819977618 0 7.4895560819977618 23.229935058569936 0 0 0 0 0.12847741100233634 4.8793605622018958 0 4.8793605622018958 25.04651450133224 0 0 0 0 -2.6138411009604106 -1.3603881882968487 0 -1.3603881882968487 3.6876900965984589 0 0 0 0 -1.9008615997539806 2.0433174127749538 0 2.0433174127749538 1.3675136241219974 0 0 0 0 -0.68714727342239712 0.17076067206608059 0 0.17076067206608059 9.3600039146185736 0 0 0 0 -5.3150575905801816 2.7644386509136893 0 2.7644386509136893 10.806241202313686 0 0 0 0 -3.8852724221248742 -1.0379721898696879 0 -1.0379721898696879 2.6105687854908197 0 0 0 0 -1.8946976320424902 0.98326288801129991 0 0.98326288801129991 0.1003959876016971 0 0 0 0 -2.2314592363200063 4.3913461817155621 0 4.3913461817155621 9.204090347681813 0 0 0 0 -0.41268658353692445 12.779711629813391 0 12.779711629813391 33.325601696064041 0 0 0 0 -1.2538232553034785 0.61222733295305076 0 0.61222733295305076 1.5190090585657643 0 0 0 0 -0.66821207989778486 -0.54741875614945457 0 -0.54741875614945457 3.0810009069173248 0 0 0 0 -6.4247285733740682 1.5325481835329811 0 1.5325481835329811 8.2770645843520469 0 0 0 0 -5.6661514907741548 5.3052984064593147 0 5.3052984064593147 7.9376546258499729 0 0 0 0 -2.4074566899608776 3.5387095091767549 0 3.5387095091767549 8.5826451110535729 0 0 0 0 -5.2712197104938241 2.8375311538748065 0 2.8375311538748065 9.6215079064231759 0 0 0 0 -3.0401877349006199 1.5794149640621136 0 1.5794149640621136 1.7935686584552313 0 0 0 0 -2.4430287518112923 1.1719312128983583 0 1.1719312128983583 7.2429017977431158 0 0 0 0 -11.401000620415289 3.3603591153514571 0 3.3603591153514571 9.8244903947852436 0 0 0 0 -8.0494164326401005 3.7524914581408666 0 3.7524914581408666 4.3452154303522548 0 0 0 0 -3.7704511423835356 5.0362201923562679 0 5.0362201923562679 10.747232738272942 0 0 0 0 -8.0272707771412009 1.4559215216071131 0 1.4559215216071131 9.7936098598857271 0 0 0 0 -6.1273482624236379 0.57342166902839864 0 0.57342166902839864 12.671312631839701 0 0 0 0 -6.9591612613166944 5.9367256593777711 0 5.9367256593777711 8.5365768583291128 0 0 0 0 -8.0472887866417295 4.0750477133251479 0 4.0750477133251479 7.736077063031189 0 0 0 0 -3.6924067723095924 0.82788142248337593 0 0.82788142248337593 9.6819348982100024 0 0 0 0 10.379815505937586 -10.647032155440684 0 -10.647032155440684 10.445340301437682 0 0 0 0 9.415801064518746 -9.2750872875694768 0 -9.2750872875694768 17.14901099569397 0 0 0 0 -1.5344571136710563 -1.1644943297980035 0 -1.1644943297980035 2.3459526885668431 0 0 0 0 18.210124574499787 2.1452689790221484 0 2.1452689790221484 -2.2382353916291322 0 0 0 0 2.1470386189450039 -0.42564677483863633 0 -0.42564677483863633 3.0961247521798789 0 0 0 0 1.082760617693566 11.405614170947956 0 11.405614170947956 22.842234735740931 0 0 0 0 1.5525650693324309 0.49912355928399954 0 0.49912355928399954 -0.30347528572973204 0 0 0 0 6.7459090708507574 -2.7957651779142907 0 -2.7957651779142907 13.136510363536217 0 0 0 0 -2.807009681296222 2.1845314293580032 0 2.1845314293580032 6.4838346989090496 0 0 0 0 -10.107504524608885 -9.0027609066214609 0 -9.0027609066214609 20.633544364813133 0 0 0 0 -6.8526995643514965 -13.148014498729026 0 -13.148014498729026 43.668089289656564 0 0 0 0 -18.0786169463845 20.744339103821403 0 20.744339103821403 20.791114521947748 0 0 0 0 -1.9389321979496756 1.0817030936564667 0 1.0817030936564667 1.1440842925662906 0 0 0 0 -2.337900871920283 -4.0703467697494489 0 -4.0703467697494489 15.679008777697163 0 0 0 0 -2.7038070385606261 2.6160267382329039 0 2.6160267382329039 1.8879607452472555 0 0 0 0 -4.083505602405177 5.1384902395392302 0 5.1384902395392302 4.2044060045506342 0 0 0 0 -2.4110387710679788 4.2195056356322311 0 4.2195056356322311 0.14113133278442547 0 0 0 0 3.245636612770646 4.5227078546588793 0 4.5227078546588793 2.6738728637312974 0 0 0 0 4.1266449348626786 8.3336355327602494 0 8.3336355327602494 1.6496192481375758 0 0 0 0 -3.145707540519652 7.2774129096214892 0 7.2774129096214892 -3.8152730952242564 0 0 0 0 -1.324802008936004 -0.043714902452379079 0 -0.043714902452379079 13.214384536268518 0 0 0 0 3.2566248971192788 3.3334494535024355 0 3.3334494535024355 -3.270287831504362 0 0 0 0 29.230283974738995 -15.312459927545206 0 -15.312459927545206 40.883286557604151 0 0 0 0 23.900848676552414 -52.115789320239855 0 -52.115789320239855 97.22750689134773 0 0 0 0 18.892144114246548 -13.059992437389155 0 -13.059992437389155 39.500751210065573 0 0 0 0 49.424670495836835 -52.095425184721535 0 -52.095425184721535 108.80538082609019 0 0 0 0 -3.7054928437555645 -30.231023804766664 0 -30.231023804766664 135.43137245534308 0 0 0 0 0.77252844819383881 2.1321558655067747 0 2.1321558655067747 0.43324290675445809 0 0 0 0 0.36434960887214274 -0.021284213792611695 0 -0.021284213792611695 -0.14591462874898298 0 0 0 0 -4.2542219976690738 -1.0459297722447261 0 -1.0459297722447261 2.2595083590506331 0 0 0 0 -50.172993652661717 20.699442009103223 0 20.699442009103223 26.444095159546578 0 0 0 0 5.4191332917580652 6.2317558395488941 0 6.2317558395488941 6.4460154913335828 0 0 0 0 28.514432125106396 -7.030588294750487 0 -7.030588294750487 57.689713344116171 0 0 0 0 71.611961491981674 37.7155294003569 0 37.7155294003569 71.093079368190047 0 0 0 0 -21.756908252577432 -43.141572944417931 0 -43.141572944417931 45.075837105236133 0 0 0 0 223.28941234786001 203.62937635516073 0 203.62937635516073 112.62341994569215 0 0 0 0 3.7403988101488999 2.5780274133229426 0 2.5780274133229426 1.1828436085335028 0 0 0 0 206.74295486523715 78.045253090750521 0 78.045253090750521 -22.952448165975511 0 0 0 0 83.99968544330909 -136.08821198990972 0 -136.08821198990972 346.89360359546117 0 0 0 0 80.20779441763807 -80.006397163006113 0 -80.006397163006113 64.566291793395067 0 0 0 0 46.034410015251524 66.711905072201262 0 66.711905072201262 443.97024944052282 0 0 0 0 7.9586446372941282 -50.590484549742541 0 -50.590484549742541 142.53367876201628 0 0 0 0 28.355801339449897 -68.953736403781022 0 -68.953736403781022 126.61367224403511 0 0 0 0 11.50294744363373 -58.175153349332504 0 -58.175153349332504 150.9657938828168 0 0 0 0 39.37581318321827 -105.19372937990011 0 -105.19372937990011 174.43120096048187 0 0 0 0 19.8071343323154 -29.288169328687218 0 -29.288169328687218 250.33100164858115 0 0 0 0 27.383972032313579 -51.148015251011884 0 -51.148015251011884 96.952840681573434 0 0 0 0 48.732888266285045 20.661856325192275 0 20.661856325192275 203.31262383326793 0 0 0 0 39.970588086033786 1.189680441211749 0 1.189680441211749 170.80966137567157 0 0 0 0 17.063032190999365 -41.627937704091892 0 -41.627937704091892 106.97808035234266 0 0 0 0 36.002780699065625 -3.3614060420077294 0 -3.3614060420077294 182.96068336710232 0 0 0 0 66.604795718341848 57.789104479104935 0 57.789104479104935 107.63615007185945 0 0 0 0 54.131075936575598 19.784425688240844 0 19.784425688240844 82.021385421892774 0 0 0 0 20.463458393131077 -9.021196939778747 0 -9.021196939778747 129.25706868480847 0 0 0 0 129.52224340230623 110.92122948919496 0 110.92122948919496 128.45336748791306 0 0 0 0 76.177708994607656 71.413428906737863 0 71.413428906737863 194.6056507455869 0 0 0 0 138.15516962358743 134.2743399364881 0 134.2743399364881 101.59153923054328 0 0 0 0 121.53633683720159 106.62028183512075 0 106.62028183512075 126.13708294449316 0 0 0 0 131.02921346538278 119.44345545170654 0 119.44345545170654 79.143282075738171 0 0 0 0 113.30283584834137 72.540035644944965 0 72.540035644944965 60.46581357897594 0 0 0 0 264.8941461173788 52.742993685901183 0 52.742993685901183 134.17027549433988 0 0 0 0 201.8809089809447 191.11234022960161 0 191.11234022960161 249.49100124129291 0 0 0 0 130.69538893073172 103.64380417166831 0 103.64380417166831 155.82350683398545 0 0 0 0 129.96247087640586 131.94536095664807 0 131.94536095664807 141.78814514947044 0 0 0 0 136.4037029147139 133.62161914618082 0 133.62161914618082 136.19645827767818 0 0 0 0 166.33097237075049 96.599032052434268 0 96.599032052434268 126.43390017737693 0 0 0 0 52.665058119620426 62.222817904731528 0 62.222817904731528 125.0589922498657 0 0 0 0 15.226528546575992 77.372504988391483 0 77.372504988391483 257.97412203251224 0 0 0 0 -23.474760372690753 7.3984270924338489 0 7.3984270924338489 151.24934792760905 0 0 0 0 27.243395627718201 60.796376410802623 0 60.796376410802623 164.4323373774414 0 0 0 0 26.630694069847777 96.77512415959427 0 96.77512415959427 189.7465245250562 0 0 0 0 123.66267263718237 145.35469514609576 0 145.35469514609576 136.65733058887326 0 0 0 0 105.86003457148809 133.33159309182429 0 133.33159309182429 192.32882580396108 0 0 0 0 155.12426176282372 115.89024435200497 0 115.89024435200497 69.542039308769745 0 0 0 0 152.79087310240902 154.53897310173488 0 154.53897310173488 123.78148104838328 0 0 0 0 125.88882178774747 155.57232582981305 0 155.57232582981305 132.92312940623742 0 0 0 0 204.95399949470084 163.23414340977251 0 163.23414340977251 76.164493215787161 0 0 0 0 115.44259377513299 111.15548754970041 0 111.15548754970041 82.468640801700531 0 0 0 0 136.4895976864882 107.31721761421068 0 107.31721761421068 71.849671383293753 0 0 0 0 179.07460004728091 168.04243138150559 0 168.04243138150559 120.27539795891789 0 0 0 0 163.20608453963905 278.26843723125421 0 278.26843723125421 360.76297846726084 0 0 0 0 278.95842860852736 228.00349142114464 0 228.00349142114464 110.05904150450806 0 0 0 0 236.01489596920146 243.90253269506138 0 243.90253269506138 210.30467871322162 0 0 0 0 118.77206093507994 185.33706305439046 0 185.33706305439046 194.40030890896469 0 0 0 0 68.492670291739159 173.077511551719 0 173.077511551719 323.09320036985082 0 0 0 0 148.50167887826774 202.71635681116004 0 202.71635681116004 188.27330647598865 0 0 0 0 12.603468139841425 114.98399757965853 0 114.98399757965853 300.42338378344721 0 0 0 0 -3.1715805014209764 24.505890104297578 0 24.505890104297578 488.27222050625778 0 0 0 0 49.994979371634145 204.859147103125 0 204.859147103125 503.00410828675376 0 0 0 0 370.17109987434924 365.49595567017059 0 365.49595567017059 213.83837256785773 0 0 0 0 146.09665227132064 377.16075035265021 0 377.16075035265021 739.17228020813491 0 0 0 0 101.78813767227257 228.79158764263047 0 228.79158764263047 365.76466438473108 0 0 0 0 58.934392834185019 184.73390523436592 0 184.73390523436592 1496.2572655637632 0 0 0 0 61.258220246611018 137.30187784459122 0 137.30187784459122 647.2926672345875 0 0 0 0 8.7204445011411735 86.298940358523396 0 86.298940358523396 773.18353660973662 0 0 0 0 60.505937975083725 -62.919796128197049 0 -62.919796128197049 460.21059876477375 0 0 0 0 260.91753828085399 -178.06087048386996 0 -178.06087048386996 521.09365466047893 0 0 0 0 242.60457224216691 47.223641865450645 0 47.223641865450645 515.56721793657198 0 0 0 0 -18.983587598287158 64.00114404728447 0 64.00114404728447 417.57063296060369 0 0 0 0 -43.423057573880214 -94.69856252095633 0 -94.69856252095633 429.15359622745018 0 0 0 0 -40.302945733372781 -47.774253213386146 0 -47.774253213386146 273.42085252844117 0 0 0 0 -79.774053206951976 -29.117954819303122 0 -29.117954819303122 336.92328993762203 0 0 0 0 -64.682177586011676 -90.984981530520599 0 -90.984981530520599 268.86863460882159 0 0 0 0 -84.894990470595985 -67.674645808499918 0 -67.674645808499918 219.30340892614549 0 0 0 0 -54.393414336201658 -12.031367064741062 0 -12.031367064741062 265.08517824254159 0 0 0 0 -54.938601854980334 -7.0474845516491769 0 -7.0474845516491769 254.52787495345183 0 0 0 0 -31.098051444316297 17.956938856365014 0 17.956938856365014 279.84154112099714 0 0 0 0 -48.514466013423316 38.691430817510991 0 38.691430817510991 412.50667778194475 0 0 0 0 159.53341352580537 -178.27049060796344 0 -178.27049060796344 297.52941592220304 0 0 0 0 -23.334727290493902 49.354491234294983 0 49.354491234294983 571.65396383541884 0 0 0 0 16.221452941761527 -14.692297703109944 0 -14.692297703109944 621.14172946264807 0 0 0 0 -0.64015589876544254 72.627000904994929 0 72.627000904994929 372.4165605004855 0 0 0 0 -15.491713734852965 46.469018453250101 0 46.469018453250101 328.60141886990459 0 0 0 0 -37.545062291999784 6.5539562180310895 0 6.5539562180310895 492.83071728948562 0 0 0 0 -67.233444307461468 167.11375973922259 0 167.11375973922259 540.1664466570146 0 0 0 0 -79.121056404990668 159.41271113838229 0 159.41271113838229 549.46937109696592 0 0 0 0 -83.222358108468143 127.68868273139014 0 127.68868273139014 777.61289986943302 0 0 0 0 214.57546218012794 324.6355429038922 0 324.6355429038922 566.70478582110809 0 0 0 0 -1.0658344629612344 -1.3963789581481478 0 -1.3963789581481478 5.0827284214255855 0 0 0 0 148.43400085390931 622.88761740841073 0 622.88761740841073 1309.4090904380282 0 0 0 0 32.553159195034823 -183.36767889000112 0 -183.36767889000112 135.78679435550293 0 0 0 0 -36.434311360224456 -150.45974403363471 0 -150.45974403363471 623.63807969680784 0 0 0 0 301.74037965664866 -124.37629122605722 0 -124.37629122605722 397.77064442795017 0 0 0 0 142.62253308063191 264.34846127019773 0 264.34846127019773 1573.6458318687219 0 0 0 0 672.38431409004988 -255.49024048181309 0 -255.49024048181309 718.05687130105798 0 0 0 0 8.2944155665251884 2.2269125192005461 0 2.2269125192005461 3.6179486225764492 0 0 0 0 341.50629241533215 254.73045232611321 0 254.73045232611321 -64.331604680588498 0 0 0 0 324.47938790357512 -70.059870008572034 0 -70.059870008572034 1574.651176373774 0 0 0 0 418.89642618264224 611.7284974862705 0 611.7284974862705 635.51848896961019 0 0 0 0 -214.55700435832841 -3.8350575395816122 0 -3.8350575395816122 1613.2916323110294 0 0 0 0 88.506314539158666 169.53379244532698 0 169.53379244532698 962.72874401498848 0 0 0 0 -80.002524455267121 -357.88063258583861 0 -357.88063258583861 1378.4604081163889 0 0 0 0 8.3698640761805816 2.8773979380438934 0 2.8773979380438934 -2.4659473923758242 0 0 0 0 -27.46953781906268 -419.08576668045862 0 -419.08576668045862 842.23370006507866 0 0 0 0 -122.01916966896897 -52.675910906207719 0 -52.675910906207719 40.447336102370173 0 0 0 0 -0.96347059298494742 -5.4235658318287623 0 -5.4235658318287623 16.808759276492196 0 0 0 0 -224.82350868551839 64.79218838909128 0 64.79218838909128 80.728504967355548 0 0 0 0 94.890258883970091 -27.338786514847015 0 -27.338786514847015 -65.955390698884656 0 0 0 0 351.48901730015132 155.79213050563339 0 155.79213050563339 -0.97612512798514217 0 0 0 0 83.207937499433683 60.17460380148259 0 60.17460380148259 17.297950494285033 0 0 0 0 220.15373637674566 95.560417567885452 0 95.560417567885452 1.3201164502534084 0 0 0 0 96.00681786333007 40.767189266294736 0 40.767189266294736 22.714434277761939 0 0 0 0 53.788970300889559 78.798590949882055 0 78.798590949882055 46.788022743316105 0 0 0 0 116.33719064789156 54.750460068846721 0 54.750460068846721 2.5072553373065602 0 0 0 0 -7.3489223067545026 -4.987945336235498 0 -4.987945336235498 25.509907549865602 0 0 0 0 -57.529250556793158 69.416503681225549 0 69.416503681225549 -16.372290376100864 0 0 0 0 45.436068953258655 -33.195468776786583 0 -33.195468776786583 65.624017153058958 0 0 0 0 63.814722848550446 -4.0869972694017633 0 -4.0869972694017633 -14.006417888471333 0 0 0 0 73.4159912504565 7.0999205667649221 0 7.0999205667649221 -1.0632107120545697 0 0 0 0 64.988153276610319 24.693930440193071 0 24.693930440193071 261.43826989197169 0 0 0 0 23.23609090611334 7.7813636213491861 0 7.7813636213491861 3.6632509212656288 0 0 0 0 -20.547562443485731 -69.915395838492259 0 -69.915395838492259 294.33017034625846 0 0 0 0 33.621590116410516 3.2570488638320967 0 3.2570488638320967 5.5664846479121479 0 0 0 0 54.735356815654086 -5.9344384324685961 0 -5.9344384324685961 7.3120466525288066 0 0 0 0 -8.90527820261741 5.5492262137959187 0 5.5492262137959187 29.156704282882856 0 0 0 0 47.565951652868534 -29.19475676696311 0 -29.19475676696311 9.0127962044280139 0 0 0 0 0.31661123769925581 1.3654363934545586 0 1.3654363934545586 -0.32960199344681662 0 0 0 0 88.493928054542266 -6.6425823891840992 0 -6.6425823891840992 21.434883822872507 0 0 0 0 17.535155912471964 13.529225284837594 0 13.529225284837594 5.1090328604041133 0 0 0 0 -210.32491404193661 69.930245350396035 0 69.930245350396035 25.632640821509995 0 0 0 0 106.80838093173406 -41.18219025063263 0 -41.18219025063263 12.236406226169493 0 0 0 0 -4.2556035636812162 -1.6998438771890196 0 -1.6998438771890196 39.278548837283822 0 0 0 0 -110.1397394092819 -82.734500211819977 0 -82.734500211819977 -37.992349794863003 0 0 0 0 34.767607674173632 -9.8008469442938804 0 -9.8008469442938804 70.265569793620671 0 0 0 0 45.112302546869614 -37.294113152478531 0 -37.294113152478531 76.259659584666224 0 0 0 0 30.728120893443702 -15.627301404372702 0 -15.627301404372702 66.90155274355493 0 0 0 0 -9.5576722954338038 29.355493494977054 0 29.355493494977054 59.605491610731406 0 0 0 0 -9.5198110229575832 40.050761725700795 0 40.050761725700795 -15.40051478516034 0 0 0 0 -127.89654088039424 -17.729059461746147 0 -17.729059461746147 7.6217313735460266 0 0 0 0 -96.531675619757152 47.156322291686593 0 47.156322291686593 -80.931293578116311 0 0 0 0 -18.238880648885242 1.5394784996315138 0 1.5394784996315138 2.3304834082155139 0 0 0 0 -79.545766305306643 -18.52601696124384 0 -18.52601696124384 28.976528689243423 0 0 0 0 52.809624705192618 17.059503088292331 0 17.059503088292331 21.616944913028419 0 0 0 0 -17.575108045283457 -16.308114966932635 0 -16.308114966932635 75.784940233963425 0 0 0 0 14.448812280266793 -30.888297859015438 0 -30.888297859015438 50.730676219780435 0 0 0 0 -10.01685172514226 -49.530691816624312 0 -49.530691816624312 143.44178296201426 0 0 0 0 -30.961760291491373 -50.163174200815774 0 -50.163174200815774 103.41899974342959 0 0 0 0 -15.167912274970149 -66.741331629644264 0 -66.741331629644264 94.598154056071508 0 0 0 0 -36.349321506997512 -70.81011662453966 0 -70.81011662453966 38.42950695565014 0 0 0 0 -83.109484687298391 -28.963339642730716 0 -28.963339642730716 68.511388988859835 0 0 0 0 -32.278122215280746 -77.149228630954894 0 -77.149228630954894 70.036937805268849 0 0 0 0 -49.089224249943072 -122.12188575177242 0 -122.12188575177242 208.80637720174127 0 0 0 0 -33.850290465197759 -24.117103848919214 0 -24.117103848919214 221.88300946563322 0 0 0 0 -57.036572300319676 -18.729497895353234 0 -18.729497895353234 237.70893241255544 0 0 0 0 -63.54926147889455 -39.743464323682929 0 -39.743464323682929 185.04227111014916 0 0 0 0 -36.472117990910192 -47.006282541191467 0 -47.006282541191467 171.54214667093311 0 0 0 0 -49.568611774412602 -75.762054050781444 0 -75.762054050781444 167.47424898963072 0 0 0 0 3.6198293081852171 -56.373635808509789 0 -56.373635808509789 139.712516183773 0 0 0 0 -32.095326254191605 -44.63797229449392 0 -44.63797229449392 157.76865367936989 0 0 0 0 86.639202470054443 -30.357243236354407 0 -30.357243236354407 59.001434898127627 0 0 0 0 66.417734231708891 -41.85765301756328 0 -41.85765301756328 66.696986686612945 0 0 0 0 64.230427308641083 -18.022240333877562 0 -18.022240333877562 70.595304822010803 0 0 0 0 38.575832590740902 -14.96165497741822 0 -14.96165497741822 79.628287062907475 0 0 0 0 50.269348809597432 -24.259022041311255 0 -24.259022041311255 70.570025590845034 0 0 0 0 40.861675677129824 -28.434762589702586 0 -28.434762589702586 66.363522508589085 0 0 0 0 49.81650544997683 -19.056693371632718 0 -19.056693371632718 69.788650399083963 0 0 0 0 -259.66685468719879 -19.335967031332984 0 -19.335967031332984 80.782373777081375 0 0 0 0 -3.4082266968299564 2.1089170113648343 0 2.1089170113648343 59.580089821316037 0 0 0 0 -358.59332805933491 446.33555144615229 0 446.33555144615229 81.387083139758033 0 0 0 0 0.78643173578893766 8.7615137076063547 0 8.7615137076063547 24.269927969675336 0 0 0 0 1037.2757309706813 784.22467560140103 0 784.22467560140103 -415.05167364252702 0 0 0 0 -153.12104113135319 -996.42960879066959 0 -996.42960879066959 367.99504048623203 0 0 0 0 274.82277684685687 -248.04100301854851 0 -248.04100301854851 263.66160393628888 0 0 0 0 -38.55591102457538 -46.132786874823751 0 -46.132786874823751 433.46657296306512 0 0 0 0 69.626368358058244 -5.3329971961975389 0 -5.3329971961975389 75.100883652339689 0 0 0 0 51.647119754183223 -7.9675748529043631 0 -7.9675748529043631 88.789536102951388 0 0 0 0 44.022747478153178 -17.795894274564489 0 -17.795894274564489 77.218403252423741 0 0 0 0 45.944033028397826 -12.48264890358405 0 -12.48264890358405 83.439003384264652 0 0 0 0 46.295101520081516 -17.483286640781444 0 -17.483286640781444 78.93223873928946 0 0 0 0 43.195374580391217 -22.022576652125281 0 -22.022576652125281 76.897085373813752 0 0 0 0 40.580258210819011 -15.118715318145405 0 -15.118715318145405 84.800462228042306 0 0 0 0 44.545766296403599 -18.578628015988215 0 -18.578628015988215 85.068563837907277 0 0 0 0 41.500942913891777 -18.700613942091877 0 -18.700613942091877 73.111685152500286 0 0 0 0 31.083393192187941 -16.115348958905088 0 -16.115348958905088 77.819598508096533 0 0 0 0 31.18798857134243 -15.643158003789722 0 -15.643158003789722 79.463148217022535 0 0 0 0 38.663734812900657 -18.910099726927001 0 -18.910099726927001 79.12418343508034 0 0 0 0 24.978111890634864 -11.268346837936406 0 -11.268346837936406 71.641988636984024 0 0 0 0 24.639813166526437 -12.567226492137706 0 -12.567226492137706 76.091603812259564 0 0 0 0 17.95942281743919 -8.4519107615160465 0 -8.4519107615160465 79.909591697913129 0 0 0 0 21.294023908900272 -13.06100277868245 0 -13.06100277868245 81.997293885768158 0 0 0 0 13.314144911455514 -12.04080642927147 0 -12.04080642927147 82.840206529479474 0 0 0 0 13.967108317036036 -8.8021593726680294 0 -8.8021593726680294 84.391926492273342 0 0 0 0 32.417229837803461 -15.377886352696805 0 -15.377886352696805 82.175427035188477 0 0 0 0 21.994573686850345 -12.639779048808123 0 -12.639779048808123 80.306818230004865 0 0 0 0 31.484983489739534 -17.135444120009197 0 -17.135444120009197 80.443704514822457 0 0 0 0 34.726263490127167 -20.001352602717816 0 -20.001352602717816 76.503712404126418 0 0 0 0 20.490458129017497 -15.110691425295954 0 -15.110691425295954 82.154986584941071 0 0 0 0 20.867341124770974 -14.557698727650859 0 -14.557698727650859 81.164699731918518 0 0 0 0 9.5025950854434882 -10.969119119236211 0 -10.969119119236211 83.682009052106878 0 0 0 0 9.5713057992616086 -17.025342347747937 0 -17.025342347747937 81.158459937156294 0 0 0 0 9.7395755378092872 -23.822464012919227 0 -23.822464012919227 67.44739615162689 0 0 0 0 20.631913028504641 -15.710190868456266 0 -15.710190868456266 73.452607800703845 0 0 0 0 19.508526814039215 -18.904163245322707 0 -18.904163245322707 77.831451379082864 0 0 0 0 0.043555385957006365 -8.0135221867240034 0 -8.0135221867240034 90.132105071777914 0 0 0 0 -11.510542512336542 -19.541622604381701 0 -19.541622604381701 87.33244804260903 0 0 0 0 -5.1689589141260512 -8.1498705179001263 0 -8.1498705179001263 82.933105324322241 0 0 0 0 2.8290151579676603 -16.734884848745423 0 -16.734884848745423 68.898859222506871 0 0 0 0 0.42316629611013923 -14.337265351605311 0 -14.337265351605311 79.847491836730114 0 0 0 0 4.3202522598294308 -15.311693450144958 0 -15.311693450144958 80.04312514067351 0 0 0 0 -2.5607170829389361 -10.021714301139582 0 -10.021714301139582 89.960842295316979 0 0 0 0 6.7200422888199682 -10.960171925253235 0 -10.960171925253235 84.491013260485488 0 0 0 0 5.851179162687913 -5.1450661401040634 0 -5.1450661401040634 88.459501766948961 0 0 0 0 2.2797260292427382 -6.6144963612605352 0 -6.6144963612605352 88.868723223306006 0 0 0 0 0.58811425875319401 0.37951020820037229 0 0.37951020820037229 99.995304869269603 0 0 0 0 -6.9818383750789508 -6.8919882856716868 0 -6.8919882856716868 94.64018206424953 0 0 0 0 -1.7275234423523216 4.8092642661213176 0 4.8092642661213176 112.03933341684751 0 0 0 0 8.7508748107802603 11.752993741682076 0 11.752993741682076 91.224475823662942 0 0 0 0 10.184259992925035 7.8164615519708605 0 7.8164615519708605 91.9856789692858 0 0 0 0 9.1444903946903651 2.8918272874434479 0 2.8918272874434479 85.761977678208495 0 0 0 0 17.914559037744766 6.7019274317281088 0 6.7019274317281088 82.782730873383116 0 0 0 0 17.085453431369388 9.4733383065176895 0 9.4733383065176895 73.785267500759801 0 0 0 0 10.182151273584168 -1.1662919191439869 0 -1.1662919191439869 86.552757779343665 0 0 0 0 12.253681548165332 -3.5166369404178113 0 -3.5166369404178113 80.959021852439037 0 0 0 0 12.977967189879564 -7.5414599709038157 0 -7.5414599709038157 83.406050552366651 0 0 0 0 17.204916158909327 -5.5509496160011622 0 -5.5509496160011622 77.480015580920735 0 0 0 0 18.620591318926017 -3.1803617927362211 0 -3.1803617927362211 80.780182610562406 0 0 0 0 17.171365163705559 0.36842662829440087 0 0.36842662829440087 72.128738161045476 0 0 0 0 24.987383389165188 -0.75869083533325465 0 -0.75869083533325465 71.765979771735147 0 0 0 0 24.909001463604909 0.37030667982253362 0 0.37030667982253362 57.944656378618674 0 0 0 0 27.963442152875359 10.963259843192645 0 10.963259843192645 70.919285174168181 0 0 0 0 27.938684389050195 10.568215042578231 0 10.568215042578231 64.875826265692012 0 0 0 0 38.8136114132285 11.623997365175455 0 11.623997365175455 53.672390791092766 0 0 0 0 38.695296708916601 5.0827871585852336 0 5.0827871585852336 39.657927073756582 0 0 0 0 47.647032031942217 7.1282072789108497 0 7.1282072789108497 30.532137367099494 0 0 0 0 41.052135676986381 -17.147883475272465 0 -17.147883475272465 13.684466362275998 0 0 0 0 47.858403024088148 12.044045276918041 0 12.044045276918041 45.710392548906384 0 0 0 0 53.083513998317358 26.267471206592745 0 26.267471206592745 51.852905625419226 0 0 0 0 38.674720603485184 18.944756395067088 0 18.944756395067088 62.777157730262843 0 0 0 0 90.710237623199646 37.185272953880485 0 37.185272953880485 45.376460559200495 0 0 0 0 49.39044214695241 42.380584679587628 0 42.380584679587628 96.344209904331365 0 0 0 0 44.515110480930161 31.187757731386228 0 31.187757731386228 72.350094922119752 0 0 0 0 37.463591303683643 38.026831423980184 0 38.026831423980184 88.051929361085058 0 0 0 0 13.076504220713105 23.877817848973791 0 23.877817848973791 111.3980581072683 0 0 0 0 28.173071947094286 19.431377136934316 0 19.431377136934316 69.157213761711319 0 0 0 0 22.180053497635527 18.975424431613646 0 18.975424431613646 88.962963809361099 0 0 0 0 31.508760716340475 25.725411984509265 0 25.725411984509265 79.583559058082756 0 0 0 0 -47.206777188112028 -101.00054598603856 0 -101.00054598603856 -15.984523568346049 0 0 0 0 -18.077321467597358 -33.263580443126557 0 -33.263580443126557 16.633097416626697 0 0 0 0 73.88037802126928 10.29993152890529 0 10.29993152890529 14.238139182904661 0 0 0 0 22.952530978262075 -39.396492344560102 0 -39.396492344560102 -0.39111986192074255 0 0 0 0 78.566395684186318 -33.955187821928121 0 -33.955187821928121 -24.38698569816188 0 0 0 0 53.55191780988207 7.4156485371531744 0 7.4156485371531744 41.236389498328208 0 0 0 0 153.77861438407854 44.736786381996353 0 44.736786381996353 51.516078572803963 0 0 0 0 80.844129931408588 -1.299307254352243 0 -1.299307254352243 39.669682568390272 0 0 0 0 -0.76061274906533072 -14.637471845220716 0 -14.637471845220716 69.890160039525654 0 0 0 0 0.41862509387556202 -2.1377165962276194 0 -2.1377165962276194 -59.463410962111084 0 0 0 0 -16.871488670887629 83.080115055403439 0 83.080115055403439 204.93909255348262 0 0 0 0 -19.829642418176718 49.804582393493547 0 49.804582393493547 48.784771378501318 0 0 0 0 -13.25130482653185 66.365374278560921 0 66.365374278560921 256.88510179911464 0 0 0 0 85.056267357169418 -5.4369923191552516 0 -5.4369923191552516 29.855210596841061 0 0 0 0 205.40187080731266 -42.061168841450126 0 -42.061168841450126 156.97778354520415 0 0 0 0 62.292724169288704 -5.0030623827333329 0 -5.0030623827333329 150.09600013511954 0 0 0 0 173.61483693763148 45.711601538205286 0 45.711601538205286 119.53438594594991 0 0 0 0 86.216823675815249 36.944932346770656 0 36.944932346770656 121.26063450294896 0 0 0 0 132.64893755973389 52.364750693821406 0 52.364750693821406 220.34203058033017 0 0 0 0 16.681748416975097 79.560486712427519 0 79.560486712427519 216.42108592578006 0 0 0 0 -41.205948565933795 69.003816652970272 0 69.003816652970272 138.15083305501321 0 0 0 0 7.5443242392575485 -23.270142992565525 0 -23.270142992565525 135.34932307552663 0 0 0 0 -1.34195940914055 -0.24857893963500999 0 -0.24857893963500999 2.1761648752945035 0 0 0 0 6.4448942479430116 15.189714499676484 0 15.189714499676484 131.69561975926626 0 0 0 0 9.9500993870024104 5.4767225351533853 0 5.4767225351533853 118.44438492169138 0 0 0 0 14.349405243883666 21.601803816534812 0 21.601803816534812 106.36426797360764 0 0 0 0 3.6574434887443203 5.9264991576856119 0 5.9264991576856119 105.04043067380553 0 0 0 0 14.163833727216115 24.827328642106295 0 24.827328642106295 112.05684377258876 0 0 0 0 20.666386784338101 41.833872711820732 0 41.833872711820732 153.26032594239223 0 0 0 0 24.482363003480714 37.467370429672883 0 37.467370429672883 190.06190200268611 0 0 0 0 80.858460704381287 80.257841839826142 0 80.257841839826142 143.54879591133795 0 0 0 0 59.444913704282953 49.006369232651195 0 49.006369232651195 97.944735100329126 0 0 0 0 102.32682879326603 86.95939327776432 0 86.95939327776432 145.64048741426086 0 0 0 0 7.7580910623946693 8.7049332799069816 0 8.7049332799069816 140.65455904408373 0 0 0 0 -1.3753968608871219 -3.4326290345925372 0 -3.4326290345925372 130.85779502971127 0 0 0 0 -6.7206542024578084 -16.866023840586422 0 -16.866023840586422 99.600025964929955 0 0 0 0 -0.95245106773791122 10.263918424440817 0 10.263918424440817 14.070445852965349 0 0 0 0 4.0766328736972355 -46.531335786661657 0 -46.531335786661657 60.568707628335687 0 0 0 0 0.4651271129550878 -41.549707960868545 0 -41.549707960868545 92.250591133470152 0 0 0 0 3.6873534948608722 -2.814276978984708 0 -2.814276978984708 -3.7071525625506183 0 0 0 0 -1.9186942447304318 -1.7874752732386696 0 -1.7874752732386696 -3.8947792446688254 0 0 0 0 -17.723233629913921 -3.6422484545619227 0 -3.6422484545619227 16.997414688637946 0 0 0 0 89.711241632843013 69.69943458572962 0 69.69943458572962 98.121510689961724 0 0 0 0 1.1136553639480553 2.3324355920412927 0 2.3324355920412927 -5.283922133940905 0 0 0 0 90.037486755649297 143.40489600084402 0 143.40489600084402 101.62531292757558 0 0 0 0 0.42655642385165748 -1.2742041577355678 0 -1.2742041577355678 0.56789774671204896 0 0 0 0 3.1440944931489412 2.0375253857234839 0 2.0375253857234839 -5.2472873292426812 0 0 0 0 -4.6404836733994586 0.57308096656934993 0 0.57308096656934993 2.2677333503081059 0 0 0 0 -6.7587520220549777 0.7544205678277649 0 0.7544205678277649 10.871908233049908 0 0 0 0 -6.6688476774725132 -1.3256054700686946 0 -1.3256054700686946 14.170333936308452 0 0 0 0 -4.3005979286454021 2.4708370039898 0 2.4708370039898 5.2092046865873272 0 0 0 0 -1.844143281232391 -1.84923839259136 0 -1.84923839259136 7.3465791170820012 0 0 0 0 -4.6191340401855996 -2.416807539495494 0 -2.416807539495494 3.0431269331675139 0 0 0 0 -2.3344856783515979 1.0962957850441413 0 1.0962957850441413 3.3851626734223572 0 0 0 0 -2.2883317256074491 -3.8903061634504752 0 -3.8903061634504752 0.50376113575184966 0 0 0 0 -4.1745300282018434 0.036871124961180612 0 0.036871124961180612 14.995342160549626 0 0 0 0 -11.300083985777746 16.978817398186948 0 16.978817398186948 2.3006156818883028 0 0 0 0 -1.1480695586385998 0.13783914004141806 0 0.13783914004141806 3.2606035379793212 0 0 0 0 -2.575114092163858 0.50233489966922207 0 0.50233489966922207 3.4457605677307583 0 0 0 0 0.46467917151694849 0.6226921113878916 0 0.6226921113878916 0.72022717596658481 0 0 0 0 7.2592596314279945 1.0765557798877126 0 1.0765557798877126 -2.6611322595090314 0 0 0 0 -12.314772047064366 -1.4878807470333868 0 -1.4878807470333868 -2.8319512934103841 0 0 0 0 0.17787644531580327 2.0389308879902472 0 2.0389308879902472 -0.17373015119580515 0 0 0 0 10.521016294238507 -2.2419163252779981 0 -2.2419163252779981 -19.506128202214313 0 0 0 0 10.439178334334429 7.3599385107008857 0 7.3599385107008857 -9.1446775279837311 0 0 0 0 -1.951189721301489 -0.04188283968687756 0 -0.04188283968687756 -2.5775233816602849 0 0 0 0 -16.282940817280178 -17.358457087582792 0 -17.358457087582792 38.610862427689426 0 0 0 0 2.8553300609655707 11.444537807192319 0 11.444537807192319 22.956731042082538 0 0 0 0 39.680519188506878 -6.0622723727037737 0 -6.0622723727037737 33.958836647405406 0 0 0 0 18.576993839220449 -30.41818424946905 0 -30.41818424946905 48.929009502826375 0 0 0 0 4.1301763370365734 -10.505166701377675 0 -10.505166701377675 62.320892575633479 0 0 0 0 0.25959622883237898 -28.422878524201224 0 -28.422878524201224 65.775241518969779 0 0 0 0 13.5134777340445 -13.557564602346247 0 -13.557564602346247 30.993712405201222 0 0 0 0 11.777918290390517 -24.088098584266845 0 -24.088098584266845 0.93227411208499689 0 0 0 0 -4.4049635621922789 19.24430967666558 0 19.24430967666558 1.7381265352014452 0 0 0 0 17.178965377574059 4.2641058230728959 0 4.2641058230728959 -10.279831486659532 0 0 0 0 -4.1210503396359854 -9.1660345660202438 0 -9.1660345660202438 34.947207396195154 0 0 0 0 -250.59820543095066 -37.92169608275799 0 -37.92169608275799 102.3269214211723 0 0 0 0 -86.346862425741165 39.272936039824344 0 39.272936039824344 49.612992916154326 0 0 0 0 -105.60453367116224 56.896433121308291 0 56.896433121308291 42.488668709760532 0 0 0 0 -55.819166685132586 29.193242928728068 0 29.193242928728068 35.030175782922015 0 0 0 0 -6.6332620273893266 -3.8096535909633786 0 -3.8096535909633786 26.536131370248881 0 0 0 0 -9.8670033467610665 -2.4233107807549459 0 -2.4233107807549459 28.977840388717595 0 0 0 0 -12.07645509037684 -0.99441904862760566 0 -0.99441904862760566 28.846025455670315 0 0 0 0 -10.090473079084404 -3.9547332693582575 0 -3.9547332693582575 23.520068110090506 0 0 0 0 -7.7068078593841669 -0.74319257135712746 0 -0.74319257135712746 24.917414341518281 0 0 0 0 -15.848139602029732 -2.1656608465127647 0 -2.1656608465127647 25.002530008569011 0 0 0 0 -15.192297329862413 -5.5405495512350171 0 -5.5405495512350171 25.064242091815686 0 0 0 0 -13.772038564948161 -3.6697406502062222 0 -3.6697406502062222 24.813494021218503 0 0 0 0 -0.77243642164265003 -2.0299917834394705 0 -2.0299917834394705 25.950616080061394 0 0 0 0 -106.03894141537239 -78.762462789643905 0 -78.762462789643905 0.72075560753728496 0 0 0 0 -1.4947788846497509 -3.6740560369509581 0 -3.6740560369509581 5.289041070043254 0 0 0 0 -167.04098137490655 2.4711722427382483 0 2.4711722427382483 27.595130295816944 0 0 0 0 -116.22870703960675 -62.766351024504957 0 -62.766351024504957 -23.63875305201509 0 0 0 0 -114.94213813808892 11.05631172304129 0 11.05631172304129 105.54322732298169 0 0 0 0 -140.30476732833085 86.373027752182679 0 86.373027752182679 117.28500254926621 0 0 0 0 -12.838536992807349 48.283011890496709 0 48.283011890496709 10.719284194448846 0 0 0 0 -70.030957883107476 78.05487262110546 0 78.05487262110546 -9.7735084218875272 0 0 0 0 2.7464311259500391 88.634397529756825 0 88.634397529756825 86.249632866714819 0 0 0 0 -6.4598552326278877 126.80909767107369 0 126.80909767107369 128.37490567261557 0 0 0 0 -40.118030694367917 81.936912739925901 0 81.936912739925901 51.948557140683988 0 0 0 0 -67.57872352933191 56.227073589951033 0 56.227073589951033 98.239727682346711 0 0 0 0 -0.084158138532190785 -1.7674178694360716 0 -1.7674178694360716 30.427753592667955 0 0 0 0 -147.90340005651888 61.353018744230212 0 61.353018744230212 278.68720281776041 0 0 0 0 17.306911554043836 16.162011583470303 0 16.162011583470303 154.84067896452325 0 0 0 0 -98.851988549391535 34.122300657407322 0 34.122300657407322 155.23790405970067 0 0 0 0 -95.10661249230543 -169.65339228919765 0 -169.65339228919765 -18.822316672762099 0 0 0 0 -0.87083424441834012 0.97301805413634668 0 0.97301805413634668 1.9706857176471004 0 0 0 0 -3.1642851382588848 1.6869544673687074 0 1.6869544673687074 3.5614593631015339 0 0 0 0 -3.4531561035218528 -1.3238999269037777 0 -1.3238999269037777 32.800925854705611 0 0 0 0 -47.415632190296265 3.2609950932469474 0 3.2609950932469474 33.770394589751959 0 0 0 0 -13.814220057899547 58.319340979898698 0 58.319340979898698 -12.239578020945544 0 0 0 0 -11.085619970295738 -3.0068331289439811 0 -3.0068331289439811 36.194182235976768 0 0 0 0 -12.147467372980827 -1.3347766350998427 0 -1.3347766350998427 29.339716156453505 0 0 0 0 -8.3583366997772828 1.435299775988824 0 1.435299775988824 31.322091780682968 0 0 0 0 -7.652298674551048 -3.9206087962234051 0 -3.9206087962234051 29.709499032374879 0 0 0 0 -5.1960936705982022 -2.854526049191918 0 -2.854526049191918 35.421515774385625 0 0 0 0 -4.2805287856044743 0.0024316657581948675 0 0.0024316657581948675 33.29727746538083 0 0 0 0 -5.0196701414598355 -5.0156471891606316 0 -5.0156471891606316 28.635470114538236 0 0 0 0 -4.6651337572736793 -1.6107883728263914 0 -1.6107883728263914 35.114280505535135 0 0 0 0 -169.14981555278791 -266.16908818733282 0 -266.16908818733282 4.1590316637302749 0 0 0 0 -239.81397212993488 -83.641322491534083 0 -83.641322491534083 -39.50233868304349 0 0 0 0 215.64291508494398 -233.04521782272968 0 -233.04521782272968 345.13716032866796 0 0 0 0 109.5387921420479 -181.72157102447818 0 -181.72157102447818 329.66994705045545 0 0 0 0 121.00011959936819 -172.67136823142937 0 -172.67136823142937 213.62399809458293 0 0 0 0 195.49365308663982 -156.68784454623528 0 -156.68784454623528 100.12818163447082 0 0 0 0 104.1395659757618 -5.7672647443250753 0 -5.7672647443250753 7.9868127731942877 0 0 0 0 0.14767169502635369 1.6387048259321944 0 1.6387048259321944 6.4615537672272847 0 0 0 0 72.201366189409782 -119.63463592497283 0 -119.63463592497283 138.51620267063845 0 0 0 0 16.54808242595027 5.6330005391209852 0 5.6330005391209852 60.989942417407292 0 0 0 0 -3.9976241645254618 7.355751390756943 0 7.355751390756943 25.047268342598841 0 0 0 0 -5.4118062109155289 -0.1950108368837391 0 -0.1950108368837391 39.930934309937584 0 0 0 0 -1.969664096042834 0.10118088952003745 0 0.10118088952003745 34.353255245594482 0 0 0 0 -2.6064855242839258 -66.454003147751791 0 -66.454003147751791 88.392541846842505 0 0 0 0 -5.1495088055289671 3.6488553407452855 0 3.6488553407452855 46.138540243209718 0 0 0 0 28.181850355143979 -28.472452598980453 0 -28.472452598980453 16.647531566035468 0 0 0 0 -0.18410797191999961 -0.42685557433340193 0 -0.42685557433340193 4.2393782825937443 0 0 0 0 -15.081974373235425 2.8750915129203349 0 2.8750915129203349 33.911015161884279 0 0 0 0 -4.3674515803525971 2.0626410831028252 0 2.0626410831028252 27.518493125342445 0 0 0 0 -4.8071200462709385 6.2233666574938979 0 6.2233666574938979 42.093724093370838 0 0 0 0 -4.5742849187091181 -3.1453549926339548 0 -3.1453549926339548 4.5731367362990447 0 0 0 0 -1.4352649874912373 4.3118724194900082 0 4.3118724194900082 15.822690162428131 0 0 0 0 -28.263329434576008 0.6712033264884667 0 0.6712033264884667 22.460516666134481 0 0 0 0 -5.9633000465867809 3.4755376497722636 0 3.4755376497722636 5.1982729886963126 0 0 0 0 21.813207886378223 12.075167630435317 0 12.075167630435317 -22.411406413375516 0 0 0 0 -6.4444237133429851 4.7431911689200206 0 4.7431911689200206 38.594165542614064 0 0 0 0 -7.2593986522704625 3.5427155615279986 0 3.5427155615279986 4.5097953246406774 0 0 0 0 -23.350138998059265 15.111443076257274 0 15.111443076257274 16.078194176548777 0 0 0 0 -7.7615340690074817 -2.648453986721222 0 -2.648453986721222 6.5667265247042437 0 0 0 0 -9.3102936788827719 1.4480645550193003 0 1.4480645550193003 42.308105712232646 0 0 0 0 -7.5347003551296439 1.1410303474858665 0 1.1410303474858665 49.601606584546971 0 0 0 0 -4.4688703127139888 3.0808429733660887 0 3.0808429733660887 39.585372881963849 0 0 0 0 -11.716332371241151 7.7635355106904171 0 7.7635355106904171 58.010091425974679 0 0 0 0 3.2631295044993749 -0.53000688678002916 0 -0.53000688678002916 58.42457789992477 0 0 0 0 -7.3661699391559523 15.55478469292575 0 15.55478469292575 47.414579106480232 0 0 0 0 -6.8831516639465917 15.565294313927552 0 15.565294313927552 28.63977502900525 0 0 0 0 -15.874313578286092 1.0458119879185688 0 1.0458119879185688 31.692440259263094 0 0 0 0 -5.6420681877678369 -1.9944594405700098 0 -1.9944594405700098 16.419052270556676 0 0 0 0 -19.08161822220427 -24.171882554990589 0 -24.171882554990589 80.609282264660578 0 0 0 0 -6.4952689743143921 1.4513194420118793 0 1.4513194420118793 17.856350357516476 0 0 0 0 -3.2827603662131324 -2.4565617288481505 0 -2.4565617288481505 9.300893141470894 0 0 0 0 -13.836760691406198 -1.6116091526091623 0 -1.6116091526091623 13.149394634878263 0 0 0 0 -11.552376017706528 4.9165635364808224 0 4.9165635364808224 29.550095751006655 0 0 0 0 -9.7094852738518966 3.589950543246232 0 3.589950543246232 40.786845595896011 0 0 0 0 -7.2862267808318109 1.3855207478581377 0 1.3855207478581377 22.466375324669599 0 0 0 0 -11.773615133230493 4.7374445176046152 0 4.7374445176046152 42.591293841018341 0 0 0 0 -10.894539735305443 2.1416532524872309 0 2.1416532524872309 43.610867788971518 0 0 0 0 -11.736774761036941 6.8577218511127285 0 6.8577218511127285 38.848206218503037 0 0 0 0 -6.6808024611910284 4.664121157591083 0 4.664121157591083 23.328808463232008 0 0 0 0 -3.5502274675687815 -0.65110297285873742 0 -0.65110297285873742 25.514083378309003 0 0 0 0 -7.6984916951332707 5.0603595095890341 0 5.0603595095890341 20.117844051317661 0 0 0 0 -7.2512759633100359 1.0099010171979899 0 1.0099010171979899 16.520017116446979 0 0 0 0 -6.3622548968624058 5.0993514840225131 0 5.0993514840225131 16.548447632044827 0 0 0 0 -10.610762848067679 -4.1714381096535362 0 -4.1714381096535362 29.159569611423649 0 0 0 0 -2.2114047941827657 3.2184484520300671 0 3.2184484520300671 3.490296011405178 0 0 0 0 3.5309261961992888 9.6513807480805553 0 9.6513807480805553 31.376781763399549 0 0 0 0 -1.4938871622777121 -0.43657023481600632 0 -0.43657023481600632 24.035381183937631 0 0 0 0 -68.497065874035343 -60.276310958440718 0 -60.276310958440718 -19.04187003642437 0 0 0 0 -119.66549463394585 58.040759034119219 0 58.040759034119219 27.541571461901185 0 0 0 0 0.61281406887428602 120.93893894137 0 120.93893894137 -85.405592806991535 0 0 0 0 32.149854782350303 -92.613333135468565 0 -92.613333135468565 -107.28323403650575 0 0 0 0 138.38856032948024 81.801713128945266 0 81.801713128945266 -43.824631070710893 0 0 0 0 0.33397477408237464 -0.12733761939677279 0 -0.12733761939677279 9.5508279926062301 0 0 0 0 1.6338886459489004 191.64069617511814 0 191.64069617511814 489.85007353510446 0 0 0 0 297.22184378996644 -446.22410212919021 0 -446.22410212919021 686.58755912880588 0 0 0 0 158.4604233680202 -98.386566742221476 0 -98.386566742221476 -70.969939453119878 0 0 0 0 -57.648785461212356 69.464618876598252 0 69.464618876598252 76.653893330832943 0 0 0 0 -19.36842246974993 -126.91996491773898 0 -126.91996491773898 938.21886807480769 0 0 0 0 45.838045327241161 -41.864779373127021 0 -41.864779373127021 1.3891048175064498 0 0 0 0 100.17405746558507 5.0533593920627027 0 5.0533593920627027 -21.912524872153881 0 0 0 0 -0.87375697459992807 -31.110458348092834 0 -31.110458348092834 2.4217289229709422 0 0 0 0 548.81151551404855 -760.32119111891006 0 -760.32119111891006 541.59028186643263 0 0 0 0 -1.1218169980353743 0.22023547400463883 0 0.22023547400463883 6.907616633832987 0 0 0 0 -9.1252260504006699 -286.592109069039 0 -286.592109069039 688.60909186745266 0 0 0 0 -3.2572470705668692 1.8210029517575492 0 1.8210029517575492 4.8630765819384578 0 0 0 0 317.75926650014117 -194.98352175902255 0 -194.98352175902255 709.17196198337115 0 0 0 0 170.39969916908376 -262.03836750721894 0 -262.03836750721894 422.35768169436778 0 0 0 0 111.97629135134775 -270.51471112351464 0 -270.51471112351464 565.7272302637939 0 0 0 0 148.85581805078073 -197.77898746920982 0 -197.77898746920982 434.69211050658487 0 0 0 0 151.52868384563408 -183.932945255503 0 -183.932945255503 328.92817990051117 0 0 0 0 91.295231862502987 -209.59997398221094 0 -209.59997398221094 442.5272536513221 0 0 0 0 14.381790627958253 -66.172815935442486 0 -66.172815935442486 -52.958128568476241 0 0 0 0 -2.9157003543875746 -0.82086334520735704 0 -0.82086334520735704 -0.46769422618177714 0 0 0 0 -28.699892370052112 -108.10002413875918 0 -108.10002413875918 34.521105528163389 0 0 0 0 -92.46427463216969 -46.060926068170374 0 -46.060926068170374 122.2926271655233 0 0 0 0 122.97354467558398 -45.925178766374302 0 -45.925178766374302 180.59574575043916 0 0 0 0 0.93707140622488438 0.30069371017602009 0 0.30069371017602009 -0.54439963922615675 0 0 0 0 37.518015908082816 168.74418379984127 0 168.74418379984127 5.6803155161469476 0 0 0 0 10.184346856321341 2.6447909689617433 0 2.6447909689617433 -0.078580589220010211 0 0 0 0 2.0207760812260069 0.013200754501415446 0 0.013200754501415446 1.4716959261988904 0 0 0 0 -87.690612957721896 -226.77112312017198 0 -226.77112312017198 29.103099516202292 0 0 0 0 11.926651678430062 -3.0008791557193035 0 -3.0008791557193035 4.781207237090257 0 0 0 0 5.1400127508027253 21.303135446275519 0 21.303135446275519 -1.527579632736888 0 0 0 0 -1.8554246812091151 -0.69256822763600212 0 -0.69256822763600212 -1.8243909343545965 0 0 0 0 0.69080135947297094 -1.1439057580937515 0 -1.1439057580937515 4.1512711899085843 0 0 0 0 0.55781396712868769 -1.0408410661123924 0 -1.0408410661123924 1.82533230120886 0 0 0 0 1.8964116622430041 -1.385365634601559 0 -1.385365634601559 2.7078531651341393 0 0 0 0 13.103189888088309 -4.1432206816280086 0 -4.1432206816280086 35.723521940501087 0 0 0 0 32.684126855237992 10.965394656886019 0 10.965394656886019 46.494500914232049 0 0 0 0 -0.56118720149970613 -8.0514846103324089 0 -8.0514846103324089 66.743054801674589 0 0 0 0 -14.298941332341201 -1.7896589572010271 0 -1.7896589572010271 51.59331240899337 0 0 0 0 -1.0345651832708427 -4.645479401988041 0 -4.645479401988041 46.78340626903082 0 0 0 0 -6.3674654115202429 3.5319217324267811 0 3.5319217324267811 38.537299809599062 0 0 0 0 -4.1285536100658646 5.9860305853144382 0 5.9860305853144382 40.419714840012603 0 0 0 0 -9.8695175802749873 5.2275626909395214 0 5.2275626909395214 46.783329244219203 0 0 0 0 -6.7909783742260004 -1.7940717927366734 0 -1.7940717927366734 5.4953429072490145 0 0 0 0 -0.35521295983562595 -8.6673852584244742 0 -8.6673852584244742 -54.962304655302432 0 0 0 0 -8.6305012484174952 -0.71438645377807575 0 -0.71438645377807575 4.1166681392851805 0 0 0 0 -54.033917632630619 17.542660970262659 0 17.542660970262659 29.631403669992551 0 0 0 0 4.9848267561812776 5.0515068239735648 0 5.0515068239735648 6.2575736954689205 0 0 0 0 -36.969501386385673 -28.600547821595683 0 -28.600547821595683 21.383578421755374 0 0 0 0 132.31981288029419 51.308153091205895 0 51.308153091205895 -31.153266642784729 0 0 0 0 17.215197619769242 -38.662402381663924 0 -38.662402381663924 140.0323246101907 0 0 0 0 9.7404806817876306 106.60272331939996 0 106.60272331939996 558.03305115058902 0 0 0 0 -9.4698850614768162 94.49444303474047 0 94.49444303474047 680.65237266690383 0 0 0 0 3.0337389310065959 2.2332387602427275 0 2.2332387602427275 1.5497532343153892 0 0 0 0 3.5810298969936412 -40.332086479149439 0 -40.332086479149439 17.402645337588183 0 0 0 0 107.53535183364147 166.5886819403986 0 166.5886819403986 30.927313905922347 0 0 0 0 42.87898512036918 100.35227516873783 0 100.35227516873783 172.20722823486358 0 0 0 0 60.752076653036056 15.71080919843007 0 15.71080919843007 40.835527768522752 0 0 0 0 -12.377942361004898 159.3094677050758 0 159.3094677050758 250.33606248421984 0 0 0 0 8.1159766515993397 68.965114988714049 0 68.965114988714049 217.7735781161864 0 0 0 0 14.067129071167074 86.964399242653599 0 86.964399242653599 264.03980307775782 0 0 0 0 -8.544746439652954 184.47345555546781 0 184.47345555546781 412.82746861290434 0 0 0 0 59.45900374321559 326.98595995909409 0 326.98595995909409 473.08798188241053 0 0 0 0 -276.07284412208583 -209.19783144156463 0 -209.19783144156463 207.67745584670774 0 0 0 0 132.9274853427487 78.524745456459641 0 78.524745456459641 232.25559228336351 0 0 0 0 -125.68907158592265 173.5673637063519 0 173.5673637063519 603.53014451912895 0 0 0 0 48.797346898722935 236.50058862419337 0 236.50058862419337 632.66247838019626 0 0 0 0 204.72211298504226 235.79060466921874 0 235.79060466921874 474.16468783916207 0 0 0 0 265.34533435973935 -85.023772060038027 0 -85.023772060038027 781.86939657362018 0 0 0 0 64.037720841621194 130.18979838693849 0 130.18979838693849 567.60260803265555 0 0 0 0 172.46394844686256 -273.37657434221182 0 -273.37657434221182 511.69860507718113 0 0 0 0 185.22906725679059 -221.87897752553181 0 -221.87897752553181 548.65083858749858 0 0 0 0 209.20975376773276 -185.73780052407892 0 -185.73780052407892 685.16794362734254 0 0 0 0 602.63079172180915 -306.35201389349822 0 -306.35201389349822 -26.13348119573493 0 0 0 0 560.64030404255243 -28.849239082849181 0 -28.849239082849181 -26.131008938267769 0 0 0 0 220.80802384001072 -454.27206651662709 0 -454.27206651662709 748.2658236150528 0 0 0 0 2.818621574744629 -2.619364023251606 0 -2.619364023251606 2.3401232464776172 0 0 0 0 94.685011192757884 50.385277710349328 0 50.385277710349328 -29.088421808904968 0 0 0 0 283.91063469087658 -41.054170453123334 0 -41.054170453123334 -7.5174887800239958 0 0 0 0 17.723057583523769 -29.626579929943546 0 -29.626579929943546 121.56440184834355 0 0 0 0 312.31747632773659 -271.04768062437142 0 -271.04768062437142 33.487659694830654 0 0 0 0 324.01315385807766 -174.43153727804656 0 -174.43153727804656 237.58731576432911 0 0 0 0 1.0863999593112581 -2.3772654033427898 0 -2.3772654033427898 3.5734005454365132 0 0 0 0 352.50170169603803 -443.04768743323484 0 -443.04768743323484 -209.8155242021021 0 0 0 0 59.920902701557679 148.4793081986154 0 148.4793081986154 240.53443477335895 0 0 0 0 126.00348421244416 183.89598587946602 0 183.89598587946602 582.66752944478503 0 0 0 0 138.39482819223906 153.14443069657477 0 153.14443069657477 216.36537516676617 0 0 0 0 0.75397257397687412 -5.0030508585471694 0 -5.0030508585471694 8.4508024685770806 0 0 0 0 113.10976824655336 101.36995843777004 0 101.36995843777004 -87.966311423449952 0 0 0 0 -53.530394379135487 -205.08015419908588 0 -205.08015419908588 324.94518176385463 0 0 0 0 -139.87986907328559 63.189558787296846 0 63.189558787296846 228.27973244422174 0 0 0 0 140.43627556992578 -136.67977322389925 0 -136.67977322389925 211.64507161671645 0 0 0 0 70.068117391239866 -61.391703117646102 0 -61.391703117646102 434.57942149622977 0 0 0 0 -87.688528651636261 -422.40540705567764 0 -422.40540705567764 981.13130948461185 0 0 0 0 206.95607170620588 -223.22415854966857 0 -223.22415854966857 286.46246954886738 0 0 0 0 -1.6858960751604286 0.96538349638479559 0 0.96538349638479559 3.4106071364875987 0 0 0 0 87.305254211243664 184.07295117889225 0 184.07295117889225 -163.01027494093796 0 0 0 0 -125.49467171963988 26.189944384852424 0 26.189944384852424 403.76813911869613 0 0 0 0 7.1119199786001275 8.451230975153365 0 8.451230975153365 4.0190321623836596 0 0 0 0 -289.01198138879772 147.54177976480423 0 147.54177976480423 597.22267057393037 0 0 0 0 394.12776837423917 -86.431980266937899 0 -86.431980266937899 400.57707157070399 0 0 0 0 -248.49856991928357 -230.58942877463824 0 -230.58942877463824 369.91087549987424 0 0 0 0 367.05172715809385 50.935744711394364 0 50.935744711394364 842.69907059167963 0 0 0 0 -129.50939818751431 192.99970866892545 0 192.99970866892545 609.53646685410786 0 0 0 0 -239.73868312833292 -358.21430953699019 0 -358.21430953699019 1037.3380196578601 0 0 0 0 255.86683279249337 -17.555732134991558 0 -17.555732134991558 1112.2866320836333 0 0 0 0 -145.27773860744946 -556.44987612488603 0 -556.44987612488603 1122.5801047156128 0 0 0 0 -47.003643553153779 -6.0700562140154943 0 -6.0700562140154943 1184.1420785982336 0 0 0 0 242.57414413267907 -417.64875860769098 0 -417.64875860769098 1088.7601430599461 0 0 0 0 762.57627228690035 -255.36069081110691 0 -255.36069081110691 368.18389850833773 0 0 0 0 497.52261763179922 49.996409523399052 0 49.996409523399052 -392.46203900572436 0 0 0 0 118.86403711370258 89.663138896634337 0 89.663138896634337 344.20247880634793 0 0 0 0 3.2329512330034902 3.4345463872149224 0 3.4345463872149224 2.011941044285777 0 0 0 0 -313.93297391384021 836.17052885198154 0 836.17052885198154 421.68684516055509 0 0 0 0 4.5740766858594561 -3.1130204538940518 0 -3.1130204538940518 2.3157163071813471 0 0 0 0 -12.37196653897081 -140.45792240838273 0 -140.45792240838273 -23.627210116357674 0 0 0 0 -86.477555554339688 -37.116551672246715 0 -37.116551672246715 28.416009133943589 0 0 0 0 132.49955073012461 -108.07429069421778 0 -108.07429069421778 -62.241698549460125 0 0 0 0 -95.210152663890767 -17.026427343673276 0 -17.026427343673276 104.61654564375931 0 0 0 0 12.001373922412313 -9.5476651286953711 0 -9.5476651286953711 53.844658398207685 0 0 0 0 -38.236595293990831 39.992778670475673 0 39.992778670475673 19.855546355570027 0 0 0 0 183.90937700440122 101.73088492175657 0 101.73088492175657 17.824917429796187 0 0 0 0 -194.39060418562804 -140.81140914595017 0 -140.81140914595017 1000.0581118813352 0 0 0 0 178.56517049871127 85.490556639286297 0 85.490556639286297 292.49697780324641 0 0 0 0 -22.060140278632389 40.456598840228253 0 40.456598840228253 282.75459905258867 0 0 0 0 -44.482292654862249 -8.5260390430521511 0 -8.5260390430521511 61.656746593014759 0 0 0 0 -9.1497369665339647 -20.017432542601455 0 -20.017432542601455 56.272744429166778 0 0 0 0 55.00372501453603 65.953849403422282 0 65.953849403422282 -79.168561524467805 0 0 0 0 1.1239384103812515 3.2559290038183057 0 3.2559290038183057 6.9392905609882689 0 0 0 0 -2.6897773444406994 2.6864500369192683 0 2.6864500369192683 1.7851967498718295 0 0 0 0 -96.484028629953173 80.584111302698147 0 80.584111302698147 55.245151478618936 0 0 0 0 -4.4009270540063881 -0.22573058800480794 0 -0.22573058800480794 21.836185492706136 0 0 0 0 0.36554969666561021 -1.0254467161504408 0 -1.0254467161504408 -1.7024385962399791 0 0 0 0 20.201646898197396 3.2288096742704511 0 3.2288096742704511 -43.470981783117168 0 0 0 0 13.036785420194064 -12.575898715309449 0 -12.575898715309449 -28.224229719082359 0 0 0 0 0.47321793446440807 1.5616267903352394 0 1.5616267903352394 1.0048315462925395 0 0 0 0 27.894797555801233 -26.240295905954554 0 -26.240295905954554 -6.7744216782157309 0 0 0 0 -0.82494341681247541 -0.25158249863072868 0 -0.25158249863072868 4.1299148138033388 0 0 0 0 226.12576322355562 71.290654680287844 0 71.290654680287844 39.785542205689126 0 0 0 0 26.867805619878709 -154.06910874805544 0 -154.06910874805544 395.78734795674973 0 0 0 0 -31.588422119511961 15.70351065270097 0 15.70351065270097 364.83675908925943 0 0 0 0 11.259186725839754 -67.538716865150491 0 -67.538716865150491 -25.747615907679574 0 0 0 0 -149.25901480144057 -2.6699296055667219 0 -2.6699296055667219 368.84358724865888 0 0 0 0 -151.03970294748521 -49.015570174844811 0 -49.015570174844811 571.37336979042448 0 0 0 0 -0.77065932155541716 2.6861843511896382 0 2.6861843511896382 2.8844980135831024 0 0 0 0 4.6458337715375819 41.037607319900417 0 41.037607319900417 -48.673105797934113 0 0 0 0 -52.678785465019246 64.562456125182507 0 64.562456125182507 91.084706934925634 0 0 0 0 -45.088373732440232 49.988773549892358 0 49.988773549892358 4.0337560582283913 0 0 0 0 -8.730763490553727 14.989703411592927 0 14.989703411592927 35.691552540665725 0 0 0 0 0.073025369037623022 18.036883271701299 0 18.036883271701299 9.3128906003985321 0 0 0 0 -4.6314639314350643 12.942249920750328 0 12.942249920750328 23.929324125099811 0 0 0 0 3.9891104915950564 9.4542338192550233 0 9.4542338192550233 7.0335308489375166 0 0 0 0 4.6843344657908261 9.7982903872545819 0 9.7982903872545819 6.3939496497324058 0 0 0 0 7.5108385771281974 8.1905815808095213 0 8.1905815808095213 19.047363597594085 0 0 0 0 1.7915099061310684 6.361992484977236 0 6.361992484977236 10.828363643624471 0 0 0 0 3.5025966540830353 7.035407675744878 0 7.035407675744878 4.7708115659208943 0 0 0 0 2.5183228745754604 6.4545800118285115 0 6.4545800118285115 10.494455146799737 0 0 0 0 2.4187209711316946 5.9726174877504548 0 5.9726174877504548 11.979886160035278 0 0 0 0 0.92969814244497684 3.8693623969847977 0 3.8693623969847977 9.1984221314123715 0 0 0 0 1.2246153202368006 5.2319480159248712 0 5.2319480159248712 7.4267070857650017 0 0 0 0 3.7003240325631168 1.2069384779994508 0 1.2069384779994508 6.1200407527703362 0 0 0 0 -0.46790338203905435 1.1658306110695165 0 1.1658306110695165 9.3769597818343584 0 0 0 0 -30.866919649966803 27.757971675957378 0 27.757971675957378 16.325388450197352 0 0 0 0 -24.06124316876776 -74.957392544380127 0 -74.957392544380127 -18.664480930267018 0 0 0 0 99.403389577821144 58.69115418203728 0 58.69115418203728 12.6887224478196 0 0 0 0 9.4633298072018945 2.6988425400734997 0 2.6988425400734997 1.3933274705068586 0 0 0 0 84.497200025489292 95.19263045462867 0 95.19263045462867 70.882273256691406 0 0 0 0 14.081248527967546 16.216494155103646 0 16.216494155103646 -9.6084041395952227 0 0 0 0 -1.835428075149327 2.5137872293643468 0 2.5137872293643468 6.5548950098175567 0 0 0 0 -67.152195907776331 37.447836410363379 0 37.447836410363379 -36.798273696382239 0 0 0 0 -2.7655463783509262 0.17498166336775967 0 0.17498166336775967 1.5901850202194652 0 0 0 0 -73.706045352941146 9.605266127618961 0 9.605266127618961 -26.471426935459021 0 0 0 0 -62.022124679024273 41.2421385171765 0 41.2421385171765 67.868006657719889 0 0 0 0 -85.948535195348086 34.100010943020607 0 34.100010943020607 26.598511137941387 0 0 0 0 -68.703936428022189 -18.258950134387305 0 -18.258950134387305 64.211409524737974 0 0 0 0 -21.377141675069652 28.007074183453369 0 28.007074183453369 143.419262708936 0 0 0 0 -15.042202505309547 105.34432433919096 0 105.34432433919096 394.411136961804 0 0 0 0 45.891261053428934 172.35924898148915 0 172.35924898148915 216.0858707682346 0 0 0 0 37.235309376454097 184.20642760586088 0 184.20642760586088 228.50536211082363 0 0 0 0 74.126881255244371 166.79997854597605 0 166.79997854597605 236.70519341198451 0 0 0 0 43.827729081243888 127.81920398507646 0 127.81920398507646 264.72291523580861 0 0 0 0 67.648509244475463 14.742816498684988 0 14.742816498684988 -58.765159996786679 0 0 0 0 34.591378876375529 -55.588879875977 0 -55.588879875977 506.88386953915324 0 0 0 0 80.028238109134691 254.75419549773142 0 254.75419549773142 344.27032215419604 0 0 0 0 202.11324887346746 235.17137160374841 0 235.17137160374841 187.04276738334011 0 0 0 0 241.97882529510662 91.361026179021792 0 91.361026179021792 59.298993227195751 0 0 0 0 69.249864359548042 94.882868124280321 0 94.882868124280321 75.366156018630136 0 0 0 0 -0.030103734927021009 0.69910889480202876 0 0.69910889480202876 5.7118423425386311 0 0 0 0 20.326278000084585 -76.960232799819096 0 -76.960232799819096 378.27698908643288 0 0 0 0 2.8296624628868425 0.21232081074568043 0 0.21232081074568043 0.31275914957925011 0 0 0 0 -26.06291890825014 43.305576241371455 0 43.305576241371455 434.95287441189066 0 0 0 0 -4.138997724625824 25.072670824887609 0 25.072670824887609 129.51180763592856 0 0 0 0 -7.4251157303877591 -94.201309248641792 0 -94.201309248641792 161.73335999967821 0 0 0 0 -9.7096750232740305 -34.877316433274245 0 -34.877316433274245 17.486959745910497 0 0 0 0 -32.26658251124536 -34.658488277305878 0 -34.658488277305878 223.44389709144161 0 0 0 0 15.615107375033858 -187.01030131622383 0 -187.01030131622383 105.27553484859527 0 0 0 0 -2.1391093726670078 -34.837466558776214 0 -34.837466558776214 384.94811909819691 0 0 0 0 162.21161316167309 9.0147288747120911 0 9.0147288747120911 334.73138552482851 0 0 0 0 192.00429425848051 -4.490170977627713 0 -4.490170977627713 157.19765451233616 0 0 0 0 512.31749333293919 -166.33655060149613 0 -166.33655060149613 420.77526595009112 0 0 0 0 532.0330150584814 119.41542507895792 0 119.41542507895792 51.73723456467269 0 0 0 0 314.61173386287192 126.47154888407385 0 126.47154888407385 235.27562700616966 0 0 0 0 566.21948265767423 298.66781516766787 0 298.66781516766787 27.981985240168797 0 0 0 0 352.48013816259117 60.703623035027704 0 60.703623035027704 75.058962759452697 0 0 0 0 213.95403283162159 54.697600588806381 0 54.697600588806381 -118.91714223576491 0 0 0 0 5.9704666321804325 -64.064281465501153 0 -64.064281465501153 23.839717650735111 0 0 0 0 -0.75586028134126337 -0.11463669859496406 0 -0.11463669859496406 -0.093537681287749308 0 0 0 0 -4.4991603678063257 -45.230803713238856 0 -45.230803713238856 -6.4360133018053602 0 0 0 0 174.66144977187832 52.956731540063629 0 52.956731540063629 42.893427803108352 0 0 0 0 218.64972454499002 -6.3493603332462953 0 -6.3493603332462953 52.547490104552708 0 0 0 0 306.4907058060453 177.97750499526592 0 177.97750499526592 35.820133097257894 0 0 0 0 3.7136235197109215 1.0021708343478508 0 1.0021708343478508 0.23920624062220064 0 0 0 0 84.706423496918433 245.58667756109207 0 245.58667756109207 549.51751091154802 0 0 0 0 288.17520508217422 69.747203534752771 0 69.747203534752771 -53.577596668954357 0 0 0 0 393.59190215606577 323.62037671883445 0 323.62037671883445 340.34281350917809 0 0 0 0 411.05380854800387 105.13859548965047 0 105.13859548965047 217.42128029026208 0 0 0 0 395.51430839253953 129.14135725734377 0 129.14135725734377 556.2748341056722 0 0 0 0 279.13806127654971 159.15907200724178 0 159.15907200724178 227.00289119535591 0 0 0 0 596.02643747319598 89.770258135955373 0 89.770258135955373 208.17352808010764 0 0 0 0 346.07223954616711 -91.421678994120157 0 -91.421678994120157 188.13726106417471 0 0 0 0 129.80092903678087 11.803965884031641 0 11.803965884031641 153.67779522922865 0 0 0 0 238.18887813293668 -67.058483637783866 0 -67.058483637783866 11.104231593773875 0 0 0 0 342.28535921988623 143.68256490395652 0 143.68256490395652 133.89842875747854 0 0 0 0 135.28332247499202 102.65759703826916 0 102.65759703826916 155.84932190278778 0 0 0 0 135.4999581512966 235.79312128146557 0 235.79312128146557 260.18897733340418 0 0 0 0 131.62476579201393 185.73653645459854 0 185.73653645459854 296.20511150522907 0 0 0 0 121.29326513740671 36.079421279064263 0 36.079421279064263 14.517605706452741 0 0 0 0 21.114398114092182 -43.499711297648901 0 -43.499711297648901 46.303371244535811 0 0 0 0 -27.951669724979183 -282.07372630206191 0 -282.07372630206191 -262.26169581487738 0 0 0 0 61.800789813374649 -65.311860986308602 0 -65.311860986308602 -167.60812652077584 0 0 0 0 -84.455739345792608 -152.76453772830791 0 -152.76453772830791 47.739969020820354 0 0 0 0 162.28131264967351 -134.9348532089889 0 -134.9348532089889 2.9204926278325729 0 0 0 0 16.666552403064891 -48.323500765570031 0 -48.323500765570031 63.547459842984907 0 0 0 0 -93.474969898802556 -245.40228251129702 0 -245.40228251129702 -176.91526727472228 0 0 0 0 -146.35682254443509 -118.15283578448179 0 -118.15283578448179 96.9318397800198 0 0 0 0 6.8640506990077483 -63.987846043383797 0 -63.987846043383797 -52.397556501970939 0 0 0 0 -111.37148268088822 86.583803945043655 0 86.583803945043655 210.62143435842518 0 0 0 0 15.185625121179848 -47.432722288567234 0 -47.432722288567234 63.356506727956841 0 0 0 0 -117.69837029214978 -80.7341495235396 0 -80.7341495235396 119.54943307586473 0 0 0 0 -70.595376587696819 -86.699212821120454 0 -86.699212821120454 98.999980599637638 0 0 0 0 -9.3482174150358333 35.055156305026685 0 35.055156305026685 145.3245817579118 0 0 0 0 -76.020192931054225 -169.7659807871969 0 -169.7659807871969 -104.65809677218567 0 0 0 0 -47.503631843873336 -89.654899812573603 0 -89.654899812573603 29.789215733992023 0 0 0 0 -92.607891872321488 -93.272749521768674 0 -93.272749521768674 56.408419377847167 0 0 0 0 9.6838297286864368 -43.854924585934214 0 -43.854924585934214 61.080917517488089 0 0 0 0 37.845953763528996 -27.665570284054411 0 -27.665570284054411 33.305276218525989 0 0 0 0 1.9236524879033823 -2.4017395510418282 0 -2.4017395510418282 100.46902767421307 0 0 0 0 30.591954118533067 17.620992036189818 0 17.620992036189818 128.88547999967932 0 0 0 0 4.1160795375881207 33.445053616140285 0 33.445053616140285 152.2583388012381 0 0 0 0 -4.364460616498036 -11.767557976033231 0 -11.767557976033231 113.64099128932503 0 0 0 0 15.32711608401587 -6.0988665808167752 0 -6.0988665808167752 82.548242979053612 0 0 0 0 61.609996247620074 40.164020194702971 0 40.164020194702971 115.15039034907386 0 0 0 0 38.006232345926037 73.089402677399903 0 73.089402677399903 198.62063041858983 0 0 0 0 62.510824152791429 25.278435621456993 0 25.278435621456993 84.383480108413096 0 0 0 0 98.629577515086339 -76.946697911040815 0 -76.946697911040815 134.82850681848504 0 0 0 0 114.53615078854909 70.111805656334127 0 70.111805656334127 118.58803796197572 0 0 0 0 -26.010506119382626 -59.85599857485613 0 -59.85599857485613 199.27101563324834 0 0 0 0 96.5704505288777 153.65703884349932 0 153.65703884349932 180.57406921553775 0 0 0 0 23.40945025173005 -110.98350560309336 0 -110.98350560309336 91.932705764526872 0 0 0 0 0.95302121337375567 0.40300176611567196 0 0.40300176611567196 4.1254397980320974 0 0 0 0 -0.48030442019242514 0.51924811327470621 0 0.51924811327470621 6.7999637326825413 0 0 0 0 68.915286335142355 -17.170864654380466 0 -17.170864654380466 22.370125504719908 0 0 0 0 41.249348667026425 -56.129769680856043 0 -56.129769680856043 -10.414964148209037 0 0 0 0 4.2090589092463233 -19.33761014845004 0 -19.33761014845004 90.519377000231543 0 0 0 0 -11.374037782714822 -31.544313653931113 0 -31.544313653931113 73.507986453596459 0 0 0 0 3.0095742589678558 -38.748407926082308 0 -38.748407926082308 59.11890675266968 0 0 0 0 -33.875847178570439 -95.630228277727838 0 -95.630228277727838 28.721979515943531 0 0 0 0 -39.750101349941815 -151.16288851853187 0 -151.16288851853187 -104.63211696487997 0 0 0 0 -71.509686721510661 -125.49693667313841 0 -125.49693667313841 -36.523341414664173 0 0 0 0 -112.58471530931047 -110.20837836634746 0 -110.20837836634746 103.92540260078385 0 0 0 0 -5.3803223897170156 -36.681880263374872 0 -36.681880263374872 47.755906669166578 0 0 0 0 -1.8676393920850138 1.4185279206553503 0 1.4185279206553503 12.572238840570947 0 0 0 0 -50.368633957221846 -244.73819144485424 0 -244.73819144485424 -259.93194564799342 0 0 0 0 -151.01370567931917 -181.11014175704076 0 -181.11014175704076 -71.769752706648433 0 0 0 0 -102.11344371358246 -158.74421450630325 0 -158.74421450630325 -50.928644671163056 0 0 0 0 -44.206716459844756 -88.012816987102269 0 -88.012816987102269 -41.522191924927938 0 0 0 0 -36.958804318665898 -116.82878322420584 0 -116.82878322420584 -212.59525025262701 0 0 0 0 -34.622668476281433 -80.763351411324038 0 -80.763351411324038 -51.608011120712035 0 0 0 0 26.963855900512499 -109.30290624340705 0 -109.30290624340705 -39.214624449996336 0 0 0 0 -44.165855801325961 -69.453582811129309 0 -69.453582811129309 -23.315695911043804 0 0 0 0 -5.5163640807149932 -84.189772150781209 0 -84.189772150781209 -26.206387179881858 0 0 0 0 1.0396797095054353 -18.97729713561057 0 -18.97729713561057 32.545028905886284 0 0 0 0 -23.193025581251277 -80.024011568833885 0 -80.024011568833885 -13.138152832369315 0 0 0 0 -18.31833023076706 -35.812594687490673 0 -35.812594687490673 -5.4862960562804801 0 0 0 0 -2.9172054510372618 -51.409775015997184 0 -51.409775015997184 9.2105467144356226 0 0 0 0 -98.735130325387217 -81.781316798154876 0 -81.781316798154876 -81.307102740676783 0 0 0 0 -0.50480415543409407 -4.801611424411405 0 -4.801611424411405 -11.899260014674525 0 0 0 0 -114.96237831406143 -180.36558090312246 0 -180.36558090312246 -74.382304643491807 0 0 0 0 -16.486767442742121 -32.610204715174291 0 -32.610204715174291 40.611201300177903 0 0 0 0 -8.3043150832536412 -112.09988003723993 0 -112.09988003723993 -85.592289185180562 0 0 0 0 -27.082358624491462 -51.548253886825478 0 -51.548253886825478 12.155056756344493 0 0 0 0 -99.996481595595014 -83.705535750432318 0 -83.705535750432318 123.72862677710509 0 0 0 0 -59.757184253043306 -63.562980568975036 0 -63.562980568975036 -92.5898675728331 0 0 0 0 -67.425239875587522 -74.085895488619826 0 -74.085895488619826 92.207591849932214 0 0 0 0 -90.551833191393598 -113.31341836125284 0 -113.31341836125284 47.978860919887666 0 0 0 0 -59.032011074796173 -118.2230782704064 0 -118.2230782704064 48.613876805138716 0 0 0 0 -72.124750159034193 -147.35384353066911 0 -147.35384353066911 40.179633765219478 0 0 0 0 -95.562341503180505 -134.97048712140895 0 -134.97048712140895 131.67005962373514 0 0 0 0 -62.283376217633759 -86.232751365187141 0 -86.232751365187141 6.2589005748304771 0 0 0 0 -88.79796909571246 -102.66543404447293 0 -102.66543404447293 158.0441837114704 0 0 0 0 -79.359024897496965 -82.437618555791687 0 -82.437618555791687 285.59119267448841 0 0 0 0 -91.950175076543928 -74.362252938855818 0 -74.362252938855818 260.85315715523393 0 0 0 0 -83.786032697853443 -89.121326599146414 0 -89.121326599146414 160.71570042353778 0 0 0 0 -88.948612291119161 -128.05197176230513 0 -128.05197176230513 196.2957684798821 0 0 0 0 -99.89833848463104 -80.017975375427341 0 -80.017975375427341 240.37920603888779 0 0 0 0 -108.73736003104023 -118.69770614066329 0 -118.69770614066329 186.21914080083661 0 0 0 0 -90.815669813425757 -107.83922886542445 0 -107.83922886542445 187.13624508703651 0 0 0 0 112.59287749260511 -59.271378003573773 0 -59.271378003573773 47.015225960185489 0 0 0 0 40.290925633751485 -8.0540712229572193 0 -8.0540712229572193 129.21115344365535 0 0 0 0 -57.009250667919332 -117.72381448444139 0 -117.72381448444139 59.169856184373202 0 0 0 0 -101.96318969902859 -137.80908061366063 0 -137.80908061366063 30.723437328764703 0 0 0 0 -25.629465605794394 -130.02275909757736 0 -130.02275909757736 31.068766412453215 0 0 0 0 -37.002038034288489 -57.182778312599112 0 -57.182778312599112 75.405294340620458 0 0 0 0 38.374881008598095 -133.33284437102338 0 -133.33284437102338 141.80344636192604 0 0 0 0 -7.9075556880743534 -54.601935306074665 0 -54.601935306074665 194.73232470671064 0 0 0 0 -25.730651758683962 -141.387642984384 0 -141.387642984384 175.29661342518375 0 0 0 0 73.963154191715148 -56.684350930889195 0 -56.684350930889195 303.63187454071158 0 0 0 0 56.925194627543533 -135.66557957306577 0 -135.66557957306577 279.53409507479773 0 0 0 0 76.031449013861447 -33.937004067574435 0 -33.937004067574435 231.6164858249831 0 0 0 0 182.88603614912245 -64.84084872807216 0 -64.84084872807216 149.20777773698501 0 0 0 0 218.05721928857747 -147.48943564735237 0 -147.48943564735237 311.95364388667076 0 0 0 0 245.01336948150333 17.772107560489076 0 17.772107560489076 222.45037305847654 0 0 0 0 210.47271798601014 56.549648902635454 0 56.549648902635454 108.23833081033808 0 0 0 0 302.38901366636651 91.105260871725491 0 91.105260871725491 150.74353697624611 0 0 0 0 94.729368603444527 5.171463705781207 0 5.171463705781207 221.62553249448592 0 0 0 0 68.899201223961427 80.763475344054314 0 80.763475344054314 104.7729332260451 0 0 0 0 12.360928722913741 26.654213662302936 0 26.654213662302936 58.059864586986805 0 0 0 0 88.711451249222591 72.090024439985427 0 72.090024439985427 191.71995592201711 0 0 0 0 63.974515251699358 143.68505060066491 0 143.68505060066491 72.016213372997299 0 0 0 0 -19.054493062160873 121.02895921183881 0 121.02895921183881 167.77420855668242 0 0 0 0 -1.1358382458193503 -4.2165711920472404 0 -4.2165711920472404 9.1827469733224802 0 0 0 0 -59.066542878391374 32.734864807069243 0 32.734864807069243 316.40752074759803 0 0 0 0 16.573367901497477 82.924239558666159 0 82.924239558666159 172.5291878575772 0 0 0 0 -138.35960572401109 141.54874483115964 0 141.54874483115964 532.97092291630543 0 0 0 0 59.344376918839771 74.620744935849871 0 74.620744935849871 127.18553265603259 0 0 0 0 -7.4853028732404709 68.732260858632799 0 68.732260858632799 171.02960863335829 0 0 0 0 -59.81033934150355 -5.2169166226276502 0 -5.2169166226276502 107.46219597967865 0 0 0 0 -5.7904090084775817 -51.954684622010973 0 -51.954684622010973 -10.876351545746729 0 0 0 0 34.811774316960054 23.366258470739922 0 23.366258470739922 54.68083260187268 0 0 0 0 39.190725831736017 86.932579562173487 0 86.932579562173487 109.90881902902038 0 0 0 0 -34.103862199889051 -21.979557014823058 0 -21.979557014823058 -1.0984897087328136 0 0 0 0 0.49042604988938754 -1.8555886214501314 0 -1.8555886214501314 5.07494204603816 0 0 0 0 -11.552125486327668 -18.956589174322289 0 -18.956589174322289 -15.056167437251133 0 0 0 0 -105.18965086813375 -9.09764754443313 0 -9.09764754443313 23.629245820862707 0 0 0 0 -34.478866792368507 -28.698456606976833 0 -28.698456606976833 -2.9249343883129768 0 0 0 0 -13.030214113403709 -29.402153934337548 0 -29.402153934337548 -10.615924702622578 0 0 0 0 -0.0098296381649364377 -26.741068116942188 0 -26.741068116942188 -15.422873340139631 0 0 0 0 -30.886226292087002 -48.490458183405281 0 -48.490458183405281 -26.323860295175109 0 0 0 0 -10.547618036544007 -34.010479951946763 0 -34.010479951946763 -6.0939216043188935 0 0 0 0 -19.421689917569665 -13.994946791437542 0 -13.994946791437542 -4.6320080216391943 0 0 0 0 14.740074501868207 -12.636427044857555 0 -12.636427044857555 -32.087976355149294 0 0 0 0 24.294330549954111 6.4374957193431328 0 6.4374957193431328 -16.376290322796194 0 0 0 0 -2.9973017154272839 8.01868539507268 0 8.01868539507268 -5.3307687054439157 0 0 0 0 3.9196519258908324 16.86782673588641 0 16.86782673588641 -5.553172328567598 0 0 0 0 -4.4442005223585284 7.0709540347470465 0 7.0709540347470465 -5.5822372575494228 0 0 0 0 2.1541525190393145 -0.77059548897159402 0 -0.77059548897159402 -5.8080107210480492 0 0 0 0 3.6110801572302762 -2.7502223826522822 0 -2.7502223826522822 -18.282887831363041 0 0 0 0 1.975719951844269 -4.5615649853079958 0 -4.5615649853079958 -1.4363857865828322 0 0 0 0 0.92560755179778109 -0.91870186144804222 0 -0.91870186144804222 1.1853753116556636 0 0 0 0 -9.7759391107739191 9.8041546620570443 0 9.8041546620570443 67.456806659807626 0 0 0 0 15.352162095792721 1.9522029099971405 0 1.9522029099971405 4.8497578027240706 0 0 0 0 1.0198302710990799 -1.2279370718848099 0 -1.2279370718848099 0.096653493609153429 0 0 0 0 15.508580966772229 -58.51742348110929 0 -58.51742348110929 193.88951017922955 0 0 0 0 1.3780329846540638 -1.430464296844363 0 -1.430464296844363 0.73331728630139104 0 0 0 0 90.234969217471431 -151.99118985334826 0 -151.99118985334826 180.6239333401827 0 0 0 0 47.900490313411751 98.960801719924348 0 98.960801719924348 503.71749902002921 0 0 0 0 99.433152146016425 -144.15164268220542 0 -144.15164268220542 103.44251486336543 0 0 0 0 -62.279424338415765 109.51390638143494 0 109.51390638143494 357.34394435003924 0 0 0 0 -26.89489928527172 -16.058334815079434 0 -16.058334815079434 1.414361411050777 0 0 0 0 0.042727327524336112 -0.28355311905741587 0 -0.28355311905741587 1.5607213413551051 0 0 0 0 -84.93120703869107 -44.777430308231487 0 -44.777430308231487 31.453977453827974 0 0 0 0 0.48560133055588567 -1.2443756638999375 0 -1.2443756638999375 3.2046104745168975 0 0 0 0 5.8496468727071829 -6.3894005684924196 0 -6.3894005684924196 8.7997969951029518 0 0 0 0 -62.462565679424628 -59.698918072870583 0 -59.698918072870583 -35.14485765543759 0 0 0 0 -0.17574591582344343 -0.75178483521919759 0 -0.75178483521919759 1.0499854900653265 0 0 0 0 -13.057049965991737 -5.9137342166504823 0 -5.9137342166504823 -31.372437279602309 0 0 0 0 -17.545790992017103 -2.4122355682193302 0 -2.4122355682193302 18.644866688344337 0 0 0 0 -50.551785279306927 -5.3301103361154674 0 -5.3301103361154674 268.23530195882631 0 0 0 0 0.0048111777284024493 -42.336806666866323 0 -42.336806666866323 56.264606498418289 0 0 0 0 -77.737110324372452 -53.748409836538485 0 -53.748409836538485 252.38908838231691 0 0 0 0 -0.14776272099988674 -109.76610840397916 0 -109.76610840397916 292.82306539033743 0 0 0 0 26.487214482674858 -170.11670292526833 0 -170.11670292526833 346.49439242665539 0 0 0 0 -86.889923099181459 -105.08750352133848 0 -105.08750352133848 497.35887852471205 0 0 0 0 -28.503314003110461 -188.60918845645574 0 -188.60918845645574 356.83382967827492 0 0 0 0 -8.5245827783053016 -163.92289921387783 0 -163.92289921387783 204.73677364991454 0 0 0 0 15.887685355742889 -134.08894537516608 0 -134.08894537516608 197.01143654358202 0 0 0 0 0.11161513167673578 -106.12977924666484 0 -106.12977924666484 154.21632914961083 0 0 0 0 35.280706839699093 -145.37493718885162 0 -145.37493718885162 123.15085945399915 0 0 0 0 48.796001927987874 -59.187425538064872 0 -59.187425538064872 60.941944308142411 0 0 0 0 49.225777469068703 -47.803097154185025 0 -47.803097154185025 201.57766650922713 0 0 0 0 -296.90799750041992 -97.092759727103839 0 -97.092759727103839 100.83650306512209 0 0 0 0 -0.45212354358566254 -1.5400578673859577 0 -1.5400578673859577 10.007375081477562 0 0 0 0 -24.70441148154012 -37.127980444536661 0 -37.127980444536661 -1.1723366086589522 0 0 0 0 -248.83325180255383 188.26232866494229 0 188.26232866494229 447.26460053717165 0 0 0 0 -0.23780446458280269 -0.53846795188375829 0 -0.53846795188375829 4.9072928721421363 0 0 0 0 -30.926625271444209 -315.67769446831517 0 -315.67769446831517 345.71121994309215 0 0 0 0 82.141906681273156 -229.07911522029463 0 -229.07911522029463 51.151222391288684 0 0 0 0 -58.575843652227249 -90.472455257206093 0 -90.472455257206093 643.17151710383769 0 0 0 0 -87.798853622985348 -111.67045402413714 0 -111.67045402413714 560.70835114530382 0 0 0 0 -48.777137058556946 50.021092263341416 0 50.021092263341416 361.88406049794139 0 0 0 0 -79.752126906256763 108.84796667780029 0 108.84796667780029 354.15058960313036 0 0 0 0 -87.641665652266283 167.09955872389037 0 167.09955872389037 114.1299170111306 0 0 0 0 -108.45204441658825 -122.02864301648515 0 -122.02864301648515 58.599555838120068 0 0 0 0 -57.947365652697954 -16.012730651909806 0 -16.012730651909806 218.75231726333732 0 0 0 0 -9.7813942402017346 -94.312132049552019 0 -94.312132049552019 345.8165349843257 0 0 0 0 101.97089232192047 -270.20133437872482 0 -270.20133437872482 110.03915623840294 0 0 0 0 -434.48100603182388 -2.1414657868945142 0 -2.1414657868945142 141.69810626060644 0 0 0 0 207.10489410864193 -252.29276043333084 0 -252.29276043333084 221.35808629654639 0 0 0 0 379.29355322459242 -493.37714583211527 0 -493.37714583211527 558.36671912803286 0 0 0 0 129.73383777721028 -350.50834481910351 0 -350.50834481910351 340.17433751782664 0 0 0 0 -42.512276941697564 -84.971282606333261 0 -84.971282606333261 455.67355986712937 0 0 0 0 50.331859416103953 -296.65721265369757 0 -296.65721265369757 930.52553903155786 0 0 0 0 -41.801765118545745 229.59695354336509 0 229.59695354336509 793.9211423878005 0 0 0 0 -12.697144163870462 154.89553922777486 0 154.89553922777486 345.34346212939704 0 0 0 0 36.889258560413737 118.53057799038652 0 118.53057799038652 277.27472266211407 0 0 0 0 60.853921837063808 114.33883591544509 0 114.33883591544509 277.98511375277303 0 0 0 0 37.984382146680218 69.536098473348829 0 69.536098473348829 232.84037114766397 0 0 0 0 7.6518735431703817 28.560572326096008 0 28.560572326096008 241.26131545937096 0 0 0 0 110.3131298922367 61.228765447820479 0 61.228765447820479 121.59853367747564 0 0 0 0 128.48134045157121 101.42444735253957 0 101.42444735253957 180.40791668380552 0 0 0 0 98.793961791642857 -14.354443215434458 0 -14.354443215434458 -8.6747013801868889 0 0 0 0 130.22077040670138 -63.040526938024414 0 -63.040526938024414 170.56716554253944 0 0 0 0 89.970253736151108 -50.842356955043215 0 -50.842356955043215 175.32088111608755 0 0 0 0 114.23293694510517 6.7365101195318857 0 6.7365101195318857 44.38801821837842 0 0 0 0 78.163697451235748 -28.630281557889248 0 -28.630281557889248 175.05850402958458 0 0 0 0 117.8444724636679 17.269247113450547 0 17.269247113450547 220.54858898650855 0 0 0 0 243.99678973524806 -163.96162996570638 0 -163.96162996570638 214.21884781630069 0 0 0 0 108.10413395759679 -34.228481405807543 0 -34.228481405807543 161.08298169859336 0 0 0 0 55.824773172788809 -135.72897295616713 0 -135.72897295616713 355.39633196304203 0 0 0 0 118.3032902654013 23.586129780320334 0 23.586129780320334 -7.3785449506340228 0 0 0 0 1.4959723194895922 -1.2649197752057688 0 -1.2649197752057688 -0.39341914085813023 0 0 0 0 26.247304373972838 -134.9151660925636 0 -134.9151660925636 286.64866419663304 0 0 0 0 204.99576935452751 -130.5547272978074 0 -130.5547272978074 0.93472946938709356 0 0 0 0 34.762692921945018 -107.08718870321172 0 -107.08718870321172 321.97497288143495 0 0 0 0 -0.14990942183201517 -0.8620461375352555 0 -0.8620461375352555 0.34996383972577405 0 0 0 0 59.64172832298209 -59.731750533464947 0 -59.731750533464947 317.3298428716862 0 0 0 0 -31.087800135823386 62.141959582359505 0 62.141959582359505 262.5465245940868 0 0 0 0 60.39375202526071 -45.285961816416602 0 -45.285961816416602 215.67789512538002 0 0 0 0 51.200918746726757 -36.765823424157134 0 -36.765823424157134 210.8573890827829 0 0 0 0 99.394765315007589 -22.045732144069916 0 -22.045732144069916 117.81784430588596 0 0 0 0 -18.351898448839393 -10.639548278690199 0 -10.639548278690199 241.92224831194471 0 0 0 0 -10.248116291272709 2.0312199009058531 0 2.0312199009058531 241.69701678151023 0 0 0 0 -109.67115363251435 -17.168031378110754 0 -17.168031378110754 288.31985303899273 0 0 0 0 4.7008042372095771 -3.3592221763533558 0 -3.3592221763533558 0.33031487343919963 0 0 0 0 39.329942607354496 -41.95928929094589 0 -41.95928929094589 84.47693092434929 0 0 0 0 13.24277877635177 -15.002049162976618 0 -15.002049162976618 146.55754568475368 0 0 0 0 -41.253974605841904 -25.762724629392324 0 -25.762724629392324 236.32649592525559 0 0 0 0 0.21181402859335829 -2.7250680158461904 0 -2.7250680158461904 0.43839129952694122 0 0 0 0 3.3571297685120953 -2.7740055436606781 0 -2.7740055436606781 3.4762421395935235 0 0 0 0 2.1475142192689418 -5.2119567015688517 0 -5.2119567015688517 -1.3345187341155906 0 0 0 0 -1.8162045381812613 -1.9109310540503657 0 -1.9109310540503657 3.8695597058984106 0 0 0 0 7.7841949692642629 -7.5110475965011574 0 -7.5110475965011574 3.6976964453542678 0 0 0 0 1.5374231494033666 -10.905353333386302 0 -10.905353333386302 6.439345054262958 0 0 0 0 0.28528387488722728 -8.1990401437833498 0 -8.1990401437833498 8.6823525639774743 0 0 0 0 0.30801412796370187 -9.6575744657748146 0 -9.6575744657748146 -0.98137077219143976 0 0 0 0 2.369280875855956 -6.8515566146908355 0 -6.8515566146908355 5.0675735925834431 0 0 0 0 3.3196730724837176 -14.770322387979382 0 -14.770322387979382 -13.853957198780847 0 0 0 0 -11.582026172262886 -18.844516323486459 0 -18.844516323486459 16.348568586116471 0 0 0 0 -1.0493859368667522 -27.593564780776887 0 -27.593564780776887 25.708885436238205 0 0 0 0 48.069825259074605 -63.694119220148423 0 -63.694119220148423 -78.295983932854142 0 0 0 0 -29.3792409816283 -32.026039533353469 0 -32.026039533353469 42.578540630285715 0 0 0 0 -23.238846119918435 -32.317857149799238 0 -32.317857149799238 -20.551714378438191 0 0 0 0 78.744657436172588 1.2589675417561921 0 1.2589675417561921 -35.585043559782207 0 0 0 0 -3.2665525377924496 -7.651358326223999 0 -7.651358326223999 -0.27951814848347567 0 0 0 0 -0.90563139099561685 -1.0158856330133119 0 -1.0158856330133119 -1.2493741014600914 0 0 0 0 73.383545043175928 -62.018842082695755 0 -62.018842082695755 -0.47103171539492905 0 0 0 0 -0.049725105649049972 -3.5767593824191088 0 -3.5767593824191088 -2.7547248903635762 0 0 0 0 -1.3618495202351824 -4.3082317855441943 0 -4.3082317855441943 0.96286164806224406 0 0 0 0 -6.4495069546729002 -24.262373639223668 0 -24.262373639223668 28.417812804864099 0 0 0 0 -56.055934875535513 -78.245705793931847 0 -78.245705793931847 22.610294163539947 0 0 0 0 -41.895123698555608 -108.39337869826704 0 -108.39337869826704 73.691621958772885 0 0 0 0 40.340288389325451 -20.296582325951022 0 -20.296582325951022 -53.137749382527545 0 0 0 0 -7.6199666983702627 -51.366970933038829 0 -51.366970933038829 -5.0261775499529904 0 0 0 0 4.5348374301717556 -41.25642065289685 0 -41.25642065289685 3.3836901029171713 0 0 0 0 15.407897381994541 -36.801291999337991 0 -36.801291999337991 -73.640143289755486 0 0 0 0 -298.81903499529494 -104.80385114186356 0 -104.80385114186356 22.956650356769387 0 0 0 0 -2.5049322812081782 -6.9341601886038546 0 -6.9341601886038546 2.6386914766829648 0 0 0 0 -90.75278222780571 -151.13309929383104 0 -151.13309929383104 -66.703675763817955 0 0 0 0 -41.320892270696731 -33.964711128282943 0 -33.964711128282943 80.943134325250867 0 0 0 0 -85.208396574876133 -157.25120122384033 0 -157.25120122384033 33.875927857377974 0 0 0 0 -148.82843943125636 -97.281639062093745 0 -97.281639062093745 -19.817882748793636 0 0 0 0 -44.975165607500458 -133.62329890464025 0 -133.62329890464025 -178.85880745583563 0 0 0 0 0.52687599664689566 0.86267907021078827 0 0.86267907021078827 7.0314909154601253 0 0 0 0 -157.44162457904508 -118.28798260398253 0 -118.28798260398253 -25.62451901737586 0 0 0 0 35.361299821762657 -51.766342676124623 0 -51.766342676124623 122.75725665055506 0 0 0 0 -67.368769649422916 -30.267366654699799 0 -30.267366654699799 493.04349494745111 0 0 0 0 1.6901047239952316 0.64559741929501513 0 0.64559741929501513 -1.3780197053917931 0 0 0 0 -17.434899052724177 -386.87297778079665 0 -386.87297778079665 -262.26897385709162 0 0 0 0 -37.052643253113729 -73.262825854788389 0 -73.262825854788389 177.83651139902213 0 0 0 0 -149.13959739820382 24.644754690456097 0 24.644754690456097 211.59229821226472 0 0 0 0 -3.2404886290368058 -1.5512100337218158 0 -1.5512100337218158 2.9283820720995664 0 0 0 0 61.550062882594261 -175.42175562106058 0 -175.42175562106058 252.09855210541718 0 0 0 0 102.36799893404043 -94.470889461586921 0 -94.470889461586921 94.889637029489677 0 0 0 0 1.0473193302603416 6.5951573276336646 0 6.5951573276336646 29.426283915296921 0 0 0 0 20.983494801781944 -31.348916005830688 0 -31.348916005830688 126.8674798805223 0 0 0 0 -171.57502895839616 -7.617229654762923 0 -7.617229654762923 101.89272698873538 0 0 0 0 -1.1297343738270671 7.2462532558123414 0 7.2462532558123414 45.082554952667635 0 0 0 0 -97.481182950515631 -66.562339808293473 0 -66.562339808293473 68.825687978198403 0 0 0 0 -75.463666354529778 -11.904615435822052 0 -11.904615435822052 202.90119133857661 0 0 0 0 23.006491687889707 -108.00447143461497 0 -108.00447143461497 64.071296395268291 0 0 0 0 -18.004430869852058 -84.786484655785898 0 -84.786484655785898 175.17909811987192 0 0 0 0 -224.50297088566003 156.74369338418182 0 156.74369338418182 65.022655005987531 0 0 0 0 -136.97171646688594 -24.783149433849758 0 -24.783149433849758 129.98027648971402 0 0 0 0 205.12352146221062 -198.37049279440907 0 -198.37049279440907 196.1441173671119 0 0 0 0 208.12844437187238 -185.50920234054502 0 -185.50920234054502 207.17151025626299 0 0 0 0 90.811983566111394 364.63927861176853 0 364.63927861176853 157.69114166409054 0 0 0 0 0.32858345902108699 1.6061539874599546 0 1.6061539874599546 11.60470231867825 0 0 0 0 688.71490097604578 -616.5028542147702 0 -616.5028542147702 553.40667103850501 0 0 0 0 82.939924845292467 -373.53116628694988 0 -373.53116628694988 1050.0998357877979 0 0 0 0 10.189293754875223 118.52359426581097 0 118.52359426581097 920.08450724797876 0 0 0 0 -82.75886840194687 -183.91866765636223 0 -183.91866765636223 244.39718260369045 0 0 0 0 450.0419626769841 127.58543981429648 0 127.58543981429648 289.49786485836376 0 0 0 0 588.98898647745318 -288.17886502094188 0 -288.17886502094188 197.93523451166584 0 0 0 0 20.673663224274264 16.430738381015772 0 16.430738381015772 11.15905283764792 0 0 0 0 81.579975238868201 100.54135016114742 0 100.54135016114742 152.90136584015272 0 0 0 0 -7.4411433854365896 24.44715624552191 0 24.44715624552191 9.876346683427073 0 0 0 0 47.724497375698888 159.76238936919435 0 159.76238936919435 418.68797168208403 0 0 0 0 4.5784800213182715 2.3146317232723419 0 2.3146317232723419 1.9800539631567915 0 0 0 0 4.7248490239549863 0.87971128632287332 0 0.87971128632287332 -2.8267092897642954 0 0 0 0 190.49204694141679 74.39388233050704 0 74.39388233050704 20.500018156682927 0 0 0 0 -31.756471742554368 -150.01650508536841 0 -150.01650508536841 643.33713993237325 0 0 0 0 3.3878433481513639 -140.81717423839655 0 -140.81717423839655 308.9823424484639 0 0 0 0 -49.300695334622333 -95.285501667541212 0 -95.285501667541212 478.68877849492856 0 0 0 0 -0.37642799582783937 -202.79615497966552 0 -202.79615497966552 488.68999057848123 0 0 0 0 3.2611749471922167 -191.66827454491067 0 -191.66827454491067 522.70808333690366 0 0 0 0 42.0956279161678 -202.65742762593527 0 -202.65742762593527 524.28244437256944 0 0 0 0 122.66898334239767 -319.38260940473083 0 -319.38260940473083 358.1443122582059 0 0 0 0 -148.00375764410683 -199.28314805916671 0 -199.28314805916671 305.77260646766808 0 0 0 0 365.44170642499648 -400.26553397920725 0 -400.26553397920725 430.66805281770121 0 0 0 0 195.47230217817287 -86.927966026370996 0 -86.927966026370996 353.06159160808602 0 0 0 0 175.34238835529686 -259.99146888163523 0 -259.99146888163523 107.78247205198204 0 0 0 0 261.66087690659788 -217.87650474329712 0 -217.87650474329712 223.95070335035416 0 0 0 0 212.73752902066099 -57.588179950595077 0 -57.588179950595077 146.77696643548552 0 0 0 0 121.40939709108534 -67.733308076953108 0 -67.733308076953108 349.27397307903448 0 0 0 0 51.543198015157031 -58.714950483139546 0 -58.714950483139546 393.57726231627021 0 0 0 0 148.00342387198373 -113.68486140442656 0 -113.68486140442656 372.55090628057951 0 0 0 0 36.527857056348239 -215.51427621769835 0 -215.51427621769835 413.77684564424499 0 0 0 0 6.9517649032268309 -90.639617240634834 0 -90.639617240634834 412.07413703250859 0 0 0 0 84.17541137162516 -94.181720058211795 0 -94.181720058211795 403.29427545200451 0 0 0 0 12.93723750728372 10.136801333129625 0 10.136801333129625 7.4718842044205616 0 0 0 0 -57.483002588525665 68.479462599784711 0 68.479462599784711 -22.468372113726218 0 0 0 0 -54.614150292456202 47.957300753285836 0 47.957300753285836 -17.526025516977825 0 0 0 0 -4.1359337014819175 26.920927214843687 0 26.920927214843687 1.1241406452390947 0 0 0 0 -35.656111564980165 54.444658858334151 0 54.444658858334151 -18.388142485913704 0 0 0 0 -85.892078189466474 90.62633441165508 0 90.62633441165508 23.64102488518256 0 0 0 0 -54.644628720169749 58.012509037002019 0 58.012509037002019 -10.039778592232324 0 0 0 0 -46.372725376751987 74.394720300446352 0 74.394720300446352 15.025228513728507 0 0 0 0 -9.7186231840378241 134.75643492918971 0 134.75643492918971 -123.41792708260982 0 0 0 0 3.8400281824514941 3.7847455362334017 0 3.7847455362334017 3.3973152733602063 0 0 0 0 21.081492957617229 228.83099494302951 0 228.83099494302951 117.31658630416132 0 0 0 0 161.02616144639978 263.10563815131172 0 263.10563815131172 -306.09318653780792 0 0 0 0 -411.1556772144686 -383.12360163768608 0 -383.12360163768608 303.97612526954617 0 0 0 0 -290.71757014442255 35.007487749486245 0 35.007487749486245 627.72321808111155 0 0 0 0 17.104042448991549 -116.98461127733935 0 -116.98461127733935 837.5744495655963 0 0 0 0 28.884769902424523 301.91620917744149 0 301.91620917744149 335.32324021522072 0 0 0 0 146.32545612532704 -157.15970117198594 0 -157.15970117198594 30.040832679907908 0 0 0 0 -65.334755651910655 -409.85990923508507 0 -409.85990923508507 -414.1647424595285 0 0 0 0 50.185033015779482 -110.17199658389472 0 -110.17199658389472 41.07563423702959 0 0 0 0 68.348330622458889 -318.34851142252592 0 -318.34851142252592 -76.094789926122758 0 0 0 0 -168.47870943901216 -295.13181336638445 0 -295.13181336638445 -491.56139904877637 0 0 0 0 -659.77585848108356 -337.20377914737037 0 -337.20377914737037 31.111179880914278 0 0 0 0 -744.81280109981526 40.503255511917814 0 40.503255511917814 20.122611818325822 0 0 0 0 -4.5261015970048604 -5.9433838526604461 0 -5.9433838526604461 3.2280545669997878 0 0 0 0 -10.701457939831016 19.153297305430897 0 19.153297305430897 90.801084612394334 0 0 0 0 -301.88810086694139 -93.199864084788715 0 -93.199864084788715 40.542833401372263 0 0 0 0 -1.4757253035987077 1.7183451503692311 0 1.7183451503692311 2.4660712596039787 0 0 0 0 -380.72474916315787 -185.35679726410308 0 -185.35679726410308 150.15224121189385 0 0 0 0 -174.92262370058234 -200.12413055808429 0 -200.12413055808429 208.21440972333949 0 0 0 0 -64.284390511276797 -256.55147423347807 0 -256.55147423347807 158.82641839851567 0 0 0 0 -106.81599758122684 -56.564748577249702 0 -56.564748577249702 123.71766707734787 0 0 0 0 -15.733151147804165 -48.669611636782065 0 -48.669611636782065 65.16894235406653 0 0 0 0 32.113616845716024 -65.246376139548374 0 -65.246376139548374 84.815056184103014 0 0 0 0 -23.625172177489731 -211.23171873429237 0 -211.23171873429237 257.71666875525261 0 0 0 0 68.473980405538896 -143.57166259777659 0 -143.57166259777659 156.45525020168861 0 0 0 0 -6.9564478669981327 -126.09552390289173 0 -126.09552390289173 171.9915628785966 0 0 0 0 42.502591293858131 -104.48585876406287 0 -104.48585876406287 165.71307625436748 0 0 0 0 -47.615930699105775 -293.66785757248181 0 -293.66785757248181 269.70969262332073 0 0 0 0 -0.4364900837354071 -192.93982086396136 0 -192.93982086396136 196.97148144015955 0 0 0 0 151.83818747051919 -277.57606836083869 0 -277.57606836083869 324.38813651217788 0 0 0 0 16.284857933973399 -300.04292552126935 0 -300.04292552126935 322.9460756428598 0 0 0 0 156.77274274597585 -196.00190861745796 0 -196.00190861745796 334.4281914038952 0 0 0 0 93.862645683391747 -202.89129662394407 0 -202.89129662394407 254.36459130348521 0 0 0 0 47.766562073991736 -220.34365739718851 0 -220.34365739718851 333.84806938878319 0 0 0 0 42.450493162970815 -319.62710584136221 0 -319.62710584136221 428.81447883033252 0 0 0 0 30.191832398728366 -363.79530326594249 0 -363.79530326594249 373.49991715904616 0 0 0 0 49.287664673453037 -329.13084860497474 0 -329.13084860497474 334.066242276298 0 0 0 0 34.271002773621149 -348.20253661292372 0 -348.20253661292372 377.02266370030702 0 0 0 0 45.318306908657178 -281.00691787624237 0 -281.00691787624237 269.18426177598303 0 0 0 0 43.722976229086271 -307.43146696733311 0 -307.43146696733311 246.94655402607168 0 0 0 0 -3.78459612097231 -347.50904269028615 0 -347.50904269028615 329.55213569448097 0 0 0 0 30.295971272485986 -340.19444203457533 0 -340.19444203457533 291.56766237048578 0 0 0 0 99.295665247445868 -302.72868446173379 0 -302.72868446173379 310.78002151605324 0 0 0 0 104.14686099031042 -352.40701989725494 0 -352.40701989725494 206.29807964782231 0 0 0 0 29.874788770708619 -275.69319726353569 0 -275.69319726353569 119.5102065987885 0 0 0 0 -28.973412452989578 -351.91593988145178 0 -351.91593988145178 222.015245846982 0 0 0 0 -67.505340166902897 -235.73943621912622 0 -235.73943621912622 204.87757020359277 0 0 0 0 -113.68819576994247 -313.89375333622047 0 -313.89375333622047 133.90319689465105 0 0 0 0 -107.82791691820057 -292.08629481557 0 -292.08629481557 10.081677611797204 0 0 0 0 127.4420901666399 -210.10113004687446 0 -210.10113004687446 110.65225286275381 0 0 0 0 53.416937616697169 -355.43605302498509 0 -355.43605302498509 135.00764354936837 0 0 0 0 236.47435818108988 -183.96169849946455 0 -183.96169849946455 180.92564343289996 0 0 0 0 203.60300648616612 -267.16616650644573 0 -267.16616650644573 153.58169958905637 0 0 0 0 242.33271664065069 -211.61434425145853 0 -211.61434425145853 232.42955578299006 0 0 0 0 161.96854803556744 -288.93590227694949 0 -288.93590227694949 257.83689478249653 0 0 0 0 126.19908786338056 -302.46611107853096 0 -302.46611107853096 233.21809042606037 0 0 0 0 121.34252444020967 -284.9500651438284 0 -284.9500651438284 206.51823679465451 0 0 0 0 156.08420285713055 -280.07628303218007 0 -280.07628303218007 249.63010169490008 0 0 0 0 150.70397933342338 -161.6152531612679 0 -161.6152531612679 117.2095208066894 0 0 0 0 294.46309011144785 -178.25462141037315 0 -178.25462141037315 217.87592426710762 0 0 0 0 237.83249586806556 -186.78892764833199 0 -186.78892764833199 298.9477842792985 0 0 0 0 201.04158357587175 -233.33452728159682 0 -233.33452728159682 336.95401674868481 0 0 0 0 117.27401353991627 -248.72797085571074 0 -248.72797085571074 120.8379594697908 0 0 0 0 102.29787453786776 -151.39035767630412 0 -151.39035767630412 245.60147928880178 0 0 0 0 46.07349049032382 -327.0731601970183 0 -327.0731601970183 35.914762253742083 0 0 0 0 -27.712692355156832 -274.43345543764008 0 -274.43345543764008 129.16541840115678 0 0 0 0 162.14316051267633 -291.57159125516773 0 -291.57159125516773 325.39802974717531 0 0 0 0 146.77106998341878 -320.11580286326353 0 -320.11580286326353 303.51716718669923 0 0 0 0 115.67781445079981 -251.82609850185872 0 -251.82609850185872 116.76791041065007 0 0 0 0 151.15842130872443 -360.86767162682372 0 -360.86767162682372 226.84127119158802 0 0 0 0 -5.2569820404148242 -2.5688243142997393 0 -2.5688243142997393 4.2140881508488235 0 0 0 0 97.43622252757271 -347.72004182665523 0 -347.72004182665523 279.99125408867258 0 0 0 0 121.77054939911795 -317.13001539118704 0 -317.13001539118704 275.32472204926307 0 0 0 0 138.056691823851 -330.46909958275501 0 -330.46909958275501 263.11917219468523 0 0 0 0 155.40604461018847 -295.18342567552463 0 -295.18342567552463 324.85923530535365 0 0 0 0 162.05172257126728 -25.998014183480336 0 -25.998014183480336 -132.70441677731287 0 0 0 0 169.95332224000958 -172.02894884147099 0 -172.02894884147099 178.63740941909782 0 0 0 0 281.69467909029845 -117.96365976291418 0 -117.96365976291418 152.26933392616047 0 0 0 0 161.30484436130973 -187.41783039273287 0 -187.41783039273287 205.91774918520241 0 0 0 0 203.11182240034213 -120.11668341841141 0 -120.11668341841141 167.79141685780633 0 0 0 0 204.31263275106903 -164.41262114178971 0 -164.41262114178971 262.42946954639046 0 0 0 0 414.77631986766346 -280.141079373906 0 -280.141079373906 208.63159127303516 0 0 0 0 400.57381099716804 -189.13147013125854 0 -189.13147013125854 147.3520670348662 0 0 0 0 22.064698126994699 -164.53626023596007 0 -164.53626023596007 87.948060258917394 0 0 0 0 -6.4055887001786687 -224.88323573078378 0 -224.88323573078378 -6.5838269794767257 0 0 0 0 96.245764914952815 -213.89870872384927 0 -213.89870872384927 -2.0107656990439864 0 0 0 0 106.02081499019096 -249.60827874224924 0 -249.60827874224924 113.39440363683389 0 0 0 0 83.802214207834368 -189.31216312641482 0 -189.31216312641482 81.355862855620217 0 0 0 0 25.53532757681478 -92.157143910655577 0 -92.157143910655577 158.41544550514664 0 0 0 0 122.05844773479294 -133.04569682007423 0 -133.04569682007423 147.35155360162753 0 0 0 0 25.626730527405016 -95.905002630301169 0 -95.905002630301169 31.094149525626563 0 0 0 0 8.6625815034240077 -30.335759412642801 0 -30.335759412642801 55.62651165094212 0 0 0 0 99.588832406050642 -102.712776399836 0 -102.712776399836 138.66121234562888 0 0 0 0 60.1141421191478 -13.871056868330925 0 -13.871056868330925 170.27082537268871 0 0 0 0 6.0079927149008654 -29.929501794009411 0 -29.929501794009411 186.32318087013846 0 0 0 0 53.650162833703916 27.151885110328294 0 27.151885110328294 143.094415200816 0 0 0 0 27.566010104277666 79.575780771716381 0 79.575780771716381 168.51823902847536 0 0 0 0 59.530665481927826 4.3307491375235259 0 4.3307491375235259 229.90407113346737 0 0 0 0 174.60027477694166 -98.980658078420674 0 -98.980658078420674 289.68539541703649 0 0 0 0 187.45694577633367 -152.73038292751517 0 -152.73038292751517 403.99764607602265 0 0 0 0 220.3070970017834 -166.84441742513445 0 -166.84441742513445 328.27747848097351 0 0 0 0 249.37602442119874 -237.09316653147198 0 -237.09316653147198 374.94376755511621 0 0 0 0 258.68857171286595 -174.56928803860046 0 -174.56928803860046 243.67817404557718 0 0 0 0 97.875121984067164 -108.27478673498445 0 -108.27478673498445 250.4925858261704 0 0 0 0 130.50611454186583 -65.070221254180069 0 -65.070221254180069 210.51914710724668 0 0 0 0 75.634082256067813 -60.444954609407432 0 -60.444954609407432 259.91346495421021 0 0 0 0 156.69626947691904 -114.82758203462436 0 -114.82758203462436 282.23461440077517 0 0 0 0 151.89981126700877 -112.54284170275787 0 -112.54284170275787 327.73981190238555 0 0 0 0 144.28635170436974 -94.559602333938528 0 -94.559602333938528 339.38648609176744 0 0 0 0 95.88771780964089 -51.135267389458022 0 -51.135267389458022 295.00132735742955 0 0 0 0 126.56628836737582 -49.833357757379417 0 -49.833357757379417 263.97513577881909 0 0 0 0 94.717760347433796 -8.293326838320354 0 -8.293326838320354 271.11652225487342 0 0 0 0 55.711518533091294 10.875389405497117 0 10.875389405497117 253.03685172804398 0 0 0 0 95.104098450730817 -28.022061392504838 0 -28.022061392504838 224.19967727997573 0 0 0 0 47.779907685337093 54.595443476486253 0 54.595443476486253 209.89565412522643 0 0 0 0 84.732865933001449 -15.508865691357641 0 -15.508865691357641 267.36236131147598 0 0 0 0 67.161749939445144 27.156069900665898 0 27.156069900665898 259.97531143426022 0 0 0 0 111.99404785479601 -40.473152014375955 0 -40.473152014375955 309.76843146898318 0 0 0 0 85.62227970537424 -3.628243198414566 0 -3.628243198414566 287.94827457951033 0 0 0 0 96.783944518429053 3.9223647030012216 0 3.9223647030012216 290.235774608067 0 0 0 0 119.03552520998346 -27.737018417421496 0 -27.737018417421496 318.57470822270261 0 0 0 0 125.93299085112812 -23.370868887694087 0 -23.370868887694087 335.05983577403094 0 0 0 0 127.4733354130658 -19.289094262116123 0 -19.289094262116123 326.88006230274914 0 0 0 0 158.68396075259807 -69.294706818007398 0 -69.294706818007398 340.15784915877157 0 0 0 0 127.68810803846281 -33.322851272037951 0 -33.322851272037951 306.37916481817956 0 0 0 0 149.86347457266675 -71.120824649551651 0 -71.120824649551651 348.36292046617018 0 0 0 0 183.51498535337305 -111.3528429173457 0 -111.3528429173457 403.46128743843292 0 0 0 0 161.51544830019702 -28.420026860811049 0 -28.420026860811049 368.97211132263328 0 0 0 0 159.79739712385344 -43.724585229181685 0 -43.724585229181685 327.81543119371054 0 0 0 0 168.83237887779069 -57.893853065415897 0 -57.893853065415897 795.65821761217376 0 0 0 0 280.85850156268134 73.653621879566344 0 73.653621879566344 306.97620627877768 0 0 0 0 182.47755281934406 -68.208022424027149 0 -68.208022424027149 438.99839279751177 0 0 0 0 -3.6706891720889843 -1.5274343801162829 0 -1.5274343801162829 3.1155676782952639 0 0 0 0 340.85305250092824 -344.87568953067057 0 -344.87568953067057 447.72180992002541 0 0 0 0 173.63263080667457 -97.76446072984254 0 -97.76446072984254 478.55167872537277 0 0 0 0 197.71433125526164 -83.920071156913764 0 -83.920071156913764 427.10230136979953 0 0 0 0 200.83442752098927 -227.28464982975129 0 -227.28464982975129 680.63851083979534 0 0 0 0 251.63536139942607 -234.11135647175252 0 -234.11135647175252 453.46623757600901 0 0 0 0 -409.4749188899832 110.69583778072047 0 110.69583778072047 645.69851155173092 0 0 0 0 243.75821777612873 234.33587242451904 0 234.33587242451904 732.43235295820705 0 0 0 0 67.00562827946942 -160.13614290167789 0 -160.13614290167789 -59.48809755394177 0 0 0 0 -235.36348039260338 361.5710165482742 0 361.5710165482742 909.62208225382346 0 0 0 0 3.7789094647396517 -0.44957488248728339 0 -0.44957488248728339 0.29141431441294685 0 0 0 0 125.38094746209481 -288.50098387173784 0 -288.50098387173784 212.10966877522878 0 0 0 0 -357.36327901679761 -55.487982359532907 0 -55.487982359532907 1136.3713328065423 0 0 0 0 18.620653957408649 -393.59955173540948 0 -393.59955173540948 806.53849754400289 0 0 0 0 131.46642599773259 -141.99415417229466 0 -141.99415417229466 490.76189254436758 0 0 0 0 246.54767883817294 -210.53206479079381 0 -210.53206479079381 381.20243246744212 0 0 0 0 185.01196241453363 -339.18000802862662 0 -339.18000802862662 373.34601881497656 0 0 0 0 74.24171476423362 -260.10017448903818 0 -260.10017448903818 368.1814040413883 0 0 0 0 -2.6333643118861723 1.3719448703764385 0 1.3719448703764385 3.181824830030223 0 0 0 0 -318.70013564367764 180.54462183741271 0 180.54462183741271 273.33950747645576 0 0 0 0 -135.79565821928372 -43.2046131215684 0 -43.2046131215684 194.69239416511846 0 0 0 0 71.568863805450746 -375.6319570787964 0 -375.6319570787964 414.10644189732557 0 0 0 0 -110.14006417232031 -90.439770705874253 0 -90.439770705874253 194.70251680597721 0 0 0 0 -32.626309560365371 -69.40109648014186 0 -69.40109648014186 101.88532603731437 0 0 0 0 -36.729912311930093 8.4525483793986496 0 8.4525483793986496 163.65822679170378 0 0 0 0 -66.652315965638991 -78.779117154037522 0 -78.779117154037522 248.95015426214377 0 0 0 0 -56.217677836082657 45.075505230524868 0 45.075505230524868 282.78071003106015 0 0 0 0 4.8470871911141771 9.2277577991093551 0 9.2277577991093551 4.2248729389506252 0 0 0 0 443.08808476453123 -117.15162804310239 0 -117.15162804310239 156.96082939839107 0 0 0 0 43.982987242481613 85.59806399000081 0 85.59806399000081 -41.432986675921711 0 0 0 0 100.5011807202136 61.364400489459513 0 61.364400489459513 85.822321216412092 0 0 0 0 11.834143811884132 -35.018379706496489 0 -35.018379706496489 77.384912747882481 0 0 0 0 -4.2732435386869838 -1.2406142054205702 0 -1.2406142054205702 153.31063239804644 0 0 0 0 -27.672014029824823 21.129880672549916 0 21.129880672549916 -1.9325368588688434 0 0 0 0 -49.922643170273432 -6.8341430129057699 0 -6.8341430129057699 25.127708593281568 0 0 0 0 7.9904453715796215 -4.0180792137827979 0 -4.0180792137827979 2.9007365290045044 0 0 0 0 -1.8578237492172711 6.662222823545946 0 6.662222823545946 4.5236510548428726 0 0 0 0 215.68456328672619 -23.995226359606022 0 -23.995226359606022 277.21466138359028 0 0 0 0 124.33547689082843 -0.4012311692640651 0 -0.4012311692640651 271.3438261344927 0 0 0 0 112.75848391517729 14.613601698137245 0 14.613601698137245 273.90079276758479 0 0 0 0 111.91710078319738 7.0181495581637137 0 7.0181495581637137 312.51576722186292 0 0 0 0 106.73945815340267 9.3108739846793469 0 9.3108739846793469 292.5918551000068 0 0 0 0 89.732365992866107 2.0830484130419791 0 2.0830484130419791 292.34909590528696 0 0 0 0 72.625806163719972 31.842534351773793 0 31.842534351773793 267.65538324497174 0 0 0 0 38.537468111055205 54.884738037537318 0 54.884738037537318 259.67339791177073 0 0 0 0 58.501676016283454 27.021916323690675 0 27.021916323690675 273.06788292669808 0 0 0 0 68.048552119489614 32.544781657466956 0 32.544781657466956 270.40626474702731 0 0 0 0 65.759938830844476 15.236346793128178 0 15.236346793128178 281.10051771861617 0 0 0 0 40.171585607356974 58.777737603842979 0 58.777737603842979 245.94925338631583 0 0 0 0 56.937324258666195 20.972135398929822 0 20.972135398929822 258.43879610978183 0 0 0 0 35.336118989507668 59.003936293709558 0 59.003936293709558 252.18093892445904 0 0 0 0 -21.794596612930036 102.77201746785431 0 102.77201746785431 246.15712028075359 0 0 0 0 -14.841097774533409 84.93771978643781 0 84.93771978643781 245.26544829353224 0 0 0 0 25.004825338531191 55.853813461795653 0 55.853813461795653 265.19140319095459 0 0 0 0 17.488816481491085 89.776938847440761 0 89.776938847440761 221.00245677746716 0 0 0 0 54.169787466868002 27.53315376280807 0 27.53315376280807 278.05787807979505 0 0 0 0 16.796889740580809 56.131108581117587 0 56.131108581117587 258.78806836882723 0 0 0 0 27.079139620458591 60.972757989889942 0 60.972757989889942 252.71080228022765 0 0 0 0 24.675596154251252 51.28017208253732 0 51.28017208253732 266.6394865931652 0 0 0 0 3.1731189610116797 0.4243121011075317 0 0.4243121011075317 1.073330376514491 0 0 0 0 38.562948222715022 140.22708035789765 0 140.22708035789765 157.69167109556838 0 0 0 0 35.270506458180989 82.637019215988403 0 82.637019215988403 166.20835444155091 0 0 0 0 51.783624532133217 65.93663207024656 0 65.93663207024656 26.927818870412011 0 0 0 0 33.826063408674599 114.09090748813469 0 114.09090748813469 145.29719366873906 0 0 0 0 36.709702628984815 57.941615044663195 0 57.941615044663195 218.66722613133607 0 0 0 0 28.307561818992781 92.183594381780495 0 92.183594381780495 189.69845626541064 0 0 0 0 -4.8867492824392684 127.81774492491968 0 127.81774492491968 211.66032024350716 0 0 0 0 2.1160759287178053 8.3259901426699798 0 8.3259901426699798 68.577693977058516 0 0 0 0 10.207348971780903 44.72799506748197 0 44.72799506748197 100.12628896936803 0 0 0 0 2.7589371523899899 -5.4609208793626749 0 -5.4609208793626749 40.665159407057217 0 0 0 0 -5.9719461980469077 13.367234400919187 0 13.367234400919187 101.90515108681575 0 0 0 0 -17.314530230174569 11.918608814848994 0 11.918608814848994 102.42486191755052 0 0 0 0 -36.737804668997114 6.6466251191768606 0 6.6466251191768606 142.43772910469852 0 0 0 0 -23.851480745322988 33.91862620403117 0 33.91862620403117 144.98204717601129 0 0 0 0 -26.729458799167332 27.481210119920433 0 27.481210119920433 135.42304545076331 0 0 0 0 -8.1810011494590071 31.591739341234643 0 31.591739341234643 136.32660857222982 0 0 0 0 -31.1691255694559 39.586824787962541 0 39.586824787962541 143.17101326410193 0 0 0 0 -10.315492714973828 23.228954348336629 0 23.228954348336629 129.01389882294461 0 0 0 0 -11.586085136940255 29.997245804635895 0 29.997245804635895 126.89775368678966 0 0 0 0 5.5046733681920159 26.664126500018028 0 26.664126500018028 129.72249569105043 0 0 0 0 -9.9639836905983543 26.440846898939526 0 26.440846898939526 139.28715720641048 0 0 0 0 2.7079473626699837 21.907174988307816 0 21.907174988307816 123.453083536544 0 0 0 0 3.185001816408203 15.475974995064462 0 15.475974995064462 132.1268256831172 0 0 0 0 7.6546990315632684 30.930122060755821 0 30.930122060755821 122.44180961877828 0 0 0 0 -10.813369220639743 50.732251243927749 0 50.732251243927749 147.41809232260857 0 0 0 0 -15.511654855260531 40.395374531446578 0 40.395374531446578 125.83552449341369 0 0 0 0 5.3863992125870936 52.757847077878978 0 52.757847077878978 114.93596892710775 0 0 0 0 3.25654462636885 40.107787506367458 0 40.107787506367458 84.778477503496106 0 0 0 0 17.966347325080278 78.521600031734124 0 78.521600031734124 94.975619466662465 0 0 0 0 -1.3365053108482243 76.515435712379258 0 76.515435712379258 154.612395376942 0 0 0 0 -7.8265736482990178 57.185909853920748 0 57.185909853920748 113.70021255348911 0 0 0 0 -22.894617652458692 60.055956846219487 0 60.055956846219487 156.37959954180224 0 0 0 0 -8.1336769794470456 92.781572332112773 0 92.781572332112773 213.91306993848411 0 0 0 0 -61.838258227264305 13.926781150134047 0 13.926781150134047 166.89292107777146 0 0 0 0 -25.332182536225446 55.261749940087611 0 55.261749940087611 184.99082219509 0 0 0 0 109.30257631914719 262.53168308066597 0 262.53168308066597 424.6055218615511 0 0 0 0 -3.3400308824266176 89.028618127058508 0 89.028618127058508 166.80067527928622 0 0 0 0 137.40180273474925 76.564090209281858 0 76.564090209281858 25.367826393281575 0 0 0 0 70.589666661048796 36.228938512067543 0 36.228938512067543 -0.12723097940761363 0 0 0 0 37.20300770022186 116.73379297482461 0 116.73379297482461 170.03117950192245 0 0 0 0 -7.293013132224587 15.974356898819678 0 15.974356898819678 17.124882492018514 0 0 0 0 12.044351761134749 12.589671414651093 0 12.589671414651093 15.004525246960839 0 0 0 0 13.999746606344388 36.730262332057464 0 36.730262332057464 -49.259632999244786 0 0 0 0 9.2641507503507974 8.1918516405823993 0 8.1918516405823993 -1.1740606499038435 0 0 0 0 58.549953345692302 60.471754464699188 0 60.471754464699188 -37.949143956579064 0 0 0 0 -5.4731556767032998 77.655024870622583 0 77.655024870622583 -6.3117482697562082 0 0 0 0 -4.867747824626349 0.60437461582841934 0 0.60437461582841934 -0.086094085214426741 0 0 0 0 148.11617835355946 40.766229229713645 0 40.766229229713645 3.883341377303168 0 0 0 0 25.076471782579802 94.740453834643631 0 94.740453834643631 234.52445699754026 0 0 0 0 3.7234981062129009 13.255688966481102 0 13.255688966481102 11.948870251046174 0 0 0 0 -69.976961067679895 -51.321413820744056 0 -51.321413820744056 306.44148441110883 0 0 0 0 -67.869174061435842 -53.577356626617984 0 -53.577356626617984 295.98899212131437 0 0 0 0 47.241840378161243 -14.723928780607821 0 -14.723928780607821 205.53114094354896 0 0 0 0 12.522394358979948 12.58930044393712 0 12.58930044393712 12.053524614741619 0 0 0 0 -31.709915500075567 16.892621359911573 0 16.892621359911573 198.95037753334054 0 0 0 0 -8.0197038103215164 -4.4001553770785904 0 -4.4001553770785904 45.238984687239281 0 0 0 0 -57.79629634761568 51.689510961998167 0 51.689510961998167 283.27310286787906 0 0 0 0 118.12115523485045 32.022601161786952 0 32.022601161786952 -3.9017374783288687 0 0 0 0 118.43490530493227 4.6314952027714753 0 4.6314952027714753 -106.2757271753253 0 0 0 0 47.376801018271472 -54.210621736528992 0 -54.210621736528992 310.49365774135367 0 0 0 0 3.9142514572913432 4.3115393035277521 0 4.3115393035277521 5.044305235271878 0 0 0 0 -74.759578910677362 -255.45300729659721 0 -255.45300729659721 800.12644268538133 0 0 0 0 -68.308328931900633 325.83989270749225 0 325.83989270749225 214.09611535355361 0 0 0 0 -348.73265260809853 213.22336845515383 0 213.22336845515383 789.43962471218015 0 0 0 0 253.73436770647913 96.633890546567272 0 96.633890546567272 -69.925743192972732 0 0 0 0 142.35607522886824 396.49051959390999 0 396.49051959390999 468.77169038678403 0 0 0 0 -83.150904528562023 -27.866494780551875 0 -27.866494780551875 684.49058977792447 0 0 0 0 574.37611704184485 -316.89204625382081 0 -316.89204625382081 -39.821034004198737 0 0 0 0 0.050484792652865096 -0.80698679264983753 0 -0.80698679264983753 -1.2411974045592302 0 0 0 0 112.81078930583544 156.45704809014569 0 156.45704809014569 -253.78386478482207 0 0 0 0 -0.36829198325401302 1.8374191887375986 0 1.8374191887375986 1.8388156615447855 0 0 0 0 -2.6425336866028744 19.972048727318906 0 19.972048727318906 4.0386533139899257 0 0 0 0 61.818956716611694 -47.477165944525041 0 -47.477165944525041 42.918739979308157 0 0 0 0 12.358750686200992 6.8246410112081861 0 6.8246410112081861 -2.7537868237689693 0 0 0 0 6.3407184257898734 41.409560597532618 0 41.409560597532618 95.253807792949374 0 0 0 0 71.853464647869885 -26.59192395930404 0 -26.59192395930404 -89.227044454019051 0 0 0 0 3.2133140626452388 -30.845065008349593 0 -30.845065008349593 -19.720458203752059 0 0 0 0 13.826849813190165 8.4084099540632451 0 8.4084099540632451 102.53343956590834 0 0 0 0 14.607631370433495 6.5469564043218043 0 6.5469564043218043 -1.8321912456163396 0 0 0 0 15.272225303571759 3.2378088528275839 0 3.2378088528275839 142.50586708427363 0 0 0 0 8.1663943453209615 3.759281269228282 0 3.759281269228282 0.86268827670517112 0 0 0 0 14.101356860130409 -0.4896818247907504 0 -0.4896818247907504 131.3517794126019 0 0 0 0 2.1095294994861096 1.908233207673419 0 1.908233207673419 1.6432464179529234 0 0 0 0 32.650111316155062 34.562548127734772 0 34.562548127734772 24.728593686962995 0 0 0 0 175.51288212290751 -43.634653606757638 0 -43.634653606757638 -27.794207076323801 0 0 0 0 0.7757733207267723 0.52288124313417939 0 0.52288124313417939 -0.094133565110027462 0 0 0 0 58.966668924334044 -126.20073505194887 0 -126.20073505194887 -75.596036716055096 0 0 0 0 78.739795500409969 -30.545163055532612 0 -30.545163055532612 58.722284877774655 0 0 0 0 -22.118680973136179 -162.26390208087469 0 -162.26390208087469 117.37447162262106 0 0 0 0 -5.1586265457967784 -35.375172976004251 0 -35.375172976004251 165.07349499010343 0 0 0 0 -80.226446382838574 -55.894137424284736 0 -55.894137424284736 230.28106759263028 0 0 0 0 18.790255302101286 95.171620137552964 0 95.171620137552964 261.67473322714613 0 0 0 0 -7.3463204693619701 -55.391982720091846 0 -55.391982720091846 109.16384708674741 0 0 0 0 17.146801788790981 29.641365834810131 0 29.641365834810131 160.76459905820229 0 0 0 0 16.186317293701904 77.91447713560774 0 77.91447713560774 162.14313213105015 0 0 0 0 15.192011760488029 47.399416849543172 0 47.399416849543172 136.02440046769334 0 0 0 0 50.470201118134128 109.33758689618298 0 109.33758689618298 147.36791306637679 0 0 0 0 114.61771782015035 34.194061393460288 0 34.194061393460288 30.467736058762966 0 0 0 0 -1.671113311434171 0.30052407671178116 0 0.30052407671178116 0.4266116148372987 0 0 0 0 -34.265031511462837 30.220039703312068 0 30.220039703312068 118.54372026562123 0 0 0 0 37.259395079437283 44.824562643114405 0 44.824562643114405 93.707694589531457 0 0 0 0 19.183370655548558 26.022975144239354 0 26.022975144239354 89.515289380011382 0 0 0 0 9.6916735697038803 15.529305584754184 0 15.529305584754184 96.694909007917886 0 0 0 0 -80.40413375251876 -7.0027657474456646 0 -7.0027657474456646 99.842637281406496 0 0 0 0 -38.479559681982551 58.66709081082081 0 58.66709081082081 104.90919608400873 0 0 0 0 -115.55428939517674 48.091446360391274 0 48.091446360391274 105.27178809903512 0 0 0 0 67.503364536357225 19.138753759285919 0 19.138753759285919 45.97944579977775 0 0 0 0 342.38680583403539 -83.786752320753294 0 -83.786752320753294 -18.71929180285224 0 0 0 0 166.9273980816215 -4.1168028718602727 0 -4.1168028718602727 44.232414517977304 0 0 0 0 97.790863471324201 165.83736925708035 0 165.83736925708035 73.135460008881637 0 0 0 0 -401.75848884023253 -32.086008262513133 0 -32.086008262513133 135.69558515807148 0 0 0 0 -262.13480629728053 178.85295639321703 0 178.85295639321703 133.03753998217144 0 0 0 0 -152.64942579167223 59.098370337254892 0 59.098370337254892 165.1832553220811 0 0 0 0 -262.49856715165947 108.46756393499709 0 108.46756393499709 39.174993142325548 0 0 0 0 -362.31757363983968 -50.63235413179882 0 -50.63235413179882 128.48957592252555 0 0 0 0 -174.10947705822491 -99.146235271360638 0 -99.146235271360638 140.485779254097 0 0 0 0 -155.09666916611195 -190.1823966563461 0 -190.1823966563461 71.362309666179499 0 0 0 0 207.43948702859348 -40.764990128378486 0 -40.764990128378486 56.158821121302026 0 0 0 0 138.04684267832147 323.94960369027831 0 323.94960369027831 111.25790054013487 0 0 0 0 342.50707304311345 -200.3046288884434 0 -200.3046288884434 -26.164146492927102 0 0 0 0 186.00947465177052 163.21089472360291 0 163.21089472360291 138.81805242303381 0 0 0 0 19.537901629681258 4.1771410961866877 0 4.1771410961866877 139.99483420289471 0 0 0 0 15.643614238287 36.870355640796333 0 36.870355640796333 384.48198585193313 0 0 0 0 10.225576883439317 7.4582822445918282 0 7.4582822445918282 157.68403276796016 0 0 0 0 5.300910398545966 18.953283141934662 0 18.953283141934662 134.98033483277231 0 0 0 0 7.8377078998278193 36.411883072578348 0 36.411883072578348 161.04399591304764 0 0 0 0 77.329640810047806 41.909197519053123 0 41.909197519053123 111.02459945832743 0 0 0 0 75.601273374528205 35.712852671495057 0 35.712852671495057 120.50456361025499 0 0 0 0 74.304155579280945 66.486973738086817 0 66.486973738086817 145.93041371390063 0 0 0 0 1.66834876004972 0.89526484321554278 0 0.89526484321554278 -0.93894518050049669 0 0 0 0 14.84752991360665 21.404368095802056 0 21.404368095802056 117.94024907674248 0 0 0 0 64.954671525459617 122.17472132135299 0 122.17472132135299 107.27841022439679 0 0 0 0 36.516609254121704 26.236256969634269 0 26.236256969634269 -25.436378238435282 0 0 0 0 -208.1340611971703 -36.527859343685122 0 -36.527859343685122 115.29082913622551 0 0 0 0 -0.18819817988615739 -141.75058878211712 0 -141.75058878211712 -71.907226107009251 0 0 0 0 -13.118727765861422 -116.18149261621147 0 -116.18149261621147 45.592566289458773 0 0 0 0 -34.278612531918725 -87.652154837163835 0 -87.652154837163835 17.122615932985354 0 0 0 0 -75.736382115937204 -84.619175640978938 0 -84.619175640978938 51.543411146336439 0 0 0 0 -52.542212574810435 -112.23504154199964 0 -112.23504154199964 83.906409534225531 0 0 0 0 -101.88525542177977 -84.590544163405866 0 -84.590544163405866 150.54116211813744 0 0 0 0 -48.714341007249914 -106.23756067814793 0 -106.23756067814793 43.871694105808274 0 0 0 0 4.9843510504711048 -1.5778616872339626 0 -1.5778616872339626 32.856333006620844 0 0 0 0 -72.945141036139574 -30.150328803834782 0 -30.150328803834782 46.151945778117806 0 0 0 0 -0.63497295351344873 -3.469635106998302 0 -3.469635106998302 37.467554446064298 0 0 0 0 -113.71243072317111 -10.572532016260084 0 -10.572532016260084 77.531655135848268 0 0 0 0 -41.786360394310577 -40.46339789731428 0 -40.46339789731428 38.069583595437507 0 0 0 0 -3.5117417626242737 -6.3877347594398586 0 -6.3877347594398586 43.505247507297184 0 0 0 0 -15.674614863401814 -5.1005477890857946 0 -5.1005477890857946 35.352979783565388 0 0 0 0 -3.9028639192320043 -7.3548634126491379 0 -7.3548634126491379 15.541178229277648 0 0 0 0 -3.130188532955799 -3.27874732307464 0 -3.27874732307464 36.879119455465116 0 0 0 0 3.2818400309247391 -8.4926306733875663 0 -8.4926306733875663 15.331298178672682 0 0 0 0 -2.1273091747290485 -2.1968588640099824 0 -2.1968588640099824 7.0907919955932641 0 0 0 0 -22.767224591783702 13.943302075274914 0 13.943302075274914 24.753201609048119 0 0 0 0 -60.599533163496062 -8.4723169258140842 0 -8.4723169258140842 17.20915732614958 0 0 0 0 -2.7703268049487195 1.8077585122043445 0 1.8077585122043445 3.4626228912621002 0 0 0 0 -6.0355462000520692 0.29197898532247279 0 0.29197898532247279 31.952058917402553 0 0 0 0 -17.123768294204687 20.155954699292124 0 20.155954699292124 29.840600707524572 0 0 0 0 7.0237908364438226 -14.117483814654406 0 -14.117483814654406 35.492615369812029 0 0 0 0 18.520412096883391 21.211208344564511 0 21.211208344564511 27.329450039680523 0 0 0 0 -13.397435927141995 -32.129267740107025 0 -32.129267740107025 74.82017294128309 0 0 0 0 5.2178519158727568 39.143350329930399 0 39.143350329930399 109.1745860939991 0 0 0 0 -4.308172385020157 -46.704789224670094 0 -46.704789224670094 125.36749698553467 0 0 0 0 3.2849722552017511 -39.434689536035876 0 -39.434689536035876 132.32742117513772 0 0 0 0 -7.9273528391111086 -43.973171412144438 0 -43.973171412144438 154.80224048851233 0 0 0 0 -10.551790108416185 -33.448703087597096 0 -33.448703087597096 115.8145160453787 0 0 0 0 -16.868518588598846 -0.84445929370485828 0 -0.84445929370485828 95.968330993178824 0 0 0 0 -5.2609684543660649 -16.203609065316414 0 -16.203609065316414 90.423743763138191 0 0 0 0 36.447082591269861 -47.603689551884599 0 -47.603689551884599 103.89492816066195 0 0 0 0 -42.110488902070756 -4.4763820874886733 0 -4.4763820874886733 101.39242591864604 0 0 0 0 -6.255036615256941 1.9458269228248355 0 1.9458269228248355 46.545963614074907 0 0 0 0 -19.750760802578725 8.7907829971481988 0 8.7907829971481988 49.655804526984866 0 0 0 0 -6.1465594952120455 -18.514457230183325 0 -18.514457230183325 38.116726821017437 0 0 0 0 -173.7101797238351 18.011256129201321 0 18.011256129201321 72.687867238884792 0 0 0 0 -145.57402153879229 14.923484337545233 0 14.923484337545233 71.340832250927633 0 0 0 0 -4.0618861243365165 1.3219922378276294 0 1.3219922378276294 7.2187231114323325 0 0 0 0 -9.2409255900828953 -3.3445519689830689 0 -3.3445519689830689 31.939351254462963 0 0 0 0 -2.1709151413651853 -4.4084034553896334 0 -4.4084034553896334 31.985711567111906 0 0 0 0 -107.7716424244245 99.719368177808065 0 99.719368177808065 -30.51988606058876 0 0 0 0 -23.0742487122684 35.22936668631155 0 35.22936668631155 -27.891721437910746 0 0 0 0 -4.2194090644892182 -11.546747387873623 0 -11.546747387873623 47.346967733765069 0 0 0 0 -0.10577753979989668 -8.4904545333071866 0 -8.4904545333071866 8.5029915476448537 0 0 0 0 -272.890178347752 -169.3160607122918 0 -169.3160607122918 -33.84335598083635 0 0 0 0 -144.225910583835 32.516868484410224 0 32.516868484410224 84.376882264084998 0 0 0 0 -86.802288406247015 -16.257384953492874 0 -16.257384953492874 91.015487404743908 0 0 0 0 -42.156666019826162 26.227491338417167 0 26.227491338417167 -69.509678231406724 0 0 0 0 -1.350560855296693 -7.6700280637330902 0 -7.6700280637330902 1.3063409799771648 0 0 0 0 -217.12406859831003 -70.664260406134417 0 -70.664260406134417 69.086960162192554 0 0 0 0 -15.227904024294252 -29.309295962040778 0 -29.309295962040778 57.93431994853745 0 0 0 0 42.061523703955686 -99.041561485866623 0 -99.041561485866623 82.749722720720456 0 0 0 0 1.2866969906480605 -35.461734789687881 0 -35.461734789687881 28.586291579881518 0 0 0 0 -69.263975094070105 -59.7223786010818 0 -59.7223786010818 90.910580360869062 0 0 0 0 -38.0769684918927 -37.746511505554736 0 -37.746511505554736 45.292891197052086 0 0 0 0 -250.61923195576293 -61.165211903848103 0 -61.165211903848103 124.62482772312069 0 0 0 0 -99.386716850824314 -40.44671575038592 0 -40.44671575038592 83.542449377564481 0 0 0 0 -93.765922545422882 -19.7616644599766 0 -19.7616644599766 135.4787861838231 0 0 0 0 -80.077695909128579 -6.7837077297226642 0 -6.7837077297226642 99.981317805013532 0 0 0 0 -69.963425253501384 -12.140629360239473 0 -12.140629360239473 87.828964480147988 0 0 0 0 -58.801207237905885 -2.1960956850371076 0 -2.1960956850371076 25.492902638638043 0 0 0 0 -61.095806976103738 -2.8451229059689922 0 -2.8451229059689922 14.5601877666777 0 0 0 0 -131.07954588520207 13.337841968030261 0 13.337841968030261 56.417406498227137 0 0 0 0 -62.839154506377973 11.397736162558658 0 11.397736162558658 71.982520655226836 0 0 0 0 -27.799725240608382 31.235982119498658 0 31.235982119498658 72.564677537346142 0 0 0 0 9.1225406714561359 -7.8763274966404424 0 -7.8763274966404424 50.99454187151423 0 0 0 0 16.070452095229484 -20.724758063908666 0 -20.724758063908666 74.546946919201218 0 0 0 0 1.776097309807116 11.132984891671263 0 11.132984891671263 -8.8195578867210713 0 0 0 0 0.16381149355893176 3.1255796657728947 0 3.1255796657728947 22.954497442111432 0 0 0 0 65.868197244180763 -51.089721105685385 0 -51.089721105685385 58.192190129557275 0 0 0 0 38.179225040892561 -16.344154485099352 0 -16.344154485099352 43.039643880678341 0 0 0 0 19.33282398383426 -21.646279129721734 0 -21.646279129721734 42.079028832013137 0 0 0 0 25.378166707205764 -10.523859827215347 0 -10.523859827215347 40.403788248371711 0 0 0 0 17.332988824906806 -11.789031276744936 0 -11.789031276744936 28.438955995705328 0 0 0 0 14.898872304137967 -14.189307503133023 0 -14.189307503133023 39.164695530655081 0 0 0 0 -65.122546252210725 -26.090044995409698 0 -26.090044995409698 78.666824172993074 0 0 0 0 -0.092003136154451118 -1.4995016847763054e-05 0 -1.4995016847763054e-05 39.822423230771534 0 0 0 0 8.9990707171532449 -57.170407328812871 0 -57.170407328812871 92.806838491311282 0 0 0 0 9.0479087572177832 20.414261541851374 0 20.414261541851374 98.155159002257278 0 0 0 0 -2.2099178262504129 -18.654975124201755 0 -18.654975124201755 7.3111542615038161 0 0 0 0 -2.625499616346687 -37.464586465091998 0 -37.464586465091998 105.23130761351786 0 0 0 0 8.4936086416400656 -14.514946891249139 0 -14.514946891249139 17.987237569698806 0 0 0 0 14.821679807212945 -32.957273721840465 0 -32.957273721840465 58.52962843010755 0 0 0 0 34.584212659839864 -33.434132321755897 0 -33.434132321755897 19.673710304858105 0 0 0 0 3.9071716767583666 -14.859479640527752 0 -14.859479640527752 69.586562553115073 0 0 0 0 38.028517095457573 -46.478125537025335 0 -46.478125537025335 67.626236694835825 0 0 0 0 -35.127363705995094 -21.285173302348994 0 -21.285173302348994 29.764473074639682 0 0 0 0 2.5539803992714267 -1.4463098695902659 0 -1.4463098695902659 10.608328145029276 0 0 0 0 1.8061011113125458 -10.664591188995516 0 -10.664591188995516 12.454070894267801 0 0 0 0 -0.70551902992352211 -10.286298764783623 0 -10.286298764783623 28.253112046346359 0 0 0 0 -0.30579842523206935 -12.000443831762823 0 -12.000443831762823 28.8656362156471 0 0 0 0 -5.6199776160129744 -7.8408292611010353 0 -7.8408292611010353 33.250574721244845 0 0 0 0 14.87521332459437 -19.832292041594883 0 -19.832292041594883 46.544970359369472 0 0 0 0 19.18832602724251 -22.241769244683383 0 -22.241769244683383 43.069344325984275 0 0 0 0 15.148171507211114 -18.253867746595489 0 -18.253867746595489 14.104103353562166 0 0 0 0 -1.9536115377613896 -1.5097404044354334 0 -1.5097404044354334 28.080876041713054 0 0 0 0 -5.4463400828007433 3.4122248626658234 0 3.4122248626658234 15.850692547698515 0 0 0 0 3.3529476613546869 9.1065358494561224 0 9.1065358494561224 -72.191162128601718 0 0 0 0 -10.011206230804911 -133.84225464946212 0 -133.84225464946212 44.77527435652155 0 0 0 0 -46.001241852373852 -176.1282404680569 0 -176.1282404680569 257.15458997679525 0 0 0 0 -6.4130035480180823 1.0320520389759622 0 1.0320520389759622 26.929821212033858 0 0 0 0 153.4448421525918 469.3322572367033 0 469.3322572367033 44.643637086031958 0 0 0 0 -4.545263399774087 3.9609738067777727 0 3.9609738067777727 21.661272936013717 0 0 0 0 -9.4454947086183676 3.6528531807677211 0 3.6528531807677211 30.386335899729147 0 0 0 0 -0.058464293146381997 0.34753017908951733 0 0.34753017908951733 71.765481705981074 0 0 0 0 -10.159742662714223 -16.854964272693906 0 -16.854964272693906 93.866036598323262 0 0 0 0 -32.308048402183204 18.150101670071308 0 18.150101670071308 216.75475253302284 0 0 0 0 20.828484283892088 -30.828061524098302 0 -30.828061524098302 -1.4697019889099465 0 0 0 0 1.2356317708035203 -5.4217939792215475 0 -5.4217939792215475 4.6962774039166106 0 0 0 0 -0.31869764142783219 -0.079998056066472145 0 -0.079998056066472145 1.3517070069264605 0 0 0 0 -0.0011628728920123701 -4.310967873041391 0 -4.310967873041391 4.3531180614081677 0 0 0 0 -1.3514448426863093 -2.8903731976672589 0 -2.8903731976672589 0.32591616176685534 0 0 0 0 17.870438278875667 -25.375304030334519 0 -25.375304030334519 13.794171705077133 0 0 0 0 3.8261738155153822 -32.47489208138677 0 -32.47489208138677 15.274725077935727 0 0 0 0 37.251490799344538 -32.058873443966149 0 -32.058873443966149 -104.30269308217976 0 0 0 0 0.0058979306722273779 -4.3224511576481746 0 -4.3224511576481746 4.3595888181880582 0 0 0 0 -0.15054014570420113 -0.52290969634830731 0 -0.52290969634830731 -1.0895260857953986 0 0 0 0 -86.651973920321609 -16.071999954481726 0 -16.071999954481726 447.56629975458054 0 0 0 0 20.128548863244049 -45.479796649788113 0 -45.479796649788113 94.360144105055952 0 0 0 0 -80.281370668223587 1.3416569700275431 0 1.3416569700275431 96.004321974425693 0 0 0 0 0.50364327961549527 -253.77217292303976 0 -253.77217292303976 93.737316264967376 0 0 0 0 -0.050685544597994875 -0.32255330741865151 0 -0.32255330741865151 2.2911537679967751 0 0 0 0 -105.21177786380235 80.286025886634889 0 80.286025886634889 312.55823115663225 0 0 0 0 -48.014397792695149 80.199987591775425 0 80.199987591775425 276.42506223954115 0 0 0 0 -97.921910962335744 86.316285480548686 0 86.316285480548686 276.25259217200619 0 0 0 0 0.79566590790682312 -45.030231652708608 0 -45.030231652708608 8.3331475199665874 0 0 0 0 -16.913307004838316 71.156675808450018 0 71.156675808450018 55.905063003971009 0 0 0 0 16.695031639256854 -60.921028604483581 0 -60.921028604483581 117.70254543465126 0 0 0 0 17.175519882046956 -56.750960328063229 0 -56.750960328063229 62.566109726194554 0 0 0 0 -8.2823896082097406 -40.802799506756855 0 -40.802799506756855 193.21534613358381 0 0 0 0 0.37803288379783595 -0.084470636754389261 0 -0.084470636754389261 -0.67875974107272441 0 0 0 0 4.0684823528553125 44.397984449650721 0 44.397984449650721 190.90701652731514 0 0 0 0 -55.039981848013383 -95.559725268532929 0 -95.559725268532929 -4.5943687614490045 0 0 0 0 0.37122000127556154 1.4984593516986493 0 1.4984593516986493 2.3156204919006314 0 0 0 0 174.86429473288757 -162.85322397479104 0 -162.85322397479104 124.62224067046191 0 0 0 0 -39.124741835376426 -24.071759754639061 0 -24.071759754639061 316.28080154911731 0 0 0 0 164.66282322466543 98.191595013540791 0 98.191595013540791 45.631538093890413 0 0 0 0 -30.619600176988342 45.967001525692467 0 45.967001525692467 73.166590815977543 0 0 0 0 41.918360975056544 32.497001741958229 0 32.497001741958229 -0.66778741038433509 0 0 0 0 26.298423900960358 7.4176361124245886 0 7.4176361124245886 -5.5101588596153306 0 0 0 0 -79.884214691802384 -90.427190544094628 0 -90.427190544094628 8.8024980549525935 0 0 0 0 40.524541082336214 8.8032598750505713 0 8.8032598750505713 -21.288277807288978 0 0 0 0 -7.9390602455596353 -4.6036520123670925 0 -4.6036520123670925 2.2733157272159588 0 0 0 0 0.37415573369349997 -1.5046026895091558 0 -1.5046026895091558 4.5744454520703925 0 0 0 0 -0.021122521448631141 -9.2422535330078972 0 -9.2422535330078972 -3.6391101684330351 0 0 0 0 0.0022878809753460088 -2.1867795530680403 0 -2.1867795530680403 2.8220983388309833 0 0 0 0 123.62435167132089 -85.289717198072594 0 -85.289717198072594 -21.588176317927719 0 0 0 0 29.535769612408366 -17.96750780401635 0 -17.96750780401635 58.868979239196051 0 0 0 0 18.498919322001278 7.5549453038474894 0 7.5549453038474894 42.903216630234965 0 0 0 0 22.850368385623963 -6.1498458822607063 0 -6.1498458822607063 66.162163972505368 0 0 0 0 0.058040522929484639 1.0203779338589811 0 1.0203779338589811 76.198158771134331 0 0 0 0 0.98848676205278196 -1.897845413772302 0 -1.897845413772302 84.739548479039513 0 0 0 0 3.1409598738799369 -17.840167488615407 0 -17.840167488615407 112.99301615147851 0 0 0 0 48.042099688781491 -66.245611094320338 0 -66.245611094320338 125.27887872164683 0 0 0 0 26.014985493892326 -32.492289678790257 0 -32.492289678790257 81.630777869126177 0 0 0 0 33.805198872553035 23.460834689147305 0 23.460834689147305 -8.872579515176767 0 0 0 0 -39.243909493731721 45.494429057478555 0 45.494429057478555 46.40066789665434 0 0 0 0 1.7813514658757443 12.920097138887577 0 12.920097138887577 46.659056928916499 0 0 0 0 -132.06045289101723 46.118259986866178 0 46.118259986866178 75.521742778633779 0 0 0 0 -9.7509326248696979 -6.1234335252247547 0 -6.1234335252247547 41.202439685963327 0 0 0 0 18.888644229735124 12.441069488639187 0 12.441069488639187 43.624143904507946 0 0 0 0 4.4454190813737782 27.871586482709972 0 27.871586482709972 24.96859613648121 0 0 0 0 0.73749055537113961 9.8244200117108633 0 9.8244200117108633 46.093654028017312 0 0 0 0 -22.948098567645697 33.434753449095297 0 33.434753449095297 54.218793356005335 0 0 0 0 -33.619900852651767 0.25523645108205528 0 0.25523645108205528 60.578746055609372 0 0 0 0 2.1342125305918671 -33.690231348391535 0 -33.690231348391535 56.635571985287243 0 0 0 0 -18.462511948582232 -28.128925287204765 0 -28.128925287204765 61.02288104291074 0 0 0 0 -2.0761384684599307 -3.7350149600933946 0 -3.7350149600933946 58.18220199100324 0 0 0 0 6.7463768308571161 -11.361606810678495 0 -11.361606810678495 47.984521442529513 0 0 0 0 -1.3891512582078138 -7.8432455898735896 0 -7.8432455898735896 19.934606605484575 0 0 0 0 0.93959836007616104 -14.666700218040205 0 -14.666700218040205 51.189351459950558 0 0 0 0 16.065778354878148 -16.440033424762078 0 -16.440033424762078 50.238769707008032 0 0 0 0 2.338885336918338 7.3681361973576713 0 7.3681361973576713 23.742387011683604 0 0 0 0 -1.0007125409676503 6.4851807963508463 0 6.4851807963508463 4.0629816377964403 0 0 0 0 7.3947218859665682 -5.0474899018372525 0 -5.0474899018372525 18.525330892123748 0 0 0 0 -2.4465044136578218 -5.4530031371524501 0 -5.4530031371524501 29.62543011837181 0 0 0 0 -0.084892030584633987 1.6040319824899711 0 1.6040319824899711 6.5116587136259625 0 0 0 0 -0.66117535769699787 25.425153704549302 0 25.425153704549302 69.967984356124362 0 0 0 0 -4.6336843647384525 -3.9354489738179836 0 -3.9354489738179836 19.779607601034513 0 0 0 0 -2.2934107035693687 -4.6411394056194695 0 -4.6411394056194695 18.753405719340662 0 0 0 0 -2.6549770583294174 -3.4446723813380231 0 -3.4446723813380231 18.952947978215889 0 0 0 0 3.1834986301753405 15.747885228598989 0 15.747885228598989 60.27267653796298 0 0 0 0 6.8866236274212698 8.3815846363650053 0 8.3815846363650053 70.599824136836105 0 0 0 0 5.9416014834594657 -7.143388993179542 0 -7.143388993179542 65.208967753191246 0 0 0 0 5.6770827371173063 2.6060579569166293 0 2.6060579569166293 61.70001935090113 0 0 0 0 -0.011393268601796035 5.0096095352055272 0 5.0096095352055272 49.742944297788199 0 0 0 0 -2.3059017441171199 -4.6685279255389105 0 -4.6685279255389105 19.757737974927295 0 0 0 0 -2.6498397812172003 -3.6479445729200961 0 -3.6479445729200961 20.648175144895504 0 0 0 0 9.4577617656938688 5.4878919874026906 0 5.4878919874026906 14.495719524817105 0 0 0 0 0.14168984178109248 -1.6123703237214073 0 -1.6123703237214073 4.8116955895248452 0 0 0 0 -8.1629374452024059 -8.649763577603153 0 -8.649763577603153 14.061502748649218 0 0 0 0 -8.2382419008599346 -3.6353822830569698 0 -3.6353822830569698 18.738709056404332 0 0 0 0 4.4329029037976051 -3.6914445469810744 0 -3.6914445469810744 -0.92119656926661264 0 0 0 0 14.757483316696062 30.623608013549529 0 30.623608013549529 33.393050282669719 0 0 0 0 -29.289872182496509 -195.26590427388146 0 -195.26590427388146 -95.385041540430393 0 0 0 0 0.29746792122093735 0.53380400750771884 0 0.53380400750771884 0.51261036658033277 0 0 0 0 54.187286204204042 9.8234095027692092 0 9.8234095027692092 1.6216152122506173 0 0 0 0 -0.40395355260654381 -1.6704141745919685 0 -1.6704141745919685 4.4100432161343122 0 0 0 0 9.4890372471189206 12.425341221634881 0 12.425341221634881 5.2685139177483507 0 0 0 0 0.00094897737320879161 7.9797808309413085 0 7.9797808309413085 28.046765715160291 0 0 0 0 -5.5722916971924867 32.975843999192875 0 32.975843999192875 74.087788966338849 0 0 0 0 -12.977210394984839 23.489667801404721 0 23.489667801404721 64.925632642407436 0 0 0 0 3.1252601416839521 21.206833493633894 0 21.206833493633894 59.193200809226255 0 0 0 0 2.2984369153078958 -21.551012343225011 0 -21.551012343225011 154.18793415743858 0 0 0 0 0.086428793215840904 0.11336139249029031 0 0.11336139249029031 -0.11875474709651712 0 0 0 0 150.8095590252135 150.5861000000732 0 150.5861000000732 171.18135282513686 0 0 0 0 -22.923795978537957 15.302871346641041 0 15.302871346641041 69.015699868468801 0 0 0 0 0.0014054411160850688 -19.717745017700508 0 -19.717745017700508 106.11023467994528 0 0 0 0 -8.6366843273390437 18.892373561720888 0 18.892373561720888 142.34430178952243 0 0 0 0 -18.053383830305631 22.005930223123869 0 22.005930223123869 73.36045149868005 0 0 0 0 4.5998859828906014 -26.941778375054128 0 -26.941778375054128 73.655119645962259 0 0 0 0 7.6235553248367154 -14.737394629439223 0 -14.737394629439223 34.709804108337266 0 0 0 0 3.2968150447800895 26.904596932043205 0 26.904596932043205 118.39581576495402 0 0 0 0 -1.201270394134065 23.664040121926519 0 23.664040121926519 135.74423463836138 0 0 0 0 -34.404049775203418 3.3843399497600331 0 3.3843399497600331 133.16822274313017 0 0 0 0 13.829847978589923 10.88944678014559 0 10.88944678014559 116.65727565658744 0 0 0 0 347.59336493186026 -155.85344612847985 0 -155.85344612847985 -12.846012547328428 0 0 0 0 -26.505728467742301 -153.87518732699391 0 -153.87518732699391 142.29162709944649 0 0 0 0 -121.47381937949126 -332.41675685135124 0 -332.41675685135124 174.19271829366335 0 0 0 0 -531.97684340586738 104.91256077770959 0 104.91256077770959 127.02590099250665 0 0 0 0 -116.83195521901962 -111.36250000128348 0 -111.36250000128348 204.70186899896362 0 0 0 0 1.0454059796042423 -2.2990374061206964 0 -2.2990374061206964 5.0446339280798611 0 0 0 0 -5.2325084028523037 44.087914546340471 0 44.087914546340471 104.18200126104784 0 0 0 0 39.117975746006536 135.78940313811836 0 135.78940313811836 288.92645261272628 0 0 0 0 -3.2297623505267126 -3.14215324849647 0 -3.14215324849647 47.909773999846948 0 0 0 0 -1.7167267791698819 9.3933443379482924 0 9.3933443379482924 59.254852154888795 0 0 0 0 -3.9045911707877679 -12.861045672048931 0 -12.861045672048931 64.782008505477279 0 0 0 0 0.16269434760420154 -36.960539252271701 0 -36.960539252271701 48.437967547745416 0 0 0 0 57.298244472394799 -58.993618581996998 0 -58.993618581996998 48.900983674451709 0 0 0 0 4.7475811095592775 -13.744259096527003 0 -13.744259096527003 25.371770740639477 0 0 0 0 6.2142042340867647 -24.549917734538212 0 -24.549917734538212 38.618069922056748 0 0 0 0 4.4823615646873805 1.6931417799860355 0 1.6931417799860355 28.396074428052088 0 0 0 0 0.6288843920011441 -4.566311370349883 0 -4.566311370349883 15.678916489263798 0 0 0 0 27.671167198907369 -30.317421671941702 0 -30.317421671941702 36.219657253590412 0 0 0 0 -7.1560651419327712 -21.694767177708854 0 -21.694767177708854 37.46264078898821 0 0 0 0 -3.2340467315266039 -0.42572409985314152 0 -0.42572409985314152 31.7429935716209 0 0 0 0 -0.25869333184525056 -2.0947877168181748 0 -2.0947877168181748 17.661022766113774 0 0 0 0 -3.4582410298207376 -0.90986004695768941 0 -0.90986004695768941 13.50505412116371 0 0 0 0 0.51438619907185057 -9.3638232039520517 0 -9.3638232039520517 27.190596900705714 0 0 0 0 -6.4625043594473937 -12.949888407267281 0 -12.949888407267281 33.365931627398822 0 0 0 0 -1.6486307461909746 -16.272705642113579 0 -16.272705642113579 5.4737699605175294 0 0 0 0 8.6946936367663739 9.0347769822756163 0 9.0347769822756163 29.714117535244441 0 0 0 0 -9.0514234786278394 -1.4129384918924188 0 -1.4129384918924188 20.048653776277206 0 0 0 0 -5.5310622567831826 0.082050584723987185 0 0.082050584723987185 22.54306134798378 0 0 0 0 2.1954078681387106 3.2259738644504665 0 3.2259738644504665 29.86847368884662 0 0 0 0 0.48674907082840946 -6.1934970019901812 0 -6.1934970019901812 43.928804141949513 0 0 0 0 -3.8610463662020607 -15.868350649178353 0 -15.868350649178353 19.864132060037036 0 0 0 0 0.57643256275605381 -22.999365158386354 0 -22.999365158386354 38.945867681220989 0 0 0 0 -7.7191762817456038 3.0749509020824917 0 3.0749509020824917 47.496700242172665 0 0 0 0 -5.8146272533216425 4.4511535355847585 0 4.4511535355847585 27.357285137811829 0 0 0 0 -9.7762525758707852 13.160102669171465 0 13.160102669171465 35.873743279738846 0 0 0 0 -12.521599467641863 7.7307022391905775 0 7.7307022391905775 54.202909739258757 0 0 0 0 -2.8855814910784829 -1.2914464113418944 0 -1.2914464113418944 48.652209173073061 0 0 0 0 -9.4352017539977169 -9.6297238492315955 0 -9.6297238492315955 64.651010047928139 0 0 0 0 3.2520699148832808 -23.190910898090507 0 -23.190910898090507 28.418987924474834 0 0 0 0 4.996352141555235 -28.570859289029613 0 -28.570859289029613 44.686409241669026 0 0 0 0 -2.5418066202103091 -15.284242636892486 0 -15.284242636892486 83.06247546125087 0 0 0 0 -2.2012546127464248 -14.762246906535438 0 -14.762246906535438 70.499718298349762 0 0 0 0 2.4167191452138468 -20.525969127986173 0 -20.525969127986173 39.267446577091505 0 0 0 0 -0.53943412959051784 -21.368333463822637 0 -21.368333463822637 56.150284185219789 0 0 0 0 -48.305005661648465 -31.706443692273751 0 -31.706443692273751 86.364326298273227 0 0 0 0 -7.6974789702903763 -26.913740514322853 0 -26.913740514322853 81.888777432439383 0 0 0 0 -2.9273954307250278 -34.535949476932728 0 -34.535949476932728 61.803080611207406 0 0 0 0 215.50579895692167 -97.638649077673108 0 -97.638649077673108 -62.222604865524772 0 0 0 0 -220.94929151720478 412.19547829371004 0 412.19547829371004 913.48074795796128 0 0 0 0 -1.4531689737750639 -25.882934704713989 0 -25.882934704713989 79.045383432530798 0 0 0 0 -1.7009968439997465 -27.496661016637518 0 -27.496661016637518 68.64822235050633 0 0 0 0 -17.255615136792613 12.966330400180794 0 12.966330400180794 48.255309696069673 0 0 0 0 -12.64725391643338 -42.362844116706128 0 -42.362844116706128 87.808857894924586 0 0 0 0 -32.697866479595177 33.800287644553464 0 33.800287644553464 49.227512759214733 0 0 0 0 -9.0122367412682252 -4.6153041128272889 0 -4.6153041128272889 69.663664221010549 0 0 0 0 -173.77631142575046 22.634002144601254 0 22.634002144601254 124.17034415752278 0 0 0 0 -16.05924990397974 13.470916068419228 0 13.470916068419228 48.472763007593869 0 0 0 0 -37.463877411505564 81.083931998600747 0 81.083931998600747 59.435917578895896 0 0 0 0 -46.252675925469035 68.752761469200578 0 68.752761469200578 80.112432981382881 0 0 0 0 -46.726341499548397 91.472102117066242 0 91.472102117066242 41.548850028972083 0 0 0 0 -0.14160797283462973 -0.0092281654938304314 0 -0.0092281654938304314 8.0484781680278559 0 0 0 0 -46.298992522797221 51.10925440157456 0 51.10925440157456 -2.8832618999222177 0 0 0 0 -279.67533642225692 -608.56436642496556 0 -608.56436642496556 536.52658564813464 0 0 0 0 -54.685660886504934 86.749786223082992 0 86.749786223082992 83.269871408214385 0 0 0 0 -11.470297338339661 4.94225145102493 0 4.94225145102493 6.1962984076306498 0 0 0 0 -10.758763163255708 3.5433175078014756 0 3.5433175078014756 30.256021519133355 0 0 0 0 -1.6217050622253737 -4.8299862759613461 0 -4.8299862759613461 25.2772653589127 0 0 0 0 2.9459624730666292 -19.005136650303029 0 -19.005136650303029 49.946756112847652 0 0 0 0 0.48847053990241207 -1.6820757458227433 0 -1.6820757458227433 7.7300067729444777 0 0 0 0 -3.813717004441969 -5.9154958191284095 0 -5.9154958191284095 57.923094487738126 0 0 0 0 -2.8287742656016235 1.9134986498975195 0 1.9134986498975195 119.5120587035417 0 0 0 0 21.90693653258586 -39.003737322040251 0 -39.003737322040251 63.792604637263139 0 0 0 0 2.0605384333844743 0.40593935012472571 0 0.40593935012472571 -1.0220235014489276 0 0 0 0 67.063232027058802 44.565764004575612 0 44.565764004575612 4.6340187964960933 0 0 0 0 23.320784945505693 -51.996650666578262 0 -51.996650666578262 183.06537815119373 0 0 0 0 35.823446383568353 14.192360402084887 0 14.192360402084887 60.280273090167611 0 0 0 0 44.606759066209406 48.69440467179993 0 48.69440467179993 69.408359042354277 0 0 0 0 58.04700106090695 63.673141662191483 0 63.673141662191483 161.98163684486371 0 0 0 0 46.385899814868935 44.606550459178834 0 44.606550459178834 24.965478170270217 0 0 0 0 69.761738166579221 21.161924004205503 0 21.161924004205503 32.345774814268225 0 0 0 0 25.028086599718335 18.450694064478739 0 18.450694064478739 22.710098327565902 0 0 0 0 2.1981613251091403 38.054347409088223 0 38.054347409088223 27.341814172095837 0 0 0 0 10.749067626068154 35.83422328796587 0 35.83422328796587 42.978062465728726 0 0 0 0 -21.134290082420193 -5.4597362799322582 0 -5.4597362799322582 64.70520957455301 0 0 0 0 -17.523901827760596 11.699663167282779 0 11.699663167282779 51.297875694348477 0 0 0 0 -45.482675985587775 1.0475744141003815 0 1.0475744141003815 47.98224730273796 0 0 0 0 5.159939248014183 8.2780551241981186 0 8.2780551241981186 15.754819661933084 0 0 0 0 25.947639674086027 -27.717860423576553 0 -27.717860423576553 46.460125756188063 0 0 0 0 -33.018341650093134 32.194595497232513 0 32.194595497232513 35.945177952744416 0 0 0 0 26.582272429625391 -9.5843896761616634 0 -9.5843896761616634 41.502714580696193 0 0 0 0 -2.5184451342756304 -0.42366581623799959 0 -0.42366581623799959 7.3848416370121583 0 0 0 0 12.941316690182703 -25.959965692112746 0 -25.959965692112746 49.679703869944206 0 0 0 0 13.205856188207576 -24.981672801848617 0 -24.981672801848617 53.218541979978909 0 0 0 0 14.323125983597038 -22.331711336075386 0 -22.331711336075386 49.709022716995264 0 0 0 0 14.209859901689924 -22.019606394671428 0 -22.019606394671428 51.87258964297871 0 0 0 0 -0.50260956693455228 8.6804512989838258 0 8.6804512989838258 -15.303695846429036 0 0 0 0 -1.8230023308815362 52.58577836448967 0 52.58577836448967 6.3634427796059754 0 0 0 0 3.1915830276953452 5.4024865510321405 0 5.4024865510321405 9.2714330447870168 0 0 0 0 63.95151453707399 -61.019364482439414 0 -61.019364482439414 73.811010495090159 0 0 0 0 40.454958559773331 -34.473319801552861 0 -34.473319801552861 79.852433618389114 0 0 0 0 61.65364358030115 -41.383974587104603 0 -41.383974587104603 33.204420715250308 0 0 0 0 -7.392273129080877 -6.5609423400273954 0 -6.5609423400273954 85.761175162177096 0 0 0 0 -46.04563841186814 -107.71216678929704 0 -107.71216678929704 194.89722834937857 0 0 0 0 23.545714912643916 -44.016201369493501 0 -44.016201369493501 129.47297412666376 0 0 0 0 -35.90133731790047 -18.0581563913438 0 -18.0581563913438 132.70515998186511 0 0 0 0 -32.142217035728663 190.57022570491972 0 190.57022570491972 -105.15342838430297 0 0 0 0 123.96263045992464 -92.131788759477786 0 -92.131788759477786 100.94071114504186 0 0 0 0 -63.21363473162819 -124.37726915749226 0 -124.37726915749226 191.28654388432915 0 0 0 0 137.54557595229406 -178.64923283492271 0 -178.64923283492271 184.37209043492476 0 0 0 0 293.0368705253768 27.823439048548607 0 27.823439048548607 -39.268132964136385 0 0 0 0 1.4892741628648505 1.7521175627708701 0 1.7521175627708701 3.0488293432774185 0 0 0 0 137.11685372018246 331.40667148905959 0 331.40667148905959 -43.691163473515189 0 0 0 0 -106.15618775513758 36.576449827032775 0 36.576449827032775 41.791559003792884 0 0 0 0 42.149641649846217 54.94436347825831 0 54.94436347825831 41.87430239225796 0 0 0 0 58.853335987280843 53.314800804892002 0 53.314800804892002 30.483642008410243 0 0 0 0 60.936917445916606 40.963726845264318 0 40.963726845264318 -16.721873657530523 0 0 0 0 2.8405183983705431 -4.0933762580016122 0 -4.0933762580016122 5.0329029224035366 0 0 0 0 26.605240970121486 9.7110562401176139 0 9.7110562401176139 20.453153977556212 0 0 0 0 46.397042386608064 76.062989655041747 0 76.062989655041747 80.745588032396881 0 0 0 0 33.24244942097971 49.709958906903921 0 49.709958906903921 39.218494095453934 0 0 0 0 61.323189381385632 50.344823595019989 0 50.344823595019989 68.180062224797439 0 0 0 0 2.6745150085421141 -3.538640159609443 0 -3.538640159609443 4.2098887409816683 0 0 0 0 47.190958128477575 76.042551778426059 0 76.042551778426059 84.042973542869731 0 0 0 0 24.804234152438312 32.612564649822161 0 32.612564649822161 54.947332648327574 0 0 0 0 16.908021335264834 34.402495755108248 0 34.402495755108248 89.770209831109241 0 0 0 0 -4.8471440646085284 28.879744494130136 0 28.879744494130136 72.745965459784202 0 0 0 0 -10.483588433925888 7.9684328905495931 0 7.9684328905495931 49.809902703187618 0 0 0 0 -13.956251571124994 25.287691593097406 0 25.287691593097406 54.601001507060573 0 0 0 0 0.63609985816765402 18.109683222362946 0 18.109683222362946 57.004058337814058 0 0 0 0 -16.162957438709782 8.4916637112364697 0 8.4916637112364697 33.621822977125703 0 0 0 0 -13.804367039222598 15.664592030238055 0 15.664592030238055 23.71539614975336 0 0 0 0 -19.807251260528574 4.6771959745383356 0 4.6771959745383356 31.099914764978166 0 0 0 0 -18.463792534498054 10.078360686004089 0 10.078360686004089 51.589026987901889 0 0 0 0 -0.32079696145478565 -1.3513339223070346 0 -1.3513339223070346 8.3089591258659397 0 0 0 0 -5.7501470843158131 2.5144679765398905 0 2.5144679765398905 91.675812518442399 0 0 0 0 -6.984657169045704 37.467212571949858 0 37.467212571949858 18.341026290072477 0 0 0 0 -12.882139678343265 42.275732214096934 0 42.275732214096934 61.246730477410892 0 0 0 0 60.547239562188906 16.675650342302106 0 16.675650342302106 34.344775358127663 0 0 0 0 -2.2291475992713004 37.921754920951571 0 37.921754920951571 93.160105439692416 0 0 0 0 16.551824946234845 8.9358469955477631 0 8.9358469955477631 41.457342873924063 0 0 0 0 3.6427353706464274 -5.0420870097155301 0 -5.0420870097155301 5.2778919002555966 0 0 0 0 15.595821513052442 5.5911354602776555 0 5.5911354602776555 34.586667222421966 0 0 0 0 24.070962681539186 24.358362956401834 0 24.358362956401834 69.854775202715246 0 0 0 0 21.888444651597638 21.718178073731906 0 21.718178073731906 44.323788764872006 0 0 0 0 16.516280532835879 32.038858709158376 0 32.038858709158376 73.519582043583796 0 0 0 0 27.800768703476024 30.891334802425263 0 30.891334802425263 46.483510607407879 0 0 0 0 20.465817562508846 24.982704067042505 0 24.982704067042505 54.027014002436772 0 0 0 0 19.493229292079832 21.352631298417691 0 21.352631298417691 89.108561313179962 0 0 0 0 20.811051989222051 37.119602631850285 0 37.119602631850285 81.148068319365848 0 0 0 0 10.341867384007827 21.581564994261498 0 21.581564994261498 59.906002344272565 0 0 0 0 18.140409032621506 16.870553597882463 0 16.870553597882463 47.087809210046544 0 0 0 0 54.042360406557464 19.29501749101837 0 19.29501749101837 45.728522459325177 0 0 0 0 48.579044036296182 31.643625899399922 0 31.643625899399922 69.609986764116911 0 0 0 0 118.94048583277515 17.541761694032175 0 17.541761694032175 72.255002677833545 0 0 0 0 32.299364540641363 9.3339277017403219 0 9.3339277017403219 146.06068039901584 0 0 0 0 41.240900576149215 85.208658744355489 0 85.208658744355489 114.0070041440249 0 0 0 0 16.045288800932383 43.100391724470683 0 43.100391724470683 93.02456965361489 0 0 0 0 21.7107389576909 61.777455763028229 0 61.777455763028229 79.282848673654371 0 0 0 0 9.2395102252830554 42.143610786497447 0 42.143610786497447 60.242397399699257 0 0 0 0 13.690149182745927 41.09728622550756 0 41.09728622550756 48.552502441649267 0 0 0 0 30.894405871660297 45.910739744028433 0 45.910739744028433 46.124419166328153 0 0 0 0 22.930503447167723 40.27401395173365 0 40.27401395173365 37.725277912606543 0 0 0 0 -7.3473955729698366 2.4333746727658934 0 2.4333746727658934 -1.3303751069595364 0 0 0 0 -4.4612182809505612 12.101180844914779 0 12.101180844914779 29.965849356006402 0 0 0 0 -37.293678729686405 76.671109277904179 0 76.671109277904179 134.77161458726187 0 0 0 0 6.5936880904649229 45.404020340647321 0 45.404020340647321 62.536405619648576 0 0 0 0 13.5008033595509 4.2490241060004337 0 4.2490241060004337 28.581646920752974 0 0 0 0 -4.7723328760004717 1.2693564480415915 0 1.2693564480415915 0.43080726172286177 0 0 0 0 16.736475497803042 40.868380063544464 0 40.868380063544464 55.400636502497946 0 0 0 0 12.486009071547301 42.615666502615568 0 42.615666502615568 54.781963176785212 0 0 0 0 17.539380690163739 55.569369021053717 0 55.569369021053717 106.39624561693563 0 0 0 0 61.65714288431991 31.117795163620031 0 31.117795163620031 59.962995044097624 0 0 0 0 72.000847185158818 72.629494592906667 0 72.629494592906667 66.319930952769937 0 0 0 0 26.788868969802252 45.810873161819472 0 45.810873161819472 50.701645078901493 0 0 0 0 13.490864445169194 55.957171978800034 0 55.957171978800034 74.878679929537611 0 0 0 0 17.217973850388319 45.80599981090927 0 45.80599981090927 63.904243013894302 0 0 0 0 27.592960272909295 52.758705208867468 0 52.758705208867468 68.515133378816245 0 0 0 0 53.694397029063794 34.772349069253323 0 34.772349069253323 46.69492595801421 0 0 0 0 1.7556354034584274 -2.7012268683743343 0 -2.7012268683743343 5.0653842770852862 0 0 0 0 48.144807185719628 27.69317465731001 0 27.69317465731001 37.664912158346851 0 0 0 0 1.1762745075361147 -10.610033712991246 0 -10.610033712991246 22.754274479216846 0 0 0 0 20.934558125465628 -22.876161838012194 0 -22.876161838012194 -21.278224688590853 0 0 0 0 0.030938083446244491 -11.115549996306072 0 -11.115549996306072 42.877519825422496 0 0 0 0 2.7627365224620917 6.5906120071631449 0 6.5906120071631449 7.7745935320999706 0 0 0 0 75.128376791031087 41.398687354786261 0 41.398687354786261 27.425186789441796 0 0 0 0 -0.27242300068584813 1.1912542537323709 0 1.1912542537323709 2.3440398932646929 0 0 0 0 148.77080347111769 108.07893723456073 0 108.07893723456073 87.746132693799154 0 0 0 0 64.831635006939678 10.632444132075761 0 10.632444132075761 191.56229409830485 0 0 0 0 -14.244130555916854 -39.801922086040577 0 -39.801922086040577 188.49285318535112 0 0 0 0 103.84687625786091 -52.204912751054508 0 -52.204912751054508 41.414845773670095 0 0 0 0 132.07301118291181 131.30322238765075 0 131.30322238765075 90.675215511953866 0 0 0 0 -35.655091329188053 44.424160399492393 0 44.424160399492393 56.488041979457194 0 0 0 0 151.1669509645709 -35.836395880864757 0 -35.836395880864757 17.027095003053546 0 0 0 0 -27.462402122538151 128.54308893435882 0 128.54308893435882 19.270000700656965 0 0 0 0 20.155625791201444 19.569499503213258 0 19.569499503213258 18.574578858862907 0 0 0 0 -47.72479036721893 55.798872955249863 0 55.798872955249863 32.780827155882434 0 0 0 0 -5.1368178078978417 101.56710100117198 0 101.56710100117198 -53.012854999444244 0 0 0 0 -56.841626528901543 45.331121762184921 0 45.331121762184921 84.52564115934365 0 0 0 0 -29.755045151238392 2.2355588975879073 0 2.2355588975879073 67.766410066127719 0 0 0 0 -24.252417003277969 -1.17297196848358 0 -1.17297196848358 49.524834985211783 0 0 0 0 -3.9373891317198266 -2.6833708612809346 0 -2.6833708612809346 16.962796045816845 0 0 0 0 -36.423641338989114 21.152560914962123 0 21.152560914962123 31.754652153911593 0 0 0 0 14.74953083394513 -4.5509444797698961 0 -4.5509444797698961 13.109885487388965 0 0 0 0 5.4348635953309454 3.7185762875567434 0 3.7185762875567434 25.816722023628245 0 0 0 0 -3.6010780261302928 -9.8400362672062514 0 -9.8400362672062514 16.261848397197951 0 0 0 0 -6.4646358517924511 -70.614572843403948 0 -70.614572843403948 37.127772189043753 0 0 0 0 2.8447944346045233 -13.81103133864417 0 -13.81103133864417 26.145932867340889 0 0 0 0 3.3971510659450814 -0.40047521249107376 0 -0.40047521249107376 37.833936533104861 0 0 0 0 17.438218721525004 -6.5205537888687104 0 -6.5205537888687104 34.541853993445329 0 0 0 0 15.735852063303554 4.0392138920533398 0 4.0392138920533398 43.612509616294119 0 0 0 0 3.2290095554353124 -22.100848297751597 0 -22.100848297751597 30.781339234365809 0 0 0 0 16.362178247754521 9.4170056760453917 0 9.4170056760453917 77.026726325893833 0 0 0 0 6.0342304247567427 -3.8491239506211059 0 -3.8491239506211059 62.034107410225261 0 0 0 0 18.915765729740883 2.3780050110708544 0 2.3780050110708544 53.051441729710405 0 0 0 0 7.2885347951076369 -8.77334643118229 0 -8.77334643118229 52.31888592894029 0 0 0 0 -1.5654301830190889 -6.8294965292061534 0 -6.8294965292061534 48.510040354631201 0 0 0 0 0.66858453515988003 11.481981400251243 0 11.481981400251243 40.889869876969897 0 0 0 0 0.56453339529433988 -3.3104672171042555 0 -3.3104672171042555 35.770105252061342 0 0 0 0 4.4962535842657214 -4.5093724123722296 0 -4.5093724123722296 9.9353964844113705 0 0 0 0 -17.411308598753294 -13.552443439548369 0 -13.552443439548369 69.810655907276669 0 0 0 0 7.1923502146150895 -2.4787953432714858 0 -2.4787953432714858 44.215088698192631 0 0 0 0 2.1433213227410306 1.8123289737850428 0 1.8123289737850428 61.384313349473814 0 0 0 0 -2.0048737731652166 0.12324143217501593 0 0.12324143217501593 47.652928236109403 0 0 0 0 -3.2318861616868162 6.0845804883192613 0 6.0845804883192613 58.388978205101012 0 0 0 0 -4.823418192909287 0.85009166897998512 0 0.85009166897998512 29.489307265976095 0 0 0 0 -2.5407856352506069 5.8141988781841203 0 5.8141988781841203 30.018689332633187 0 0 0 0 0.7090848340385687 10.593522942576215 0 10.593522942576215 18.43365995686095 0 0 0 0 0.50840031352167259 5.7820720997255108 0 5.7820720997255108 12.77397998686078 0 0 0 0 3.2429575494984419 13.258009338194825 0 13.258009338194825 48.225378251350776 0 0 0 0 -110.1423798249948 -221.58872182142568 0 -221.58872182142568 -227.18193556570623 0 0 0 0 315.4021092790581 307.10589755591354 0 307.10589755591354 -167.21017273190228 0 0 0 0 3.8704688895951254 40.910903666436781 0 40.910903666436781 25.875703212267656 0 0 0 0 8.092393778167434 2.0065527683364053 0 2.0065527683364053 126.31836792349259 0 0 0 0 21.052991802649387 9.8743378674780615 0 9.8743378674780615 88.539214572418132 0 0 0 0 6.7060583644149006 9.2912156439115279 0 9.2912156439115279 67.818220772725908 0 0 0 0 1.1631492564254104 -16.594446331392547 0 -16.594446331392547 40.526587870233939 0 0 0 0 -51.487702967307541 -170.52315145682223 0 -170.52315145682223 94.475327376720088 0 0 0 0 46.79846493036257 -423.31797255670972 0 -423.31797255670972 744.33356626560544 0 0 0 0 -267.01125059114304 -213.30264162987805 0 -213.30264162987805 398.99593903008645 0 0 0 0 -147.91467546811191 -156.66066714459885 0 -156.66066714459885 213.30343607013856 0 0 0 0 -191.02479454402703 88.990122608520323 0 88.990122608520323 389.35904017197026 0 0 0 0 -127.02859309079872 26.323345636777958 0 26.323345636777958 165.02391213111696 0 0 0 0 -161.060475414861 31.415797108395054 0 31.415797108395054 281.06986942676303 0 0 0 0 -104.13132727426455 343.92156898168105 0 343.92156898168105 908.26516799684759 0 0 0 0 -151.69921700381656 123.50387168992529 0 123.50387168992529 227.67064097876573 0 0 0 0 -399.16491852576371 -64.297348850503568 0 -64.297348850503568 1100.9469215857243 0 0 0 0 996.29737013948215 258.08914153842852 0 258.08914153842852 -108.42821656945671 0 0 0 0 -2.1310697320314245 1.20889440407724 0 1.20889440407724 25.949882513010721 0 0 0 0 1.8380461496706273 -2.0590024565250502 0 -2.0590024565250502 5.7232566041302846 0 0 0 0 -343.00583141179328 -229.53969535458964 0 -229.53969535458964 128.35898422959872 0 0 0 0 -0.39651223217538245 12.498247508137865 0 12.498247508137865 35.696088787852204 0 0 0 0 -163.1797215739366 327.74758322990238 0 327.74758322990238 674.19384476489722 0 0 0 0 -189.20585751478916 299.08597799024938 0 299.08597799024938 688.01346982495306 0 0 0 0 1.1305531783260356 -3.555542083543946 0 -3.555542083543946 13.548626872703778 0 0 0 0 3.2194661593366618 530.58677043065472 0 530.58677043065472 606.89028617069926 0 0 0 0 501.63953107464135 -252.84390751125102 0 -252.84390751125102 -111.74519980795594 0 0 0 0 -142.26829646702618 304.46714683207756 0 304.46714683207756 324.29725402143958 0 0 0 0 -36.009699571538931 104.30559180151067 0 104.30559180151067 -302.1533237221156 0 0 0 0 -105.74430101623693 134.76344869782588 0 134.76344869782588 451.54727632208233 0 0 0 0 -433.85660478430145 -142.83689451758255 0 -142.83689451758255 80.425572561924582 0 0 0 0 -41.937117532224875 187.81443477572611 0 187.81443477572611 104.20617656902323 0 0 0 0 -131.30894690490595 103.64393826420928 0 103.64393826420928 156.27585076657124 0 0 0 0 -142.11453705074234 195.6574544867558 0 195.6574544867558 346.83848087389197 0 0 0 0 -612.56453371705561 218.85954156325533 0 218.85954156325533 90.868228860810632 0 0 0 0 -376.18176415283961 -56.67924258588755 0 -56.67924258588755 183.24756379244536 0 0 0 0 -96.856642201916657 -21.436813083344532 0 -21.436813083344532 208.05479940414079 0 0 0 0 -154.35154677224909 87.331749842065619 0 87.331749842065619 67.756205470723216 0 0 0 0 0.66571648628197133 -8.6183389002225539 0 -8.6183389002225539 35.559756037279868 0 0 0 0 -118.65637209476728 -2185.963228245032 0 -2185.963228245032 505.42889104777714 0 0 0 0 -227.42859625641086 48.093539994799357 0 48.093539994799357 -72.875696802744642 0 0 0 0 -770.08357157400451 -47.176885035507439 0 -47.176885035507439 295.94329720201495 0 0 0 0 4.8119441780775034 -1.8862869724644753 0 -1.8862869724644753 -0.055292915114627306 0 0 0 0 140.18571511787195 -85.565655374506605 0 -85.565655374506605 -177.29798806001872 0 0 0 0 -168.42303813073522 19.69205870778751 0 19.69205870778751 -128.05312514693833 0 0 0 0 90.062383545859916 -227.29913860463148 0 -227.29913860463148 -68.465911417602911 0 0 0 0 -111.65851088459078 -86.219659742657313 0 -86.219659742657313 -4.7743718992423965 0 0 0 0 -272.81822001311502 -296.14452038067975 0 -296.14452038067975 143.85119504883914 0 0 0 0 -149.64261558839689 -221.89966739596275 0 -221.89966739596275 -88.918338807707187 0 0 0 0 -251.4019504966509 -20.128209301976312 0 -20.128209301976312 -13.221637721871957 0 0 0 0 -426.34833824644193 357.28740021109115 0 357.28740021109115 -134.56688496166316 0 0 0 0 -4.4928695213459413 -4.7200408286546036 0 -4.7200408286546036 16.195828332929878 0 0 0 0 67.073463290013933 -45.884396963567269 0 -45.884396963567269 304.27398770663058 0 0 0 0 -165.25870075593593 404.68548956798622 0 404.68548956798622 556.60194061005132 0 0 0 0 10.320110904169546 -1.6379577057565626 0 -1.6379577057565626 11.053876333234655 0 0 0 0 -189.15048560235584 96.061938510086122 0 96.061938510086122 779.86750686476444 0 0 0 0 -190.32024425922907 58.685763353698007 0 58.685763353698007 1240.9155443162526 0 0 0 0 -114.38074201926975 -267.06811512892455 0 -267.06811512892455 1162.9897455572445 0 0 0 0 386.60451401149612 -926.94629868052834 0 -926.94629868052834 1839.5473146282238 0 0 0 0 -179.93992045355486 206.19323850161527 0 206.19323850161527 2012.6126678267683 0 0 0 0 8.1647584053116589 -64.535270942065836 0 -64.535270942065836 566.65292607154356 0 0 0 0 9.948183953871931 10.517583748214541 0 10.517583748214541 13.942199846477891 0 0 0 0 91.425034713633067 -298.63967887359286 0 -298.63967887359286 559.02462858713989 0 0 0 0 -139.02836117504103 -182.73756151149064 0 -182.73756151149064 879.81715661604539 0 0 0 0 -83.945059403629784 41.738525617220148 0 41.738525617220148 729.39553468106715 0 0 0 0 51.426721306594118 -123.66010950254076 0 -123.66010950254076 398.8262710648778 0 0 0 0 -16.385212840869414 5.4325063028191209 0 5.4325063028191209 16.560823504971111 0 0 0 0 -159.27136883913244 -250.24722897225729 0 -250.24722897225729 -379.03755413828276 0 0 0 0 -297.49729467055141 -381.48663321579443 0 -381.48663321579443 -194.28121399877637 0 0 0 0 -1.1608377695366503 5.7699850414582556 0 5.7699850414582556 10.839675634053142 0 0 0 0 17.564885178638249 -20.05385120605338 0 -20.05385120605338 16.664159673198334 0 0 0 0 -371.28664808606345 -171.32358684225619 0 -171.32358684225619 -25.44621661502606 0 0 0 0 3.9352055786052667 32.248910232374243 0 32.248910232374243 46.861425473088673 0 0 0 0 -58.158067488102347 -7.3912248448295514 0 -7.3912248448295514 13.944943065448019 0 0 0 0 44.200944525089994 -242.95625188071881 0 -242.95625188071881 1390.5795623358172 0 0 0 0 74.00631876813253 -485.1201662861331 0 -485.1201662861331 2494.6812800774751 0 0 0 0 0.74298751635659221 2.245260115710316 0 2.245260115710316 13.448375605902868 0 0 0 0 259.03089342556814 434.52861034931266 0 434.52861034931266 413.36912629092694 0 0 0 0 -43.531903016822199 46.574867363699013 0 46.574867363699013 26.641375788868572 0 0 0 0 9.2635212182037687 -5.9065927098739053 0 -5.9065927098739053 5.4275145861032783 0 0 0 0 727.69067642449454 -598.44697506874218 0 -598.44697506874218 -139.31622655340107 0 0 0 0 -102.25127429426063 683.25879833009094 0 683.25879833009094 2499.05410349456 0 0 0 0 57.04728601398142 175.07436122727449 0 175.07436122727449 9.1167767188962898 0 0 0 0 -102.3232912864233 683.08338909615486 0 683.08338909615486 2500.5700425144969 0 0 0 0 -142.53950161425564 -215.01730396982748 0 -215.01730396982748 94.476754725001229 0 0 0 0 -220.73163042259529 205.84893781643814 0 205.84893781643814 162.95382645716018 0 0 0 0 -871.63603648778007 661.1681781962543 0 661.1681781962543 1913.2665382832274 0 0 0 0 2295.6858528295083 477.09732388610064 0 477.09732388610064 347.46711106012663 0 0 0 0 -20.540989910191698 -4.2702397415424116 0 -4.2702397415424116 -1.7849742089393317 0 0 0 0 -18.205260957088058 105.40452043541154 0 105.40452043541154 211.16874100463974 0 0 0 0 250.90467398239775 73.758148792658176 0 73.758148792658176 61.284250851909746 0 0 0 0 -692.45624878490048 -771.22047860632301 0 -771.22047860632301 1555.0807063387547 0 0 0 0 -0.61463189694017251 -2.0329640895250307 0 -2.0329640895250307 23.474581047840559 0 0 0 0 191.36912099756148 -702.84570679400895 0 -702.84570679400895 346.28782742917247 0 0 0 0 -685.19030697904236 1572.2183232638818 0 1572.2183232638818 1505.2006110529037 0 0 0 0 -369.60500914961403 -625.71444398714812 0 -625.71444398714812 596.85562521418615 0 0 0 0 -15.01777844417154 -1023.5760241751977 0 -1023.5760241751977 1036.5486538263795 0 0 0 0 299.58500362277118 650.57735052210046 0 650.57735052210046 132.10088506753891 0 0 0 0 913.14218001193876 940.69421665208574 0 940.69421665208574 267.81195121338533 0 0 0 0 -1004.8651666666028 -205.7979289846553 0 -205.7979289846553 536.31692682535504 0 0 0 0 -483.27577141349684 1424.6014616319299 0 1424.6014616319299 1483.6803861674416 0 0 0 0 -599.15750955434942 1156.4729512031663 0 1156.4729512031663 881.912808011999 0 0 0 0 -47.279022449803961 1557.1581793521109 0 1557.1581793521109 940.12604325418124 0 0 0 0 2408.1923351161331 -42.123797020962229 0 -42.123797020962229 48.143388111806416 0 0 0 0 875.5943617948119 2288.5572470219222 0 2288.5572470219222 955.74332732049515 0 0 0 0 -600.61313072265693 2016.1927951122889 0 2016.1927951122889 2164.537950971906 0 0 0 0 429.3333815439928 1038.1556217676953 0 1038.1556217676953 -2801.0890063905099 0 0 0 0 588.81701751797118 -9.0399581426900113 0 -9.0399581426900113 3778.5978871317202 0 0 0 0 -23.782905624850997 -625.26290803756274 0 -625.26290803756274 548.87127132112801 0 0 0 0 9.9218009149944919 -375.44511563060223 0 -375.44511563060223 -163.30110015282116 0 0 0 0 -188.96177902999352 82.687751864257734 0 82.687751864257734 -321.81797853444004 0 0 0 0 -93.119319399510459 -257.1361216367186 0 -257.1361216367186 165.69636878331221 0 0 0 0 -31.815506466533407 -229.21658972786827 0 -229.21658972786827 143.493997763062 0 0 0 0 -109.83973788267019 -274.63150015875362 0 -274.63150015875362 381.8897975004802 0 0 0 0 -104.68293218313329 -151.20281467815948 0 -151.20281467815948 740.69016263623962 0 0 0 0 -381.3975818735546 -336.23857960939495 0 -336.23857960939495 700.09711089020311 0 0 0 0 -63.121516199477526 -0.17069063366216142 0 -0.17069063366216142 787.45894425721053 0 0 0 0 -164.68661672852636 -86.878039672970772 0 -86.878039672970772 714.26933298417134 0 0 0 0 -75.50574445903402 -362.66738024462393 0 -362.66738024462393 765.75696094961677 0 0 0 0 -349.06624050430389 -98.915901859309088 0 -98.915901859309088 535.62965837394586 0 0 0 0 -288.46659038450525 -106.59795941850462 0 -106.59795941850462 1008.3078611032106 0 0 0 0 -338.18517833746978 -510.98237151611465 0 -510.98237151611465 981.28334034277941 0 0 0 0 -929.4806072699032 -286.50687131575978 0 -286.50687131575978 1040.4380105762284 0 0 0 0 244.06357806713572 -639.38069325774268 0 -639.38069325774268 1067.0871991476379 0 0 0 0 -303.30921867931636 -768.95513907140776 0 -768.95513907140776 1819.3774395774672 0 0 0 0 397.62878607066193 -665.837677545318 0 -665.837677545318 998.95009535489498 0 0 0 0 -3.2609337564994285 -0.55063272475229041 0 -0.55063272475229041 1.3692728871586297 0 0 0 0 57.956443724330732 -1419.6012143697408 0 -1419.6012143697408 2494.7622774185329 0 0 0 0 1018.322226517832 -1454.3140951499518 0 -1454.3140951499518 908.90104112045083 0 0 0 0 33.461458570915738 -748.96235888028787 0 -748.96235888028787 2006.8815699707484 0 0 0 0 -176.12351794481677 -840.68420730430444 0 -840.68420730430444 2500.7766567781846 0 0 0 0 -70.141309916642456 -1026.4317376164508 0 -1026.4317376164508 1794.1742279194405 0 0 0 0 131.3176345522802 -779.92842668574667 0 -779.92842668574667 1403.5991151810667 0 0 0 0 179.02385176903852 -538.29611661890885 0 -538.29611661890885 2052.7471461584209 0 0 0 0 335.111155548277 -202.69982638190777 0 -202.69982638190777 2041.4598324690596 0 0 0 0 261.78332446281047 -392.85742937305622 0 -392.85742937305622 1590.2845096312958 0 0 0 0 1.6336627116813531 -219.41921281505711 0 -219.41921281505711 1555.6569667537296 0 0 0 0 -77.948130277201926 -399.86947627232439 0 -399.86947627232439 1198.2550414439102 0 0 0 0 -69.440098958485024 113.05991495421949 0 113.05991495421949 1308.5402782954916 0 0 0 0 223.60923932825287 232.15303600356856 0 232.15303600356856 868.85116255377579 0 0 0 0 257.75548806871745 507.94457648602474 0 507.94457648602474 1677.2211095915095 0 0 0 0 -226.06366164682657 -94.427726191719557 0 -94.427726191719557 6.8049150140432175 0 0 0 0 -7.6329256979707907 153.45781896356311 0 153.45781896356311 -10.048127911126358 0 0 0 0 -11.632813394486007 19.520222723313054 0 19.520222723313054 19.304782404649814 0 0 0 0 -2.588080431496504 -6.5536707763247932 0 -6.5536707763247932 13.299902042540054 0 0 0 0 236.96653961483605 408.22524983748008 0 408.22524983748008 947.60583239818698 0 0 0 0 92.425579766916144 221.19610568211283 0 221.19610568211283 653.91993733344134 0 0 0 0 142.4697347786182 209.41603956404833 0 209.41603956404833 529.43243163263105 0 0 0 0 -33.043205608209064 94.660129441639583 0 94.660129441639583 416.3947436983135 0 0 0 0 12.609394078064952 71.544905951908731 0 71.544905951908731 376.78845140052726 0 0 0 0 53.265796565103301 315.24544144896936 0 315.24544144896936 371.18594537813442 0 0 0 0 172.44098135581044 281.63654163544197 0 281.63654163544197 373.49815176966513 0 0 0 0 -12.159537501507202 149.45669438027107 0 149.45669438027107 298.98023904559523 0 0 0 0 48.914487669970868 283.59051432282286 0 283.59051432282286 477.00767892274962 0 0 0 0 -4.5159986129007423 -7.9967584412314068 0 -7.9967584412314068 15.717183375089846 0 0 0 0 173.49779881793677 376.88905530312695 0 376.88905530312695 615.66010585939694 0 0 0 0 -49.08031187987865 -47.580327674135333 0 -47.580327674135333 0.16948547030915506 0 0 0 0 -30.712209616585085 -6.3525490104407254 0 -6.3525490104407254 51.898095579017536 0 0 0 0 -28.324421467554657 -21.209955959442595 0 -21.209955959442595 30.865284005660214 0 0 0 0 60.854662068845073 282.37886036010241 0 282.37886036010241 470.62298997386097 0 0 0 0 -4.7455654220314418 -7.5077808043581911 0 -7.5077808043581911 20.183639576289778 0 0 0 0 16.391370909750094 81.466679368582845 0 81.466679368582845 549.79932661447128 0 0 0 0 0.21777425357037528 -3.0657291670380591 0 -3.0657291670380591 0.23571385617691476 0 0 0 0 -19.831333365335922 -3.9302319526577776 0 -3.9302319526577776 34.604651756679232 0 0 0 0 -20.093747882141656 -3.0951460034630145 0 -3.0951460034630145 36.933618351060431 0 0 0 0 -12.583078804011848 2.8078226852903754 0 2.8078226852903754 44.621086579587427 0 0 0 0 -23.709643094657395 -5.7147491147516121 0 -5.7147491147516121 48.22885719891201 0 0 0 0 -1.3957337281426589 38.388192225116654 0 38.388192225116654 73.347183406178374 0 0 0 0 -18.626487199745497 2.9890461603499716 0 2.9890461603499716 63.094318360193938 0 0 0 0 3.242478198706408 34.711645666771801 0 34.711645666771801 75.203964743823235 0 0 0 0 37.590792706231014 67.681757927661238 0 67.681757927661238 90.964699563672184 0 0 0 0 -22.266629283986958 7.0546266477758763 0 7.0546266477758763 73.454546136512363 0 0 0 0 -10.394717274427919 32.471461248056585 0 32.471461248056585 96.481884237546183 0 0 0 0 35.764588357157322 52.180499119069282 0 52.180499119069282 74.284057343764289 0 0 0 0 -0.9200064425212986 9.7989272020449789 0 9.7989272020449789 48.409914378797112 0 0 0 0 -65.824652413463014 7.5543594213759206 0 7.5543594213759206 66.478432956471806 0 0 0 0 173.25008506582958 -97.503305057747639 0 -97.503305057747639 228.28015314791992 0 0 0 0 376.71126564063206 -151.15333803881708 0 -151.15333803881708 -24.810289601577097 0 0 0 0 263.2464941754065 -24.89359692515427 0 -24.89359692515427 -30.062024835807279 0 0 0 0 185.4696932095826 0.75369817674800288 0 0.75369817674800288 51.675158137074277 0 0 0 0 50.412042545927761 17.843785680281144 0 17.843785680281144 148.90390477707842 0 0 0 0 95.604656385897215 19.474468662010622 0 19.474468662010622 52.295685100628816 0 0 0 0 45.386336003365955 64.973005404372088 0 64.973005404372088 83.401564571926428 0 0 0 0 62.353946611507126 83.962212810853089 0 83.962212810853089 103.11151282896753 0 0 0 0 1.3162784408083112 -1.6188595711906544 0 -1.6188595711906544 2.0746432784280984 0 0 0 0 549.79139238564312 -208.45970436099742 0 -208.45970436099742 103.49449813285901 0 0 0 0 72.362436358423338 48.429162636148249 0 48.429162636148249 218.12711737422524 0 0 0 0 217.35218308845469 20.579642354125099 0 20.579642354125099 176.91872358351247 0 0 0 0 100.13968806210141 -45.630275211427943 0 -45.630275211427943 251.59630315404866 0 0 0 0 76.425632387202313 -111.02855244462626 0 -111.02855244462626 99.717052718493505 0 0 0 0 -16.429526816963971 -135.53258108270893 0 -135.53258108270893 -138.36292880091059 0 0 0 0 14.497491250291205 -34.544964305161557 0 -34.544964305161557 186.88569745655695 0 0 0 0 113.53845823216193 -116.88018836684932 0 -116.88018836684932 141.77408338458918 0 0 0 0 -205.13427626622888 159.99716729171632 0 159.99716729171632 -2.0732217604818288 0 0 0 0 -29.997508377759967 55.126350803962055 0 55.126350803962055 -61.207830625979113 0 0 0 0 -181.44705724335245 -44.666586056220694 0 -44.666586056220694 190.29810661035299 0 0 0 0 -0.030687906282095945 0.53089724066350996 0 0.53089724066350996 1.5882560576873743 0 0 0 0 1.6732290864636736 12.811465615433782 0 12.811465615433782 46.396847682700354 0 0 0 0 -224.53784534047173 3.6856137684462738 0 3.6856137684462738 60.129564209870296 0 0 0 0 -114.95933981062103 67.692863999136534 0 67.692863999136534 -50.06625832861755 0 0 0 0 36.097238605833475 -633.63809352317719 0 -633.63809352317719 589.07466693551396 0 0 0 0 0.53884834009245752 1.76979390757392 0 1.76979390757392 2.2132361242648813 0 0 0 0 -245.42024455926094 176.94057987362248 0 176.94057987362248 81.289953940766281 0 0 0 0 2.3278879361796498 41.369477633321367 0 41.369477633321367 25.383288727593026 0 0 0 0 344.4158812614312 240.97885583702555 0 240.97885583702555 70.942859830189263 0 0 0 0 14.753851455197037 269.58008781256649 0 269.58008781256649 -20.584025557127461 0 0 0 0 142.91340968662007 107.00867278844089 0 107.00867278844089 8.6527679895152687 0 0 0 0 -201.72873064896521 -119.67756183572965 0 -119.67756183572965 -44.362013883306645 0 0 0 0 -404.28524691040639 -7.645214005773596 0 -7.645214005773596 171.30645427061245 0 0 0 0 205.81075307014908 -161.96803077654477 0 -161.96803077654477 -318.87879947529655 0 0 0 0 190.0452073260509 -402.27104805613453 0 -402.27104805613453 178.04264727127156 0 0 0 0 0.49249424728322255 9.491743605063526 0 9.491743605063526 39.101112822145495 0 0 0 0 42.61776379395485 184.80763063063932 0 184.80763063063932 445.88320121399011 0 0 0 0 349.71184103234395 -25.154693483527808 0 -25.154693483527808 -278.41836990621232 0 0 0 0 462.41870586509123 -826.89918635225331 0 -826.89918635225331 503.26970170381537 0 0 0 0 765.61796930208016 -474.02657582155371 0 -474.02657582155371 -239.4471077778262 0 0 0 0 321.36824089718834 -807.01952797820559 0 -807.01952797820559 1283.7977494646329 0 0 0 0 317.74038753404261 -788.56446289570158 0 -788.56446289570158 1822.4030280195439 0 0 0 0 199.84463689030019 -405.24538077792386 0 -405.24538077792386 788.06250878916762 0 0 0 0 1.204734729801662 1.7654262830294343 0 1.7654262830294343 0.16199069554934908 0 0 0 0 1005.5638072164472 -1222.8959670221993 0 -1222.8959670221993 1767.1797686705831 0 0 0 0 0.22120950828485153 2.6173409172054676 0 2.6173409172054676 17.092973195231991 0 0 0 0 -355.03075578050129 509.97786398199969 0 509.97786398199969 1426.3425256824703 0 0 0 0 267.61221966180256 247.15236445308983 0 247.15236445308983 304.53153480144101 0 0 0 0 30.914066211807835 147.10538143903614 0 147.10538143903614 -266.06281302771458 0 0 0 0 1001.3289183334305 -965.3632122724448 0 -965.3632122724448 625.59481357075856 0 0 0 0 263.58860309120973 325.80985870680161 0 325.80985870680161 1017.6966742958029 0 0 0 0 394.90303524947296 141.01395124527698 0 141.01395124527698 230.0833317306824 0 0 0 0 346.93931926963978 260.48623415348993 0 260.48623415348993 789.11740303162151 0 0 0 0 447.89071965761559 199.97820908654467 0 199.97820908654467 -29.717492627984029 0 0 0 0 338.70834599025079 51.238537422999798 0 51.238537422999798 269.7534784112504 0 0 0 0 333.58398070211797 153.69103485469532 0 153.69103485469532 229.39408015488016 0 0 0 0 378.38719061805568 82.726906100680935 0 82.726906100680935 -234.43578762923426 0 0 0 0 300.48598173751259 73.658742336840078 0 73.658742336840078 -97.69694611155137 0 0 0 0 286.08998940386346 66.335068119245989 0 66.335068119245989 -74.735966772873326 0 0 0 0 247.4763789455684 4.4829442449517956 0 4.4829442449517956 -82.160451675401418 0 0 0 0 353.4225522911554 43.024133750863257 0 43.024133750863257 -161.83798356434272 0 0 0 0 233.91224654853568 -100.70599773659342 0 -100.70599773659342 -178.80968043368193 0 0 0 0 223.8027560562623 142.18780888980109 0 142.18780888980109 12.372233490474173 0 0 0 0 51.366122621879072 109.73789311528526 0 109.73789311528526 20.556622008167324 0 0 0 0 -120.97133479713966 -490.21681033662753 0 -490.21681033662753 854.85685340886266 0 0 0 0 47.734287916670382 74.748040716913238 0 74.748040716913238 91.516371218502172 0 0 0 0 -36.60841007620661 -522.99979024117783 0 -522.99979024117783 -169.64611201042499 0 0 0 0 301.14617863867886 223.59314487892425 0 223.59314487892425 144.70246667887841 0 0 0 0 -0.85085678122934905 -2.7104115000474849 0 -2.7104115000474849 6.5152000694078396 0 0 0 0 215.52537993048972 507.94462537553864 0 507.94462537553864 2694.4633761240693 0 0 0 0 329.65400480047629 -246.61330602179805 0 -246.61330602179805 2112.7658502676059 0 0 0 0 5.2852058405685511 -2.2830764567843289 0 -2.2830764567843289 2252.9597836786561 0 0 0 0 82.959813489475891 -137.55724934845784 0 -137.55724934845784 894.32555051312738 0 0 0 0 -127.91695650278973 -195.39427866079859 0 -195.39427866079859 2138.2709947472758 0 0 0 0 8.1952522574438262 -2.6124732409734861 0 -2.6124732409734861 2261.2118781357785 0 0 0 0 244.70469479775238 -351.2306924762961 0 -351.2306924762961 2216.9917544490872 0 0 0 0 -139.9992216730061 -512.53254964924417 0 -512.53254964924417 3208.1668870412104 0 0 0 0 1369.2265046258717 -663.00649122943287 0 -663.00649122943287 2332.1432592840865 0 0 0 0 965.52366232984741 -686.58064020649181 0 -686.58064020649181 2333.0070322848624 0 0 0 0 460.0111037468065 -401.00189258947285 0 -401.00189258947285 2186.1715239663172 0 0 0 0 463.21662085438885 -393.50537878960495 0 -393.50537878960495 2113.2042515752255 0 0 0 0 338.63448446368795 -197.12811891892488 0 -197.12811891892488 2373.9320629102585 0 0 0 0 367.96692790983968 -395.94944909557671 0 -395.94944909557671 2143.3890706754428 0 0 0 0 359.57460168214828 -491.6149363217628 0 -491.6149363217628 1833.5071767027839 0 0 0 0 579.0028790195488 -436.66575255162388 0 -436.66575255162388 2093.9044374969599 0 0 0 0 485.84964067423732 -375.10806455666898 0 -375.10806455666898 2079.3767958835597 0 0 0 0 263.99427650821968 -371.46927229089124 0 -371.46927229089124 2079.5391667992299 0 0 0 0 193.5284861353322 -465.29423498544202 0 -465.29423498544202 2499.9698790777984 0 0 0 0 0.059538399152682712 1.0350655443975256 0 1.0350655443975256 5.1898170467431584 0 0 0 0 310.22553756989839 23.344841003796319 0 23.344841003796319 1561.8481627894362 0 0 0 0 289.15558739811814 -205.63494260873995 0 -205.63494260873995 1097.8636218949105 0 0 0 0 306.3385252798937 16.936680069520662 0 16.936680069520662 1940.7063893386076 0 0 0 0 322.01227688866504 -201.37414123810595 0 -201.37414123810595 2497.0779212074763 0 0 0 0 306.37392438109259 -301.78690454768366 0 -301.78690454768366 2033.6501636742105 0 0 0 0 616.35605375500268 -224.60986814209173 0 -224.60986814209173 2002.5900946565162 0 0 0 0 44.827897656266373 -258.76975013824995 0 -258.76975013824995 2093.1340428952535 0 0 0 0 247.2603774518829 -155.9470259525242 0 -155.9470259525242 1969.9330775994604 0 0 0 0 39.981520456908015 -352.64077814426128 0 -352.64077814426128 1790.4766416093407 0 0 0 0 -63.369066400764261 -214.99818024522028 0 -214.99818024522028 1994.9188185565581 0 0 0 0 6.9278344979522721 -177.62875329335839 0 -177.62875329335839 2107.8327798598766 0 0 0 0 41.386368458177913 -170.41512178129778 0 -170.41512178129778 2190.777849982027 0 0 0 0 -116.03870461861746 -229.74497492051887 0 -229.74497492051887 2173.5657009688439 0 0 0 0 304.96707318848109 -199.09599530008563 0 -199.09599530008563 2099.351688452487 0 0 0 0 41.654548270265877 -173.8645931003266 0 -173.8645931003266 2206.7480185358581 0 0 0 0 0.7707587733233936 -144.80329950374289 0 -144.80329950374289 2402.8361838504934 0 0 0 0 326.98325360684476 -111.09714131487999 0 -111.09714131487999 2212.2671862568895 0 0 0 0 -109.5411086443786 -186.53449773996545 0 -186.53449773996545 2148.0389988501847 0 0 0 0 -38.682189228332732 -258.35149364225799 0 -258.35149364225799 2217.1110385522115 0 0 0 0 -135.17366911060415 -171.50659095065521 0 -171.50659095065521 2263.4348203581758 0 0 0 0 310.01544630970824 -176.88118621685135 0 -176.88118621685135 2191.5546806965431 0 0 0 0 364.66797276388456 -255.4071202491632 0 -255.4071202491632 2215.8846759404696 0 0 0 0 866.96832446226472 -17.111895198991988 0 -17.111895198991988 2328.9272193651996 0 0 0 0 702.00846401915203 -180.25731954443836 0 -180.25731954443836 2420.5434098166297 0 0 0 0 728.20418707617614 63.421458225042443 0 63.421458225042443 3155.4764968333475 0 0 0 0 1529.9419278116166 -65.114674756505337 0 -65.114674756505337 2435.7950930869847 0 0 0 0 328.04655941292094 -415.49549621691403 0 -415.49549621691403 2587.4308240239479 0 0 0 0 202.33936986222091 -217.60123108802145 0 -217.60123108802145 2451.8800228289911 0 0 0 0 461.44589648455121 -819.65248387659085 0 -819.65248387659085 2878.2219068823324 0 0 0 0 483.58157483118043 -822.79336367133874 0 -822.79336367133874 2100.436273786705 0 0 0 0 -49.005932728677458 -225.4531295751658 0 -225.4531295751658 2163.8425130725664 0 0 0 0 -174.52699024646316 -359.29879420746147 0 -359.29879420746147 2189.3102330370893 0 0 0 0 113.1736256149693 -357.19140316714766 0 -357.19140316714766 2267.929743697794 0 0 0 0 86.549135308379249 -563.76754632455049 0 -563.76754632455049 1996.0451966300025 0 0 0 0 165.02778638076552 -673.52670638094423 0 -673.52670638094423 2552.9140494720268 0 0 0 0 102.48260538470504 -498.12793117277033 0 -498.12793117277033 2180.0728176673001 0 0 0 0 444.57110788472733 -688.40100849291775 0 -688.40100849291775 1751.8514059080626 0 0 0 0 -49.736281966682625 -435.43146039980638 0 -435.43146039980638 1892.8122067487711 0 0 0 0 -16.476151865315074 -473.48875279584718 0 -473.48875279584718 1383.7310903637554 0 0 0 0 68.907052257684185 -714.26282769128375 0 -714.26282769128375 2497.9886717933259 0 0 0 0 -195.26275288781062 -375.59955190609617 0 -375.59955190609617 1925.6626392903327 0 0 0 0 -344.93992121548683 -236.84037080900453 0 -236.84037080900453 1810.2185058765954 0 0 0 0 -214.15622742909272 -310.2609907501319 0 -310.2609907501319 1816.0997621536508 0 0 0 0 -289.19746140076734 -295.11211709175404 0 -295.11211709175404 2139.9378938448644 0 0 0 0 -164.05207503396878 -266.16319042039686 0 -266.16319042039686 1900.1972996442837 0 0 0 0 -200.03141146539042 -204.60225544062268 0 -204.60225544062268 1847.0350499445194 0 0 0 0 -199.98007148809899 -403.45194937475441 0 -403.45194937475441 1927.2115709030331 0 0 0 0 -264.30470417214667 -422.65786441277305 0 -422.65786441277305 1529.1004001386318 0 0 0 0 -269.02704583664058 -242.97209754017058 0 -242.97209754017058 2093.2451104907377 0 0 0 0 -217.05116787080351 -377.3489710424401 0 -377.3489710424401 2001.1656071357647 0 0 0 0 -138.67620278984728 -284.20760571543815 0 -284.20760571543815 2102.9876203719468 0 0 0 0 -152.6294971040717 -418.15343546458507 0 -418.15343546458507 2175.7333168626064 0 0 0 0 -165.3343614213718 -365.66369448402838 0 -365.66369448402838 2207.9183048587875 0 0 0 0 -198.43014602223855 -307.43664828711917 0 -307.43664828711917 2111.5773175450595 0 0 0 0 -206.96193867254919 -275.60126365462202 0 -275.60126365462202 2210.863239282713 0 0 0 0 -197.41582561132191 -292.18110499635804 0 -292.18110499635804 2253.3792652830307 0 0 0 0 -121.61852052456788 -319.56869501125766 0 -319.56869501125766 2214.8340439863096 0 0 0 0 -142.11948606091823 -344.71737336103615 0 -344.71737336103615 2283.8892446713289 0 0 0 0 -79.032737858480232 -337.29844527693058 0 -337.29844527693058 2213.361936505491 0 0 0 0 -22.288249911014191 -390.52545223970083 0 -390.52545223970083 2261.7817699068473 0 0 0 0 33.791625913405596 -469.09322397901269 0 -469.09322397901269 2309.0428553708189 0 0 0 0 -95.01442615612882 -405.93383709945192 0 -405.93383709945192 2332.2029976506601 0 0 0 0 -235.7785612118596 -226.84096981573384 0 -226.84096981573384 2238.9417517247493 0 0 0 0 -268.32315291497116 -257.63576738866686 0 -257.63576738866686 2221.7167837810412 0 0 0 0 -211.44534254086022 -240.22741287569806 0 -240.22741287569806 2123.0002122180922 0 0 0 0 -183.5498723315136 -252.68358736869413 0 -252.68358736869413 2224.5395871394576 0 0 0 0 -186.75275042762422 -250.01467890208914 0 -250.01467890208914 2222.3568240581808 0 0 0 0 -135.57835869999286 -220.64213923070054 0 -220.64213923070054 2203.0886874686985 0 0 0 0 -155.06125194778613 -189.99210112232686 0 -189.99210112232686 2218.3390007172056 0 0 0 0 -190.14918498055397 -234.41062676915317 0 -234.41062676915317 2181.8082655369653 0 0 0 0 -109.75442019508273 -281.66826757541276 0 -281.66826757541276 2031.915254359119 0 0 0 0 -0.49009919254490342 -270.53077161993133 0 -270.53077161993133 1860.7854313197331 0 0 0 0 -67.535808731337056 -522.41857399705259 0 -522.41857399705259 2450.1516813182207 0 0 0 0 -151.31949109285949 -224.05205304397168 0 -224.05205304397168 2118.1338574957335 0 0 0 0 -158.79325479104818 -265.76204827499168 0 -265.76204827499168 2167.0990517187893 0 0 0 0 -106.77087728921219 -311.42355225635401 0 -311.42355225635401 1841.9236125817115 0 0 0 0 -122.13555250371644 -272.8124516083044 0 -272.8124516083044 2055.6343773697299 0 0 0 0 -155.55598856517923 -221.46114369639326 0 -221.46114369639326 2032.1524847181281 0 0 0 0 -51.996860924365592 -278.49945527975797 0 -278.49945527975797 1963.1953329505923 0 0 0 0 -94.037818436355906 -240.77153845177963 0 -240.77153845177963 1940.7168812344316 0 0 0 0 -78.268033825147654 -284.66734253102913 0 -284.66734253102913 2020.7087887804082 0 0 0 0 -115.11696411322646 -254.56195496267173 0 -254.56195496267173 2036.5236031894601 0 0 0 0 -86.323116551808084 -308.83473507394956 0 -308.83473507394956 2075.6759223095723 0 0 0 0 -91.456937293960664 -313.68075767082701 0 -313.68075767082701 2107.6291857872857 0 0 0 0 -158.69891212901814 -260.3310082074313 0 -260.3310082074313 2154.8220496890863 0 0 0 0 -130.73959713373995 -288.64555283472873 0 -288.64555283472873 2180.2520378140907 0 0 0 0 341.17341269472922 -1093.6112231689622 0 -1093.6112231689622 3182.9083302865256 0 0 0 0 -76.06955931202674 -336.07008349319221 0 -336.07008349319221 2227.3739958912774 0 0 0 0 -133.24517216075236 -301.66045224247137 0 -301.66045224247137 2213.2403140642273 0 0 0 0 -76.992626990552537 -392.34039391903025 0 -392.34039391903025 2309.8169008442783 0 0 0 0 55.17624552694997 -503.66637852706481 0 -503.66637852706481 2304.0116424295702 0 0 0 0 12.255970795054964 -391.02571281213022 0 -391.02571281213022 2123.0509534264565 0 0 0 0 -10.919063318872759 -399.25440711461124 0 -399.25440711461124 2179.1003728308788 0 0 0 0 -48.376512957618161 -423.33457240353164 0 -423.33457240353164 2352.3406373657635 0 0 0 0 32.250265304011009 -430.52001892861153 0 -430.52001892861153 2233.1532239538647 0 0 0 0 55.621168472485806 -546.75310395933047 0 -546.75310395933047 2384.1622874956811 0 0 0 0 35.222504162454698 -550.18314877498779 0 -550.18314877498779 2394.4851442140061 0 0 0 0 158.20613832163053 -758.54747310600214 0 -758.54747310600214 2433.5693263638241 0 0 0 0 285.5639119472437 -640.98346879544988 0 -640.98346879544988 2092.7685153189232 0 0 0 0 118.52262228209429 -382.72060029199929 0 -382.72060029199929 1852.1472461594603 0 0 0 0 24.770161676372481 -391.23686136392644 0 -391.23686136392644 2032.5467239833961 0 0 0 0 39.03527687941596 -386.87405815412058 0 -386.87405815412058 1977.0194711030344 0 0 0 0 124.16219380633811 -507.35760838259012 0 -507.35760838259012 2137.2763989183513 0 0 0 0 225.14585881198127 -535.17563045707357 0 -535.17563045707357 1959.8859431002056 0 0 0 0 205.80837130599411 -504.46071308146929 0 -504.46071308146929 1922.8039341503172 0 0 0 0 255.10670219888516 -644.70910448379072 0 -644.70910448379072 2234.2370190095826 0 0 0 0 -5.9038080986470618 -619.45348774494778 0 -619.45348774494778 2344.1800122695277 0 0 0 0 -1.5690008289467989 0.19916543400714204 0 0.19916543400714204 3.9676001481671292 0 0 0 0 -0.07934143862354176 2.5342826590344458 0 2.5342826590344458 7.431834071286076 0 0 0 0 -230.25353899654039 -453.86274164730276 0 -453.86274164730276 1753.031710950745 0 0 0 0 -62.276034650835527 -428.97420510443044 0 -428.97420510443044 1725.5454780788859 0 0 0 0 -131.62637002930427 -264.18339854585065 0 -264.18339854585065 1937.4501326719183 0 0 0 0 -115.89597559335125 -82.796680605162692 0 -82.796680605162692 2098.6168434288484 0 0 0 0 50.801732784786054 -678.39473184474627 0 -678.39473184474627 2602.0234637624817 0 0 0 0 53.045159929422994 -1388.6646453279536 0 -1388.6646453279536 2962.3763624253625 0 0 0 0 -2.7997284792420238 0.45366663790511552 0 0.45366663790511552 6.907503759962168 0 0 0 0 -0.26562524963110645 1.12162779144046 0 1.12162779144046 5.3332341748846517 0 0 0 0 97.825616108319537 -549.11302481319581 0 -549.11302481319581 2599.2778106650512 0 0 0 0 40.710824301739649 -590.8262528644409 0 -590.8262528644409 2575.1981922477135 0 0 0 0 54.063379825572611 -605.88529480747093 0 -605.88529480747093 2495.046558942704 0 0 0 0 84.979595617439372 -520.27760631145793 0 -520.27760631145793 2510.0743459138903 0 0 0 0 102.29988891306584 -563.23931175873804 0 -563.23931175873804 2535.4317415174446 0 0 0 0 175.96265467129206 -481.44697090753471 0 -481.44697090753471 2480.2297708516417 0 0 0 0 96.540542901630943 -552.28552539751399 0 -552.28552539751399 2416.5587123316654 0 0 0 0 14.985665100189181 -455.586173515665 0 -455.586173515665 2446.1393732449324 0 0 0 0 413.79765355563654 -632.58968967469264 0 -632.58968967469264 2478.0207453474286 0 0 0 0 226.88273473310619 -505.55542025569594 0 -505.55542025569594 2558.1824737371353 0 0 0 0 200.81606548968131 -650.40986563693423 0 -650.40986563693423 2537.7468940690742 0 0 0 0 114.7260940750034 -872.72112046359689 0 -872.72112046359689 2925.6716251598773 0 0 0 0 0.7396290112825612 -63.069738272850373 0 -63.069738272850373 1812.1010517925679 0 0 0 0 225.4751812368485 273.95205872682709 0 273.95205872682709 2052.7222132274837 0 0 0 0 -1.2381834309949986 -0.12311920970489609 0 -0.12311920970489609 5.60364364620591 0 0 0 0 0.67078413473233001 -425.7394092121649 0 -425.7394092121649 2463.1338347967103 0 0 0 0 -15.115447962425378 -569.99582297531015 0 -569.99582297531015 2823.1514188777364 0 0 0 0 193.14241342615014 -549.49148695441545 0 -549.49148695441545 2330.5500288837866 0 0 0 0 153.72954478043448 -520.79385629892204 0 -520.79385629892204 2185.7083042303275 0 0 0 0 29.152350817282695 -485.27937440079404 0 -485.27937440079404 2368.5345468689557 0 0 0 0 152.68164977071456 -453.36921282215917 0 -453.36921282215917 2318.304404536626 0 0 0 0 67.28010968870376 -546.866806149068 0 -546.866806149068 2442.5665038970474 0 0 0 0 75.578906055901371 -515.25604497301538 0 -515.25604497301538 2522.9958965151745 0 0 0 0 118.48284179664063 -434.46191312258452 0 -434.46191312258452 2122.4983578035753 0 0 0 0 16.234933003157721 -366.67302625608863 0 -366.67302625608863 2183.2295540231135 0 0 0 0 -26.088840206959276 -463.5530982088676 0 -463.5530982088676 2338.1253789819311 0 0 0 0 -30.412449252766237 -310.22795250962372 0 -310.22795250962372 1974.8613006605083 0 0 0 0 -71.896220727850931 -429.82275358732477 0 -429.82275358732477 2147.1975040782854 0 0 0 0 99.899260783603268 -361.02733738737879 0 -361.02733738737879 1867.3914431574376 0 0 0 0 0.0026022308616542311 -333.44300429314899 0 -333.44300429314899 2103.126921409159 0 0 0 0 52.828520047910274 -405.77899546767003 0 -405.77899546767003 2193.9241066764553 0 0 0 0 -74.353695873507377 -228.99973938695257 0 -228.99973938695257 2291.6542512973901 0 0 0 0 1.3019761514795949 -2.6817379034919355 0 -2.6817379034919355 3.6816548476209618 0 0 0 0 -0.66469616377989527 7.7113000083390943 0 7.7113000083390943 312.58494150894694 0 0 0 0 -0.024977155959488594 -20.315084283352917 0 -20.315084283352917 255.69464385107858 0 0 0 0 -115.26821378578666 54.760323994691134 0 54.760323994691134 1511.8777909764613 0 0 0 0 -145.63700677583324 -96.114730247867556 0 -96.114730247867556 2057.7244486481395 0 0 0 0 38.515014290965723 -54.477531150649156 0 -54.477531150649156 974.14931691809034 0 0 0 0 -183.27826167794615 -399.4849274671069 0 -399.4849274671069 762.99279886075601 0 0 0 0 -1.8440411058836048 -535.48813793701993 0 -535.48813793701993 1014.3029362145026 0 0 0 0 -173.1440038154683 163.14849759237404 0 163.14849759237404 577.34492494875667 0 0 0 0 -68.274060814068605 -478.0889863428165 0 -478.0889863428165 1386.9020269612665 0 0 0 0 -166.64448805941021 -220.7802466729845 0 -220.7802466729845 1281.9035952267877 0 0 0 0 2.4649702184415263 -1.9006279401458386 0 -1.9006279401458386 1.354233103737954 0 0 0 0 -199.95666755285345 -3.9352024281397462 0 -3.9352024281397462 1279.9662677627966 0 0 0 0 416.15471572280103 -512.48342839838551 0 -512.48342839838551 -439.87395909190673 0 0 0 0 126.10508111020255 30.494135025503056 0 30.494135025503056 451.32152779796888 0 0 0 0 3.5927156075085565 -5.0705099715209627 0 -5.0705099715209627 3.7172377909158172 0 0 0 0 -18.102928467799309 -13.063172133908665 0 -13.063172133908665 483.88322722394514 0 0 0 0 54.761272678715976 -43.567256542843097 0 -43.567256542843097 224.03406099938002 0 0 0 0 3.5198183448093374 -141.93972582857168 0 -141.93972582857168 469.44193017564248 0 0 0 0 206.34532085253971 -181.27213202931307 0 -181.27213202931307 158.25692519442237 0 0 0 0 150.24321612169928 2.9142745215940522 0 2.9142745215940522 -91.928719154202554 0 0 0 0 -45.937253562722844 113.27569843624588 0 113.27569843624588 62.717005907034036 0 0 0 0 -42.762961375678501 -21.620017667084312 0 -21.620017667084312 101.16592798384954 0 0 0 0 9.8457248006498048 15.817565439108876 0 15.817565439108876 116.13756322540939 0 0 0 0 7.774265886162631 -48.455060838954523 0 -48.455060838954523 51.259309313056292 0 0 0 0 24.692182037379535 -15.037756007324788 0 -15.037756007324788 105.7670420716895 0 0 0 0 51.257712523679345 -104.7978847818481 0 -104.7978847818481 192.84750054586766 0 0 0 0 72.055653645456303 -15.947212637467601 0 -15.947212637467601 63.56538056556019 0 0 0 0 0.96821831869974428 -87.994265842560708 0 -87.994265842560708 287.31219436350511 0 0 0 0 -0.012256663883533102 -20.457378945706296 0 -20.457378945706296 209.22835469811253 0 0 0 0 92.131318605754586 -71.072618090764081 0 -71.072618090764081 -178.28045896032199 0 0 0 0 1.5561720543340174 0.23914784460938776 0 0.23914784460938776 -0.96734924448113979 0 0 0 0 -25.044274765507453 6.2299038482997275 0 6.2299038482997275 179.35501400479188 0 0 0 0 39.130407626501892 -23.783861147277094 0 -23.783861147277094 -5.5789747223116137 0 0 0 0 11.734002893281033 16.110680143947775 0 16.110680143947775 19.909817756012949 0 0 0 0 24.927250139340401 78.330167219709551 0 78.330167219709551 21.01727263158682 0 0 0 0 3.3599955139216036 112.64993182152921 0 112.64993182152921 33.253590247489228 0 0 0 0 109.26973003109879 62.436263891540875 0 62.436263891540875 36.934928370131274 0 0 0 0 2.9186498583410394 -11.293165060694076 0 -11.293165060694076 -14.094455703363565 0 0 0 0 43.417794813133696 -45.486365751907215 0 -45.486365751907215 48.777275341101358 0 0 0 0 26.490565110688749 -16.514784484054871 0 -16.514784484054871 5.1508612316119979 0 0 0 0 2.0990730509292916 -25.00961391230976 0 -25.00961391230976 43.827266223175684 0 0 0 0 3.4170342459292442 6.7829131038852211 0 6.7829131038852211 32.905163247294695 0 0 0 0 -1.7339008927879149 6.2870140725708552 0 6.2870140725708552 42.92689309443449 0 0 0 0 2.2631680963008876 10.257241149702168 0 10.257241149702168 89.077805881734093 0 0 0 0 75.158448941425263 27.406228140541316 0 27.406228140541316 6.8943768962335525 0 0 0 0 32.284912857193433 -10.691086811136756 0 -10.691086811136756 -26.667514395770922 0 0 0 0 7.0291433980414695 32.064361477792772 0 32.064361477792772 22.208203874881292 0 0 0 0 15.102285038768514 11.610928573232741 0 11.610928573232741 -13.670338566056671 0 0 0 0 -0.0008035355672291189 9.7566761292218871 0 9.7566761292218871 36.733930191752734 0 0 0 0 -93.008503548340968 -114.24305109927354 0 -114.24305109927354 173.11455554449094 0 0 0 0 10.881002679871351 0.28445993669154035 0 0.28445993669154035 1.1321066785918674 0 0 0 0 -84.964229688727414 -66.060091260529589 0 -66.060091260529589 -32.885219027169683 0 0 0 0 402.23410582074996 187.9093041963215 0 187.9093041963215 -99.047661112044807 0 0 0 0 8.6848611498104944 0.61665477102867072 0 0.61665477102867072 -0.12439211302378306 0 0 0 0 -129.19782721700113 62.51789497064965 0 62.51789497064965 398.99087419420721 0 0 0 0 57.271941433165694 -16.586401188224045 0 -16.586401188224045 -33.943722790038009 0 0 0 0 -66.504767666612793 -68.98907241874349 0 -68.98907241874349 111.50639592778498 0 0 0 0 -211.27708458930726 24.433048979221894 0 24.433048979221894 34.205801691652596 0 0 0 0 299.35047541545362 43.017095063283705 0 43.017095063283705 34.4507606158204 0 0 0 0 3.2640621245071388 0.55528943537410314 0 0.55528943537410314 0.30083771395569547 0 0 0 0 -48.153680303167789 98.61481027148875 0 98.61481027148875 321.61821467224479 0 0 0 0 -17.741592948179459 -43.773928721400807 0 -43.773928721400807 186.56450361075076 0 0 0 0 -78.218421551236133 96.489601708901318 0 96.489601708901318 318.67364379402989 0 0 0 0 -62.414777133984671 91.392004832208841 0 91.392004832208841 255.88355959954424 0 0 0 0 -49.355896790952784 101.22427960540517 0 101.22427960540517 71.564650382598757 0 0 0 0 189.20620023880701 -112.50835148703754 0 -112.50835148703754 8.3968862011570309 0 0 0 0 -0.1137109398933287 0.89059226934468327 0 0.89059226934468327 3.9015784105019478 0 0 0 0 16.156863825963136 3.7861086967382001 0 3.7861086967382001 10.216870848967146 0 0 0 0 -381.66110827585362 230.65232017833387 0 230.65232017833387 403.29302286685379 0 0 0 0 255.83193704227324 145.98798218537922 0 145.98798218537922 -333.44579940976837 0 0 0 0 273.88396714538271 -345.8721669640945 0 -345.8721669640945 -62.321909226899152 0 0 0 0 1.3383521658601918 2.5362081007097466 0 2.5362081007097466 7.1994423732142643 0 0 0 0 -63.963938938720275 148.90010984173205 0 148.90010984173205 300.39642446302878 0 0 0 0 -51.502874409689866 140.14634336697782 0 140.14634336697782 215.54790422671249 0 0 0 0 2.1784764092142015 0.92064489062584798 0 0.92064489062584798 43.523808222455642 0 0 0 0 -0.24088692893123564 11.658951521168657 0 11.658951521168657 36.960171260923168 0 0 0 0 5.8799429599575888 3.2122371485266967 0 3.2122371485266967 52.472104202191602 0 0 0 0 10.405490808202558 7.7813489063393035 0 7.7813489063393035 43.840189322619125 0 0 0 0 -1.85731244350427 -5.3032642908592607 0 -5.3032642908592607 25.743651318274715 0 0 0 0 12.395208406696838 -5.1252840246379492 0 -5.1252840246379492 52.368062796582407 0 0 0 0 1.1139570145248499 -2.4133089681897726 0 -2.4133089681897726 39.744093756294333 0 0 0 0 2.5509663804750979 -3.5219105293062203 0 -3.5219105293062203 30.251255641361734 0 0 0 0 13.487102937651798 -10.958067225020386 0 -10.958067225020386 49.029747638222261 0 0 0 0 -71.291263868003625 -122.91954443829673 0 -122.91954443829673 113.05956430035803 0 0 0 0 14.46515516305135 -4.7029816394588124 0 -4.7029816394588124 56.074979506574891 0 0 0 0 0.48328061617702822 13.286515437743933 0 13.286515437743933 27.812012005323588 0 0 0 0 17.547404672990524 -8.6200550766234301 0 -8.6200550766234301 61.922023446390995 0 0 0 0 27.378800018391303 -5.7709814517984341 0 -5.7709814517984341 40.038015422645913 0 0 0 0 20.902479248058626 1.9596815458226047 0 1.9596815458226047 46.561698809751761 0 0 0 0 8.9497518935040716 0.48768949798954964 0 0.48768949798954964 33.532225824410943 0 0 0 0 3.8426371860223298 -21.491621291260344 0 -21.491621291260344 66.1578957360598 0 0 0 0 8.6089117166429787 -5.689553992706351 0 -5.689553992706351 65.902112600455439 0 0 0 0 10.834225947639652 -1.2229680657205364 0 -1.2229680657205364 11.227196475574068 0 0 0 0 3.3432281646713768 2.2902333593147546 0 2.2902333593147546 32.897589511890104 0 0 0 0 20.01422173091305 -17.165661398139491 0 -17.165661398139491 56.443653596567856 0 0 0 0 10.603337525157258 -24.826114178758871 0 -24.826114178758871 13.554925123993598 0 0 0 0 -1.1892344836657607 -0.59635152575236816 0 -0.59635152575236816 3.6162970630253941 0 0 0 0 8.0956304842502504 -0.039888047763383838 0 -0.039888047763383838 37.446463623192358 0 0 0 0 8.5215903978358547 -9.7292667000200268 0 -9.7292667000200268 31.267396338435553 0 0 0 0 2.177593497744347 -6.3055867666953569 0 -6.3055867666953569 39.434221011347532 0 0 0 0 11.220308868578286 -24.02201813209274 0 -24.02201813209274 49.280583819601816 0 0 0 0 24.074669023845217 -50.870087437338952 0 -50.870087437338952 55.784714415877716 0 0 0 0 33.007627107635926 -11.294192614737767 0 -11.294192614737767 4.3245927124289665 0 0 0 0 14.417342098364315 2.2683571935522195 0 2.2683571935522195 38.324615841623199 0 0 0 0 1.3632952754995351 -0.29967518977358587 0 -0.29967518977358587 9.6812514517657906 0 0 0 0 10.978563900143854 -6.4181695348140693 0 -6.4181695348140693 41.579273181652752 0 0 0 0 83.028694077878754 -87.62842728077203 0 -87.62842728077203 78.941371652256748 0 0 0 0 0.37119163204575401 1.5435513214340384 0 1.5435513214340384 3.9899370851571945 0 0 0 0 -1.8304470217117341 -60.862473081303733 0 -60.862473081303733 60.765537942155788 0 0 0 0 15.762583533525685 -35.142286489461185 0 -35.142286489461185 55.745298079699459 0 0 0 0 -39.472049627017896 28.88927935645188 0 28.88927935645188 81.461887946874413 0 0 0 0 39.360171200195055 6.0232086830538378 0 6.0232086830538378 3.1382731062421954 0 0 0 0 15.366164401183399 16.898257579749732 0 16.898257579749732 21.328837279073447 0 0 0 0 39.009092252406845 4.756042726198757 0 4.756042726198757 30.479581477628017 0 0 0 0 39.113578822360523 -8.1649198173092827 0 -8.1649198173092827 21.654175108221352 0 0 0 0 42.282463732903125 -7.8368836869967708 0 -7.8368836869967708 4.7567759212934106 0 0 0 0 41.830876251466179 -16.1408547414444 0 -16.1408547414444 -1.2188715831405261 0 0 0 0 18.526132461871384 -15.764513323188112 0 -15.764513323188112 222.67181624042951 0 0 0 0 123.19239508120154 36.107838831153458 0 36.107838831153458 35.065889189618929 0 0 0 0 89.438954398900933 -116.28349877130722 0 -116.28349877130722 267.48528461060232 0 0 0 0 -0.36295770814938066 0.11038631068223559 0 0.11038631068223559 2.0771152890682352 0 0 0 0 89.175917802548611 28.344197021605396 0 28.344197021605396 164.95933430563628 0 0 0 0 57.075479252543118 -93.656395682630318 0 -93.656395682630318 188.31663986482272 0 0 0 0 1.7791790458202286 -18.056597237364628 0 -18.056597237364628 54.52744348458782 0 0 0 0 77.350848663335 -68.651532834954992 0 -68.651532834954992 94.262954387244463 0 0 0 0 4.3008910259468394 -42.780977415963662 0 -42.780977415963662 96.660552904338829 0 0 0 0 14.842498802679984 23.381886618294629 0 23.381886618294629 161.2991027323701 0 0 0 0 -53.76117231923854 9.9924468168703697 0 9.9924468168703697 73.915378001305726 0 0 0 0 -18.540592405753614 -33.773903720469434 0 -33.773903720469434 99.238026458046079 0 0 0 0 66.303145798416153 -8.6076608127837062 0 -8.6076608127837062 113.54056494507859 0 0 0 0 49.704239718543704 36.445577137566033 0 36.445577137566033 113.99120140264313 0 0 0 0 29.134600156623947 11.551974324076582 0 11.551974324076582 106.39964300501742 0 0 0 0 10.674389632825751 35.483435714005282 0 35.483435714005282 103.28842652867752 0 0 0 0 139.43008210185872 -41.865454885039526 0 -41.865454885039526 140.99567922298411 0 0 0 0 65.552967354969041 23.894696494891377 0 23.894696494891377 102.57409848401358 0 0 0 0 52.461662418620108 -13.383722794583264 0 -13.383722794583264 152.00816465490243 0 0 0 0 43.900944811581667 0.25071252859856941 0 0.25071252859856941 134.84519284208 0 0 0 0 78.18435788949273 -29.564956344439452 0 -29.564956344439452 152.31535984565471 0 0 0 0 22.010463072772666 -46.709670649879399 0 -46.709670649879399 147.75326693726493 0 0 0 0 -18.396861814055228 -60.521814497256855 0 -60.521814497256855 291.37555727564359 0 0 0 0 2.565077240368332 2.2001075441141182 0 2.2001075441141182 4.1466411362868758 0 0 0 0 29.961292669953309 -4.2046233210471655 0 -4.2046233210471655 206.22586911425424 0 0 0 0 13.861902396299229 -51.848851371931232 0 -51.848851371931232 213.16181081304285 0 0 0 0 22.906352687496565 -78.867966009501288 0 -78.867966009501288 153.95222763816037 0 0 0 0 25.580929358655283 14.912010662463693 0 14.912010662463693 22.384335705135527 0 0 0 0 9.7169362970870594 12.862637763891829 0 12.862637763891829 16.532500129809947 0 0 0 0 51.259372664805142 -16.886933610062442 0 -16.886933610062442 3.736251747879578 0 0 0 0 11.567706691039803 -12.160056691069258 0 -12.160056691069258 4.5796166775307938 0 0 0 0 2.1641900857921428 -4.408790625495385 0 -4.408790625495385 6.5972878984466661 0 0 0 0 15.150414335241294 36.669992118855589 0 36.669992118855589 -20.884795356604741 0 0 0 0 22.858292882322161 -3.5023937158154013 0 -3.5023937158154013 -6.5227912118443783 0 0 0 0 4.5596093425627089 1.5478288847528141 0 1.5478288847528141 4.2122797050379219 0 0 0 0 -8.5493145489949711 8.7696170024473759 0 8.7696170024473759 17.14833335495041 0 0 0 0 -1.175863026192701 -12.913885576487701 0 -12.913885576487701 10.518066818156512 0 0 0 0 16.713964021597349 -56.25300949022494 0 -56.25300949022494 252.81771857512285 0 0 0 0 10.935655530037366 -27.363665703513107 0 -27.363665703513107 311.48792176828283 0 0 0 0 6.5822659764396931 6.9731145325868944 0 6.9731145325868944 8.4249280591699787 0 0 0 0 1.9649048221401699 -92.149824183609098 0 -92.149824183609098 256.22019751286643 0 0 0 0 -237.97381677209478 -152.09388912371219 0 -152.09388912371219 458.77702582142592 0 0 0 0 123.86753956308098 -365.61646218116334 0 -365.61646218116334 446.78751424436268 0 0 0 0 22.268062704278236 -81.910167280055248 0 -81.910167280055248 256.61672873124053 0 0 0 0 2.5993055544676071 2.2482522448546653 0 2.2482522448546653 2.7463829657088752 0 0 0 0 428.44716614637218 208.60452120747141 0 208.60452120747141 100.51323789451271 0 0 0 0 -420.5229576306383 311.93461153091448 0 311.93461153091448 434.37262212949099 0 0 0 0 647.32422094497088 -494.22691311593917 0 -494.22691311593917 -96.814520381321927 0 0 0 0 327.19803724078338 433.67894687678563 0 433.67894687678563 -266.05374957440972 0 0 0 0 36.398518421736298 0.34652446650761703 0 0.34652446650761703 -1.2267732046893798 0 0 0 0 -0.46579892967349279 1.996409404676335 0 1.996409404676335 3.2819822143398127 0 0 0 0 276.67360935253328 208.84341471023708 0 208.84341471023708 91.826371528299205 0 0 0 0 23.269849410575262 -12.879047352873386 0 -12.879047352873386 -3.2991474036962245 0 0 0 0 -211.72508646193728 -117.20236825761481 0 -117.20236825761481 112.98448389012447 0 0 0 0 -0.31634953868615412 19.829863039665725 0 19.829863039665725 110.98369295664347 0 0 0 0 8.741002760669403 -42.82376178917368 0 -42.82376178917368 59.477633815271446 0 0 0 0 -42.506592994912353 -261.88434835863336 0 -261.88434835863336 -233.64610297838044 0 0 0 0 124.74640995642676 -35.53237425154839 0 -35.53237425154839 -144.63233268641852 0 0 0 0 -89.331712973425965 -67.29160183023123 0 -67.29160183023123 -31.112539459598338 0 0 0 0 87.566503709045719 -12.888497087740689 0 -12.888497087740689 63.922177230950183 0 0 0 0 108.08246148915077 -58.516309500153511 0 -58.516309500153511 -146.59175207442968 0 0 0 0 14.38863764641701 7.2883102179810066 0 7.2883102179810066 60.997947789543105 0 0 0 0 -2.2190861567641917 -30.239441677336913 0 -30.239441677336913 51.42201623062914 0 0 0 0 12.082129425505627 14.161634722488088 0 14.161634722488088 95.30753213787284 0 0 0 0 -14.65025892101221 -154.38222183646212 0 -154.38222183646212 -113.00579313129856 0 0 0 0 19.226529522470763 10.006952877389786 0 10.006952877389786 19.902202193144024 0 0 0 0 1.7396763214992674 -1.5792100112542009 0 -1.5792100112542009 2.3781237369790773 0 0 0 0 21.289405091368678 18.701596719091185 0 18.701596719091185 40.100630960270792 0 0 0 0 10.26980307550275 -9.2896261309124384 0 -9.2896261309124384 46.671002669572317 0 0 0 0 7.2729811032267868 6.0674507273337071 0 6.0674507273337071 6.3224723944845671 0 0 0 0 13.460143055441222 -11.814925616159599 0 -11.814925616159599 27.509561921856402 0 0 0 0 16.041543343415469 16.233158974155231 0 16.233158974155231 53.017649882163823 0 0 0 0 12.090672368063679 -1.683553898916216 0 -1.683553898916216 12.19674933065653 0 0 0 0 10.688772140287256 -2.8444040183003381 0 -2.8444040183003381 12.98925261709519 0 0 0 0 3.0543187494331789 -3.12358741246004 0 -3.12358741246004 12.272581582117976 0 0 0 0 1.6697437296152202 -3.9241326469964406 0 -3.9241326469964406 11.808369072685309 0 0 0 0 5.5421625450977956 -5.0956377433395694 0 -5.0956377433395694 12.187990813728781 0 0 0 0 4.7623155272258373 -2.1773496469613747 0 -2.1773496469613747 13.617947360997277 0 0 0 0 4.0305725932630594 -15.050771801690644 0 -15.050771801690644 21.907262706898109 0 0 0 0 9.3462717614268058 -11.751459116601836 0 -11.751459116601836 9.8052264954640123 0 0 0 0 6.7826093881775336 -2.9097909814355347 0 -2.9097909814355347 3.3907862172648215 0 0 0 0 5.5378034461896775 -2.579721734416248 0 -2.579721734416248 10.407122554364292 0 0 0 0 1.7207093709246499 1.4512273722570406 0 1.4512273722570406 8.5836242761822987 0 0 0 0 8.1102622314892869 -1.467439740811642 0 -1.467439740811642 9.9720154412425472 0 0 0 0 11.407916489141826 0.86663210443384742 0 0.86663210443384742 11.613170581772465 0 0 0 0 -3.7159772606992192 33.844156311191909 0 33.844156311191909 53.251513579960374 0 0 0 0 22.506974308355893 23.931684732613576 0 23.931684732613576 55.436316556289967 0 0 0 0 13.711743576515062 4.6382090972638252 0 4.6382090972638252 18.192493990474759 0 0 0 0 14.292307980233598 10.984030379190578 0 10.984030379190578 10.831971776597129 0 0 0 0 18.64675417811668 132.80765296161189 0 132.80765296161189 -75.087603870965722 0 0 0 0 -125.61007426311153 119.50070216582026 0 119.50070216582026 -76.284063775521645 0 0 0 0 4.8854988568966604 3.9711924108447931 0 3.9711924108447931 1.679901474349208 0 0 0 0 -29.455754708093991 110.36390909497641 0 110.36390909497641 -145.68012861270108 0 0 0 0 -95.768511487829073 69.790658449855982 0 69.790658449855982 142.88522237784491 0 0 0 0 67.750587217299653 76.023482799158955 0 76.023482799158955 -118.43071207261528 0 0 0 0 50.288530017227458 33.314442569037055 0 33.314442569037055 10.935314128182654 0 0 0 0 209.26089235589097 173.65263346774373 0 173.65263346774373 110.85786182967058 0 0 0 0 122.65490823569598 78.421074003854301 0 78.421074003854301 -81.336579083133984 0 0 0 0 -14.456647945728037 40.675004640346742 0 40.675004640346742 -82.327942757237906 0 0 0 0 80.422986241434501 -26.665579127160527 0 -26.665579127160527 -104.71933031497611 0 0 0 0 28.825201966174063 38.819963409634511 0 38.819963409634511 -21.19651469616656 0 0 0 0 310.04153028041083 -71.319546190119581 0 -71.319546190119581 16.518249405016832 0 0 0 0 253.78899545977583 69.937774985521173 0 69.937774985521173 -70.286204976444424 0 0 0 0 0.50933709680026595 -0.82537762869612408 0 -0.82537762869612408 -1.9882659842114947 0 0 0 0 -111.33547037302924 -206.71926572907614 0 -206.71926572907614 107.6455016685577 0 0 0 0 -10.579680799035486 -29.952867982632597 0 -29.952867982632597 48.539215833665367 0 0 0 0 78.92712903190295 -104.84110174160742 0 -104.84110174160742 -58.419986483953835 0 0 0 0 14.126731959608151 -27.031058321445016 0 -27.031058321445016 70.193906317765141 0 0 0 0 7.4526397693141462 -14.344669714728752 0 -14.344669714728752 -168.30306184285291 0 0 0 0 -2.4147403413244106 -1.3139591388537184 0 -1.3139591388537184 21.114312871839829 0 0 0 0 40.064847219858166 24.256784516503103 0 24.256784516503103 21.00825200199688 0 0 0 0 19.035272460740437 1.3954072670513966 0 1.3954072670513966 6.5880803525241234 0 0 0 0 16.903098575456966 -19.349943332116148 0 -19.349943332116148 29.28867216487351 0 0 0 0 28.926800838940608 -49.275689870863175 0 -49.275689870863175 41.556057354799123 0 0 0 0 9.9866416307108921 -12.169566039716301 0 -12.169566039716301 18.668444342096336 0 0 0 0 10.158088937164393 -12.838185087050078 0 -12.838185087050078 12.350659336676472 0 0 0 0 13.306593775926688 -9.1958595633809992 0 -9.1958595633809992 9.1491682908790608 0 0 0 0 19.226171823839099 -13.52308219334833 0 -13.52308219334833 12.293427408039321 0 0 0 0 125.00074336766465 49.075086990683758 0 49.075086990683758 -72.293149138895387 0 0 0 0 25.301575064956978 -45.080315414545112 0 -45.080315414545112 48.558988174823753 0 0 0 0 6.5509224562979451 0.79400070944937795 0 0.79400070944937795 -3.9093973208892265 0 0 0 0 10.170169053266363 -35.602177968812612 0 -35.602177968812612 -88.113159976232055 0 0 0 0 21.548309558339838 9.2433867824074696 0 9.2433867824074696 25.874828982905456 0 0 0 0 31.38446061452396 12.212420419659793 0 12.212420419659793 -69.134308738386608 0 0 0 0 18.244764422640792 12.254338094477362 0 12.254338094477362 8.6435564785075201 0 0 0 0 34.26174058596871 4.476748949229659 0 4.476748949229659 27.38872608755446 0 0 0 0 4.6484643647589436 -9.3102358763526567 0 -9.3102358763526567 21.880960382825052 0 0 0 0 25.978034462690857 -6.4560297579246253 0 -6.4560297579246253 45.960775546984223 0 0 0 0 18.924943665852112 6.1444710244322778 0 6.1444710244322778 30.350013011535339 0 0 0 0 24.860761967416991 -1.2861469376389323 0 -1.2861469376389323 21.338996661666897 0 0 0 0 4.623522517388488 -22.217154294847916 0 -22.217154294847916 35.389503906813445 0 0 0 0 24.4465669901399 -11.831435616171802 0 -11.831435616171802 11.991429237474222 0 0 0 0 21.070911135165229 -3.3337720292511221 0 -3.3337720292511221 53.665015669907007 0 0 0 0 25.29094669649524 10.788087460709448 0 10.788087460709448 62.543562513972574 0 0 0 0 5.8517688102126275 -8.4500827570921651 0 -8.4500827570921651 -9.8829956189364196 0 0 0 0 7.0070951141055211 -8.9006305823168113 0 -8.9006305823168113 18.923281515251013 0 0 0 0 7.2726569406098633 -6.921260052060461 0 -6.921260052060461 26.848909136853763 0 0 0 0 5.4688774660276067 -74.730307714591618 0 -74.730307714591618 50.128225375781767 0 0 0 0 7.5861014412178065 -40.760479491797014 0 -40.760479491797014 88.481373240378161 0 0 0 0 1.8294686169857499 -21.832139344614916 0 -21.832139344614916 79.532816643324622 0 0 0 0 -11.090765973485304 -14.41805154175745 0 -14.41805154175745 81.130676686960214 0 0 0 0 29.464007615504215 -30.810216730777029 0 -30.810216730777029 83.740921902302944 0 0 0 0 6.4036117036653195 -25.634015205152537 0 -25.634015205152537 95.680023555687512 0 0 0 0 8.6174722790691476 -31.228849845665536 0 -31.228849845665536 87.784270183750778 0 0 0 0 23.165776894633566 -26.110575971999424 0 -26.110575971999424 65.251436831615138 0 0 0 0 28.433343225008684 -34.170218731442219 0 -34.170218731442219 63.52748786499069 0 0 0 0 10.076632755600372 -30.708273310025106 0 -30.708273310025106 70.428445130033651 0 0 0 0 36.475059850332357 -20.801350453311898 0 -20.801350453311898 2.5980573683991679 0 0 0 0 10.964138290714345 -32.564710655446106 0 -32.564710655446106 14.536902620071487 0 0 0 0 5.8543735137343909 -15.532081977860798 0 -15.532081977860798 33.522108808811026 0 0 0 0 20.106653187273608 -16.622267938972982 0 -16.622267938972982 33.491220928481198 0 0 0 0 36.002510830868495 -14.853830178621877 0 -14.853830178621877 13.165001855955779 0 0 0 0 47.709349553966888 -25.265799207318196 0 -25.265799207318196 18.610510981057814 0 0 0 0 54.307259147127354 -40.785132460441673 0 -40.785132460441673 61.467515859734704 0 0 0 0 36.923639045712719 -44.106871614036208 0 -44.106871614036208 60.892846368806204 0 0 0 0 39.07606016887371 -17.125627320060175 0 -17.125627320060175 27.556192081843619 0 0 0 0 21.928267963659948 -39.954119813875877 0 -39.954119813875877 84.198182708543754 0 0 0 0 23.84401159367826 -49.704513163442243 0 -49.704513163442243 127.17184090247611 0 0 0 0 13.28308915753351 -33.503791915201873 0 -33.503791915201873 125.91387234181047 0 0 0 0 28.555022992870761 -70.631673163017695 0 -70.631673163017695 196.7797544333589 0 0 0 0 20.039317286683257 37.698391597139562 0 37.698391597139562 171.27368673942692 0 0 0 0 -6.325174852336545 -40.328684883335882 0 -40.328684883335882 323.60101277194917 0 0 0 0 -7.4589111584731 -7.1324135594441032 0 -7.1324135594441032 207.83159528827036 0 0 0 0 -14.105548219860225 23.242867563923937 0 23.242867563923937 200.56651930599855 0 0 0 0 -9.3320200949396792 -12.552373443777469 0 -12.552373443777469 195.48617751096754 0 0 0 0 -7.4425123672285736 12.268571291871922 0 12.268571291871922 141.04596777914776 0 0 0 0 -10.804135898903212 -0.85829885305429343 0 -0.85829885305429343 167.18770555831361 0 0 0 0 -13.67827753404103 23.105979196355065 0 23.105979196355065 154.74123708283878 0 0 0 0 -9.508598026681625 -3.7397477469057776 0 -3.7397477469057776 155.66100583000696 0 0 0 0 -6.986439565880346 1.8434650043272995 0 1.8434650043272995 134.12464741561416 0 0 0 0 -0.55220718720272544 -22.927336896186716 0 -22.927336896186716 122.22024411977691 0 0 0 0 3.8346021485182291 -37.5888650767738 0 -37.5888650767738 160.93508617715997 0 0 0 0 0.99057335420684467 -19.804622114814265 0 -19.804622114814265 127.55610006090501 0 0 0 0 8.0900110427438108 -42.38224919617096 0 -42.38224919617096 117.65087620855047 0 0 0 0 -3.6229064093747638 -4.5288095965370303 0 -4.5288095965370303 107.08863829139955 0 0 0 0 1.3331367916196086 4.9229730682118316 0 4.9229730682118316 107.10581905113577 0 0 0 0 7.9844159121187204 -16.739735867120544 0 -16.739735867120544 109.21246453304411 0 0 0 0 7.9544791861865178 -14.219668204241316 0 -14.219668204241316 74.141962688840067 0 0 0 0 -8.6512172174371926 1.2966495610889979 0 1.2966495610889979 136.39529081663568 0 0 0 0 -0.84998627497850521 8.9832382583226718 0 8.9832382583226718 137.92735978481505 0 0 0 0 -9.991068593398154 2.5717164262678125 0 2.5717164262678125 148.78459401841519 0 0 0 0 -3.9309952652358788 17.60485603183588 0 17.60485603183588 138.97259091153137 0 0 0 0 -3.4039193246737796 -17.158538590469107 0 -17.158538590469107 76.748688729494461 0 0 0 0 -2.0762206617637275 9.7757465608556231 0 9.7757465608556231 75.729101586523029 0 0 0 0 11.103361254298534 -1.8501710215468847 0 -1.8501710215468847 12.418326712489943 0 0 0 0 1.7121172013952324 -2.8490946633928864 0 -2.8490946633928864 12.158938850347994 0 0 0 0 13.017265070230678 -3.3725555361997976 0 -3.3725555361997976 12.051893834967814 0 0 0 0 12.808385321400237 -4.541941731247789 0 -4.541941731247789 12.515097388974482 0 0 0 0 4.63013124096266 2.5024548041934835 0 2.5024548041934835 4.3671368645153024 0 0 0 0 -8.0425502112661889 -0.98123535471404466 0 -0.98123535471404466 18.481284754987428 0 0 0 0 -3.3091303695337047 1.2819425576526555 0 1.2819425576526555 29.516246046257038 0 0 0 0 -3.1190897652591048 3.146471719177498 0 3.146471719177498 20.147940479750105 0 0 0 0 0.92366379048928948 -1.9842548471447721 0 -1.9842548471447721 3.3147299850517911 0 0 0 0 -1.4017882324158109 -11.460110724955484 0 -11.460110724955484 13.112711925103213 0 0 0 0 1.6397210198065295 -10.777879812723768 0 -10.777879812723768 6.3919383067932358 0 0 0 0 -2.0429535934117666 -14.710159876161924 0 -14.710159876161924 19.457618155932209 0 0 0 0 1.4070019637092628 -15.814830007079763 0 -15.814830007079763 9.8459235058180639 0 0 0 0 1.1323448584546363 -3.5017946809438882 0 -3.5017946809438882 13.288366899545956 0 0 0 0 8.9061176370681778 -2.7775543005918735 0 -2.7775543005918735 13.897939191363548 0 0 0 0 11.308262094033239 -4.111699560909301 0 -4.111699560909301 12.488580325014482 0 0 0 0 11.583004081531726 -2.835412744912901 0 -2.835412744912901 11.895231475360561 0 0 0 0 9.2598507820894831 -7.2798672627468264 0 -7.2798672627468264 7.8614425522860998 0 0 0 0 11.285027025727686 -5.0043645438527165 0 -5.0043645438527165 14.930570850885715 0 0 0 0 10.230432049384717 -2.8776650093323042 0 -2.8776650093323042 15.149428195443761 0 0 0 0 4.4764988017652225 1.1946876349182816 0 1.1946876349182816 6.9107632125428324 0 0 0 0 13.533189438519912 -0.45860023793284199 0 -0.45860023793284199 12.638227912946604 0 0 0 0 25.812982430046532 -21.517664850496203 0 -21.517664850496203 9.2413262842965196 0 0 0 0 20.060312830430689 9.3487277916956373 0 9.3487277916956373 1.1215303317549115 0 0 0 0 15.912000527317277 5.7238481993587484 0 5.7238481993587484 -0.12485439092967709 0 0 0 0 19.903363156947307 -4.882898116717115 0 -4.882898116717115 13.679858116242031 0 0 0 0 13.529491066237338 -1.8662378134142656 0 -1.8662378134142656 3.6352958792291545 0 0 0 0 12.179830197675983 -3.4764517622679705 0 -3.4764517622679705 5.988634912229827 0 0 0 0 10.583983899939341 3.2048373874241101 0 3.2048373874241101 2.5535785515000171 0 0 0 0 35.880238206912338 4.4774298491229274 0 4.4774298491229274 -2.8252836234460119 0 0 0 0 66.355204039631076 -19.705815542899472 0 -19.705815542899472 -1.8067536584421759 0 0 0 0 33.661905338398128 -41.061680633811193 0 -41.061680633811193 40.804915097265621 0 0 0 0 17.811591050817469 35.786770776662706 0 35.786770776662706 -3.8923975849320414 0 0 0 0 11.684968814035528 -7.8709882449657016 0 -7.8709882449657016 10.736629585463561 0 0 0 0 5.5451257055770373 3.3176244923360265 0 3.3176244923360265 4.0886122390115887 0 0 0 0 -0.26855588866328617 21.674887441928149 0 21.674887441928149 35.593197659902216 0 0 0 0 15.378886260495165 3.032584531683824 0 3.032584531683824 43.900505348152365 0 0 0 0 23.12240768231959 -3.8249903744472249 0 -3.8249903744472249 16.120053447273676 0 0 0 0 17.272341350515376 2.868005348479528 0 2.868005348479528 15.958833019307349 0 0 0 0 87.743023992065218 -10.385426576493046 0 -10.385426576493046 25.288175988534931 0 0 0 0 87.988708022818628 -23.112446191899835 0 -23.112446191899835 21.446342980409099 0 0 0 0 58.938729983876101 -78.150382806692505 0 -78.150382806692505 129.30342036873844 0 0 0 0 54.783352659675188 -34.573411681552898 0 -34.573411681552898 85.081279294616252 0 0 0 0 92.652912937240444 -32.656658931580751 0 -32.656658931580751 39.14245352366197 0 0 0 0 58.069131607008615 -60.66947081275066 0 -60.66947081275066 265.52079862696701 0 0 0 0 154.1456989592632 -122.26934878055727 0 -122.26934878055727 107.93171629891003 0 0 0 0 74.249343294183632 -101.91524107992154 0 -101.91524107992154 215.85052559781252 0 0 0 0 44.187371602061077 -43.509107359931932 0 -43.509107359931932 150.78576813274412 0 0 0 0 90.656469197292608 -192.09360044228015 0 -192.09360044228015 406.68495302304655 0 0 0 0 -17.084694683794169 -390.30342140140056 0 -390.30342140140056 -226.09335751766776 0 0 0 0 1.0415758267358797 94.533787472009863 0 94.533787472009863 573.80528038970715 0 0 0 0 1.6861574576761533 0.093642562926653738 0 0.093642562926653738 -0.75459155873281958 0 0 0 0 31.736675872236901 86.234407522806578 0 86.234407522806578 263.38099246228194 0 0 0 0 78.090083601878177 -120.43002976079333 0 -120.43002976079333 165.90630987778241 0 0 0 0 0.19605908784445258 0.20281898483494132 0 0.20281898483494132 2.8881436647893914 0 0 0 0 120.24896943039977 -93.897733545323717 0 -93.897733545323717 182.18317892377308 0 0 0 0 -66.488427046799529 -374.69036949178735 0 -374.69036949178735 5.2245890624617459 0 0 0 0 110.39441395429026 -188.59414626701255 0 -188.59414626701255 176.3715817375944 0 0 0 0 118.37459840559268 -147.10279740403166 0 -147.10279740403166 3.5320273183424433 0 0 0 0 91.699137224954484 -92.87463707859024 0 -92.87463707859024 126.61929216586213 0 0 0 0 -7.6975799096457536 -9.9461131817379282 0 -9.9461131817379282 26.897161719341966 0 0 0 0 1.2735676626366268 -2.8142550865720031 0 -2.8142550865720031 9.9039899960385895 0 0 0 0 -7.0654991096938602 -16.320208539995292 0 -16.320208539995292 43.541914446315786 0 0 0 0 7.3789232380745773 -6.6314176587293332 0 -6.6314176587293332 -10.651165868956014 0 0 0 0 4.9549282801564232 -2.6672684373294118 0 -2.6672684373294118 6.8624202578838993 0 0 0 0 -21.942535974378188 0.34841436442729901 0 0.34841436442729901 28.320058809007605 0 0 0 0 -16.736938750570971 1.5499208923843071 0 1.5499208923843071 19.806144869660784 0 0 0 0 4.8860588010927586 -1.500078905920418 0 -1.500078905920418 6.522807759072748 0 0 0 0 4.8809671201079254 -13.216042113857611 0 -13.216042113857611 7.8100663390978298 0 0 0 0 4.7684325347880829 0.50519794049185229 0 0.50519794049185229 9.9325588349436629 0 0 0 0 8.5020889516881049 4.7674994481449815 0 4.7674994481449815 10.028995486517935 0 0 0 0 3.5476894707955235 -0.78689142660592637 0 -0.78689142660592637 7.1684441229605227 0 0 0 0 3.0069549761046579 1.9979839906572607 0 1.9979839906572607 10.400946960974551 0 0 0 0 -0.0069369847955158548 -0.79453785483337924 0 -0.79453785483337924 6.8364347343449481 0 0 0 0 -19.954262247315455 -6.3746975341855432 0 -6.3746975341855432 16.218466997132055 0 0 0 0 -29.942624960270223 17.001611170646356 0 17.001611170646356 18.400863598159049 0 0 0 0 -2.102923851102787 15.068238011517678 0 15.068238011517678 23.329711553452398 0 0 0 0 3.1460586504645107 15.015003796677775 0 15.015003796677775 14.819464098291064 0 0 0 0 7.6711420969913888 4.8030207055380743 0 4.8030207055380743 9.0628380518428457 0 0 0 0 12.873874902466923 6.5288014491270587 0 6.5288014491270587 9.3527139307916514 0 0 0 0 2.1358286219870024 9.9648870103251284 0 9.9648870103251284 12.104163891766802 0 0 0 0 -0.055245169147077888 -1.239926773123905 0 -1.239926773123905 3.7456097933865138 0 0 0 0 5.6366502739663336 1.0782349526209458 0 1.0782349526209458 8.003329220135285 0 0 0 0 -20.070510594106963 27.837809350803582 0 27.837809350803582 61.428290602696507 0 0 0 0 13.628672703133816 13.178877576163359 0 13.178877576163359 12.842633605260744 0 0 0 0 0.70030405212310143 -21.034230905053846 0 -21.034230905053846 51.497645195348014 0 0 0 0 7.9912958422064548 16.870855687993753 0 16.870855687993753 15.384502844381132 0 0 0 0 1.4406011148173854 -0.65820816592745146 0 -0.65820816592745146 1.4583231275270379 0 0 0 0 15.555205018672215 1.9632788931404548 0 1.9632788931404548 31.620668463332549 0 0 0 0 12.777409377077589 -19.667129205676247 0 -19.667129205676247 16.209371385473787 0 0 0 0 52.863982367322478 7.6661579854442152 0 7.6661579854442152 32.402439478581073 0 0 0 0 40.129429267536437 -32.236996885770168 0 -32.236996885770168 48.641174730655621 0 0 0 0 29.05890200200713 -1.0108210054995652 0 -1.0108210054995652 250.64847607146294 0 0 0 0 42.249469417537895 30.385556153597918 0 30.385556153597918 241.85866187400097 0 0 0 0 190.91746565689988 -178.3978647697204 0 -178.3978647697204 422.6436512769501 0 0 0 0 0.46658655445158925 -0.90025363344639242 0 -0.90025363344639242 3.6634126003079359 0 0 0 0 -24.263093948596065 95.226584063710106 0 95.226584063710106 355.23413248971656 0 0 0 0 623.17367004904486 -284.41952809806571 0 -284.41952809806571 65.617083222343354 0 0 0 0 278.43376077180687 -119.57650310734789 0 -119.57650310734789 6.7858777280243885 0 0 0 0 27.386428759139562 -208.73338045242053 0 -208.73338045242053 -3.1826488482329296 0 0 0 0 196.92863426471445 -311.21103629312529 0 -311.21103629312529 50.486606202743133 0 0 0 0 -33.591571015653244 -179.65167683833715 0 -179.65167683833715 215.50538912767661 0 0 0 0 -220.52988419618714 -129.52657720165735 0 -129.52657720165735 -63.994202697154833 0 0 0 0 -75.745667320408302 -177.14919074323916 0 -177.14919074323916 -226.23842650497681 0 0 0 0 -35.21546480385723 -295.86665661014558 0 -295.86665661014558 -44.102697037902544 0 0 0 0 -34.946001533523713 -154.12437084181511 0 -154.12437084181511 11.256259765985305 0 0 0 0 -135.81732087810875 -147.62661762033349 0 -147.62661762033349 103.21588150684693 0 0 0 0 -139.51503019921392 -139.76130852345523 0 -139.76130852345523 26.883947538965003 0 0 0 0 -153.4422477651122 -192.09641474396176 0 -192.09641474396176 -9.9401632699082256 0 0 0 0 -197.04178189668824 -141.20356709277621 0 -141.20356709277621 3.9265786095056683 0 0 0 0 -135.94842765189242 -138.54774232101772 0 -138.54774232101772 -27.374402316199848 0 0 0 0 -213.30395450787501 -195.61014250738663 0 -195.61014250738663 -88.90410942374001 0 0 0 0 -213.30395450788274 -195.61014250741573 0 -195.61014250741573 -88.904109423747286 0 0 0 0 -250.72800961737835 -20.583700092051004 0 -20.583700092051004 -119.96133611012192 0 0 0 0 -213.3039545078816 -195.61014250741027 0 -195.61014250741027 -88.904109423689079 0 0 0 0 -310.45284156235766 -91.976753612689208 0 -91.976753612689208 127.78115836800134 0 0 0 0 -254.90952769450939 -31.751015436486341 0 -31.751015436486341 69.920085340127116 0 0 0 0 -282.32877006209139 -104.19174437800939 0 -104.19174437800939 88.239111387869343 0 0 0 0 -387.77845243647789 -61.302688644282171 0 -61.302688644282171 75.663717363830074 0 0 0 0 -301.4441210317334 -65.103742293453251 0 -65.103742293453251 27.782870598020963 0 0 0 0 -445.48943503045939 -17.708328622626141 0 -17.708328622626141 16.69114051971701 0 0 0 0 -312.61477917258435 -64.908454633892688 0 -64.908454633892688 69.555933855255716 0 0 0 0 -132.28379700903497 -95.11803663372848 0 -95.11803663372848 39.285692536184797 0 0 0 0 -194.05439267021029 -83.161036624886037 0 -83.161036624886037 -51.30536754662171 0 0 0 0 -192.29150944523315 -97.578475013206116 0 -97.578475013206116 63.703711027803365 0 0 0 0 -243.15019925769479 -60.969269487235579 0 -60.969269487235579 135.72922645113431 0 0 0 0 -43.192574046003188 -130.28576604996852 0 -130.28576604996852 160.83835114358953 0 0 0 0 -123.05117229518072 -54.176191705587826 0 -54.176191705587826 90.712201187314349 0 0 0 0 -0.450766023603137 34.674669879186695 0 34.674669879186695 187.2837392822421 0 0 0 0 -160.49951751897186 -23.620180643582898 0 -23.620180643582898 249.01458697955968 0 0 0 0 -146.78690260180656 -13.16408219348159 0 -13.16408219348159 120.97865948266644 0 0 0 0 -236.3533656080856 -71.595586526709667 0 -71.595586526709667 183.74202568845067 0 0 0 0 -213.65018012565588 -97.053762520281452 0 -97.053762520281452 148.25594107394863 0 0 0 0 -224.34166046957716 -78.505681004618964 0 -78.505681004618964 116.08428067775094 0 0 0 0 107.75515656503251 -208.69334817356503 0 -208.69334817356503 487.67023960502229 0 0 0 0 207.41973757279482 128.42049529203905 0 128.42049529203905 312.29064737656518 0 0 0 0 48.414082855867946 -62.70626775807068 0 -62.70626775807068 136.90078597909451 0 0 0 0 66.347841962484949 -28.067207123231128 0 -28.067207123231128 176.66257081420918 0 0 0 0 -7.4084384418700893 5.8914150712353148 0 5.8914150712353148 199.47072791388564 0 0 0 0 -142.68974813591265 -42.610835925512674 0 -42.610835925512674 168.04660420310393 0 0 0 0 -156.19465026931766 -3.2282992106847814 0 -3.2282992106847814 203.70450837372482 0 0 0 0 -6.917015898672048 2.5947255846895132 0 2.5947255846895132 177.45418441477341 0 0 0 0 -120.69365268209614 -34.612366568152538 0 -34.612366568152538 200.65165187259481 0 0 0 0 -12.561177330207727 -58.024519308836716 0 -58.024519308836716 166.2644733387242 0 0 0 0 -110.04877850889716 -31.909129996258343 0 -31.909129996258343 163.04294228535946 0 0 0 0 -78.798145745131706 7.6782455856118759 0 7.6782455856118759 190.00339610117771 0 0 0 0 161.74846502978903 8.7707322606547677 0 8.7707322606547677 141.86803137920106 0 0 0 0 253.57662144939553 -86.150744565065906 0 -86.150744565065906 114.20705352150344 0 0 0 0 183.02113129817366 -50.361263080086474 0 -50.361263080086474 101.87934928302639 0 0 0 0 98.427136073253223 -21.047051690986336 0 -21.047051690986336 96.858679466117792 0 0 0 0 140.21578228103513 24.014037442144399 0 24.014037442144399 85.34394572968904 0 0 0 0 240.85895826831529 -77.497161542347385 0 -77.497161542347385 186.36968616509694 0 0 0 0 250.76041027562923 -10.693853979542837 0 -10.693853979542837 120.27599309797006 0 0 0 0 411.0246979411346 -65.066104630937843 0 -65.066104630937843 138.65770145185888 0 0 0 0 -9.2007658890056518 -114.45036851117766 0 -114.45036851117766 52.05286161051481 0 0 0 0 -102.25749041015638 -248.01881973080526 0 -248.01881973080526 144.32466686931912 0 0 0 0 -1.0685117310476357 -32.988516345685639 0 -32.988516345685639 167.64897339341405 0 0 0 0 -153.80997512229129 32.976130842342172 0 32.976130842342172 139.98626667963254 0 0 0 0 -1.9323561971383949 40.881369674624082 0 40.881369674624082 22.782649645070279 0 0 0 0 -69.44956571194723 63.446886719131726 0 63.446886719131726 110.66541588024847 0 0 0 0 5.6648493712414165 47.575201785322861 0 47.575201785322861 69.773060954081302 0 0 0 0 287.91965122258034 78.953076232981402 0 78.953076232981402 227.97870744018292 0 0 0 0 89.526038287536267 -74.887020094345644 0 -74.887020094345644 8.8777771444274549 0 0 0 0 -0.83148489847230778 -0.87796183675936845 0 -0.87796183675936845 -3.1766942352187471 0 0 0 0 -7.9787631354399418 -31.876869629734223 0 -31.876869629734223 33.057205568067808 0 0 0 0 9.5454532843902911 -3.6104733992905622 0 -3.6104733992905622 18.748903695637168 0 0 0 0 -42.181684442269102 20.315660912884596 0 20.315660912884596 141.37876176900318 0 0 0 0 -33.624505550776576 85.700601376676786 0 85.700601376676786 228.37450102374669 0 0 0 0 -25.722713980240826 -20.858015644429543 0 -20.858015644429543 110.84578760067234 0 0 0 0 -7.4340979632463551 38.29856449645618 0 38.29856449645618 23.501712576165012 0 0 0 0 5.0511824417060609 43.745429848862841 0 43.745429848862841 125.97461228826069 0 0 0 0 -6.7465634531029934 38.24205997323952 0 38.24205997323952 172.15010957180493 0 0 0 0 -1.7428432282636199 4.039548454801217 0 4.039548454801217 23.124450233858646 0 0 0 0 -346.1126373250695 -113.35412388909754 0 -113.35412388909754 87.208598479689954 0 0 0 0 7.978066003361838 33.410433393677401 0 33.410433393677401 19.83333351330311 0 0 0 0 -231.85592020517373 -41.925805412177169 0 -41.925805412177169 81.788610480009083 0 0 0 0 -441.71133813948745 -107.96499694179784 0 -107.96499694179784 66.881117798940977 0 0 0 0 -8.1770298415632254 -32.132182028601846 0 -32.132182028601846 29.038217115437604 0 0 0 0 62.339967272191871 46.966365934698842 0 46.966365934698842 119.85298589536251 0 0 0 0 -375.19397332773065 -191.73502400643156 0 -191.73502400643156 65.069431934767636 0 0 0 0 -216.18044104655928 -224.16505459687323 0 -224.16505459687323 -17.729202135225933 0 0 0 0 -363.21370865423705 -154.29577649591374 0 -154.29577649591374 70.171087625494692 0 0 0 0 -289.09061129178372 -189.82700414186547 0 -189.82700414186547 50.351387444643478 0 0 0 0 -285.49029341680034 -116.39675091183017 0 -116.39675091183017 88.425212264286529 0 0 0 0 -134.65688056015915 -180.89632728499055 0 -180.89632728499055 -42.848548826117622 0 0 0 0 -81.789766529550661 -100.52757309616936 0 -100.52757309616936 9.3197792985120032 0 0 0 0 -199.24560514485302 -124.05351987381073 0 -124.05351987381073 87.23725947251296 0 0 0 0 -186.87159530151575 -80.907008534464694 0 -80.907008534464694 130.8243310355947 0 0 0 0 -270.16671156894199 -127.06823880305456 0 -127.06823880305456 123.14398183803132 0 0 0 0 -213.31072876281905 -136.21838544764614 0 -136.21838544764614 96.041931387531804 0 0 0 0 -209.55324748652902 -134.26811232361797 0 -134.26811232361797 81.391148173865076 0 0 0 0 -187.69264273095314 -45.479005479410262 0 -45.479005479410262 201.53321113623315 0 0 0 0 -175.32130635527051 -73.550722450007015 0 -73.550722450007015 147.55101030800142 0 0 0 0 -176.17213091325721 -69.415386462438619 0 -69.415386462438619 145.03966853343809 0 0 0 0 -144.17437619670204 -44.324970179788579 0 -44.324970179788579 174.8565703546119 0 0 0 0 -122.40192626857413 -28.496682701116697 0 -28.496682701116697 181.0706992861451 0 0 0 0 -195.85256258038908 63.037490187822186 0 63.037490187822186 111.01994948469837 0 0 0 0 -241.32103571357857 -31.156881065189737 0 -31.156881065189737 181.93219528094778 0 0 0 0 -180.9000483731304 -42.472425826746985 0 -42.472425826746985 192.44083227828014 0 0 0 0 -191.24734218913613 -15.907116174593284 0 -15.907116174593284 159.97193386261642 0 0 0 0 -106.10020442159748 -20.809101306325829 0 -20.809101306325829 132.20545456887339 0 0 0 0 -138.59695579640652 3.1841196270961518 0 3.1841196270961518 130.27421358097126 0 0 0 0 -95.753378405084163 15.965824673626457 0 15.965824673626457 103.07727261179389 0 0 0 0 -69.721632663658042 10.945531963891213 0 10.945531963891213 131.67556141484238 0 0 0 0 -21.421293308868371 -1.0001861548589659 0 -1.0001861548589659 106.42337874298391 0 0 0 0 -144.94492899158161 -33.705529739664485 0 -33.705529739664485 128.04445639057667 0 0 0 0 -69.269415537304212 -41.788883750712557 0 -41.788883750712557 91.450853594451473 0 0 0 0 -11.037362762631346 -5.9068275896534033 0 -5.9068275896534033 102.02315450950118 0 0 0 0 4.3370930718569367 -2.4475934953278013 0 -2.4475934953278013 -0.47422725617661854 0 0 0 0 -122.60831927937329 296.9531095405946 0 296.9531095405946 333.15334224392427 0 0 0 0 -38.132265953563547 -9.2978987451569992 0 -9.2978987451569992 143.64567228514079 0 0 0 0 35.399922398406488 24.844282150489562 0 24.844282150489562 93.575296645671187 0 0 0 0 -1.5081118072134814 -20.67626394886247 0 -20.67626394886247 119.87984201026484 0 0 0 0 -12.676583936955467 14.181243071847348 0 14.181243071847348 52.947843817340981 0 0 0 0 -5.4396595400182832 -2.2579254607207986 0 -2.2579254607207986 87.67845506083404 0 0 0 0 8.7990793539341752 25.641256500237624 0 25.641256500237624 42.758981251726723 0 0 0 0 2.1510029557011876 -9.8199005985698022 0 -9.8199005985698022 570.12689974893874 0 0 0 0 8.493035243275358 20.603937592067268 0 20.603937592067268 108.254831993072 0 0 0 0 -3.1104651583200393 -21.268969866967382 0 -21.268969866967382 560.08806068723061 0 0 0 0 -6.7732009432074669 -29.901332798010472 0 -29.901332798010472 37.526279446193314 0 0 0 0 19.793214421609832 38.000083488099335 0 38.000083488099335 111.20453064747926 0 0 0 0 386.98822879095951 -243.76830351183889 0 -243.76830351183889 641.44502288918011 0 0 0 0 -467.58259395089044 56.490472523968492 0 56.490472523968492 751.60266708068957 0 0 0 0 184.88933984199411 -173.60572555512772 0 -173.60572555512772 58.583788087169523 0 0 0 0 151.60646876790111 -427.08229474775635 0 -427.08229474775635 221.31583232918638 0 0 0 0 -159.55322501422597 -232.58276379608287 0 -232.58276379608287 149.92952190709366 0 0 0 0 -132.01073740328275 85.460172039547615 0 85.460172039547615 1160.4993689957591 0 0 0 0 -3.8015224475097171 1.4162618692620512 0 1.4162618692620512 -0.38334715282122289 0 0 0 0 -290.81719233001058 -86.30899655752728 0 -86.30899655752728 1010.6014987115668 0 0 0 0 -163.52038991554491 -91.611905777885113 0 -91.611905777885113 1030.4546302330855 0 0 0 0 -163.63761849926539 -77.954734189676799 0 -77.954734189676799 960.99309666792396 0 0 0 0 11.885241842045616 -199.15692702526212 0 -199.15692702526212 701.29413653297706 0 0 0 0 156.3455938632267 -645.72470189148999 0 -645.72470189148999 1052.9504752421235 0 0 0 0 -286.31673723945687 -488.04320526066965 0 -488.04320526066965 1071.2141742093081 0 0 0 0 327.26184091734717 -314.11804183137247 0 -314.11804183137247 653.8439922616999 0 0 0 0 -105.4888098164181 64.040680134647118 0 64.040680134647118 40.127110641173203 0 0 0 0 4.3264450775206358 20.887430629955684 0 20.887430629955684 30.001311451963502 0 0 0 0 -110.31702178809675 45.856147547805904 0 45.856147547805904 43.890710893072537 0 0 0 0 364.34528463305946 -575.17172280040484 0 -575.17172280040484 1782.6213253510978 0 0 0 0 2.4155398101454324 14.252859348034296 0 14.252859348034296 22.617578545549243 0 0 0 0 -246.83594787041625 257.5765272113058 0 257.5765272113058 -106.49174017634687 0 0 0 0 313.11569757201721 -317.77429589340863 0 -317.77429589340863 1543.5418187157793 0 0 0 0 -149.68894886362526 -96.262869234928075 0 -96.262869234928075 2500.9334112467386 0 0 0 0 -376.82968170315894 122.73660719053623 0 122.73660719053623 1483.3524376098394 0 0 0 0 -611.46568770083059 524.48279933868616 0 524.48279933868616 2495.6278801336375 0 0 0 0 -298.32302729844804 312.96360705946063 0 312.96360705946063 1374.3537081558934 0 0 0 0 143.79871304808273 931.62938731465692 0 931.62938731465692 960.6931686192911 0 0 0 0 -380.69199925836608 -529.64608852853121 0 -529.64608852853121 -155.76110578197404 0 0 0 0 -204.82303377871338 317.20803642892861 0 317.20803642892861 1012.6001786328854 0 0 0 0 34.633750568072799 -14.969805902474036 0 -14.969805902474036 967.73239613736041 0 0 0 0 80.068917539129188 163.92895227747795 0 163.92895227747795 1059.4605030870371 0 0 0 0 54.458912342785766 -217.8750609493145 0 -217.8750609493145 927.46192482271181 0 0 0 0 111.3438323458372 -348.03757551995477 0 -348.03757551995477 322.7952229819457 0 0 0 0 299.82412024454817 -47.139288705828221 0 -47.139288705828221 -29.786889437073114 0 0 0 0 236.40562760107241 -17.80276850600967 0 -17.80276850600967 289.98955487538478 0 0 0 0 212.06057207501803 -108.74705195301794 0 -108.74705195301794 262.88552065143813 0 0 0 0 253.61552447978534 -112.29379762349254 0 -112.29379762349254 210.31862261306014 0 0 0 0 28.647700769801531 11.017458166081269 0 11.017458166081269 148.64240806469388 0 0 0 0 71.407481808739362 -63.767510964249595 0 -63.767510964249595 248.64980162720531 0 0 0 0 -48.474726360381283 -48.26399280815167 0 -48.26399280815167 120.18172300665356 0 0 0 0 -386.71713808862137 32.133951300280387 0 32.133951300280387 174.91402447892051 0 0 0 0 34.042383079455846 4.9713936106236361 0 4.9713936106236361 -88.265188291552477 0 0 0 0 150.23637972489217 297.5602355696592 0 297.5602355696592 622.88883974351847 0 0 0 0 326.59268690002875 -539.92662289761768 0 -539.92662289761768 3533.9663777520218 0 0 0 0 -187.38363787672523 839.03487100578968 0 839.03487100578968 2139.3509043743543 0 0 0 0 -116.5164279750976 983.17943740199189 0 983.17943740199189 -3.0522490682008083 0 0 0 0 1.6188349126653216 5.2700063439388671 0 5.2700063439388671 9.2886824756521165 0 0 0 0 134.35529000689789 -352.97338529813896 0 -352.97338529813896 2452.6418282758968 0 0 0 0 458.8073376352524 25.91583627392265 0 25.91583627392265 2499.4245403033201 0 0 0 0 -354.41788164492561 -0.070594980266378116 0 -0.070594980266378116 2499.8764269801868 0 0 0 0 -143.16415986596132 -134.26862796518162 0 -134.26862796518162 1896.4233468154671 0 0 0 0 -359.99033212144536 -238.037723982241 0 -238.037723982241 1874.1175610252831 0 0 0 0 -362.10078453146588 -328.17247919763577 0 -328.17247919763577 2500.3014336516035 0 0 0 0 -66.680736373557494 -688.51223857641958 0 -688.51223857641958 1406.0279403472341 0 0 0 0 -55.460921970515102 -598.75327921735425 0 -598.75327921735425 1910.6837978991607 0 0 0 0 -77.320374658445928 -121.96437822740154 0 -121.96437822740154 1172.6801635853753 0 0 0 0 1.934170038689532 -4.4462899155338533 0 -4.4462899155338533 14.749831556135948 0 0 0 0 -45.967681739283876 484.51611168595696 0 484.51611168595696 1335.0027900059195 0 0 0 0 96.427339503471003 -1257.6724320484 0 -1257.6724320484 2495.166599434046 0 0 0 0 272.53334705980797 -848.45648463932321 0 -848.45648463932321 1153.8743739575239 0 0 0 0 1176.048255301255 -1140.9307262713223 0 -1140.9307262713223 881.45015989605054 0 0 0 0 436.19505073827924 -148.61734315071135 0 -148.61734315071135 -46.824532492626531 0 0 0 0 -223.84565385538394 31.281900852686704 0 31.281900852686704 139.05769100613179 0 0 0 0 -178.75369165785204 117.28126434751721 0 117.28126434751721 301.6202205412701 0 0 0 0 -10.436500026071826 10.180745881209077 0 10.180745881209077 5.546277192317973 0 0 0 0 72.230200661105641 218.77959148221271 0 218.77959148221271 68.347717498871134 0 0 0 0 -6.7349628743940331 10.217129118496938 0 10.217129118496938 3.2143296745558274 0 0 0 0 198.88539875886966 -79.313660604256938 0 -79.313660604256938 -160.78643760263003 0 0 0 0 -5.1577864877456072 10.414939774501285 0 10.414939774501285 3.9813992135744107 0 0 0 0 -19.484485364830334 77.250827437650514 0 77.250827437650514 -149.49491213586953 0 0 0 0 13.37424966722449 -246.67982147236762 0 -246.67982147236762 1088.6635111803316 0 0 0 0 -0.42689986005463348 -0.55487597162508351 0 -0.55487597162508351 3.0576009998615632 0 0 0 0 -88.745332705408913 68.407136005373104 0 68.407136005373104 580.12294803786972 0 0 0 0 -2.682290264646658 -0.3357812850360844 0 -0.3357812850360844 4.3236760637366931 0 0 0 0 365.85193962382914 -219.26166397090083 0 -219.26166397090083 140.26333291480296 0 0 0 0 79.266792559665447 -61.674682600074448 0 -61.674682600074448 58.0746888496069 0 0 0 0 55.78045597322398 -7.0406743112798722 0 -7.0406743112798722 -59.800524028724311 0 0 0 0 135.73863334741534 -14.890826807933877 0 -14.890826807933877 40.814710091119196 0 0 0 0 70.140532347962107 58.697226786234751 0 58.697226786234751 200.38622782929815 0 0 0 0 60.708498199602133 -21.443591702593721 0 -21.443591702593721 -2.4911263749163481 0 0 0 0 -52.947823664559678 -3.4115702955186862 0 -3.4115702955186862 64.330206237067614 0 0 0 0 -0.82631352082937126 -3.8399994466230423 0 -3.8399994466230423 20.22550245833844 0 0 0 0 -67.982527557752974 -45.078131806805686 0 -45.078131806805686 72.658138416691145 0 0 0 0 5.2618895259903979 38.726933814932636 0 38.726933814932636 53.708976802208781 0 0 0 0 -44.43946570359725 15.847035350244823 0 15.847035350244823 106.63019845957206 0 0 0 0 24.237241026519342 -9.2186882321600478 0 -9.2186882321600478 25.639216092211427 0 0 0 0 -0.16792310545156397 64.755520155104023 0 64.755520155104023 215.61165385713957 0 0 0 0 -2.2091625215167383 -185.11111415174992 0 -185.11111415174992 211.71349361406465 0 0 0 0 -25.530711330405779 -171.59768061946397 0 -171.59768061946397 293.84913079742546 0 0 0 0 86.284147346304167 -87.53066800007764 0 -87.53066800007764 24.773665289483688 0 0 0 0 328.52978330457177 -224.69733946624092 0 -224.69733946624092 93.871419028113451 0 0 0 0 69.848349968400498 -379.76652428061243 0 -379.76652428061243 315.76787413238344 0 0 0 0 -112.06818764567612 -24.975090159533011 0 -24.975090159533011 83.9890999142699 0 0 0 0 -71.830523870444026 -175.65594834397143 0 -175.65594834397143 210.9100140017581 0 0 0 0 -43.864571812725842 -161.29754030850927 0 -161.29754030850927 201.20943956178598 0 0 0 0 188.58910682483668 55.51894786604862 0 55.51894786604862 24.061068179964423 0 0 0 0 -39.008689315656966 132.30264902413819 0 132.30264902413819 -228.8627631746931 0 0 0 0 0.66764877602989192 3.8061746023415672 0 3.8061746023415672 0.76952662431945029 0 0 0 0 -314.34382598477521 123.08835051586721 0 123.08835051586721 143.96604449989582 0 0 0 0 653.68905675032647 133.2030974931422 0 133.2030974931422 -408.07571686249776 0 0 0 0 1.8653066555134483 1.8740414646637582 0 1.8740414646637582 0.65566172943151102 0 0 0 0 -277.87794569898017 -155.16122179779779 0 -155.16122179779779 475.80991589325276 0 0 0 0 -22.284283917600192 33.514485103115476 0 33.514485103115476 443.1190000700044 0 0 0 0 -8.7716118970835737 -57.273494584507716 0 -57.273494584507716 363.3947348740694 0 0 0 0 -50.907540359807967 201.59248060918799 0 201.59248060918799 37.498266203334424 0 0 0 0 -11.758730709088042 -57.816976489216813 0 -57.816976489216813 470.03583692988104 0 0 0 0 -0.035118325185567123 0.41265339479094365 0 0.41265339479094365 0.64794450503422496 0 0 0 0 -7.5909607078377803 83.021621570838761 0 83.021621570838761 350.36839765161494 0 0 0 0 -12.63685285085586 94.83556619117735 0 94.83556619117735 504.13934566017269 0 0 0 0 0.99004934389964538 -2.1681998930022952 0 -2.1681998930022952 7.2182584975280903 0 0 0 0 35.629196268627965 164.14814092526694 0 164.14814092526694 344.82656117598162 0 0 0 0 61.294928756471563 155.99099111646137 0 155.99099111646137 173.64400030725847 0 0 0 0 -5.8881712447429333 1.2609477262364037 0 1.2609477262364037 30.869539370991429 0 0 0 0 -0.40306742352906966 -4.3977105132686489 0 -4.3977105132686489 18.463112781453852 0 0 0 0 -4.8151990505575668 -0.96097239215379204 0 -0.96097239215379204 69.925611860604022 0 0 0 0 -6.4875017169142666 0.50147860905781272 0 0.50147860905781272 30.956959561302938 0 0 0 0 -1.0241588002742459 -0.95298356745578161 0 -0.95298356745578161 37.00462860634795 0 0 0 0 -5.2549768293401939 3.7928429549879183 0 3.7928429549879183 101.59992962857359 0 0 0 0 3.4982544368047002 -6.8810047367962355 0 -6.8810047367962355 24.981265608735725 0 0 0 0 -3.3712311749869741 -18.607779569030527 0 -18.607779569030527 84.952378899775795 0 0 0 0 2.0230718639204825 -3.8538760560159968 0 -3.8538760560159968 40.850911263174368 0 0 0 0 -98.663295178386761 18.049406793987146 0 18.049406793987146 94.646739835923654 0 0 0 0 0.027660323768811335 4.1651426181349978 0 4.1651426181349978 10.259333231566842 0 0 0 0 17.247366769126529 1.4139352367656102 0 1.4139352367656102 71.790662710308425 0 0 0 0 47.516482700258166 -132.9457340409881 0 -132.9457340409881 83.386733364688553 0 0 0 0 -32.437792647866559 -19.892814256937982 0 -19.892814256937982 -3.8074204797339917 0 0 0 0 -10.609260229810161 -40.079116243554381 0 -40.079116243554381 13.196252071061735 0 0 0 0 -6.9599170528078185 2.4278633301009975 0 2.4278633301009975 4.8096097600360714 0 0 0 0 -63.684650705860349 21.402687081868407 0 21.402687081868407 61.226418328889849 0 0 0 0 16.582218217423588 -69.247057613909419 0 -69.247057613909419 -45.160353660538021 0 0 0 0 -20.479063192617559 -19.534816450471226 0 -19.534816450471226 59.331904920283705 0 0 0 0 40.998078330736007 63.285662946604134 0 63.285662946604134 -103.50340077874671 0 0 0 0 -8.6373800502891527 5.2087866401482188 0 5.2087866401482188 103.24226616598753 0 0 0 0 -3.7138724811397879 -42.303233245628689 0 -42.303233245628689 378.95828749921384 0 0 0 0 122.48846214385503 41.020307241865339 0 41.020307241865339 62.568837857586459 0 0 0 0 114.63542845589677 -168.70664190053321 0 -168.70664190053321 155.96770273254333 0 0 0 0 184.19319200430061 -130.98640261688297 0 -130.98640261688297 107.31223551860603 0 0 0 0 1.1109125756839044 -0.99829421114778416 0 -0.99829421114778416 2.7866105939550749 0 0 0 0 99.606074397417615 -177.40676639589492 0 -177.40676639589492 247.23083201291593 0 0 0 0 0.53811356858341242 -120.16831572075989 0 -120.16831572075989 271.50484763849408 0 0 0 0 7.4227955568567268 -87.260670122894226 0 -87.260670122894226 159.65222808152976 0 0 0 0 20.060918539300474 -115.98298885338227 0 -115.98298885338227 272.35159260541695 0 0 0 0 76.913926691220695 -138.48388539700954 0 -138.48388539700954 155.38225631502337 0 0 0 0 -20.806887688683901 -153.43284313990125 0 -153.43284313990125 375.49136893370269 0 0 0 0 -66.539383651733942 83.490810806951913 0 83.490810806951913 27.542277955017198 0 0 0 0 38.505309332358593 -24.162139332283118 0 -24.162139332283118 27.454506361234962 0 0 0 0 -1.6002451310681067 -6.7802865297476895 0 -6.7802865297476895 9.1636937131641645 0 0 0 0 15.832115249891103 15.782163070032084 0 15.782163070032084 32.400094162982896 0 0 0 0 76.370779595434215 25.929317221461361 0 25.929317221461361 32.651090487280726 0 0 0 0 -191.77741331286006 150.38915144816497 0 150.38915144816497 114.62657263470464 0 0 0 0 68.047229619094651 -48.297381221733701 0 -48.297381221733701 -22.903160336652718 0 0 0 0 0.64834270281392747 -4.9905600036028712 0 -4.9905600036028712 39.665669727931068 0 0 0 0 -22.754238895549406 -9.3768874349480029 0 -9.3768874349480029 65.779300464426342 0 0 0 0 2.8113805481706731 -13.757987143474011 0 -13.757987143474011 30.387916249893795 0 0 0 0 -50.241470267171735 -33.468765622244518 0 -33.468765622244518 72.324247492235372 0 0 0 0 0.36741293473096448 -27.453878380566493 0 -27.453878380566493 73.017416654851331 0 0 0 0 337.13412068136495 -586.54907551633096 0 -586.54907551633096 -126.05444726038832 0 0 0 0 -1.1914880200331481 -66.333436240038736 0 -66.333436240038736 -264.5398252622872 0 0 0 0 -5.9129918482913126 -27.97386749917473 0 -27.97386749917473 93.367913510418475 0 0 0 0 -1.674561772906058 3.2012404510470134 0 3.2012404510470134 11.295772219109114 0 0 0 0 26.860083195811967 -15.395521014006817 0 -15.395521014006817 -7.3309251585569655 0 0 0 0 4.8439677614649259 -10.920674656152904 0 -10.920674656152904 49.500555538724399 0 0 0 0 12.951711051264427 -2.1334084477787263 0 -2.1334084477787263 9.300576041480296 0 0 0 0 -114.97206913093623 53.717497874447872 0 53.717497874447872 33.293270230043163 0 0 0 0 9.3477600457504195 7.4258519582818963 0 7.4258519582818963 44.764753433610167 0 0 0 0 5.4137833050951132 -0.67566155324609412 0 -0.67566155324609412 4.8461549091279039 0 0 0 0 210.32099325282752 -209.54520137504915 0 -209.54520137504915 -573.84858204781631 0 0 0 0 131.93272247654386 -74.068689112375068 0 -74.068689112375068 45.980681266952161 0 0 0 0 212.41376539738508 -21.957385439152858 0 -21.957385439152858 -401.55135291935221 0 0 0 0 127.2885223990902 65.332312931266188 0 65.332312931266188 40.310497150609081 0 0 0 0 -11.553906060520603 76.167272768462681 0 76.167272768462681 -152.46982018061044 0 0 0 0 1.4557608521947183 -2.6059159040751219 0 -2.6059159040751219 4.1998118546930847 0 0 0 0 235.51868256776743 385.28031216214004 0 385.28031216214004 -463.39228280542477 0 0 0 0 3.4023437224925477 1.92190296927836 0 1.92190296927836 -0.34290772465886965 0 0 0 0 161.44311174587574 77.347696889954932 0 77.347696889954932 -155.21778757813263 0 0 0 0 140.73590161039294 153.87906678456966 0 153.87906678456966 34.433788314388948 0 0 0 0 -539.01101559985545 -277.004103780062 0 -277.004103780062 104.50014788230692 0 0 0 0 310.74534571191697 -127.13214612691218 0 -127.13214612691218 76.430890764829201 0 0 0 0 80.71658889348015 87.041514026755067 0 87.041514026755067 150.04935341682358 0 0 0 0 1.9993669970689143 0.90197614683991389 0 0.90197614683991389 4.3088789440840767 0 0 0 0 297.19892492969382 -211.78749505111637 0 -211.78749505111637 -360.66045285341715 0 0 0 0 -383.96709035302331 -213.56482697345177 0 -213.56482697345177 235.29309474080401 0 0 0 0 0.90326674248620509 -7.8754951959947919 0 -7.8754951959947919 30.675978232831476 0 0 0 0 226.50871340720408 431.79936718187855 0 431.79936718187855 -88.981080021017533 0 0 0 0 1.1516396843253838 0.61234471912155475 0 0.61234471912155475 16.094318613607573 0 0 0 0 179.33333407133716 -201.59598100290305 0 -201.59598100290305 426.31963819834709 0 0 0 0 -44.873536338884271 -39.233853398446691 0 -39.233853398446691 575.4899674999433 0 0 0 0 272.95339310006517 -1047.2463311381778 0 -1047.2463311381778 2495.1646124657077 0 0 0 0 -394.19616917828898 176.1651634975733 0 176.1651634975733 2496.0035815228739 0 0 0 0 -46.991481418898836 16.387742284265499 0 16.387742284265499 1304.9029520165968 0 0 0 0 217.35761097764041 252.44013210792411 0 252.44013210792411 343.01479475870337 0 0 0 0 12.657784489887595 6.7093243927139294 0 6.7093243927139294 10.485870418167483 0 0 0 0 196.4784845587632 15.124381262655447 0 15.124381262655447 555.66958437126084 0 0 0 0 440.87701581583377 201.49885275012332 0 201.49885275012332 352.01270523014045 0 0 0 0 40.069983149861145 -5.595060470928729 0 -5.595060470928729 6.6873435430079553 0 0 0 0 10.811430838899838 0.21487345897367049 0 0.21487345897367049 28.215892337094374 0 0 0 0 5.3007646841789198 3.1738080687531207 0 3.1738080687531207 16.002269028144546 0 0 0 0 -62.306653328397715 117.29173714693667 0 117.29173714693667 525.60739424767689 0 0 0 0 -98.39941206800178 -106.7994616505016 0 -106.7994616505016 2421.5017682242542 0 0 0 0 0.34890037126795614 -0.21545713700433544 0 -0.21545713700433544 6.8039951229428901 0 0 0 0 0.44942390606347699 2.6684294111467142 0 2.6684294111467142 7.6360271282985526 0 0 0 0 1312.7067728772613 1536.7859892009619 0 1536.7859892009619 1133.4678298560607 0 0 0 0 90.44124815026575 32.236083361650572 0 32.236083361650572 23.044675027453081 0 0 0 0 3.1034853818408616 1185.8863511167103 0 1185.8863511167103 2496.9270783337392 0 0 0 0 211.03630125154098 1075.5340141825088 0 1075.5340141825088 1972.4788865407404 0 0 0 0 -206.3714527943209 192.07792738444482 0 192.07792738444482 2046.8923234399008 0 0 0 0 983.09316760890943 181.90446544230053 0 181.90446544230053 19.17561394449433 0 0 0 0 6.4820076452199169 3.5174584491877088 0 3.5174584491877088 2.583439783245713 0 0 0 0 -47.986977732985849 576.79352049589284 0 576.79352049589284 2908.4001416465862 0 0 0 0 628.35690981765697 916.17178573698152 0 916.17178573698152 2417.5326446063391 0 0 0 0 271.41515309677288 890.40989237693043 0 890.40989237693043 2500.2137525997769 0 0 0 0 125.61232338807206 394.09999443019296 0 394.09999443019296 2076.1259430724417 0 0 0 0 -248.54308807520789 589.25890812430976 0 589.25890812430976 2499.697974929943 0 0 0 0 58.225761914050622 371.80051781180373 0 371.80051781180373 1865.3843409302012 0 0 0 0 -176.76965201198377 760.14357319790361 0 760.14357319790361 2048.6245179774328 0 0 0 0 373.95308521410294 454.31391709543959 0 454.31391709543959 250.52737253590476 0 0 0 0 -18.528561797517881 461.27294695975525 0 461.27294695975525 1520.517092371645 0 0 0 0 73.531833018891604 593.24056908364105 0 593.24056908364105 1183.7835110969772 0 0 0 0 1.6558353881071923 2.6809340032946611 0 2.6809340032946611 3.8352618152486286 0 0 0 0 -134.31137469844401 -45.992617391397289 0 -45.992617391397289 1021.1264222636751 0 0 0 0 211.41389994232887 56.508936038239881 0 56.508936038239881 -46.736186757601899 0 0 0 0 -48.965824528356336 -134.26335636312524 0 -134.26335636312524 245.4264471594779 0 0 0 0 1.4176815836451473 -3.8572959351818152 0 -3.8572959351818152 8.0818610964955333 0 0 0 0 14.206273035933123 -22.955643501657505 0 -22.955643501657505 16.952212380723722 0 0 0 0 2.5884302403374022 -19.945129674521013 0 -19.945129674521013 25.730302957563254 0 0 0 0 41.81098455915162 -53.482899315260511 0 -53.482899315260511 36.901866275063867 0 0 0 0 20.569427282215656 -22.567128917273294 0 -22.567128917273294 -0.95954874869858031 0 0 0 0 -5.9118849503304318 -92.778502125626346 0 -92.778502125626346 109.0384858879861 0 0 0 0 319.03184418666541 -7.9858236889684804 0 -7.9858236889684804 -23.496155046752392 0 0 0 0 84.522041068705676 -618.25395979256973 0 -618.25395979256973 -7.1974863938062867 0 0 0 0 -248.04243052810625 -57.561149811858741 0 -57.561149811858741 105.65961968575357 0 0 0 0 324.46968882876092 268.80693955946208 0 268.80693955946208 241.8835824610328 0 0 0 0 413.49228119550219 937.81532705943937 0 937.81532705943937 1190.2162255221147 0 0 0 0 -0.19456766151454552 -0.97389655622645588 0 -0.97389655622645588 5.1338022942109696 0 0 0 0 -258.20496815881455 -131.27842378220862 0 -131.27842378220862 1603.3302744561133 0 0 0 0 -516.90554164100445 -251.87842585514773 0 -251.87842585514773 2499.8373196050579 0 0 0 0 -319.53508693439454 -394.24302171998988 0 -394.24302171998988 1897.1528132264966 0 0 0 0 -466.78425533604297 -59.489646668159367 0 -59.489646668159367 1976.0637796500923 0 0 0 0 -271.21888393583487 -203.70165687135977 0 -203.70165687135977 1781.9644322192553 0 0 0 0 -468.51762946657442 -72.593387367570472 0 -72.593387367570472 1941.4693436862271 0 0 0 0 -378.16391243865388 273.64217372514941 0 273.64217372514941 2499.4061043428146 0 0 0 0 -347.3756678225779 283.25096829647009 0 283.25096829647009 1868.2541611689421 0 0 0 0 -94.862865128160706 78.526709559138908 0 78.526709559138908 1392.9165524426371 0 0 0 0 367.99620664323663 -49.828071814904433 0 -49.828071814904433 -297.65429661248709 0 0 0 0 414.82697329584971 387.24731945463191 0 387.24731945463191 143.99072357624209 0 0 0 0 3.9396702382059061 575.57800357619635 0 575.57800357619635 1127.5275569850946 0 0 0 0 -146.86143800017328 54.618126600983487 0 54.618126600983487 602.3764080375222 0 0 0 0 19.158834414863122 295.36537741273787 0 295.36537741273787 343.94426766568449 0 0 0 0 -287.13022872588999 194.75274481620909 0 194.75274481620909 1854.6994085517356 0 0 0 0 -231.53412467282322 78.417750035835525 0 78.417750035835525 1176.3571173131186 0 0 0 0 -161.14085172484067 -176.7403403031667 0 -176.7403403031667 1025.9724272780395 0 0 0 0 -30.68824593185667 -46.04864628656378 0 -46.04864628656378 814.71090430442928 0 0 0 0 3.321622389438815 2.7472969914899217 0 2.7472969914899217 2.5820675632599688 0 0 0 0 0.6752751414778686 -367.68172933003643 0 -367.68172933003643 1273.3155121796326 0 0 0 0 33.573008163470661 -75.860805827167496 0 -75.860805827167496 180.32044900972141 0 0 0 0 21.034067567594519 -138.87843487893952 0 -138.87843487893952 351.77135282440122 0 0 0 0 48.511364415642163 -49.119599694067801 0 -49.119599694067801 202.28810318606611 0 0 0 0 61.009003052727167 -18.584404221302975 0 -18.584404221302975 174.60184457290779 0 0 0 0 4.731457215941818 3.1344713525282053 0 3.1344713525282053 1.9757437188277471 0 0 0 0 38.329070254661438 -98.089419833770989 0 -98.089419833770989 304.26025657513492 0 0 0 0 2.8224545035759783 0.93461139376886493 0 0.93461139376886493 0.48623220662222799 0 0 0 0 19.350376552618457 5.4712864472148794 0 5.4712864472148794 493.72278193165766 0 0 0 0 66.192734136277693 -44.773247446662026 0 -44.773247446662026 176.89178923126929 0 0 0 0 43.853119063382678 -51.006400255323115 0 -51.006400255323115 144.31555923642009 0 0 0 0 62.493810611882964 -57.343900059690895 0 -57.343900059690895 95.134110791757848 0 0 0 0 111.91557486369942 -63.296421621706031 0 -63.296421621706031 59.386858078367368 0 0 0 0 92.860023844940855 -13.874232631084396 0 -13.874232631084396 139.67594699360052 0 0 0 0 56.24453216022232 -73.24216670126134 0 -73.24216670126134 94.905603378549131 0 0 0 0 73.769266246135658 -60.552972598013184 0 -60.552972598013184 67.010470211371285 0 0 0 0 42.995655899163467 -38.367414280808589 0 -38.367414280808589 67.119453634131787 0 0 0 0 29.436021324168223 -39.325765033205244 0 -39.325765033205244 78.25424748822843 0 0 0 0 17.324553882535795 14.673338038732101 0 14.673338038732101 11.886526372949479 0 0 0 0 51.844398473596698 -13.655626563557234 0 -13.655626563557234 40.087453099353297 0 0 0 0 71.041001506889302 -50.92761659520329 0 -50.92761659520329 52.770452603750073 0 0 0 0 66.343531707337377 -16.388757135895048 0 -16.388757135895048 35.273242856603247 0 0 0 0 15.775581486336625 13.269904190301453 0 13.269904190301453 10.625200692247176 0 0 0 0 -22.407724892564602 45.217864275467946 0 45.217864275467946 -7.6713203497838549 0 0 0 0 -21.844477766039859 40.252273012572061 0 40.252273012572061 -15.721486849051871 0 0 0 0 48.671293149316682 -41.789909572216857 0 -41.789909572216857 4.7482533538022835 0 0 0 0 -28.912660699213248 30.576708139723905 0 30.576708139723905 157.18179226831217 0 0 0 0 -6.817215871974895 -2.7887848249592935 0 -2.7887848249592935 24.281400012714585 0 0 0 0 -7.6823730876576519 58.71466249560217 0 58.71466249560217 33.085416072573253 0 0 0 0 17.121475136491426 -3.6930624814076509 0 -3.6930624814076509 124.87963546965693 0 0 0 0 5.1406540970383503 -30.651849979180554 0 -30.651849979180554 -11.179727869313552 0 0 0 0 2.4700992603297891 25.309778481739158 0 25.309778481739158 97.496260352632817 0 0 0 0 14.948399072915436 41.317552977328205 0 41.317552977328205 37.064642256636944 0 0 0 0 16.431556597013696 19.514530352035081 0 19.514530352035081 52.09823100399899 0 0 0 0 9.30753144323171 19.992820860659776 0 19.992820860659776 101.31002540094505 0 0 0 0 9.8644999384559924 18.487404079944099 0 18.487404079944099 53.207032009720933 0 0 0 0 23.6842512769108 19.097070296860693 0 19.097070296860693 28.652377537847485 0 0 0 0 -45.30114636997132 11.07476817260698 0 11.07476817260698 64.129163148571024 0 0 0 0 2.5797965152914912 -6.5133122347506287 0 -6.5133122347506287 20.743184249893602 0 0 0 0 -2.3148814177390467 -12.535550779940261 0 -12.535550779940261 17.444126043546852 0 0 0 0 -17.330192765447464 72.084813190890657 0 72.084813190890657 83.013235869987057 0 0 0 0 -1.3616316709628791 -18.19457635573599 0 -18.19457635573599 26.368066908860783 0 0 0 0 5.8674784057266152 -15.06734242948005 0 -15.06734242948005 20.416488945571473 0 0 0 0 13.146921592147464 -18.216075173008903 0 -18.216075173008903 21.011724712319847 0 0 0 0 -5.4237417904250833 0.41038303450022795 0 0.41038303450022795 15.250564996167668 0 0 0 0 8.3756412115243393 -7.4875646150630928 0 -7.4875646150630928 7.2786829519100138 0 0 0 0 1.7556099251308979 -4.7072896882652913 0 -4.7072896882652913 18.729980479840378 0 0 0 0 2.1126499659904168 -2.0852507138057828 0 -2.0852507138057828 10.408844388983646 0 0 0 0 -7.8128194207789647 -5.1816874011618665 0 -5.1816874011618665 20.046628576639705 0 0 0 0 7.5565428164762025 9.8579772463617701 0 9.8579772463617701 -52.040296527387227 0 0 0 0 -37.389166149841685 -4.2453813605789037 0 -4.2453813605789037 -301.18848664706184 0 0 0 0 18.176101214328128 229.50510232096076 0 229.50510232096076 497.3842194123863 0 0 0 0 3.1293055865418058 4.3730989526608761 0 4.3730989526608761 9.902418022543948 0 0 0 0 147.52913885815065 151.80150923701513 0 151.80150923701513 66.912764408174553 0 0 0 0 217.37183888051607 28.503161077709137 0 28.503161077709137 -326.02578540807372 0 0 0 0 -3.0332571681956324 22.58941161308212 0 22.58941161308212 99.107256786672224 0 0 0 0 -71.43001478996689 -234.46805092887371 0 -234.46805092887371 -57.484261003488427 0 0 0 0 -0.74231672471950927 2.7245123337893986 0 2.7245123337893986 4.0070692794287979 0 0 0 0 60.683509372207254 -109.16243355595907 0 -109.16243355595907 52.660852865579159 0 0 0 0 1.6659679900596984 -54.052534927886882 0 -54.052534927886882 79.616074039557134 0 0 0 0 -8.6496837595777372 -4.922032350146246 0 -4.922032350146246 20.796884237718618 0 0 0 0 -5.6093729647968757 0.58542812929408683 0 0.58542812929408683 23.398622768665064 0 0 0 0 -5.0688845226933381 -3.3991945689408567 0 -3.3991945689408567 18.339749321567069 0 0 0 0 -0.49017364927950569 1.6773845746060712 0 1.6773845746060712 19.638399339759943 0 0 0 0 -5.7182984786984434 41.681617518916028 0 41.681617518916028 55.924067480562371 0 0 0 0 -3.9944317608965321 -0.2844143820584577 0 -0.2844143820584577 19.468447472432217 0 0 0 0 54.940954165167113 -48.560268327595622 0 -48.560268327595622 93.820599038150249 0 0 0 0 -85.06200601358259 79.948954524079454 0 79.948954524079454 82.354058146690477 0 0 0 0 3.6432985048556876 12.820833177571208 0 12.820833177571208 29.141298372315529 0 0 0 0 -1.6522563420896943 2.4105599203754764 0 2.4105599203754764 10.189349813123883 0 0 0 0 27.131505648803795 -51.865097237030568 0 -51.865097237030568 -5.6817924283877801 0 0 0 0 57.397285119513981 -57.649935734996689 0 -57.649935734996689 127.1801988720872 0 0 0 0 57.268356410539582 -78.34776502380555 0 -78.34776502380555 84.386061030475503 0 0 0 0 59.608282297814412 -87.219638530101292 0 -87.219638530101292 117.15720355914891 0 0 0 0 30.15288971721111 -82.511568019464903 0 -82.511568019464903 145.07650012790145 0 0 0 0 56.806762881217196 -68.077891135809296 0 -68.077891135809296 100.93804727798852 0 0 0 0 57.337826763663543 -66.967046851875239 0 -66.967046851875239 92.256443072488764 0 0 0 0 56.575515199762776 -73.967154423615284 0 -73.967154423615284 94.451151839868544 0 0 0 0 59.404920455554475 -73.743389711005875 0 -73.743389711005875 94.307987044465335 0 0 0 0 47.137177795397065 -58.420869080035118 0 -58.420869080035118 85.118635030933362 0 0 0 0 57.972168013170176 -68.966602031181537 0 -68.966602031181537 85.200743196386611 0 0 0 0 50.42403468506609 -68.747479120707794 0 -68.747479120707794 93.501249865328646 0 0 0 0 60.730789733663187 -71.117772531404626 0 -71.117772531404626 88.551470712915034 0 0 0 0 61.066829061929752 -69.876877386619071 0 -69.876877386619071 91.961467099266883 0 0 0 0 54.349672566003619 -63.953650819197719 0 -63.953650819197719 84.06068243959453 0 0 0 0 50.704942453912906 -57.323521765945316 0 -57.323521765945316 81.310537658995599 0 0 0 0 32.256454213286361 -46.189810620908247 0 -46.189810620908247 83.263645363507749 0 0 0 0 123.7363980858338 -68.541099355556071 0 -68.541099355556071 79.060388544086891 0 0 0 0 75.316832859447459 -76.058271522058931 0 -76.058271522058931 88.247848872000759 0 0 0 0 81.151677641387778 -57.711287690835888 0 -57.711287690835888 79.087383358026273 0 0 0 0 52.423452601349027 -72.305795708418373 0 -72.305795708418373 99.247012648960663 0 0 0 0 4.7837314107432416 8.5409442148497732 0 8.5409442148497732 16.333435060103788 0 0 0 0 -6.2738798373233067 83.79821198240279 0 83.79821198240279 1.0145874058616755 0 0 0 0 -34.085817641710094 62.532155444800196 0 62.532155444800196 131.94089276769046 0 0 0 0 -34.661910111200541 53.111732966758609 0 53.111732966758609 -22.009813632615987 0 0 0 0 -42.015671357580288 -6.9482494883618529 0 -6.9482494883618529 31.830494581065068 0 0 0 0 2.1278242702610193 -3.568999105263118 0 -3.568999105263118 2.0337711421350462 0 0 0 0 -42.520447584834983 1.49754254223717 0 1.49754254223717 200.43428925702756 0 0 0 0 70.588919959159284 16.304227698711429 0 16.304227698711429 -118.53217982118531 0 0 0 0 7.1512188976848847 -11.558920919753291 0 -11.558920919753291 200.11554659056128 0 0 0 0 0.46540239901514724 -28.591271408537978 0 -28.591271408537978 182.25040522297877 0 0 0 0 49.918398229726336 -9.9367411747143706 0 -9.9367411747143706 116.3121065514265 0 0 0 0 38.033043209330572 -25.299319233838105 0 -25.299319233838105 126.67499721871843 0 0 0 0 30.28599869017944 34.259033962398462 0 34.259033962398462 110.9300514202414 0 0 0 0 228.16770714873928 -137.48035407294992 0 -137.48035407294992 -12.665296611008671 0 0 0 0 2.2287800412183927 -1.3575347767622272 0 -1.3575347767622272 0.73766538284428051 0 0 0 0 1.9223131227408885 -7.9813667285670817 0 -7.9813667285670817 71.287493357183848 0 0 0 0 2.2893517014132776 -11.514939033218537 0 -11.514939033218537 13.828766705946164 0 0 0 0 0.70878008891670241 2.9731971107686697 0 2.9731971107686697 25.796871603964838 0 0 0 0 -15.180409971549125 112.65499252064183 0 112.65499252064183 13.150410692220248 0 0 0 0 15.230660239630822 -87.002877274715843 0 -87.002877274715843 91.544040102326107 0 0 0 0 -157.60829986957378 126.18329679491853 0 126.18329679491853 180.55025233796187 0 0 0 0 4.0694533831846265 -1.6689333596536411 0 -1.6689333596536411 4.5052540470959244 0 0 0 0 -18.296409537905674 97.211150006462049 0 97.211150006462049 24.221280012610805 0 0 0 0 181.79769532106411 194.74294012187511 0 194.74294012187511 -118.49138406455131 0 0 0 0 -155.56398515812907 63.319307202498749 0 63.319307202498749 19.252784210948448 0 0 0 0 -109.77030925054214 -96.63331695290708 0 -96.63331695290708 -11.144476263696561 0 0 0 0 -308.51956879516729 9.3703442740625178 0 9.3703442740625178 30.752308508645001 0 0 0 0 99.837210056401318 -65.47743529586387 0 -65.47743529586387 138.38153156283443 0 0 0 0 255.81906251861301 12.337916335421141 0 12.337916335421141 -34.073153862172148 0 0 0 0 158.72090894392659 -143.29588781165148 0 -143.29588781165148 126.64098734496656 0 0 0 0 -3.3040057038491568 85.288513563774359 0 85.288513563774359 -54.176504830655176 0 0 0 0 2.6455815744814295 3.3859194955502367 0 3.3859194955502367 4.666178408019519 0 0 0 0 309.1207670966653 -319.16565087382787 0 -319.16565087382787 269.92758599669469 0 0 0 0 6.6735844838075788 -7.8239342241091139 0 -7.8239342241091139 41.82833787197373 0 0 0 0 -655.53809222983818 48.472248366710119 0 48.472248366710119 350.44220223271259 0 0 0 0 1.1270298603633364 324.36618318606361 0 324.36618318606361 -52.569439731771126 0 0 0 0 -311.86255283228274 128.92817882934651 0 128.92817882934651 -260.48718584511971 0 0 0 0 0.28355801578362261 -2.190975633865051 0 -2.190975633865051 7.672654769749137 0 0 0 0 -460.44005745767754 272.59677176190235 0 272.59677176190235 390.01987357556209 0 0 0 0 -597.46570335432079 143.73400425711043 0 143.73400425711043 472.74762269513121 0 0 0 0 25.812598178103613 -13.292745395765186 0 -13.292745395765186 17.027908242145692 0 0 0 0 -41.239177858988114 -45.047330072813338 0 -45.047330072813338 73.159757543447085 0 0 0 0 2.8693645824570648 -3.4454914959429352 0 -3.4454914959429352 65.14210449682912 0 0 0 0 26.53512222936115 12.377303337553712 0 12.377303337553712 59.728425455310571 0 0 0 0 572.10051551186439 -332.47098920968074 0 -332.47098920968074 -219.736281327916 0 0 0 0 -116.89275762155671 -3.7241919128218797 0 -3.7241919128218797 383.6806026671884 0 0 0 0 37.18474022103328 23.736034008059505 0 23.736034008059505 71.095670820577652 0 0 0 0 5.3820392609694778 -6.6375504001130281 0 -6.6375504001130281 12.021269854269153 0 0 0 0 23.468223453163631 -9.8061476978329445 0 -9.8061476978329445 8.5171529575544476 0 0 0 0 37.537555148081083 10.934030113970948 0 10.934030113970948 34.572384419829177 0 0 0 0 35.196616941265802 39.481385926150324 0 39.481385926150324 -115.94716521331429 0 0 0 0 -18.953475468758597 138.30633618450838 0 138.30633618450838 -11.911312886732048 0 0 0 0 -8.403271103530642 11.75256180061524 0 11.75256180061524 50.033793525704823 0 0 0 0 9.5506263702489171 12.432955124735201 0 12.432955124735201 23.852619481405512 0 0 0 0 11.520900713454068 35.618778498132997 0 35.618778498132997 -9.1543750018245191 0 0 0 0 8.3444414832174871 15.257111779358336 0 15.257111779358336 21.961778322999528 0 0 0 0 -2.0604082809419575 -0.01346989118502151 0 -0.01346989118502151 3.5188865051579654 0 0 0 0 -34.853041550798935 8.5439078584622621 0 8.5439078584622621 88.62354930253241 0 0 0 0 -24.405498647734248 66.884269957095967 0 66.884269957095967 10.397375776767149 0 0 0 0 66.055640404113319 -115.12729232999118 0 -115.12729232999118 160.82543893559568 0 0 0 0 -31.438772879408589 56.599271634631805 0 56.599271634631805 194.01067904012234 0 0 0 0 -2.5024898752603804 -31.310146638475089 0 -31.310146638475089 126.90579157216416 0 0 0 0 91.252899324887721 -98.986165650372641 0 -98.986165650372641 108.89031223823622 0 0 0 0 24.602888719496605 -70.697996178576432 0 -70.697996178576432 146.55777410357041 0 0 0 0 38.404424908201008 -7.4516813787267893 0 -7.4516813787267893 48.822103765676729 0 0 0 0 9.8794260479894547 -5.1145601501066267 0 -5.1145601501066267 93.422636301602324 0 0 0 0 34.096461561167558 -58.003934928053695 0 -58.003934928053695 97.762291513019591 0 0 0 0 43.680954791275326 -42.581910770335526 0 -42.581910770335526 74.100765885894361 0 0 0 0 38.832877282727168 -45.780681627611557 0 -45.780681627611557 61.862637726728281 0 0 0 0 36.47048641252664 -42.708972064612453 0 -42.708972064612453 70.108047451911261 0 0 0 0 33.44536906721487 -49.167564611476337 0 -49.167564611476337 70.772884351332323 0 0 0 0 -13.085653672844273 -32.626473754811741 0 -32.626473754811741 63.722543306515945 0 0 0 0 6.308355882523756 23.613766433645651 0 23.613766433645651 16.973400529230275 0 0 0 0 13.812593175152397 17.137267687215456 0 17.137267687215456 16.897347596964529 0 0 0 0 11.442038749873973 15.581613138241664 0 15.581613138241664 23.873395098060428 0 0 0 0 10.057442078742497 21.447640720907657 0 21.447640720907657 5.0831277607940137 0 0 0 0 8.0572482530897105 27.228389834752306 0 27.228389834752306 12.060322186622216 0 0 0 0 4.6297819825285842 30.932524659863702 0 30.932524659863702 3.3766783244318503 0 0 0 0 -2.622615071136579 29.011328596114254 0 29.011328596114254 10.936248470701685 0 0 0 0 4.5271281705208821 22.505292942601955 0 22.505292942601955 14.342215988264797 0 0 0 0 9.0534676720099014 25.981255318158219 0 25.981255318158219 16.499550040905888 0 0 0 0 11.915576851204605 26.338833609872381 0 26.338833609872381 27.030452567887551 0 0 0 0 -0.061968563689333678 18.8562969512368 0 18.8562969512368 25.02508229128216 0 0 0 0 19.294621298408856 13.077037059216309 0 13.077037059216309 26.139258132807299 0 0 0 0 4.6619456331491165 25.295091341553416 0 25.295091341553416 20.578072922915453 0 0 0 0 5.2276971516912454 22.445423312274215 0 22.445423312274215 24.938182800560753 0 0 0 0 6.0443080771274253 26.781913286838972 0 26.781913286838972 22.177173114998368 0 0 0 0 6.5306848756454201 24.262312763969021 0 24.262312763969021 18.865085908822948 0 0 0 0 7.892729198336383 24.827852735234046 0 24.827852735234046 19.091064435226144 0 0 0 0 -31.72910880890413 28.518902798481577 0 28.518902798481577 32.825755052988825 0 0 0 0 -3.9033867012515202 22.13719779046005 0 22.13719779046005 16.361754789075349 0 0 0 0 -11.253637559713752 34.002033248709267 0 34.002033248709267 -2.7516485252908751 0 0 0 0 -2.1293956607496511 23.180890240968438 0 23.180890240968438 15.981581299944992 0 0 0 0 -24.80732935850483 19.791293904210761 0 19.791293904210761 40.083793212412274 0 0 0 0 -36.925763243712026 23.849751751462463 0 23.849751751462463 49.906318121975346 0 0 0 0 -26.322123356735574 22.938900261611707 0 22.938900261611707 34.816832926160714 0 0 0 0 -38.022922156179789 20.909459026247305 0 20.909459026247305 52.674626691627054 0 0 0 0 -35.532450677121233 26.878129197368253 0 26.878129197368253 60.266388047910368 0 0 0 0 -36.607875638353448 14.14654424558239 0 14.14654424558239 56.714840216693119 0 0 0 0 -19.504893123922557 6.0455209399624437 0 6.0455209399624437 60.304458508457174 0 0 0 0 -15.707102087138992 14.476102548163908 0 14.476102548163908 41.93423033128056 0 0 0 0 -9.55526889073235 4.329585696522372 0 4.329585696522372 53.47294837719528 0 0 0 0 -17.462615961402207 11.474262161953902 0 11.474262161953902 54.120432344840083 0 0 0 0 -58.104484506097833 8.4051942912537925 0 8.4051942912537925 74.674066738989495 0 0 0 0 -23.288158147561262 39.346251837136151 0 39.346251837136151 53.293329282310879 0 0 0 0 -53.764581150737172 35.127273678461734 0 35.127273678461734 56.536085588450078 0 0 0 0 6.6477437798502024 16.497991454135786 0 16.497991454135786 39.112874795915559 0 0 0 0 7.1134260899816582 19.089274423904499 0 19.089274423904499 19.861131173480317 0 0 0 0 43.483174030194277 34.35827683476964 0 34.35827683476964 47.035002761904252 0 0 0 0 3.4286875127918393 38.408893697062013 0 38.408893697062013 72.713693245355444 0 0 0 0 25.9932787667708 -25.260031111046374 0 -25.260031111046374 7.3429204622079851 0 0 0 0 -0.14772323062273784 -0.91896442936753875 0 -0.91896442936753875 0.091200358916935897 0 0 0 0 10.383700711936399 -18.125975341228695 0 -18.125975341228695 84.557708830445335 0 0 0 0 -12.239481122607685 6.5385892835201957 0 6.5385892835201957 88.004818371347938 0 0 0 0 -11.301302253792528 -1.936051411446897 0 -1.936051411446897 38.312429045035969 0 0 0 0 -123.88156291345877 -22.169650363536675 0 -22.169650363536675 482.3444978045809 0 0 0 0 5.5351409508966753 -95.520409569742696 0 -95.520409569742696 -9.8051113274123054 0 0 0 0 0.89475334331326195 -8.7340494253442529 0 -8.7340494253442529 9.024428725040508 0 0 0 0 34.648789615857822 124.90740861417271 0 124.90740861417271 211.70310551508737 0 0 0 0 37.973643989135098 117.36775710714664 0 117.36775710714664 125.92341118301556 0 0 0 0 107.10189976479614 123.44571070781967 0 123.44571070781967 98.357225743999152 0 0 0 0 -0.88084394924168663 0.11149070225440916 0 0.11149070225440916 4.8395623757056256 0 0 0 0 -211.79689854226626 -263.12081982091422 0 -263.12081982091422 142.81021701117061 0 0 0 0 193.11152360554297 307.42962053336669 0 307.42962053336669 268.3841352278514 0 0 0 0 -3.9766280846552036 75.095077708432655 0 75.095077708432655 -20.775411378059289 0 0 0 0 -95.821360283435567 68.908273420315879 0 68.908273420315879 41.756223804750334 0 0 0 0 -92.207387312620085 -18.803983395275282 0 -18.803983395275282 27.587850907206303 0 0 0 0 -9.4519710715521796 16.655023913501282 0 16.655023913501282 42.695799108954816 0 0 0 0 -1.7113374407072257 0.12527191710959329 0 0.12527191710959329 2.7728487097851939 0 0 0 0 -0.69267220340760272 -2.9009855687197579 0 -2.9009855687197579 13.28776006563703 0 0 0 0 -92.60922149759017 46.868318290904426 0 46.868318290904426 -6.9138268288734253 0 0 0 0 -39.993506913136571 -33.042103758740268 0 -33.042103758740268 11.367447454522335 0 0 0 0 -105.8331973779384 57.2187333116226 0 57.2187333116226 60.94542936210928 0 0 0 0 -98.012156914626303 -130.36690393917343 0 -130.36690393917343 64.063122520681816 0 0 0 0 -0.40017272593872377 0.0072466625769163073 0 0.0072466625769163073 5.3785086766483232 0 0 0 0 344.2658189881804 191.89687969547595 0 191.89687969547595 66.096910295056659 0 0 0 0 44.081686506195751 255.32939724383459 0 255.32939724383459 175.08313348760021 0 0 0 0 -98.574861616332782 -109.49049356974774 0 -109.49049356974774 243.01996037186564 0 0 0 0 -89.772909041116691 23.647965371817918 0 23.647965371817918 146.57821201951083 0 0 0 0 46.92642107656502 90.647550668589247 0 90.647550668589247 80.574147111394268 0 0 0 0 36.310664374635962 160.10021279469584 0 160.10021279469584 82.694096029330467 0 0 0 0 -236.91412206284895 -42.421802611585008 0 -42.421802611585008 85.305932467696039 0 0 0 0 -1.3054231403095375 -0.95674087665971808 0 -0.95674087665971808 10.944456892769452 0 0 0 0 -65.858004234688451 23.25664057207905 0 23.25664057207905 363.34528539440544 0 0 0 0 -60.290610063968415 26.637948074485394 0 26.637948074485394 -47.822543899144875 0 0 0 0 180.13762453582967 113.23383252702115 0 113.23383252702115 57.332834442764579 0 0 0 0 213.02130203920933 -150.32390588845647 0 -150.32390588845647 31.905708502427842 0 0 0 0 -24.400997991183885 -32.185747566258442 0 -32.185747566258442 75.222610368333335 0 0 0 0 -0.7597364246439966 -6.3846608499643072 0 -6.3846608499643072 99.833600302354995 0 0 0 0 -138.39839488247344 -28.232640481496674 0 -28.232640481496674 131.95224244463589 0 0 0 0 -249.72329543365231 7.346906071079502 0 7.346906071079502 358.96206088516828 0 0 0 0 162.30404295109656 139.45483256437001 0 139.45483256437001 63.829257831923314 0 0 0 0 -1.7948044651310955 -2.7769141670647386 0 -2.7769141670647386 84.244717742769609 0 0 0 0 -61.503092508943155 41.415379233652402 0 41.415379233652402 68.26105714665573 0 0 0 0 -106.16847199975928 -49.56288996884814 0 -49.56288996884814 119.6100572213154 0 0 0 0 60.231107067198536 120.03908656111889 0 120.03908656111889 60.342831682634369 0 0 0 0 46.781478896324188 4.7954527244983183 0 4.7954527244983183 27.434299916499185 0 0 0 0 5.2631785131456059 3.5085214330006522 0 3.5085214330006522 13.091886854287452 0 0 0 0 82.304995859021915 4.255067617423606 0 4.255067617423606 6.2173798533149238 0 0 0 0 191.56282652873779 -15.332152918457723 0 -15.332152918457723 -166.0612160944238 0 0 0 0 -54.81218634290326 96.617037594885915 0 96.617037594885915 175.23020238952085 0 0 0 0 -70.836503051390537 -114.75234590431501 0 -114.75234590431501 129.56758230387959 0 0 0 0 243.64333986433485 43.41887866751631 0 43.41887866751631 15.031615011568647 0 0 0 0 101.5985675395932 -235.07707387824121 0 -235.07707387824121 132.86494179287547 0 0 0 0 1.1409225168154311 2.6713744189801538 0 2.6713744189801538 3.836408050532043 0 0 0 0 -72.923385518032489 -22.997473484731017 0 -22.997473484731017 29.939532042597421 0 0 0 0 -76.263259427166759 23.750794611340098 0 23.750794611340098 41.0976758170209 0 0 0 0 -16.413362211345657 -19.898286476234716 0 -19.898286476234716 47.484769329241317 0 0 0 0 -35.651231820053525 -12.775205443626305 0 -12.775205443626305 51.92685963344411 0 0 0 0 -14.144787181418906 -40.708167741007856 0 -40.708167741007856 24.205715387079181 0 0 0 0 -35.628943677383241 -12.701963694719439 0 -12.701963694719439 -0.05769441305892542 0 0 0 0 -71.555148557389884 -14.69819683861715 0 -14.69819683861715 26.840535568637279 0 0 0 0 -77.873796738145984 -30.451999723474728 0 -30.451999723474728 -5.5049902376058526 0 0 0 0 -204.61480033032473 -26.117988958683782 0 -26.117988958683782 22.25620471160255 0 0 0 0 -135.93997898820228 18.361250116231531 0 18.361250116231531 -18.636113222684799 0 0 0 0 -109.64540508044331 9.1974431913549779 0 9.1974431913549779 7.7462746699329728 0 0 0 0 -0.82448092959862596 1.2166158960910769 0 1.2166158960910769 6.0357602631447378 0 0 0 0 485.97274748923701 49.416589919832404 0 49.416589919832404 -3.819830238531722 0 0 0 0 -140.7145692331363 -19.003319096855193 0 -19.003319096855193 260.90467461463413 0 0 0 0 -35.770372881415597 191.11885872644598 0 191.11885872644598 265.32998483501069 0 0 0 0 590.59127490179992 344.9554399285098 0 344.9554399285098 117.13022302898753 0 0 0 0 107.1291324068319 112.61726928647113 0 112.61726928647113 187.42494537535822 0 0 0 0 -88.605299818137752 -97.250842509247377 0 -97.250842509247377 -62.789977891075978 0 0 0 0 86.673412163470829 172.5583103551553 0 172.5583103551553 14.226705239896546 0 0 0 0 24.205181184760932 -152.83933508554401 0 -152.83933508554401 -46.641177601743948 0 0 0 0 121.50995736947374 37.068521274628438 0 37.068521274628438 -54.168185126953176 0 0 0 0 -124.68047617813383 14.134999461919506 0 14.134999461919506 8.5099808635523004 0 0 0 0 -122.55821860761961 -35.459776587265878 0 -35.459776587265878 -15.98836757654135 0 0 0 0 -142.73156555000543 66.080331368448242 0 66.080331368448242 -24.230869575541874 0 0 0 0 -112.60116670989521 -9.5495170432513987 0 -9.5495170432513987 49.234938482557482 0 0 0 0 -79.27805406526943 27.243771466924954 0 27.243771466924954 41.109991980847553 0 0 0 0 -1.4391137469414548 1.84458370009418 0 1.84458370009418 2.8977530496049724 0 0 0 0 -49.990320424115851 -39.309964423733618 0 -39.309964423733618 -115.78345538923168 0 0 0 0 -156.5980628304473 -9.0517925276071765 0 -9.0517925276071765 44.847856938577024 0 0 0 0 -4.5984610299850575 -1.3959415162145916 0 -1.3959415162145916 3.8271976321585441 0 0 0 0 355.95342522577107 -247.87950494886036 0 -247.87950494886036 149.40512557498005 0 0 0 0 -1.5183196203950147 0.39480747902736013 0 0.39480747902736013 2.6872104411846323 0 0 0 0 -0.26039623001011458 -0.22426771464953532 0 -0.22426771464953532 -0.38028773656662906 0 0 0 0 16.005674442961933 76.739957352232977 0 76.739957352232977 298.68217056777212 0 0 0 0 -63.216186733297491 -222.05477901753693 0 -222.05477901753693 467.06196446701688 0 0 0 0 -132.99146184590975 26.444536867884381 0 26.444536867884381 136.54430058269281 0 0 0 0 -76.664900441647376 -17.386711525177816 0 -17.386711525177816 158.40155626839805 0 0 0 0 -94.963487148024967 11.221345626778202 0 11.221345626778202 154.35050208942266 0 0 0 0 -60.962611686918763 21.879222630553159 0 21.879222630553159 118.18470501960837 0 0 0 0 -55.818726831161712 12.578673474588868 0 12.578673474588868 111.94000080272599 0 0 0 0 -84.140368814549674 26.754546176562144 0 26.754546176562144 105.72198499751903 0 0 0 0 -47.326480824248677 11.432091127065178 0 11.432091127065178 43.118098473489226 0 0 0 0 -50.013975260861912 10.781910808773318 0 10.781910808773318 89.984204128748388 0 0 0 0 -36.020112797251613 23.70325638743725 0 23.70325638743725 80.424721093444532 0 0 0 0 -23.552739107522939 35.065558537560719 0 35.065558537560719 116.06683684284371 0 0 0 0 -39.624475377298495 24.82905613694129 0 24.82905613694129 118.46131485723163 0 0 0 0 -34.257999048337297 26.493058275289513 0 26.493058275289513 87.659081964659435 0 0 0 0 -9.766451912440516 -5.493164014260401 0 -5.493164014260401 163.27402270793755 0 0 0 0 55.982159482416137 89.400416718393899 0 89.400416718393899 108.92598385855672 0 0 0 0 18.050760442092269 -5.7583526914113463 0 -5.7583526914113463 103.27693532368357 0 0 0 0 -26.473393089756883 11.01110069031165 0 11.01110069031165 97.27703912025936 0 0 0 0 -21.945268023418294 20.91363025776991 0 20.91363025776991 107.39569676792962 0 0 0 0 -72.778091804767655 -132.51141622534578 0 -132.51141622534578 179.84065864175864 0 0 0 0 74.50071077102848 131.58483190541483 0 131.58483190541483 195.28660596386726 0 0 0 0 -0.45210894741675922 -0.31140371588266724 0 -0.31140371588266724 2.9118745120460972 0 0 0 0 14.171852707727339 -15.88215450431926 0 -15.88215450431926 312.98455109176302 0 0 0 0 74.278413492967047 62.190155753600266 0 62.190155753600266 81.906246784048562 0 0 0 0 105.53441712232399 -73.628353037386887 0 -73.628353037386887 79.874272718734574 0 0 0 0 33.619658580490068 11.957815310917795 0 11.957815310917795 35.829942256035793 0 0 0 0 49.629943893412928 -36.155819022128981 0 -36.155819022128981 56.570909883368586 0 0 0 0 40.448183760891425 11.636989316464678 0 11.636989316464678 22.512724129708658 0 0 0 0 -23.842206554887525 35.370927827190826 0 35.370927827190826 32.003986017601164 0 0 0 0 -15.041954235031426 -8.955773916308317 0 -8.955773916308317 72.07198576222072 0 0 0 0 2.0503803685405728 -14.48228406592898 0 -14.48228406592898 120.73177521925027 0 0 0 0 1.5160976879978989 -27.204082973046752 0 -27.204082973046752 92.175078989193025 0 0 0 0 11.83262737691075 -9.8980587540827401 0 -9.8980587540827401 38.604173730192997 0 0 0 0 6.4547573478234881 -39.532372035217122 0 -39.532372035217122 51.59813246165595 0 0 0 0 -9.4618764188498972 -29.220240688648119 0 -29.220240688648119 47.964963117185107 0 0 0 0 -24.029184631875296 -38.585007724888783 0 -38.585007724888783 47.101370986409165 0 0 0 0 -37.867937083691686 -0.35710591710994777 0 -0.35710591710994777 57.540137116096048 0 0 0 0 -14.395038564901142 -25.967111547303148 0 -25.967111547303148 63.25823577258052 0 0 0 0 -18.296189328752178 -9.0526155121267493 0 -9.0526155121267493 52.895940678772604 0 0 0 0 -34.830356844953343 -24.673641269692325 0 -24.673641269692325 84.010713789390138 0 0 0 0 -34.517065067592284 -22.284414180383465 0 -22.284414180383465 62.764949216933474 0 0 0 0 -0.21772435443290306 20.199195819443958 0 20.199195819443958 40.786436297319597 0 0 0 0 -6.3196983919924605 -8.6074041932679393 0 -8.6074041932679393 45.174159367530592 0 0 0 0 -30.791107179000392 17.797648692981966 0 17.797648692981966 52.573545252185795 0 0 0 0 -42.944942175524375 18.51584037327666 0 18.51584037327666 52.90581026239397 0 0 0 0 -35.457023409646808 20.388778139873921 0 20.388778139873921 48.916805799155554 0 0 0 0 -29.68021789450313 5.2457466944078988 0 5.2457466944078988 58.091247381076755 0 0 0 0 -57.123398848720171 18.017468360194471 0 18.017468360194471 60.941301830142038 0 0 0 0 -50.614909994919344 28.924210761741051 0 28.924210761741051 36.774852876224031 0 0 0 0 -42.207394918630143 18.152209098398089 0 18.152209098398089 45.290071293828078 0 0 0 0 -31.68097690485115 29.319925829050135 0 29.319925829050135 25.995643753285549 0 0 0 0 -46.412155871834329 29.725225042524471 0 29.725225042524471 43.397440874421591 0 0 0 0 -48.635775753915823 3.0009730543024489 0 3.0009730543024489 72.157111761793203 0 0 0 0 -36.172478198612225 -14.91069261512348 0 -14.91069261512348 76.153693025422399 0 0 0 0 -50.844794574542448 2.5625589794544794 0 2.5625589794544794 74.288481749868879 0 0 0 0 -60.191940572846761 24.727476975089303 0 24.727476975089303 53.180962174048545 0 0 0 0 -39.425566783222166 -11.373140546652394 0 -11.373140546652394 86.636799552496086 0 0 0 0 16.758317745102431 9.0976258217215218 0 9.0976258217215218 80.199160866959573 0 0 0 0 -27.027017888504815 0.19419290746373008 0 0.19419290746373008 109.79836917001376 0 0 0 0 47.086278962775964 16.819134535215198 0 16.819134535215198 70.868273395564756 0 0 0 0 20.502413944146838 29.700348268939706 0 29.700348268939706 97.627700767037823 0 0 0 0 42.70940782371099 35.618126402019698 0 35.618126402019698 99.078585555354948 0 0 0 0 42.32926222257845 38.933042923772973 0 38.933042923772973 97.21103956236766 0 0 0 0 66.717903797596819 45.527554224579944 0 45.527554224579944 91.129956818862411 0 0 0 0 -8.1320301294288129 3.9672713180639221 0 3.9672713180639221 103.96923600871378 0 0 0 0 -11.587412561296787 20.224572635506775 0 20.224572635506775 135.2373355144191 0 0 0 0 7.592437322162823 30.461399855103082 0 30.461399855103082 138.59238283322338 0 0 0 0 4.4903363068279418 58.670129317926012 0 58.670129317926012 186.05901436776185 0 0 0 0 -52.182560355826354 -9.7493871528095042 0 -9.7493871528095042 163.28552183173815 0 0 0 0 -27.209420739572579 2.0949841443198238 0 2.0949841443198238 98.761120779698103 0 0 0 0 -35.758172855804332 -11.946763100713724 0 -11.946763100713724 130.13944992619872 0 0 0 0 -35.912618235397986 -27.561263916399184 0 -27.561263916399184 89.40712009264189 0 0 0 0 -27.747223775147177 -41.249266977270963 0 -41.249266977270963 76.532606507345918 0 0 0 0 -28.405189329713039 -48.656329997002103 0 -48.656329997002103 49.497157270856405 0 0 0 0 -31.126308008499564 -21.295435146830641 0 -21.295435146830641 107.51362429638175 0 0 0 0 -37.855700081645182 -43.820511948013518 0 -43.820511948013518 55.39491014154919 0 0 0 0 -25.875738438860594 26.883549348196539 0 26.883549348196539 197.43223773535283 0 0 0 0 -90.010572721094377 -67.538536342675798 0 -67.538536342675798 143.79645135539613 0 0 0 0 -52.702124158174001 -49.821436256026573 0 -49.821436256026573 111.21300286178621 0 0 0 0 -84.631195318254981 -45.933381207367347 0 -45.933381207367347 56.366476825984137 0 0 0 0 -33.400496701912459 -49.154808707035045 0 -49.154808707035045 5.3195689316380594 0 0 0 0 -37.621861860504396 -46.781750328051203 0 -46.781750328051203 51.083074887861585 0 0 0 0 298.79801718354122 280.62008287850767 0 280.62008287850767 127.61826727887092 0 0 0 0 265.05633744532656 -121.68620517643285 0 -121.68620517643285 -19.250028056467272 0 0 0 0 296.07446787880525 268.04358049450821 0 268.04358049450821 87.024991859961119 0 0 0 0 -80.660893172755436 -60.593341524825519 0 -60.593341524825519 -43.171791633528301 0 0 0 0 -200.68405815206017 -70.894061195187533 0 -70.894061195187533 110.47587885762186 0 0 0 0 297.7571286763781 277.9442920653355 0 277.9442920653355 164.75999854897964 0 0 0 0 -0.42449209131234555 1.1614250839175906 0 1.1614250839175906 3.3727800473577361 0 0 0 0 -125.31018271083769 37.845805503602605 0 37.845805503602605 246.65700913653563 0 0 0 0 267.50120440713903 265.74893869165317 0 265.74893869165317 265.4586531420282 0 0 0 0 -730.96255115606277 -312.45107629136328 0 -312.45107629136328 49.208175363426562 0 0 0 0 265.50374309046515 252.19968345411871 0 252.19968345411871 155.29786845174021 0 0 0 0 2.2348902999011151 -8.8002887081675603 0 -8.8002887081675603 18.13074227647347 0 0 0 0 2.121035466990175 -10.618235882748657 0 -10.618235882748657 35.927753479783746 0 0 0 0 -436.18711819333799 -186.12201780931991 0 -186.12201780931991 -468.63717361254749 0 0 0 0 265.42672290797532 252.02812939460637 0 252.02812939460637 200.95153298639343 0 0 0 0 -1022.8962726851958 -533.69421917381987 0 -533.69421917381987 311.51795427321485 0 0 0 0 -9.5933525543825908 47.615541397551169 0 47.615541397551169 -48.084336907661054 0 0 0 0 2.0153940025036166 -15.682574760179609 0 -15.682574760179609 56.692196383310332 0 0 0 0 107.99323251756653 -19.328698134406295 0 -19.328698134406295 107.60710410370666 0 0 0 0 -9.2508668682933148 30.281698324888566 0 30.281698324888566 168.32346257019526 0 0 0 0 78.488005769729625 173.01799887024026 0 173.01799887024026 274.30479950507834 0 0 0 0 291.88328064525672 -83.034911175949674 0 -83.034911175949674 111.67900440292942 0 0 0 0 170.36165179141108 80.478031993759942 0 80.478031993759942 111.10565317577311 0 0 0 0 186.12244209804373 -76.296845912060235 0 -76.296845912060235 124.8294931110795 0 0 0 0 354.3707534714747 76.464948949098471 0 76.464948949098471 105.19715144007932 0 0 0 0 87.674966277182193 70.321083566836023 0 70.321083566836023 118.41735480335774 0 0 0 0 92.288776428606639 38.52155885466891 0 38.52155885466891 103.65827992494815 0 0 0 0 -619.39549362568505 -150.27709135912301 0 -150.27709135912301 -1182.7880702145339 0 0 0 0 92.767329233635564 49.684287124055118 0 49.684287124055118 86.42511768480108 0 0 0 0 83.049403293348519 34.814602510223267 0 34.814602510223267 64.12518814123905 0 0 0 0 0.39103049086802999 -2.4304054050780834 0 -2.4304054050780834 5.4429767270768821 0 0 0 0 -13.147388073892159 59.904531836097249 0 59.904531836097249 229.81904847109399 0 0 0 0 -47.516618070639197 -16.662911542618531 0 -16.662911542618531 151.56088005872152 0 0 0 0 -102.20546236279858 7.3455863484232395 0 7.3455863484232395 369.40248533707927 0 0 0 0 -74.217710331161697 -7.287893014785368 0 -7.287893014785368 261.93596839191741 0 0 0 0 -140.64247666073652 -96.309119175079104 0 -96.309119175079104 322.52410319633418 0 0 0 0 -60.784805402478241 -120.49349676411475 0 -120.49349676411475 189.90905577818194 0 0 0 0 -256.10230438002588 -177.64487602599183 0 -177.64487602599183 296.10452874983457 0 0 0 0 -135.05749111396293 -64.734597149041292 0 -64.734597149041292 392.52060475551116 0 0 0 0 -10.715731622674582 -31.198041852265305 0 -31.198041852265305 248.41408767289977 0 0 0 0 -31.695895899464915 -111.59105410318534 0 -111.59105410318534 -4.7844292140944162 0 0 0 0 -131.82605400618854 5.6342852544185007 0 5.6342852544185007 211.67773420357844 0 0 0 0 -105.72755011400409 8.04181599659114 0 8.04181599659114 -216.79771849627286 0 0 0 0 0.94280760317020218 -16.485261529797206 0 -16.485261529797206 68.575840835503172 0 0 0 0 -890.43451992493158 -421.32607669824483 0 -421.32607669824483 1351.6874192052128 0 0 0 0 -317.77501104175843 -384.01760874871525 0 -384.01760874871525 -89.830292582584661 0 0 0 0 86.558305412975528 34.171681563632774 0 34.171681563632774 64.242293459385564 0 0 0 0 39.815687044653373 -20.506602950714296 0 -20.506602950714296 70.689622821362718 0 0 0 0 86.219952222926622 19.629734031125736 0 19.629734031125736 63.23954876110929 0 0 0 0 -15.431929446638947 -3.1125081754703388 0 -3.1125081754703388 65.96073032543427 0 0 0 0 -6.3725618826024402 19.561001823682091 0 19.561001823682091 93.911881092704789 0 0 0 0 -61.75744713629706 40.476635473581155 0 40.476635473581155 84.568025158790988 0 0 0 0 42.313099644760086 44.51029407052647 0 44.51029407052647 83.582770194711429 0 0 0 0 -420.03219981522375 56.009592118069122 0 56.009592118069122 154.8782714113986 0 0 0 0 -0.32713308107032435 -14.901306390163711 0 -14.901306390163711 71.547064192826866 0 0 0 0 16.660298127956935 -3.8888000636870856 0 -3.8888000636870856 30.128725839182152 0 0 0 0 -108.2102189482066 27.334200795538891 0 27.334200795538891 100.83612398246896 0 0 0 0 -1.4828551630454843 -13.033514133749744 0 -13.033514133749744 69.701761613572245 0 0 0 0 -271.82795548493505 227.92666113716768 0 227.92666113716768 -65.079755095666769 0 0 0 0 -101.81533653482779 195.54891289371517 0 195.54891289371517 386.54198707563046 0 0 0 0 -135.04151620407714 -28.125763620936141 0 -28.125763620936141 318.20713216146396 0 0 0 0 148.46288043182523 332.4659298969782 0 332.4659298969782 251.40719775482648 0 0 0 0 -52.109031676425793 264.02371751125884 0 264.02371751125884 586.37515285137488 0 0 0 0 21.906287047447478 529.30473141421226 0 529.30473141421226 774.30059023167269 0 0 0 0 32.436979707723822 194.36756909262112 0 194.36756909262112 82.325714513142884 0 0 0 0 -46.049200692291947 204.54428509607169 0 204.54428509607169 518.25267162441742 0 0 0 0 -169.49134844959269 -42.310958686830418 0 -42.310958686830418 178.08827488591123 0 0 0 0 -53.5614105738955 80.067825136659849 0 80.067825136659849 -43.376358851926852 0 0 0 0 -50.411352569868086 52.083339255552346 0 52.083339255552346 10.622279710104522 0 0 0 0 -58.014326593908891 32.490363123693896 0 32.490363123693896 39.701266808533546 0 0 0 0 -72.643747788795281 64.697579391015097 0 64.697579391015097 2.0893954722214403 0 0 0 0 -58.952724119330924 51.26411664115949 0 51.26411664115949 -8.4623170952472719 0 0 0 0 -105.4656094208226 79.097872581131014 0 79.097872581131014 23.532823183717483 0 0 0 0 -71.040538100567829 25.99397508278841 0 25.99397508278841 58.811719557681499 0 0 0 0 -49.848734792732103 23.800276948189094 0 23.800276948189094 50.69926169356404 0 0 0 0 -54.094152665285037 17.54221741188303 0 17.54221741188303 90.361392990731702 0 0 0 0 -66.650191856019546 25.356386309937989 0 25.356386309937989 39.828419983445201 0 0 0 0 -144.22274805615666 134.19907159978061 0 134.19907159978061 -1.1661740938434377 0 0 0 0 -79.708651776932584 120.96141929743862 0 120.96141929743862 -179.59294088106265 0 0 0 0 -41.881783537603042 167.61444538518117 0 167.61444538518117 -183.67668930996797 0 0 0 0 -53.28872145413311 72.2987734383114 0 72.2987734383114 -64.347465331535204 0 0 0 0 -94.13122181532492 137.0422919658904 0 137.0422919658904 -80.446839557154817 0 0 0 0 67.382758252557323 73.201044366302995 0 73.201044366302995 102.59602138540868 0 0 0 0 9.4365945050174496 8.5213377346771537 0 8.5213377346771537 6.9094582363988764 0 0 0 0 32.590049005464493 -149.51730457677422 0 -149.51730457677422 186.26361341074153 0 0 0 0 75.520185724209739 -62.526387130887997 0 -62.526387130887997 253.46117232838697 0 0 0 0 13.314551431971555 11.447002083464405 0 11.447002083464405 9.1719440741984073 0 0 0 0 58.358176019744171 3.7420699655133376 0 3.7420699655133376 36.80316795514409 0 0 0 0 73.1141235341845 -246.21133871272741 0 -246.21133871272741 1011.4576291803392 0 0 0 0 1.0049422579950946 1.1503616620600141 0 1.1503616620600141 1.8928434129647584 0 0 0 0 70.92421166709525 -213.16882246973091 0 -213.16882246973091 456.74420526725862 0 0 0 0 254.44920880729165 -83.01384568102003 0 -83.01384568102003 144.75840142634206 0 0 0 0 221.30009719297428 -471.26808970825414 0 -471.26808970825414 1308.6049426663321 0 0 0 0 388.13655114201936 -311.30272033585607 0 -311.30272033585607 376.94064921013978 0 0 0 0 -45.015825220177021 -21.630484193400662 0 -21.630484193400662 577.5979239631688 0 0 0 0 -46.979695174683911 -30.624967575078017 0 -30.624967575078017 537.85823968005934 0 0 0 0 3.3993279527634499 3.3317741356230677 0 3.3317741356230677 2.9801986003911765 0 0 0 0 430.96828580084173 -53.683412643322299 0 -53.683412643322299 -489.72809893967496 0 0 0 0 -815.78887620974956 273.06145106905387 0 273.06145106905387 436.42391937631692 0 0 0 0 602.61725133247216 -1263.2196885658177 0 -1263.2196885658177 648.17274910443666 0 0 0 0 2108.2990037169147 1880.6956407164016 0 1880.6956407164016 1926.7604166207966 0 0 0 0 1.7138027610543007 -4.048513555039051 0 -4.048513555039051 24.25270280406248 0 0 0 0 2927.5393790697308 -221.48667103430125 0 -221.48667103430125 2502.0877053541662 0 0 0 0 1317.1850446104158 594.14031931181671 0 594.14031931181671 3968.2267539287277 0 0 0 0 305.94356983030332 -1509.2159705338709 0 -1509.2159705338709 2186.0311526418518 0 0 0 0 -69.97727492042381 -755.16537449094358 0 -755.16537449094358 3107.7730382011196 0 0 0 0 405.94584589140766 -832.29424637036573 0 -832.29424637036573 813.14531955498387 0 0 0 0 439.46355343754544 -625.87730898926543 0 -625.87730898926543 927.36250272950565 0 0 0 0 199.43840139943032 -940.90944032480684 0 -940.90944032480684 1948.855238339409 0 0 0 0 138.8426751222118 -631.66014859251572 0 -631.66014859251572 1291.0574739301283 0 0 0 0 88.94048691562665 -816.19390868455685 0 -816.19390868455685 1944.6437391329455 0 0 0 0 -254.21383113982253 -802.74564256694157 0 -802.74564256694157 2499.2828617024988 0 0 0 0 -274.95070353307989 -522.53451872733785 0 -522.53451872733785 2098.0808106331569 0 0 0 0 103.36529151774806 1041.3202373590248 0 1041.3202373590248 1827.0171125142406 0 0 0 0 1.0546001093136965 491.25535635204142 0 491.25535635204142 1169.0995249467996 0 0 0 0 -54.827838633114879 727.70454757097127 0 727.70454757097127 1380.0585399371957 0 0 0 0 -582.97908422080616 553.93266324119304 0 553.93266324119304 1504.772779121271 0 0 0 0 256.59160874847407 671.78670325000348 0 671.78670325000348 831.64922684353223 0 0 0 0 166.89110506673526 421.77926745528657 0 421.77926745528657 688.64194971266988 0 0 0 0 327.74870095969015 450.77840636057226 0 450.77840636057226 399.56824583020807 0 0 0 0 227.54924220832311 98.267952732538106 0 98.267952732538106 67.21774181118235 0 0 0 0 -27.133133037867083 126.11277380777756 0 126.11277380777756 -501.62660946893448 0 0 0 0 548.29804718809055 584.86144588344177 0 584.86144588344177 385.37426677720578 0 0 0 0 -0.79425922705025709 -10.557856422100688 0 -10.557856422100688 58.264378278539112 0 0 0 0 491.86725918920251 514.35515803149974 0 514.35515803149974 590.87746633037023 0 0 0 0 -470.25954325861267 -653.35652818497056 0 -653.35652818497056 708.78408970854071 0 0 0 0 723.63316073391684 557.29914561003534 0 557.29914561003534 426.11345712830007 0 0 0 0 399.24581781653774 1012.2573350663333 0 1012.2573350663333 1242.6530252519224 0 0 0 0 318.80882102005376 842.35938223800986 0 842.35938223800986 1026.1936026457624 0 0 0 0 294.75886105127938 575.24243063541871 0 575.24243063541871 694.4042702525403 0 0 0 0 781.55374336794989 950.95333739195121 0 950.95333739195121 857.66714129960747 0 0 0 0 340.69090154150592 870.94902352258941 0 870.94902352258941 986.73957318217435 0 0 0 0 473.23943606544395 1135.2186786909133 0 1135.2186786909133 935.98499728385286 0 0 0 0 413.54464783854547 1066.0221171493686 0 1066.0221171493686 1226.2281305964607 0 0 0 0 1807.4290479888023 1239.0222923167494 0 1239.0222923167494 654.74528702235602 0 0 0 0 547.00239399618499 1379.8316448657315 0 1379.8316448657315 1892.256304479597 0 0 0 0 1271.3330057860876 1019.6248377544171 0 1019.6248377544171 1809.5535831211964 0 0 0 0 235.65455511260959 948.03867218097366 0 948.03867218097366 2497.3147267491263 0 0 0 0 -556.64311464694163 -28.217995302538839 0 -28.217995302538839 1343.5959158904225 0 0 0 0 -2.1494482820900638 2.3017819842115088 0 2.3017819842115088 7.5365660623680952 0 0 0 0 316.07653860845818 1673.4646017937685 0 1673.4646017937685 2496.6759124668679 0 0 0 0 -2.1222818697981758 1.7252940550629461 0 1.7252940550629461 6.8634803877801289 0 0 0 0 798.76275658464465 1537.3977125429337 0 1537.3977125429337 1430.0041409041278 0 0 0 0 -869.79638693722586 219.94921429240276 0 219.94921429240276 1339.9276242583219 0 0 0 0 -454.31582873953334 661.6668719880181 0 661.6668719880181 1264.9708467335136 0 0 0 0 -444.15579872950286 872.75060935071247 0 872.75060935071247 1615.4938407345253 0 0 0 0 -755.97274975288133 618.45443384978171 0 618.45443384978171 2500.3455538924354 0 0 0 0 -788.9792622766048 267.1512742872219 0 267.1512742872219 1838.5737229389015 0 0 0 0 -453.311988336274 411.42801439311552 0 411.42801439311552 1628.556048263285 0 0 0 0 -434.92162714134827 432.19317587504338 0 432.19317587504338 1493.008318759541 0 0 0 0 -402.56292256187521 247.53971082550743 0 247.53971082550743 1417.0897822831503 0 0 0 0 -214.31151263213462 402.85937324799124 0 402.85937324799124 1063.3703606224735 0 0 0 0 -212.04458024785561 417.55794325320858 0 417.55794325320858 1036.6020531139948 0 0 0 0 -475.35069810301025 117.28445479356378 0 117.28445479356378 1296.665282083809 0 0 0 0 -199.01546813888399 -351.59053116114956 0 -351.59053116114956 1892.6093126078813 0 0 0 0 -3.9875956062615727 0.16017929664856467 0 0.16017929664856467 2.9316978984457478 0 0 0 0 -333.02022112100872 267.97868506833402 0 267.97868506833402 1441.9253249323265 0 0 0 0 -595.83146074166848 31.895311578087785 0 31.895311578087785 2499.0110226254892 0 0 0 0 -817.15391608701088 342.43789146942618 0 342.43789146942618 2159.6254526198172 0 0 0 0 -57.89415251724995 -160.8527371606433 0 -160.8527371606433 2099.8264051059159 0 0 0 0 -167.18200785477396 -234.96558550947429 0 -234.96558550947429 2168.4781062153925 0 0 0 0 -544.63558096054282 -662.4841004463633 0 -662.4841004463633 2499.8659852270848 0 0 0 0 -7.6828002413844914 0.093634210606936108 0 0.093634210606936108 4.3891840232787693 0 0 0 0 -3.1034235464359199 -433.22873651150803 0 -433.22873651150803 2010.8340660880858 0 0 0 0 -136.98000694597965 -222.98942441622967 0 -222.98942441622967 1797.0425201874896 0 0 0 0 -3.7434817609177271 -0.026336509799520513 0 -0.026336509799520513 3.346467570334184 0 0 0 0 -278.49684843377673 -453.53315734352145 0 -453.53315734352145 1443.468072910553 0 0 0 0 140.43750744106796 -148.05503712499194 0 -148.05503712499194 1380.0774057612689 0 0 0 0 46.708020359794546 -47.187268739628053 0 -47.187268739628053 1208.8253470906056 0 0 0 0 67.093757906242899 -191.67345689522972 0 -191.67345689522972 1362.623170318926 0 0 0 0 64.945517685034588 -175.10260424215176 0 -175.10260424215176 1241.9800626521974 0 0 0 0 114.5407785142728 -32.826695616959114 0 -32.826695616959114 1358.9849619315573 0 0 0 0 -38.46441704558265 -259.07663833685729 0 -259.07663833685729 1807.7046913827589 0 0 0 0 6.1218570099833869 -317.7256594574028 0 -317.7256594574028 1246.5259002464309 0 0 0 0 2.0860663591825013 2.0133886596494932 0 2.0133886596494932 2.6879470525983677 0 0 0 0 -31.215002930835681 -3.6343546535172209 0 -3.6343546535172209 876.72922186686628 0 0 0 0 50.398720499203591 -136.11682957371522 0 -136.11682957371522 592.09128357697773 0 0 0 0 50.133774624931334 -113.69596209264 0 -113.69596209264 716.18457778880111 0 0 0 0 28.418031743997062 -53.255198242750339 0 -53.255198242750339 629.21322808013065 0 0 0 0 145.81408937183542 -4.8981261536035845 0 -4.8981261536035845 716.7426783845367 0 0 0 0 61.348610909388981 -156.4420752732367 0 -156.4420752732367 629.71793749385142 0 0 0 0 0.98288756817927858 1.1818434147024703 0 1.1818434147024703 2.1234360071145204 0 0 0 0 25.635428554970304 -59.82389621627226 0 -59.82389621627226 538.32440915596635 0 0 0 0 148.49582848354282 -131.50349131239091 0 -131.50349131239091 548.54844827922352 0 0 0 0 87.964119575311656 1.5191595093001524 0 1.5191595093001524 382.46978774536547 0 0 0 0 48.59125245338646 34.794844010037195 0 34.794844010037195 429.59314949961845 0 0 0 0 42.650078513670678 -81.00392669892608 0 -81.00392669892608 495.17885657636361 0 0 0 0 -15.450147087201003 24.226780484030314 0 24.226780484030314 420.57524821691186 0 0 0 0 29.267743727600646 -1.441001210048853 0 -1.441001210048853 386.05084882099618 0 0 0 0 -22.183007925025322 60.99719139674562 0 60.99719139674562 378.361986971242 0 0 0 0 39.128228812724274 161.90175479781101 0 161.90175479781101 152.73333035383257 0 0 0 0 38.210991331150353 58.651806037294591 0 58.651806037294591 178.38861476046441 0 0 0 0 28.633091747500771 -2.9863196331752988 0 -2.9863196331752988 292.93182661890751 0 0 0 0 51.90418268606345 16.81318289066985 0 16.81318289066985 301.50697869177384 0 0 0 0 -2.7346165221870251 25.529559858310677 0 25.529559858310677 387.59124040440111 0 0 0 0 54.477690224323283 38.536094308194151 0 38.536094308194151 187.94858188465878 0 0 0 0 2.1393746120370452 30.176287611066073 0 30.176287611066073 301.61343216011187 0 0 0 0 163.03751718820513 -9.7985186258183603 0 -9.7985186258183603 642.54026529168914 0 0 0 0 72.136517657307195 -62.265070474168169 0 -62.265070474168169 541.41003277795971 0 0 0 0 109.40569223035141 -102.96348698265683 0 -102.96348698265683 555.87321439511288 0 0 0 0 28.899993436753221 -115.20847017964115 0 -115.20847017964115 610.46706451186037 0 0 0 0 -18.404158670619836 -23.149863658909453 0 -23.149863658909453 564.33345164189086 0 0 0 0 21.064966108525823 112.06178973061469 0 112.06178973061469 520.11101131170653 0 0 0 0 147.28300160819026 -55.534130025640479 0 -55.534130025640479 59.797529277784633 0 0 0 0 1.2308938253530757 -1.0901102914175667 0 -1.0901102914175667 1.4768070598092891 0 0 0 0 41.897518457236401 -75.915343245083932 0 -75.915343245083932 594.4352570496485 0 0 0 0 157.0009330259993 -83.836205518748102 0 -83.836205518748102 128.85990609767759 0 0 0 0 63.036876525921684 -159.78403383688055 0 -159.78403383688055 508.40363405953394 0 0 0 0 29.802465821053374 -100.79708000847677 0 -100.79708000847677 398.50209739527008 0 0 0 0 38.491410823215574 15.02997138120918 0 15.02997138120918 214.13282151360909 0 0 0 0 91.120130807055631 -43.642132618814458 0 -43.642132618814458 391.51898590307974 0 0 0 0 71.464827158991284 58.245081456923799 0 58.245081456923799 592.27624960894354 0 0 0 0 -14.067579681091956 106.67463661776856 0 106.67463661776856 747.67225109930587 0 0 0 0 -38.331566892059072 -12.088851581404015 0 -12.088851581404015 449.39934130942856 0 0 0 0 35.044101706635502 -24.953478967174306 0 -24.953478967174306 229.85865697184727 0 0 0 0 12.453444438551287 -80.857060466529219 0 -80.857060466529219 248.30717775374069 0 0 0 0 -22.94415316672405 -53.367606661020545 0 -53.367606661020545 232.11790631011536 0 0 0 0 -33.823498404122574 -45.897114322553534 0 -45.897114322553534 321.34359576650604 0 0 0 0 13.262081362348226 117.00205072557583 0 117.00205072557583 272.50255963503059 0 0 0 0 81.444106332454112 18.021236299924567 0 18.021236299924567 403.73059045248556 0 0 0 0 -40.84235113948273 48.71421209086111 0 48.71421209086111 670.14571201036961 0 0 0 0 -40.853149013216182 302.57799154446172 0 302.57799154446172 715.90007385985155 0 0 0 0 -42.271091031286687 223.30395802098792 0 223.30395802098792 502.50615882751663 0 0 0 0 -98.470909816703852 180.67213825701583 0 180.67213825701583 908.67791617423609 0 0 0 0 -98.295047656059523 178.96440384657944 0 178.96440384657944 581.03782480563677 0 0 0 0 -61.484878754326473 -251.18418603804093 0 -251.18418603804093 1105.2904323646389 0 0 0 0 1.9508269741249649 -138.72438897585107 0 -138.72438897585107 1021.240571349972 0 0 0 0 1.032282238187511 0.82071610554297081 0 0.82071610554297081 1.6487336159047388 0 0 0 0 -292.63479455570786 468.79891814621624 0 468.79891814621624 2697.5456999070702 0 0 0 0 1294.3453170232842 -99.614192815824936 0 -99.614192815824936 2499.7437596705713 0 0 0 0 -0.26067441202516861 52.083822093140043 0 52.083822093140043 1362.1799117754963 0 0 0 0 161.58407699839384 315.619880371607 0 315.619880371607 512.06658829699154 0 0 0 0 0.39689336409535675 0.71059071942666208 0 0.71059071942666208 -0.4574783160660516 0 0 0 0 268.6887220728359 56.766096629394269 0 56.766096629394269 314.50699900677864 0 0 0 0 981.00254549441206 1422.2422300426624 0 1422.2422300426624 1191.3662842620513 0 0 0 0 6.4875746850393803 -8.2203356585191472 0 -8.2203356585191472 17.82162699557361 0 0 0 0 1869.6283385527763 -666.80104837453473 0 -666.80104837453473 246.45407348022673 0 0 0 0 403.55375055589093 245.03415533338557 0 245.03415533338557 -120.23381058612722 0 0 0 0 6.4343303243891032 -19.397469443940302 0 -19.397469443940302 50.244331481805375 0 0 0 0 22.194014746281937 49.634978723697714 0 49.634978723697714 25.259278846584493 0 0 0 0 -306.73522949247399 75.185612491799475 0 75.185612491799475 200.64488683126183 0 0 0 0 24.123262115400053 243.32478540939701 0 243.32478540939701 1195.0920339816375 0 0 0 0 -3.1588826181587137 7.5582995963668509 0 7.5582995963668509 41.993538999704469 0 0 0 0 -26.977960262025931 12.711400831605715 0 12.711400831605715 93.154227426020952 0 0 0 0 -0.6763703604105733 1.0489132763266866 0 1.0489132763266866 12.200149557067867 0 0 0 0 -6.129838587592185 -0.94180949187335727 0 -0.94180949187335727 34.463689815389358 0 0 0 0 -2.1119944707452305 4.7808574760420015 0 4.7808574760420015 37.736564904211264 0 0 0 0 -8.6003494574539783 12.629250779927148 0 12.629250779927148 9.5665941166856783 0 0 0 0 -7.5288331287791479 0.52714166682666175 0 0.52714166682666175 34.888510513822325 0 0 0 0 -8.0343285203412051 55.75296831556625 0 55.75296831556625 -13.996965316327987 0 0 0 0 -287.28950791733587 -125.33831658516283 0 -125.33831658516283 164.96625720776501 0 0 0 0 -683.60598420365659 -73.079304915110697 0 -73.079304915110697 182.91617428250174 0 0 0 0 1.4552855105839235 4.6307541702358037 0 4.6307541702358037 2.4933493200070842 0 0 0 0 -293.02537635868248 -104.03880446433323 0 -104.03880446433323 138.62057366323643 0 0 0 0 -179.3143671787625 100.42328503255703 0 100.42328503255703 60.935678461464704 0 0 0 0 -3.3172311687830813 3.0083044207612204 0 3.0083044207612204 16.480396776664314 0 0 0 0 -67.802442630921746 -623.52392516202599 0 -623.52392516202599 -222.96956036316988 0 0 0 0 -354.75738044807576 25.571973381629505 0 25.571973381629505 -162.15328769237885 0 0 0 0 139.41138469591237 -263.56983349776419 0 -263.56983349776419 -62.095932450934924 0 0 0 0 151.73766739788095 -374.60191010464041 0 -374.60191010464041 50.523286690498935 0 0 0 0 296.38734922857395 -698.97955010335136 0 -698.97955010335136 291.47843327436203 0 0 0 0 606.31333216923633 -760.77116604861658 0 -760.77116604861658 364.01445261880508 0 0 0 0 166.625807601227 -621.93508520201794 0 -621.93508520201794 650.18821689763718 0 0 0 0 401.29545554838398 -1241.2237898733847 0 -1241.2237898733847 1089.2037392052298 0 0 0 0 109.82617110737465 -732.51623909252521 0 -732.51623909252521 506.65264243821002 0 0 0 0 255.51530061037056 -239.73519836117339 0 -239.73519836117339 -37.474070792282873 0 0 0 0 -104.1264164774318 -71.919231414878595 0 -71.919231414878595 165.10025295481319 0 0 0 0 23.318272894360803 10.19861882920236 0 10.19861882920236 -21.939640879834769 0 0 0 0 1032.645693982196 -395.54103082147049 0 -395.54103082147049 90.054222881146416 0 0 0 0 -28.199476246050736 -860.39352196850632 0 -860.39352196850632 1713.5511075197282 0 0 0 0 1589.7154692383212 -1674.2186575978294 0 -1674.2186575978294 1000.229885264911 0 0 0 0 488.76826806569727 -839.39997149202281 0 -839.39997149202281 886.26270183661836 0 0 0 0 89.037621684979513 -1419.7326490577725 0 -1419.7326490577725 3498.2464580553915 0 0 0 0 -68.969968829115501 -993.79747926480741 0 -993.79747926480741 1709.4271155680981 0 0 0 0 -221.34455105369989 -595.03203719123849 0 -595.03203719123849 1304.2789853813447 0 0 0 0 103.34680296197772 -653.60241033008515 0 -653.60241033008515 1187.3738519165126 0 0 0 0 197.74819248584632 -598.15348311183516 0 -598.15348311183516 443.45883264886652 0 0 0 0 201.88468823430367 -472.42367202162131 0 -472.42367202162131 556.70143127180563 0 0 0 0 35.75076011451381 -303.425793225284 0 -303.425793225284 643.92128603917809 0 0 0 0 36.169822781844573 -318.84869469726254 0 -318.84869469726254 996.97575196313846 0 0 0 0 163.97451643414001 -1.9876252709145774 0 -1.9876252709145774 407.54731505339441 0 0 0 0 208.36320542317475 -247.31547921520541 0 -247.31547921520541 647.37072597530641 0 0 0 0 162.70967008812386 -111.58972583586274 0 -111.58972583586274 285.55601983512315 0 0 0 0 166.71175993678241 72.349808140428649 0 72.349808140428649 307.46029530770465 0 0 0 0 125.01502335937269 22.757569622510346 0 22.757569622510346 428.98465296887298 0 0 0 0 97.615935424850491 57.308090649982887 0 57.308090649982887 388.97767720688717 0 0 0 0 94.722044486389109 -36.277928953419178 0 -36.277928953419178 492.01150103436339 0 0 0 0 178.80546584911781 -84.006263965875405 0 -84.006263965875405 466.3889972754987 0 0 0 0 32.962853545933037 67.603982139447908 0 67.603982139447908 392.91297961478995 0 0 0 0 78.693143115910686 17.634660949166573 0 17.634660949166573 343.34532884522923 0 0 0 0 29.049475655362336 53.617363628466634 0 53.617363628466634 327.44595463231963 0 0 0 0 33.33692010501079 -12.253257033524278 0 -12.253257033524278 200.87058084562159 0 0 0 0 38.209183032389774 47.563382051044755 0 47.563382051044755 255.12418507907569 0 0 0 0 -32.442627674442576 24.804071150640084 0 24.804071150640084 389.33632276764547 0 0 0 0 -30.288099706123603 -8.8960221864035702 0 -8.8960221864035702 263.95051099992997 0 0 0 0 82.950446354347946 159.83146076812227 0 159.83146076812227 321.68999472411087 0 0 0 0 84.59972972904032 129.10659487782323 0 129.10659487782323 418.56887005154385 0 0 0 0 448.88775172779924 69.154215980257504 0 69.154215980257504 153.85038276252453 0 0 0 0 244.48250180588491 342.91644056341465 0 342.91644056341465 488.51409143073397 0 0 0 0 -94.521134187030952 130.98046931849422 0 130.98046931849422 568.931769054092 0 0 0 0 473.23786037454931 311.82997522547339 0 311.82997522547339 140.37940049059398 0 0 0 0 -187.61897989563374 -36.890572657986922 0 -36.890572657986922 318.25639265747304 0 0 0 0 0.28596871052578454 1.2131974927342455 0 1.2131974927342455 6.098276629647728 0 0 0 0 -91.207359147129637 -19.918860229470738 0 -19.918860229470738 277.56295862080879 0 0 0 0 155.03197600814133 303.79543153123086 0 303.79543153123086 558.18580751421177 0 0 0 0 -106.19589272673716 -166.2040061929365 0 -166.2040061929365 286.12611526325782 0 0 0 0 181.64238503308752 -149.52661131795321 0 -149.52661131795321 240.46055474258173 0 0 0 0 -237.21067786944963 -312.40612287659042 0 -312.40612287659042 -36.889899805326422 0 0 0 0 -154.6046113732998 -2.3839073289564112 0 -2.3839073289564112 154.89047688682331 0 0 0 0 177.20539468819391 96.186434475752321 0 96.186434475752321 223.4926579743842 0 0 0 0 92.460219966126942 83.886847050835058 0 83.886847050835058 201.50598836957579 0 0 0 0 101.95421298846873 -40.585558848382789 0 -40.585558848382789 91.766009743354516 0 0 0 0 117.04427222394531 -150.43721653210378 0 -150.43721653210378 253.13558801271574 0 0 0 0 89.71609918933143 -64.788641302320684 0 -64.788641302320684 -15.141340223512088 0 0 0 0 -55.137359672869934 -271.45380048026345 0 -271.45380048026345 97.751378840839607 0 0 0 0 -395.56176364895418 -467.3336127181683 0 -467.3336127181683 -301.8320125016653 0 0 0 0 -2.2136144443228774 -10.968962795645155 0 -10.968962795645155 65.784883591934516 0 0 0 0 -467.37474195163031 -274.29412065883116 0 -274.29412065883116 9.376450112209568 0 0 0 0 -75.960157490071538 22.838620806589461 0 22.838620806589461 99.903115677110691 0 0 0 0 1.0290328220763976 -1.169888758908165 0 -1.169888758908165 8.7409800776362658 0 0 0 0 -3.7879699964909124 7.7302892371731105 0 7.7302892371731105 13.946158930096814 0 0 0 0 80.88571102083867 -12.534871371026384 0 -12.534871371026384 67.016570837360632 0 0 0 0 57.18245247605158 99.455972847015801 0 99.455972847015801 49.069713886878162 0 0 0 0 -174.81988324918643 -31.451634716104309 0 -31.451634716104309 24.467694801824109 0 0 0 0 -657.10252180798466 -330.26639099071872 0 -330.26639099071872 133.20775860673166 0 0 0 0 -75.840676196786518 21.000302328340695 0 21.000302328340695 -10.238065897290653 0 0 0 0 -178.91706598317887 170.12766218982142 0 170.12766218982142 185.24301800068861 0 0 0 0 -190.9651328326712 157.61264410949298 0 157.61264410949298 466.51001637954323 0 0 0 0 -1.3063805576305536 -11.73119843721058 0 -11.73119843721058 71.641290305884041 0 0 0 0 -316.40019462791207 -298.26671895899199 0 -298.26671895899199 241.89085615917429 0 0 0 0 -546.11840651885507 -188.43381886249517 0 -188.43381886249517 151.87354276137194 0 0 0 0 -0.54962353418792331 -12.525829365823704 0 -12.525829365823704 72.313596807543206 0 0 0 0 -345.90319412721544 44.0749881348911 0 44.0749881348911 250.15760897261498 0 0 0 0 23.261171733855662 -108.90326253066451 0 -108.90326253066451 -116.2867338317883 0 0 0 0 101.8848821607675 -121.61599648858919 0 -121.61599648858919 89.357565580823575 0 0 0 0 0.22627016679381484 -0.63536075841550144 0 -0.63536075841550144 2.731922671498296 0 0 0 0 229.12666636608449 341.84533176478726 0 341.84533176478726 182.40882203742513 0 0 0 0 91.17061317518467 -203.7506158006945 0 -203.7506158006945 387.8666891270841 0 0 0 0 9.4320897886187538 -31.790713685266383 0 -31.790713685266383 595.12918730868842 0 0 0 0 0.53001293645205882 1.2822263749393983 0 1.2822263749393983 1.3070275064082466 0 0 0 0 301.09828932814276 -231.28207589400336 0 -231.28207589400336 75.020661876384111 0 0 0 0 376.542101132217 46.35871159209637 0 46.35871159209637 357.24797208007658 0 0 0 0 -64.029724906939236 53.840658693854493 0 53.840658693854493 30.227123714372283 0 0 0 0 43.26405841213824 29.492602985897975 0 29.492602985897975 -25.617368092294782 0 0 0 0 4.7156250121329126 54.727592712786645 0 54.727592712786645 42.989351237352821 0 0 0 0 -0.019271465445298737 12.106329926151375 0 12.106329926151375 125.91090503806481 0 0 0 0 -23.724112782233604 77.504094332209206 0 77.504094332209206 201.65881475603237 0 0 0 0 -17.156905115662227 46.218982205875363 0 46.218982205875363 300.93220122357889 0 0 0 0 -40.091469167043961 29.427827157400316 0 29.427827157400316 288.65919552960258 0 0 0 0 -52.819835312449698 31.164255536590645 0 31.164255536590645 467.69841549830744 0 0 0 0 -16.28965636268773 -88.166867496998748 0 -88.166867496998748 272.58510287955869 0 0 0 0 82.277147628784292 -163.55484331332991 0 -163.55484331332991 226.31136814603815 0 0 0 0 -13.498610704253466 -161.44264544951147 0 -161.44264544951147 457.76653341826295 0 0 0 0 -15.324381210342441 -69.09221456515661 0 -69.09221456515661 324.55244808100906 0 0 0 0 -0.070376842921085175 -25.789571465844347 0 -25.789571465844347 151.56036780501017 0 0 0 0 58.085009408784863 -12.317769910121569 0 -12.317769910121569 -5.9643695125705563 0 0 0 0 48.664617582603242 -36.362410880181415 0 -36.362410880181415 86.487456499264226 0 0 0 0 85.460984071105557 -88.947298636448977 0 -88.947298636448977 77.622935934225097 0 0 0 0 95.92993399008364 10.66803957726006 0 10.66803957726006 -39.249141426626011 0 0 0 0 -3.8482001216502795 40.174458782661532 0 40.174458782661532 -10.968152807279694 0 0 0 0 19.193457003625014 -37.196441102016252 0 -37.196441102016252 16.191358055577439 0 0 0 0 -1.4788516805471721 1.3170124331122679 0 1.3170124331122679 4.3795456821611509 0 0 0 0 -37.678282186800779 18.964416038677882 0 18.964416038677882 14.243251278545358 0 0 0 0 52.426803133759471 -20.804442045049655 0 -20.804442045049655 -12.270638052388676 0 0 0 0 0.25932408553307795 -76.538438758616394 0 -76.538438758616394 6.5704169596356223 0 0 0 0 -33.701587576924105 52.759472046822339 0 52.759472046822339 133.25368451083341 0 0 0 0 -0.42259823017092368 0.025033502653656114 0 0.025033502653656114 -0.16895065242921703 0 0 0 0 -15.266120883255272 -13.405748224380659 0 -13.405748224380659 69.418164478178369 0 0 0 0 -1.0907433903613499 -1.7416574609284226 0 -1.7416574609284226 7.8932408593706214 0 0 0 0 -221.13294504362 -115.08939653796187 0 -115.08939653796187 195.66445337168989 0 0 0 0 -2.2778743532474253 -2.5999166659473119 0 -2.5999166659473119 51.875528691484504 0 0 0 0 237.39474506740578 -132.32966686044529 0 -132.32966686044529 26.411411084642168 0 0 0 0 31.666875153757928 86.178933315888571 0 86.178933315888571 -6.1954939858987927 0 0 0 0 -2.0008558834363361 -6.2590068188896986 0 -6.2590068188896986 15.201964476096009 0 0 0 0 -1.8510751584158056 -5.196700118724273 0 -5.196700118724273 50.91705360829144 0 0 0 0 -19.729673418244602 -123.94268874230693 0 -123.94268874230693 2.2453985567544805 0 0 0 0 -0.041397648376839173 2.5787894136410614 0 2.5787894136410614 50.718814160067268 0 0 0 0 -5.5076787171221593 -2.971795469729841 0 -2.971795469729841 45.255686113065167 0 0 0 0 0.047706663856569048 -12.793681678555004 0 -12.793681678555004 16.395612992157112 0 0 0 0 -27.09189221071901 -13.773550667796371 0 -13.773550667796371 47.037073517691169 0 0 0 0 -10.405635127499476 -32.761076724720624 0 -32.761076724720624 -15.303062708262587 0 0 0 0 14.812953665826422 -129.10222984277425 0 -129.10222984277425 -59.191162210365292 0 0 0 0 -1.5730843588883692 -6.1580687398336593 0 -6.1580687398336593 8.6476470554392222 0 0 0 0 -30.513253077553276 -26.477741694197903 0 -26.477741694197903 29.830610839686415 0 0 0 0 -1.9480325152028328 -6.154652219384495 0 -6.154652219384495 64.692365228569372 0 0 0 0 -63.538139600734297 25.010609988072247 0 25.010609988072247 29.542834138675971 0 0 0 0 -410.77489281436897 1.2457064478112443 0 1.2457064478112443 176.71464972183821 0 0 0 0 -148.64465445575274 173.70090118824373 0 173.70090118824373 169.59775035944767 0 0 0 0 72.577056310705075 60.811981019271116 0 60.811981019271116 119.99886917853291 0 0 0 0 -32.092777592492268 168.77178660607751 0 168.77178660607751 148.48471644371602 0 0 0 0 16.117219175241289 123.38463883358781 0 123.38463883358781 62.419097819023591 0 0 0 0 280.13894469206298 155.87908844860067 0 155.87908844860067 18.487514761312923 0 0 0 0 17.27359100202473 73.27068781613707 0 73.27068781613707 -25.175027653829602 0 0 0 0 -175.62142830526022 73.896797297349622 0 73.896797297349622 82.515870382470894 0 0 0 0 1.4342756427140491 3.4246021138136697 0 3.4246021138136697 2.5060984430601252 0 0 0 0 33.793247674405393 162.62529152359275 0 162.62529152359275 63.833611967816978 0 0 0 0 -1.6218128156554161 1.7912896129582059 0 1.7912896129582059 8.8924952500784968 0 0 0 0 27.678157684327289 91.815100678250019 0 91.815100678250019 99.909435393077729 0 0 0 0 -85.842336817459966 -0.2380023992373026 0 -0.2380023992373026 39.398237883673573 0 0 0 0 -9.9085303500696682 43.593127147169071 0 43.593127147169071 21.252660031608684 0 0 0 0 -0.92784034421994943 5.412860480947117 0 5.412860480947117 27.439406166554193 0 0 0 0 55.627999605800994 6.4185158511063491 0 6.4185158511063491 15.693725793476915 0 0 0 0 47.777374183811389 22.941649878772296 0 22.941649878772296 4.3407927813750575 0 0 0 0 -1.5863940304772497 3.2255925733675461 0 3.2255925733675461 6.1212845643578646 0 0 0 0 -81.726564057113706 -18.764193258015439 0 -18.764193258015439 34.072088700283075 0 0 0 0 -0.52488246716483533 1.7575188416299632 0 1.7575188416299632 2.226160268113091 0 0 0 0 -141.91901419872431 -71.604141739647275 0 -71.604141739647275 85.929548699125007 0 0 0 0 624.65553173279704 390.90977563100023 0 390.90977563100023 122.45812167388794 0 0 0 0 84.613664979498481 29.126163494460343 0 29.126163494460343 -30.379887601189694 0 0 0 0 0.64846440039747033 3.5730612973612201 0 3.5730612973612201 17.158041752809083 0 0 0 0 -136.06488077445249 60.591007103625088 0 60.591007103625088 22.38314639392047 0 0 0 0 -8.1265220060164012 85.930567002651514 0 85.930567002651514 -66.161125509795966 0 0 0 0 17.429266636575505 4.9212596446377574 0 4.9212596446377574 -4.018617198598804 0 0 0 0 -9.0793389989614752 14.389227518047846 0 14.389227518047846 248.63821539132186 0 0 0 0 -3.1206036569951792 -35.401524113885898 0 -35.401524113885898 156.62432599152089 0 0 0 0 -29.930335924693054 -84.095638621378384 0 -84.095638621378384 -4.1714307789952727 0 0 0 0 56.732865503646167 5.9438432855858991 0 5.9438432855858991 35.033729156864865 0 0 0 0 35.575228538664533 32.510963633365463 0 32.510963633365463 178.2435245038796 0 0 0 0 35.277474318146119 32.853778372260422 0 32.853778372260422 39.676974055734718 0 0 0 0 59.720451022018665 6.0810026748349628 0 6.0810026748349628 -6.2456540458588279 0 0 0 0 19.277665152681038 19.699185247518471 0 19.699185247518471 -10.531889513058559 0 0 0 0 -4.0325352707436322 2.4611322426784739 0 2.4611322426784739 -2.0688105371747412 0 0 0 0 29.817529049154473 44.109723024466803 0 44.109723024466803 22.36454303649225 0 0 0 0 -11.027239520459585 6.3905395547899388 0 6.3905395547899388 -0.92835281089355703 0 0 0 0 23.913554381288421 60.560478300651084 0 60.560478300651084 -16.615097616879666 0 0 0 0 -30.086797151032556 40.669029767605025 0 40.669029767605025 44.521358158170187 0 0 0 0 -5.8383800672221451 9.3500418464946904 0 9.3500418464946904 -0.26564432788063641 0 0 0 0 3.4161175880689143 9.490491588056102 0 9.490491588056102 7.8377722083314438 0 0 0 0 2.9884703210111638 15.812056324512014 0 15.812056324512014 13.001330297112872 0 0 0 0 -2.2720362414161173 12.484687131334795 0 12.484687131334795 18.853788720982266 0 0 0 0 -2.0748720605934068 15.451661279505061 0 15.451661279505061 20.509135876132859 0 0 0 0 -2.0154684347230614 12.048406119122774 0 12.048406119122774 16.8195827402742 0 0 0 0 -1.7268586862726352 15.358257621880512 0 15.358257621880512 15.768251392080856 0 0 0 0 -10.566982271692041 15.192913494511231 0 15.192913494511231 25.155700966548466 0 0 0 0 -1.4106486884757032 9.6571454192926467 0 9.6571454192926467 21.603458012454212 0 0 0 0 -0.38614008492959329 19.731566938327887 0 19.731566938327887 27.447937028038723 0 0 0 0 2.8917059266445904 12.482903735432046 0 12.482903735432046 22.272377654335287 0 0 0 0 3.1837007654958143 21.837678420513839 0 21.837678420513839 36.064711503677245 0 0 0 0 1.0383004038886838 17.973962836199462 0 17.973962836199462 31.066032117712894 0 0 0 0 7.0518410738104649 20.489649157472741 0 20.489649157472741 28.233788483688841 0 0 0 0 10.640010318019819 32.51122498400764 0 32.51122498400764 44.741388001966698 0 0 0 0 10.510129420776138 22.886120060546091 0 22.886120060546091 34.081973416352412 0 0 0 0 6.3305478268698607 16.791331361182529 0 16.791331361182529 27.786037698591826 0 0 0 0 12.041157828445648 24.770403527858434 0 24.770403527858434 39.21768372792576 0 0 0 0 6.0667776375721587 23.863792248470418 0 23.863792248470418 39.314006425891421 0 0 0 0 13.717749526305852 22.710189666082442 0 22.710189666082442 41.183896084272419 0 0 0 0 4.5587877593379744 26.052054787272937 0 26.052054787272937 44.494892180140596 0 0 0 0 8.5563905768610091 12.085296605867313 0 12.085296605867313 10.585912226288457 0 0 0 0 6.0150962695180397 14.346398942921951 0 14.346398942921951 11.48409076700591 0 0 0 0 8.6181164422741858 22.236610069987364 0 22.236610069987364 47.298114443081431 0 0 0 0 4.852578925168018 29.767441972202505 0 29.767441972202505 50.15761685463076 0 0 0 0 4.5671817159350088 7.7339770875702385 0 7.7339770875702385 2.0718490832210819 0 0 0 0 15.835650004113177 10.774222789790656 0 10.774222789790656 27.286680128927401 0 0 0 0 4.3760481763193333 11.213995366313227 0 11.213995366313227 22.937733419580539 0 0 0 0 5.7232008844650135 13.85639396716104 0 13.85639396716104 17.177639906830791 0 0 0 0 -1.5342757945392369 10.349525948206722 0 10.349525948206722 19.007654466668356 0 0 0 0 -3.9806050268853141 8.0839960450248327 0 8.0839960450248327 7.1321806592750363 0 0 0 0 11.044096654291025 30.02537908917293 0 30.02537908917293 42.358901898012846 0 0 0 0 1.5923247940393139 23.396569481117695 0 23.396569481117695 39.842063740514277 0 0 0 0 3.9057437064939222 25.074631853545725 0 25.074631853545725 33.709104583038425 0 0 0 0 1.319421907587639 23.952783922068193 0 23.952783922068193 42.860609096261214 0 0 0 0 5.6870762950238714 24.698973639387987 0 24.698973639387987 39.115243584441487 0 0 0 0 4.5986346522677195 22.969380379363429 0 22.969380379363429 38.977156553006353 0 0 0 0 8.35818066787715 22.269414473114011 0 22.269414473114011 33.288686018902808 0 0 0 0 7.4437406421166088 25.145579127965902 0 25.145579127965902 30.658477500641311 0 0 0 0 3.9216601192028975 25.370471714501036 0 25.370471714501036 35.362388438647031 0 0 0 0 3.217700003476466 20.065636769463254 0 20.065636769463254 25.216328527414589 0 0 0 0 -32.939451051103362 9.7371120383368179 0 9.7371120383368179 51.802982054869062 0 0 0 0 2.5452072413046585 14.236127067808139 0 14.236127067808139 27.595913001815404 0 0 0 0 12.456068618760128 25.350652443761646 0 25.350652443761646 6.6605514001421398 0 0 0 0 13.671247145521193 19.907550405660004 0 19.907550405660004 20.847366950532887 0 0 0 0 -1.0700286338527285 12.378271330666985 0 12.378271330666985 2.5583372550520096 0 0 0 0 4.656328322263164 8.3313102458059802 0 8.3313102458059802 25.654893749990151 0 0 0 0 -1.1337214701617346 -1.3726159362937889 0 -1.3726159362937889 34.060018879688556 0 0 0 0 -13.173852823774268 12.440974090175587 0 12.440974090175587 21.301778451976134 0 0 0 0 -5.2999768831594034 1.7968509862267865 0 1.7968509862267865 20.962273239658884 0 0 0 0 2.0905256738924436 8.0568427824327955 0 8.0568427824327955 29.862912902084645 0 0 0 0 -2.1809890948256339 8.3627908939342888 0 8.3627908939342888 38.795232458156534 0 0 0 0 -0.40357548509272245 0.95506314020492766 0 0.95506314020492766 5.4791249951922936 0 0 0 0 -15.243827914346639 53.53839253049955 0 53.53839253049955 6.1516271022410365 0 0 0 0 -31.26015163990246 15.199849823118711 0 15.199849823118711 31.20347663148641 0 0 0 0 0.69097845563372573 40.607020795475819 0 40.607020795475819 37.434826186843566 0 0 0 0 2.5491125984676728 17.049505622955621 0 17.049505622955621 32.527374894503737 0 0 0 0 -0.50346176760151584 17.673232923110504 0 17.673232923110504 27.382476785736742 0 0 0 0 -7.792243052554511 22.85257668344093 0 22.85257668344093 30.753955096370191 0 0 0 0 -11.319483470395426 27.289368250290863 0 27.289368250290863 32.894814328858047 0 0 0 0 2.6499071893304063 33.923314144733013 0 33.923314144733013 28.74262921835907 0 0 0 0 0.088555129685232714 30.684562522186752 0 30.684562522186752 26.635707090084907 0 0 0 0 -0.39801103969330143 26.695382361038355 0 26.695382361038355 32.419045497892512 0 0 0 0 6.4040472785573002 31.56156635665684 0 31.56156635665684 23.819073498947546 0 0 0 0 5.9244138686244696 29.783883218406118 0 29.783883218406118 18.477574040116451 0 0 0 0 0.62487983745439613 13.228803583547288 0 13.228803583547288 24.876882380770439 0 0 0 0 -4.5298834427271686 27.582872176895762 0 27.582872176895762 30.841159314266406 0 0 0 0 4.3702255409807549 35.733372074064391 0 35.733372074064391 15.269873856588674 0 0 0 0 11.388610933358905 31.776468335214304 0 31.776468335214304 23.311725831830699 0 0 0 0 4.1942506548521123 37.016526550651179 0 37.016526550651179 31.625293643621262 0 0 0 0 11.037942805190141 35.757674391257751 0 35.757674391257751 32.825772747848532 0 0 0 0 13.044508846394365 33.309064407458209 0 33.309064407458209 30.815657075145282 0 0 0 0 9.0924461844206235 29.970839400823024 0 29.970839400823024 52.445143957942491 0 0 0 0 35.419762996611098 12.600589149486041 0 12.600589149486041 47.466422543271619 0 0 0 0 7.6428991700847746 -0.72679282490116748 0 -0.72679282490116748 32.284376173396595 0 0 0 0 58.884465085204283 33.612486013473244 0 33.612486013473244 50.152620607899735 0 0 0 0 -0.19795862593364522 3.1010874928020229 0 3.1010874928020229 6.7767041663412328 0 0 0 0 30.466017572195597 25.429762331710663 0 25.429762331710663 50.425752773885961 0 0 0 0 13.351618266703184 20.316436198905649 0 20.316436198905649 33.350812598742777 0 0 0 0 14.304906186765038 13.104434772103559 0 13.104434772103559 55.328907771108788 0 0 0 0 -15.255135638017236 29.196407285700843 0 29.196407285700843 36.436193105808343 0 0 0 0 -15.449029366733974 33.568615053183748 0 33.568615053183748 23.352069897024194 0 0 0 0 -16.359308451041194 6.509680394262773 0 6.509680394262773 7.7249483398481971 0 0 0 0 -8.5952103893649792 37.312223688331869 0 37.312223688331869 36.316626062151045 0 0 0 0 1.3647654740607322 40.536265566042857 0 40.536265566042857 33.537965795131413 0 0 0 0 -28.767508256858655 16.496516642837378 0 16.496516642837378 0.30098362374701537 0 0 0 0 -47.397482185163881 -24.272426052986702 0 -24.272426052986702 58.690981379018922 0 0 0 0 -30.99244579896143 31.372892551633413 0 31.372892551633413 388.43767318424943 0 0 0 0 172.66340127469107 -161.49175135292899 0 -161.49175135292899 -85.175533741421532 0 0 0 0 39.847235110581323 54.779771844609058 0 54.779771844609058 -209.9712445133955 0 0 0 0 1.7961932312554239 18.555592874262771 0 18.555592874262771 25.893651304055396 0 0 0 0 -2.3533582665826955 38.211269276027451 0 38.211269276027451 29.354075454168196 0 0 0 0 -9.8594182004648587 14.065108149082334 0 14.065108149082334 44.005571204790613 0 0 0 0 -27.486881641078242 23.782680131545931 0 23.782680131545931 39.022084202886617 0 0 0 0 -1.9893326288704076 7.9777042119024451 0 7.9777042119024451 14.613554743253189 0 0 0 0 0.83224489083073183 20.590248007140417 0 20.590248007140417 28.569937906487965 0 0 0 0 -0.57783319368497077 6.5648347153282955 0 6.5648347153282955 6.5303055675155974 0 0 0 0 25.797011485265294 49.720177676957974 0 49.720177676957974 -4.7221613734218408 0 0 0 0 38.992136126903006 25.793310336921422 0 25.793310336921422 30.001344969259662 0 0 0 0 -3.9887112773303386 23.251068741361451 0 23.251068741361451 32.169436312557082 0 0 0 0 102.31491948593364 110.6094102441748 0 110.6094102441748 126.93453788325132 0 0 0 0 -8.9394182624793679 22.316982014595851 0 22.316982014595851 25.932991557107016 0 0 0 0 -31.152511046638843 -58.633825663135212 0 -58.633825663135212 69.215051382403544 0 0 0 0 0.47907938764867275 -1.3684328500483431 0 -1.3684328500483431 0.55403638999894156 0 0 0 0 -44.268449230202187 20.905243267447986 0 20.905243267447986 49.148732364206808 0 0 0 0 3.6698782720684298 -2.4420720477792202 0 -2.4420720477792202 73.029783853082336 0 0 0 0 58.706037411822265 50.797420723072719 0 50.797420723072719 36.370611607017054 0 0 0 0 0.20545391227201087 -10.819120954478421 0 -10.819120954478421 98.264094601450779 0 0 0 0 20.389078452020797 28.229455550404964 0 28.229455550404964 127.93467384790711 0 0 0 0 0.1160705937291787 -0.4461397492185597 0 -0.4461397492185597 0.12846070518202168 0 0 0 0 74.067368998469874 77.887861795868957 0 77.887861795868957 82.817938403699372 0 0 0 0 0.0079287401884587175 0.65355446909234161 0 0.65355446909234161 2.1720302138128318 0 0 0 0 4.1189289310659234 7.9080833760890528 0 7.9080833760890528 10.029023711380432 0 0 0 0 0.76377747159350573 24.829249493762291 0 24.829249493762291 24.811798275753972 0 0 0 0 -34.836556797500066 335.67687562491119 0 335.67687562491119 145.66948089224752 0 0 0 0 21.434156622899046 38.789325191784883 0 38.789325191784883 12.165686845321034 0 0 0 0 4.8991706569305267 20.471599390247889 0 20.471599390247889 31.108821102189566 0 0 0 0 -23.120130209909803 -170.00095581730056 0 -170.00095581730056 165.92893672727223 0 0 0 0 -0.0013795164688977612 4.4581631643157333 0 4.4581631643157333 23.913522227288922 0 0 0 0 1.194403951450103 3.9551964502881205 0 3.9551964502881205 3.7361515406409467 0 0 0 0 -14.987450257473483 -28.258756253628235 0 -28.258756253628235 29.589025218843744 0 0 0 0 22.701619084800541 4.108439643667225 0 4.108439643667225 -4.3055666852305876 0 0 0 0 -0.91737987188116055 -0.31138593319735008 0 -0.31138593319735008 -0.99852526422625942 0 0 0 0 19.335435072206693 -41.755435225226165 0 -41.755435225226165 -57.418173061509151 0 0 0 0 1.1961558171107356 -15.471711217093002 0 -15.471711217093002 26.412684994807933 0 0 0 0 10.693612305251918 -16.337726987727365 0 -16.337726987727365 14.165208670610809 0 0 0 0 -1.6689503907904415 -4.6878684658799088 0 -4.6878684658799088 3.5614702805814034 0 0 0 0 1.4142960944058984 -12.231495121489274 0 -12.231495121489274 26.50947353837546 0 0 0 0 6.4413726487227905 -35.656481871203141 0 -35.656481871203141 21.105588129266835 0 0 0 0 -0.16787452625519217 -4.7397609507697922 0 -4.7397609507697922 -1.7875144877614844 0 0 0 0 -5.0025631173044758 -17.104864155695395 0 -17.104864155695395 7.8834081703389529 0 0 0 0 7.4456742648521868 -21.721222599913744 0 -21.721222599913744 1.9858253922429867 0 0 0 0 21.219928333940516 -26.351063250105653 0 -26.351063250105653 -8.7129671867587604 0 0 0 0 5.06129599106076 -13.683670375903048 0 -13.683670375903048 1.2147423630546683 0 0 0 0 11.345787950790054 -9.2302846245911496 0 -9.2302846245911496 1.3099293076738832 0 0 0 0 -18.924138161373378 -9.1577537734187899 0 -9.1577537734187899 22.358465331766638 0 0 0 0 6.6751994158799537 -13.721151419679572 0 -13.721151419679572 8.5877137721928563 0 0 0 0 1.1860934826012768 -10.553072417059767 0 -10.553072417059767 13.534648527483306 0 0 0 0 -286.91380557371644 -227.39289750600256 0 -227.39289750600256 -216.98119051115464 0 0 0 0 -10.813327746006507 -28.514521408811561 0 -28.514521408811561 1.8977549082828773 0 0 0 0 -4.6264642676947005 -36.430365597356285 0 -36.430365597356285 -27.50252640756662 0 0 0 0 -318.87317419557235 -61.821038220150513 0 -61.821038220150513 -8.8958538360166131 0 0 0 0 2.1894173285654084 -15.75940332994832 0 -15.75940332994832 24.544045099201156 0 0 0 0 -57.164559052341247 -72.926327709679754 0 -72.926327709679754 3.4231678552896483 0 0 0 0 -53.732009872632261 -21.527767904131906 0 -21.527767904131906 1.6555122524296166 0 0 0 0 -1.9633023870464967 -24.239153009191796 0 -24.239153009191796 -16.283551046864886 0 0 0 0 -12.611905898751502 -30.734614968641836 0 -30.734614968641836 -10.8709941705456 0 0 0 0 -22.968457272744672 -10.550590839229699 0 -10.550590839229699 -23.463282739074202 0 0 0 0 3.1990709542451441 -19.990605455444893 0 -19.990605455444893 -12.344898624374764 0 0 0 0 11.374344728561937 -17.131345485846396 0 -17.131345485846396 -2.0922849287558165 0 0 0 0 8.3371062455148603 -37.184335618527257 0 -37.184335618527257 -5.392948816610442 0 0 0 0 -0.97301901683647429 -30.172852509924269 0 -30.172852509924269 -2.7822379421122605 0 0 0 0 -29.414106233567509 -41.950177847546001 0 -41.950177847546001 -2.7760437381948577 0 0 0 0 15.06795368977464 -28.353846753539983 0 -28.353846753539983 -17.040841523543349 0 0 0 0 15.602264534260485 -25.11779961926004 0 -25.11779961926004 -1.1397779663966503 0 0 0 0 35.604666742336121 -9.855660607561731 0 -9.855660607561731 0.048165371278173552 0 0 0 0 35.947997447314378 -10.092612049282252 0 -10.092612049282252 14.1933932696993 0 0 0 0 17.382221598413025 -24.118228429746523 0 -24.118228429746523 5.1355837329319911 0 0 0 0 45.917982251156445 -17.93893842799298 0 -17.93893842799298 6.4630432712456241 0 0 0 0 -19.186382978077518 -47.225395086261415 0 -47.225395086261415 7.1749184604632319 0 0 0 0 3.0306400005565592 -81.235322501925111 0 -81.235322501925111 -36.524272247464978 0 0 0 0 11.116984513470697 -42.963635518106457 0 -42.963635518106457 78.337338695688231 0 0 0 0 -11.755752485052199 -5.0903618821830605 0 -5.0903618821830605 127.27930018278857 0 0 0 0 10.018134936256047 0.54774109327263432 0 0.54774109327263432 -33.214249268174171 0 0 0 0 -35.298279499142154 -34.472142603332031 0 -34.472142603332031 168.40105655892694 0 0 0 0 -3.9391349953136796 -17.944332527160441 0 -17.944332527160441 94.936669974122196 0 0 0 0 3.6196672406576909 -61.469284410499313 0 -61.469284410499313 132.85663742564066 0 0 0 0 -21.498960088269087 -83.210477914071816 0 -83.210477914071816 203.22125970175694 0 0 0 0 54.507519579156224 -93.51440458045181 0 -93.51440458045181 30.935030915687094 0 0 0 0 -0.47585634861161452 -82.058245037103916 0 -82.058245037103916 244.76209235115221 0 0 0 0 -9.7568965479669387 34.644259908873835 0 34.644259908873835 148.27175472806266 0 0 0 0 -3.6739126798302095 -143.50223639034994 0 -143.50223639034994 218.87716330507465 0 0 0 0 37.689800754779753 -13.959825788178932 0 -13.959825788178932 8.1122820934469928 0 0 0 0 -89.86144111029148 -30.328667149155081 0 -30.328667149155081 -8.8386689564795233 0 0 0 0 -0.21486547985374527 -0.17450206405207069 0 -0.17450206405207069 -1.6739512946169555 0 0 0 0 80.953158266048376 -48.895041951876919 0 -48.895041951876919 -59.837976894079475 0 0 0 0 34.899676965385879 -110.89590865645914 0 -110.89590865645914 -10.591425243357662 0 0 0 0 124.4707849227409 -51.557628938800917 0 -51.557628938800917 70.272232508039451 0 0 0 0 6.2207056640565952 -12.281943871254043 0 -12.281943871254043 57.290222626746981 0 0 0 0 78.042930377708558 52.47866650294236 0 52.47866650294236 78.456566546243266 0 0 0 0 88.716982811010325 31.996154817546994 0 31.996154817546994 20.098596711446589 0 0 0 0 36.308256923064278 128.46246543066809 0 128.46246543066809 -29.547904044375173 0 0 0 0 -9.8726295479567057 -22.641425020100542 0 -22.641425020100542 -20.874130231459276 0 0 0 0 0.453924699804229 -0.64080913373352644 0 -0.64080913373352644 -0.037240928119530281 0 0 0 0 0.030218562819527506 -4.9887113591394154 0 -4.9887113591394154 54.025437533062359 0 0 0 0 16.549267504569116 19.194898734898743 0 19.194898734898743 32.222541370152612 0 0 0 0 59.836347552411553 76.193749781647057 0 76.193749781647057 -27.199210492479324 0 0 0 0 65.89221020316063 -35.236730780590733 0 -35.236730780590733 -57.724904316310131 0 0 0 0 40.783306581796637 11.638161755709007 0 11.638161755709007 126.94617156687309 0 0 0 0 63.218288890234476 33.523360751889413 0 33.523360751889413 56.980646050433279 0 0 0 0 49.815997923946497 24.355836283757526 0 24.355836283757526 104.88636414255598 0 0 0 0 16.366349732882554 45.082683900429402 0 45.082683900429402 187.97032589101457 0 0 0 0 0.26904691842923967 7.4870123223081464 0 7.4870123223081464 104.0690660073742 0 0 0 0 16.149736124967603 21.076075629011029 0 21.076075629011029 43.765456582252227 0 0 0 0 41.700249278300362 42.638917481810495 0 42.638917481810495 47.180521411224618 0 0 0 0 2.1073790157258263 -2.5568660834350609 0 -2.5568660834350609 2.8966603034393472 0 0 0 0 -5.9698452158090731 -59.535104103684716 0 -59.535104103684716 37.208149862781283 0 0 0 0 57.968130392995363 -48.053477559806197 0 -48.053477559806197 -96.440131570663652 0 0 0 0 -65.235893419469903 4.5809785777892102 0 4.5809785777892102 52.417772959088325 0 0 0 0 55.552958135242079 -3.347310922210454 0 -3.347310922210454 43.390948308944644 0 0 0 0 9.8660330819984665 29.71822340082872 0 29.71822340082872 182.50008609230281 0 0 0 0 90.537340307426348 13.374119750114914 0 13.374119750114914 -0.81194435408542631 0 0 0 0 13.30500085283802 -58.023926368972752 0 -58.023926368972752 29.585503917158348 0 0 0 0 2.8664013635591346 5.774757207276707 0 5.774757207276707 81.255084033633466 0 0 0 0 29.479859352853737 85.444800674551516 0 85.444800674551516 139.00870124038192 0 0 0 0 52.830140620744032 16.66448828871944 0 16.66448828871944 -82.514305391581729 0 0 0 0 17.378101888550646 30.513330312893231 0 30.513330312893231 44.349732256523566 0 0 0 0 -42.957551771250451 169.9977464513795 0 169.9977464513795 303.7056608427738 0 0 0 0 195.03846394043558 4.780236460181186 0 4.780236460181186 -212.13363869028399 0 0 0 0 134.33798186702006 159.20618712875876 0 159.20618712875876 130.50790110227535 0 0 0 0 439.85160523075092 260.97126230008143 0 260.97126230008143 -262.37636237268453 0 0 0 0 -17.655569759041896 -11.512777038242348 0 -11.512777038242348 14.581206072194618 0 0 0 0 43.65183038541295 -11.330885610630503 0 -11.330885610630503 -27.114661256429827 0 0 0 0 -0.17762365202106833 -0.84288842821691645 0 -0.84288842821691645 1.8545688920531518 0 0 0 0 45.788931018777703 21.877376791002462 0 21.877376791002462 -48.07347810461215 0 0 0 0 2.2255135686425547 55.751147982926341 0 55.751147982926341 -17.616705754131544 0 0 0 0 42.336499943286526 23.249652925900591 0 23.249652925900591 56.845778680330511 0 0 0 0 46.329828614518419 7.5201692083901435 0 7.5201692083901435 -16.800737171739456 0 0 0 0 15.765788575668466 19.620539403524162 0 19.620539403524162 7.3050089962307538 0 0 0 0 0.96643346907157812 1.2746462281737791 0 1.2746462281737791 2.5497597631156452 0 0 0 0 41.44878988582056 2.2718642953450399 0 2.2718642953450399 -4.3767912713956321 0 0 0 0 18.197305138529877 5.7727542654201898 0 5.7727542654201898 7.0499137139122467 0 0 0 0 0.3881594150094419 1.9842545111092598 0 1.9842545111092598 1.5123997386579049 0 0 0 0 3.3307696230529231 7.8560779985236877 0 7.8560779985236877 7.3167335277685197 0 0 0 0 11.255290477549352 12.550249044485099 0 12.550249044485099 8.8882763656756651 0 0 0 0 5.3846599339621832 16.168444591278785 0 16.168444591278785 8.3351247825557948 0 0 0 0 3.7581069336099517 -46.673027524682766 0 -46.673027524682766 -10.61484318964358 0 0 0 0 -20.124816787419036 -6.3379283301856049 0 -6.3379283301856049 13.65642352299983 0 0 0 0 41.704467382481653 -8.8094249372952618 0 -8.8094249372952618 18.214360214165936 0 0 0 0 1.0611813518506699 -0.16631178866644802 0 -0.16631178866644802 1.47761226445445 0 0 0 0 99.437554691326113 1.7819130311872868 0 1.7819130311872868 -29.209699852872291 0 0 0 0 3.0566439880294922 11.22400593275961 0 11.22400593275961 10.350466995165334 0 0 0 0 35.460028463956974 -25.487753395897016 0 -25.487753395897016 16.541928123924208 0 0 0 0 2.7326573274527295 4.7049335787432582 0 4.7049335787432582 8.7598746480031764 0 0 0 0 15.613606551625139 -8.5510512034834392 0 -8.5510512034834392 26.413673446360917 0 0 0 0 11.520324162094539 -17.602867010493355 0 -17.602867010493355 28.694894909007417 0 0 0 0 2.7590298040127337 4.6779634193322437 0 4.6779634193322437 18.995648707376375 0 0 0 0 4.0381102208548327 4.49894771270192 0 4.49894771270192 8.0232659377488744 0 0 0 0 -5.8246043625736661 10.048734532521848 0 10.048734532521848 46.205843724841543 0 0 0 0 -5.2287536078316066 11.988004520258983 0 11.988004520258983 47.274811537907226 0 0 0 0 -7.912553187139066 0.74515376413178558 0 0.74515376413178558 13.339411090424122 0 0 0 0 -6.2850278478185828 22.061932448123116 0 22.061932448123116 48.858947024200461 0 0 0 0 3.0110050879853674 16.708143761250241 0 16.708143761250241 53.910177023526458 0 0 0 0 2.3374155871520088 15.538842369238409 0 15.538842369238409 37.228240484233538 0 0 0 0 2.3818703845727214 11.895663556115323 0 11.895663556115323 19.813763289879716 0 0 0 0 1.9610037666890889 -0.67016197144039324 0 -0.67016197144039324 11.495916867464985 0 0 0 0 15.967038840281646 24.799907288299437 0 24.799907288299437 42.515748712190543 0 0 0 0 -0.28984892293941728 0.46042866554154926 0 0.46042866554154926 0.44235983246483102 0 0 0 0 7.678218540521982 15.88087850690863 0 15.88087850690863 39.226838399925327 0 0 0 0 -3.3395068135053521 9.1425053991570167 0 9.1425053991570167 41.170294563598873 0 0 0 0 3.2831356483955574 21.74334629832083 0 21.74334629832083 39.668212368582317 0 0 0 0 4.3052444092380711 21.671410778712016 0 21.671410778712016 33.790162115510611 0 0 0 0 4.2701375560395149 28.352262296364643 0 28.352262296364643 45.886905613624549 0 0 0 0 -12.26148065981357 2.0128145119020502 0 2.0128145119020502 4.8210654741033778 0 0 0 0 -11.015629731621042 -1.1014011578073308 0 -1.1014011578073308 2.5928859416140995 0 0 0 0 0.84552332788098283 26.931955133346491 0 26.931955133346491 38.490886356368719 0 0 0 0 -0.26255109720784731 17.141327623824509 0 17.141327623824509 26.76503910413885 0 0 0 0 -2.1241500029882445 27.012997901532799 0 27.012997901532799 18.819629805075238 0 0 0 0 -8.7551306417126398 24.68415530339189 0 24.68415530339189 18.004003956877568 0 0 0 0 3.1036183316455208 20.201205224655496 0 20.201205224655496 14.211476828029845 0 0 0 0 -5.1953316031386834 27.322597765072715 0 27.322597765072715 49.173046705669549 0 0 0 0 -4.9780338006759592 19.660186871269616 0 19.660186871269616 47.421440781843557 0 0 0 0 -0.60151469088623344 18.613159417964198 0 18.613159417964198 41.284019882023131 0 0 0 0 -2.0403095574866938 28.640341127356805 0 28.640341127356805 22.23003274481016 0 0 0 0 3.3865345518806862 31.643359551319008 0 31.643359551319008 22.905468644921712 0 0 0 0 -7.0930589202262553 37.702134713745181 0 37.702134713745181 30.469873377500335 0 0 0 0 -6.2381290290600049 32.749971455124978 0 32.749971455124978 28.391594536522462 0 0 0 0 6.7172734136681163 22.594850501198287 0 22.594850501198287 56.696445099561942 0 0 0 0 -97.268563627623735 6.4788817760572783 0 6.4788817760572783 68.963885195047624 0 0 0 0 -153.01192610860994 58.86144044671164 0 58.86144044671164 87.544633038767188 0 0 0 0 -44.859392988544187 -9.2766635404223052 0 -9.2766635404223052 80.933864542501169 0 0 0 0 -68.930440527042265 -26.647571562094527 0 -26.647571562094527 112.07620908421086 0 0 0 0 -41.741410080621336 -14.774272351360651 0 -14.774272351360651 87.735105030260456 0 0 0 0 -49.654217285981758 5.5028716396100208 0 5.5028716396100208 82.020751331401698 0 0 0 0 -21.18912583780093 4.6570813940925291 0 4.6570813940925291 79.212781536391049 0 0 0 0 -12.789928649904596 -20.829900542776159 0 -20.829900542776159 64.886162753748067 0 0 0 0 -14.479260642609916 -51.103301432456647 0 -51.103301432456647 100.68843912438751 0 0 0 0 -25.460822812400238 -44.808860353336058 0 -44.808860353336058 97.244337582968001 0 0 0 0 -8.7537630703045579 -42.811264697887964 0 -42.811264697887964 76.786002066161018 0 0 0 0 -29.623707137526708 -26.884003923802084 0 -26.884003923802084 77.844562069090898 0 0 0 0 3.9483216855410319 -12.250152709046233 0 -12.250152709046233 26.419176949741086 0 0 0 0 2.5125603956118825 -22.810876415050387 0 -22.810876415050387 15.265269345206264 0 0 0 0 0.040223200747050214 -48.677857993858197 0 -48.677857993858197 38.087494083563797 0 0 0 0 0.25805553354439326 -52.024204625315178 0 -52.024204625315178 52.360705504659563 0 0 0 0 8.6527263650550594 -66.648845058043662 0 -66.648845058043662 62.776563171275484 0 0 0 0 0.45487003593753439 -16.799270617007224 0 -16.799270617007224 27.828460763614622 0 0 0 0 9.1834970598282553 -13.827747646995704 0 -13.827747646995704 26.286217582586687 0 0 0 0 5.2573793032001959 -15.788458538045234 0 -15.788458538045234 26.429476225897588 0 0 0 0 1.7627948926480113 -4.2406862156432474 0 -4.2406862156432474 11.066276545877443 0 0 0 0 564.84458911987247 457.07024365087091 0 457.07024365087091 172.83192051884544 0 0 0 0 -495.35233900868991 -224.72468216668312 0 -224.72468216668312 -90.547164484760287 0 0 0 0 -4.9271695374522206 -7.9951218057050113 0 -7.9951218057050113 6.9755906073078933 0 0 0 0 206.57817648163663 406.72625220099053 0 406.72625220099053 595.72610746123246 0 0 0 0 -0.7464505275362745 -14.930395993068732 0 -14.930395993068732 7.3447328976284609 0 0 0 0 3.0844846134032196 -20.351500892869808 0 -20.351500892869808 11.305749091690814 0 0 0 0 5.42753351788906 -19.275104101805482 0 -19.275104101805482 11.768278510659002 0 0 0 0 -1.7662686126022407 -14.797340568524113 0 -14.797340568524113 -4.6998602404014065 0 0 0 0 12.225623798429638 -29.534685084870034 0 -29.534685084870034 25.555065403292247 0 0 0 0 84.755942588244579 -85.298458235229191 0 -85.298458235229191 3.6306911919054983 0 0 0 0 8.6808648003443523 -64.807366255452507 0 -64.807366255452507 91.873088046035264 0 0 0 0 4.1583273549103978 -8.9286169621791487 0 -8.9286169621791487 1.811459491502319 0 0 0 0 -2.7689420081839637 -13.688347218782791 0 -13.688347218782791 3.793121955859462 0 0 0 0 1.1223665246902872 -1.7821522913405587 0 -1.7821522913405587 -2.0842330685976123 0 0 0 0 36.782003068992083 -61.867549890044756 0 -61.867549890044756 78.151248147987644 0 0 0 0 -0.37984265643605308 -4.7114353921163072 0 -4.7114353921163072 0.17911438693604964 0 0 0 0 31.354028777293934 -85.238040929743875 0 -85.238040929743875 135.07559289806522 0 0 0 0 61.452145558651409 -81.156558471488097 0 -81.156558471488097 83.567467763947207 0 0 0 0 33.046656582301694 -48.907580996390607 0 -48.907580996390607 90.055659367854787 0 0 0 0 5.5519360839994079 -62.073158961589797 0 -62.073158961589797 98.808236423137714 0 0 0 0 14.650150662618671 -81.075607728707837 0 -81.075607728707837 108.61283445783192 0 0 0 0 -13.854206455934218 -50.76615226802096 0 -50.76615226802096 98.829474605903442 0 0 0 0 42.115019881029639 -98.964730880019488 0 -98.964730880019488 110.02798116060148 0 0 0 0 70.759805703896291 -87.895397582677106 0 -87.895397582677106 77.903362095355988 0 0 0 0 33.221495663085989 -75.814970157836797 0 -75.814970157836797 82.571104105209088 0 0 0 0 61.733589663477687 -89.55596418940695 0 -89.55596418940695 100.76318778630593 0 0 0 0 61.527517745429577 -89.541095201362623 0 -89.541095201362623 111.47816887040062 0 0 0 0 65.638720740314511 -94.805808720917412 0 -94.805808720917412 117.79886777665524 0 0 0 0 108.29687968826602 -129.42464323389868 0 -129.42464323389868 118.23604334561969 0 0 0 0 -1.3897644566468164 -0.038398215039499917 0 -0.038398215039499917 0.31150272661685108 0 0 0 0 -913.06254562040795 21.322050496204611 0 21.322050496204611 911.24854919756763 0 0 0 0 955.37889192603348 -241.89803086728716 0 -241.89803086728716 -752.47497749366448 0 0 0 0 69.116213024122544 -206.31566739349364 0 -206.31566739349364 463.69134515518999 0 0 0 0 -94.167104853198339 -36.845409127417952 0 -36.845409127417952 -72.483291878466844 0 0 0 0 83.266515455059562 412.52376839801946 0 412.52376839801946 -388.1737206407779 0 0 0 0 -5.1734722507088406 -2.7273167730131078 0 -2.7273167730131078 4.1457641114163266 0 0 0 0 87.312748673474744 -101.76555553632352 0 -101.76555553632352 93.169209321633389 0 0 0 0 107.64825379071954 -104.69429043807031 0 -104.69429043807031 93.582195031254741 0 0 0 0 81.113014968739208 -120.52668285658729 0 -120.52668285658729 114.05075597846735 0 0 0 0 87.20726872942339 -101.6668359063633 0 -101.6668359063633 101.30468915231177 0 0 0 0 52.210115296385993 -100.83833016189965 0 -100.83833016189965 106.98480814107461 0 0 0 0 30.999074270174788 -151.2081532443226 0 -151.2081532443226 207.14876969581019 0 0 0 0 116.64126036060406 -136.04713208397516 0 -136.04713208397516 110.19306897237857 0 0 0 0 117.75423684726275 -119.67900880200978 0 -119.67900880200978 84.01993884867079 0 0 0 0 111.86502209730133 -108.15084500179 0 -108.15084500179 91.133187199870008 0 0 0 0 -39.432288997368687 -72.728892042403459 0 -72.728892042403459 127.83592353984568 0 0 0 0 5.6640090533719558 -63.460511894194497 0 -63.460511894194497 101.26672517084262 0 0 0 0 50.383764857151618 -105.96512119860563 0 -105.96512119860563 120.24883377919105 0 0 0 0 11.759838540771284 -90.602678441431635 0 -90.602678441431635 118.56595300190384 0 0 0 0 -32.376089749099265 -81.122398289753619 0 -81.122398289753619 143.14367312013383 0 0 0 0 -23.251679040012732 -57.641151873045601 0 -57.641151873045601 108.92646061135383 0 0 0 0 -119.51631550295497 -12.982277998584323 0 -12.982277998584323 172.92465197484125 0 0 0 0 -67.707197630702694 -65.682541110097191 0 -65.682541110097191 161.67182626442082 0 0 0 0 14.65817727466424 -76.877222310225989 0 -76.877222310225989 178.06696352232757 0 0 0 0 -1.3928693927373388 -89.584707201287529 0 -89.584707201287529 501.81704849066591 0 0 0 0 -70.566444582814938 -55.466479121353586 0 -55.466479121353586 229.4109466560476 0 0 0 0 -111.1390449341061 -21.188273689689595 0 -21.188273689689595 259.29106131270964 0 0 0 0 -15.842318646465174 75.990805627337977 0 75.990805627337977 124.98599909376571 0 0 0 0 55.215536884005814 -82.844261054907292 0 -82.844261054907292 188.27377228776459 0 0 0 0 -213.80085427542804 38.836130636051166 0 38.836130636051166 129.32300659192333 0 0 0 0 -141.89140521609306 78.786039057980815 0 78.786039057980815 106.28843509456237 0 0 0 0 -132.65026963417108 102.0743983362845 0 102.0743983362845 -55.809985787094774 0 0 0 0 -61.064208619039732 -1.7500894080985745 0 -1.7500894080985745 93.159555321821244 0 0 0 0 -180.12424561700232 80.056392918353595 0 80.056392918353595 160.84805755614798 0 0 0 0 -180.97689859751699 142.24809938566432 0 142.24809938566432 94.596140464273049 0 0 0 0 -216.65088702851199 84.469225538841783 0 84.469225538841783 4.4802245302635129 0 0 0 0 -136.36215771798129 287.24542273200859 0 287.24542273200859 -50.649982251779875 0 0 0 0 9.7551684501576226 28.193367934764034 0 28.193367934764034 65.116067379199649 0 0 0 0 -324.36460312861936 260.35782772773746 0 260.35782772773746 21.803439985284058 0 0 0 0 -346.39421964697999 263.08892991356515 0 263.08892991356515 59.894042460226046 0 0 0 0 -105.52138279425162 57.381882012607093 0 57.381882012607093 -60.064133345764503 0 0 0 0 -236.07651560240697 267.21689991045059 0 267.21689991045059 -72.497968363907603 0 0 0 0 9.47679570683108 27.87695664030916 0 27.87695664030916 64.583379869206652 0 0 0 0 234.75971763114217 137.20096681428754 0 137.20096681428754 -44.250288609226118 0 0 0 0 8.460357014181568 0.060121795584564097 0 0.060121795584564097 -9.8553991634398699 0 0 0 0 7.7696305063808495 -3.3982502668004599 0 -3.3982502668004599 -27.167824708296394 0 0 0 0 0.77405769642847932 0.99784327374148063 0 0.99784327374148063 2.1856568992208452 0 0 0 0 309.82240452929705 45.361207056983403 0 45.361207056983403 62.453888965726946 0 0 0 0 187.81516146651529 214.45939435750915 0 214.45939435750915 103.72244865132234 0 0 0 0 15.420529038132145 211.78640413841458 0 211.78640413841458 56.53237965448352 0 0 0 0 113.01074157644894 100.48347435013056 0 100.48347435013056 -37.181333493062994 0 0 0 0 233.77249524333524 172.28710891171067 0 172.28710891171067 -114.5595229534847 0 0 0 0 -94.931629939123042 59.769532584919489 0 59.769532584919489 80.698003370154765 0 0 0 0 17.570003517627129 15.29580106936919 0 15.29580106936919 -42.526111222490727 0 0 0 0 15.777654757939018 17.159802116447281 0 17.159802116447281 -20.426577557751443 0 0 0 0 16.649929653678953 29.02341413355316 0 29.02341413355316 -31.292446998835658 0 0 0 0 13.727680012907229 28.773413721002726 0 28.773413721002726 -23.332908795120602 0 0 0 0 4.8570361053743056 50.08901580750171 0 50.08901580750171 -34.265212244531995 0 0 0 0 24.828012421676704 25.255069647646451 0 25.255069647646451 -35.64113403868032 0 0 0 0 -38.187342406823518 111.8916842190738 0 111.8916842190738 -53.573658553825226 0 0 0 0 66.22808173867918 68.401470840126422 0 68.401470840126422 -76.503877341936459 0 0 0 0 -257.87196119424073 182.89448519442431 0 182.89448519442431 46.035320451865118 0 0 0 0 8.3761812971868146 25.80366983882427 0 25.80366983882427 62.342870761056929 0 0 0 0 -14.803437253622683 53.918985484076074 0 53.918985484076074 20.524419763911283 0 0 0 0 3.1263675921370577 33.542321850032749 0 33.542321850032749 10.460237179519027 0 0 0 0 5.6821173651159143 43.167185531857285 0 43.167185531857285 0.15157803592592245 0 0 0 0 7.8685789452551944 28.731350340240169 0 28.731350340240169 1.8263758224566118 0 0 0 0 10.543836103397325 28.925682052742559 0 28.925682052742559 1.8404892723192461 0 0 0 0 13.316149714261769 29.948315801422723 0 29.948315801422723 -6.5628891576998285 0 0 0 0 13.877604163147112 28.232339858561318 0 28.232339858561318 -22.195083949321997 0 0 0 0 -7.3429721701559174 15.275487392278592 0 15.275487392278592 12.057249601977674 0 0 0 0 6.8985870782748862 23.414337209156656 0 23.414337209156656 -3.0266930744910496 0 0 0 0 7.1207766827692467 28.599905723320262 0 28.599905723320262 10.794023461618053 0 0 0 0 8.8796192331901693 26.229684724121398 0 26.229684724121398 -2.4630754692552728 0 0 0 0 6.7784384962960758 28.157037364937423 0 28.157037364937423 -1.528526539394079 0 0 0 0 9.8515152485349518 18.193787516218435 0 18.193787516218435 -4.1366205000522314 0 0 0 0 43.930407941145859 26.603114990994072 0 26.603114990994072 -89.406582347379299 0 0 0 0 12.053881835500691 9.6282903534196507 0 9.6282903534196507 5.586780075470358 0 0 0 0 8.5628846438935877 8.8125280591694235 0 8.8125280591694235 8.2520879495489652 0 0 0 0 50.490183968149722 31.347676415912247 0 31.347676415912247 14.830035762439365 0 0 0 0 2.0923712052966703 -1.4939687067453491 0 -1.4939687067453491 1.2631984448045586 0 0 0 0 -40.952373303112381 37.827834347364842 0 37.827834347364842 237.1397490702293 0 0 0 0 5.4445950315444449 4.2786936688587645 0 4.2786936688587645 3.34570400911619 0 0 0 0 -18.586324949420231 128.34500258831349 0 128.34500258831349 351.69177692776429 0 0 0 0 -71.881123911120085 -378.00777874073538 0 -378.00777874073538 120.99888030600414 0 0 0 0 62.901004624622374 4.0700514158797887 0 4.0700514158797887 -36.546009297999262 0 0 0 0 32.595599833933647 -29.562681864870683 0 -29.562681864870683 -32.281132923533733 0 0 0 0 42.615606695815586 -14.884724321975227 0 -14.884724321975227 -11.663466518570203 0 0 0 0 21.848651332864392 5.2695646683605446 0 5.2695646683605446 0.23038038327649701 0 0 0 0 35.911366550631101 0.23419645925605437 0 0.23419645925605437 1.3707895320912939 0 0 0 0 11.820858101609474 19.692767734071822 0 19.692767734071822 -13.902546780453122 0 0 0 0 12.283387958889875 16.075716011919212 0 16.075716011919212 -5.3088506766944192 0 0 0 0 12.155917158520879 13.067059978220641 0 13.067059978220641 -24.848840633250802 0 0 0 0 12.312446372466638 22.373489944526227 0 22.373489944526227 -1.502032720833995 0 0 0 0 12.930051604123712 9.4726525466027169 0 9.4726525466027169 7.0490285954777221 0 0 0 0 40.284535225972377 7.4929357714499929 0 7.4929357714499929 -37.062089099199511 0 0 0 0 -33.809211964143287 -38.83675536336159 0 -38.83675536336159 64.078761555007077 0 0 0 0 0.8784061012715938 50.855912704364528 0 50.855912704364528 -14.6207107170776 0 0 0 0 7.487654152511027 0.86895811145222979 0 0.86895811145222979 -5.0718841358201416 0 0 0 0 34.6660275887034 67.617953020926507 0 67.617953020926507 -43.997215265844716 0 0 0 0 9.6914214369279481 5.9758584538256514 0 5.9758584538256514 4.3626415571953174 0 0 0 0 84.788209938634282 3.3682064742315561 0 3.3682064742315561 -5.6376208082238009 0 0 0 0 61.955212079680678 69.671250046500063 0 69.671250046500063 16.692037963133771 0 0 0 0 26.903270954396248 13.027415800688686 0 13.027415800688686 -63.525148270899081 0 0 0 0 -98.726758188918211 57.839443515709718 0 57.839443515709718 220.95057550691126 0 0 0 0 128.93459222587444 86.408710378986143 0 86.408710378986143 13.648951684968779 0 0 0 0 146.87136714218332 37.362908829643857 0 37.362908829643857 -11.099712623254163 0 0 0 0 0.32876387341965874 1.0428660996873376 0 1.0428660996873376 2.3234230176300059 0 0 0 0 109.65881189977017 -43.832691085146507 0 -43.832691085146507 -2.9042476815084228 0 0 0 0 9.8232361168729767 -0.27737458228511969 0 -0.27737458228511969 92.753919505528756 0 0 0 0 2.9728328843928011 -26.694743225103593 0 -26.694743225103593 21.370248096398427 0 0 0 0 33.198991800253452 25.546643180206956 0 25.546643180206956 69.227363351936219 0 0 0 0 47.880674872386862 16.117533779388395 0 16.117533779388395 -22.125278157007415 0 0 0 0 0.067513795895592921 -79.640632021841157 0 -79.640632021841157 -43.971477123051955 0 0 0 0 162.32267764931157 -26.604053485130862 0 -26.604053485130862 -82.903079350187909 0 0 0 0 94.77116503754587 72.630797805453767 0 72.630797805453767 44.233989176762407 0 0 0 0 21.548323961882488 -0.20189018237579148 0 -0.20189018237579148 7.0917771042950335 0 0 0 0 16.541811582538116 1.4208567435844088 0 1.4208567435844088 6.5695104042388266 0 0 0 0 17.067300208225788 -4.1459681051528605 0 -4.1459681051528605 26.345103226212814 0 0 0 0 13.041792338287905 -36.683345950572402 0 -36.683345950572402 -9.0655754592007725 0 0 0 0 18.402379042764096 -25.925561122116051 0 -25.925561122116051 12.312481216387823 0 0 0 0 19.193789934141932 -1.9145746596859681 0 -1.9145746596859681 21.632507521469961 0 0 0 0 23.375291984271371 12.513599006280856 0 12.513599006280856 18.35736036614253 0 0 0 0 -0.25054808475169921 14.831075566386062 0 14.831075566386062 18.395824851904763 0 0 0 0 -27.559939200124063 4.5245854356107884 0 4.5245854356107884 40.650123603922111 0 0 0 0 8.7065794548154827 -0.40391877187539649 0 -0.40391877187539649 36.334812985907774 0 0 0 0 8.4002508616622436 -4.3235629856426385 0 -4.3235629856426385 21.151191165197815 0 0 0 0 -45.510604350420635 -29.51897046938393 0 -29.51897046938393 42.366602097494251 0 0 0 0 -57.722994794470651 24.923366343435191 0 24.923366343435191 26.931156839083997 0 0 0 0 -27.500326662930547 42.515729982667835 0 42.515729982667835 0.088650557649089023 0 0 0 0 -4.990521252283088 31.120327342521705 0 31.120327342521705 5.2064363512472482 0 0 0 0 339.62649115352906 172.60536290458731 0 172.60536290458731 58.273840149660828 0 0 0 0 -0.094933874087338666 -0.50450565464839769 0 -0.50450565464839769 4.5569882517688995 0 0 0 0 57.043262830737149 -34.761299330872134 0 -34.761299330872134 25.860632695650565 0 0 0 0 31.872784590791071 0.14093353021598887 0 0.14093353021598887 -6.233894603439694 0 0 0 0 62.393914005599981 4.2732180893362965 0 4.2732180893362965 -19.772696317850205 0 0 0 0 117.71304741434096 -10.021840222343599 0 -10.021840222343599 -19.326366731769667 0 0 0 0 44.944255832531553 -93.443639283894299 0 -93.443639283894299 65.632009009263129 0 0 0 0 0.34720673339663044 -0.14410149693570418 0 -0.14410149693570418 1.4424688303198252 0 0 0 0 358.17833470839446 220.89552829189961 0 220.89552829189961 171.37393092950515 0 0 0 0 248.72442526741497 121.24075037809598 0 121.24075037809598 102.86627351706557 0 0 0 0 225.4784929211786 159.65626608647653 0 159.65626608647653 117.67680595950515 0 0 0 0 240.9047523945369 153.7630957590809 0 153.7630957590809 115.82408024646611 0 0 0 0 125.90830532609698 136.40549540985012 0 136.40549540985012 120.73969369369297 0 0 0 0 239.70659078385242 120.53160938870826 0 120.53160938870826 66.766521119323443 0 0 0 0 96.519557791575494 60.14592389903828 0 60.14592389903828 79.488248828260112 0 0 0 0 159.26133347253744 114.60128742429515 0 114.60128742429515 64.002652187549756 0 0 0 0 -32.697041688248646 120.33462218712157 0 120.33462218712157 159.18227625464533 0 0 0 0 -148.67641267707836 88.907318734260116 0 88.907318734260116 120.94491944189213 0 0 0 0 -173.73315609934048 16.616694279222429 0 16.616694279222429 156.97832929677315 0 0 0 0 -169.79449940637096 51.17949753501307 0 51.17949753501307 53.842421265469056 0 0 0 0 -86.221686110069641 28.430202539559104 0 28.430202539559104 91.155468847020529 0 0 0 0 -48.714776524652279 133.50723060519886 0 133.50723060519886 71.461379576143372 0 0 0 0 -274.03637529804337 195.58019326813155 0 195.58019326813155 24.011235733509238 0 0 0 0 -202.39371374396865 52.203752350715149 0 52.203752350715149 69.468927707581315 0 0 0 0 -94.795069410201819 84.977467159578737 0 84.977467159578737 128.52383475854003 0 0 0 0 -92.939128794437238 151.51930925035049 0 151.51930925035049 -51.566672878740064 0 0 0 0 115.7486497664172 75.034089178210706 0 75.034089178210706 20.141376361756556 0 0 0 0 187.13812350621174 27.634868663648376 0 27.634868663648376 83.274407718094153 0 0 0 0 320.41728440908537 30.066348347179883 0 30.066348347179883 76.363172532644967 0 0 0 0 369.75235032182354 204.35646089747024 0 204.35646089747024 95.419983724790654 0 0 0 0 117.33578292087057 96.489103006540518 0 96.489103006540518 236.56819021471892 0 0 0 0 564.09328056677714 -11.386010536414688 0 -11.386010536414688 75.113203620603599 0 0 0 0 -0.10112240377888604 0.24953431769770873 0 0.24953431769770873 7.2545913730558027 0 0 0 0 249.91794551329303 244.45696528735425 0 244.45696528735425 199.82029777060234 0 0 0 0 -133.59545160481798 -57.504031441893858 0 -57.504031441893858 83.111050073915976 0 0 0 0 235.89017711798215 143.1737227350859 0 143.1737227350859 88.632542691804701 0 0 0 0 0.18887042951265531 0.13509528890027411 0 0.13509528890027411 1.8986508206311896 0 0 0 0 381.46958674830762 121.04921292086874 0 121.04921292086874 46.317085661517922 0 0 0 0 256.03052913051397 137.10320878055063 0 137.10320878055063 88.685951626917813 0 0 0 0 259.24523238714357 121.64723254908722 0 121.64723254908722 26.819583085132763 0 0 0 0 238.45434909520145 132.30173890087462 0 132.30173890087462 57.067274233053467 0 0 0 0 158.69841444276881 116.33021320686021 0 116.33021320686021 92.941210979457537 0 0 0 0 131.28800474586387 96.567585375341878 0 96.567585375341878 48.438670321491372 0 0 0 0 -4.2645368122234686 46.66757159451754 0 46.66757159451754 77.347195533911872 0 0 0 0 8.734551505958347 -7.1963572727472638 0 -7.1963572727472638 32.650003260918311 0 0 0 0 0.040048066128591714 -12.954840718630294 0 -12.954840718630294 45.437922720557253 0 0 0 0 8.5622716278845346 -19.821737254380423 0 -19.821737254380423 25.679333677275281 0 0 0 0 5.6508186315408864 -14.269175242698111 0 -14.269175242698111 36.549576955494558 0 0 0 0 25.444437804377756 -10.730721375837675 0 -10.730721375837675 33.708863586150983 0 0 0 0 5.0277957142348306 2.5401205386697256 0 2.5401205386697256 67.157992584659951 0 0 0 0 -0.071476092682389747 -6.1126965815842027 0 -6.1126965815842027 103.03444711896009 0 0 0 0 8.9871665913525209 4.4228696397804015 0 4.4228696397804015 66.249677733816497 0 0 0 0 -8.6546286938103822 -9.5422691746352939 0 -9.5422691746352939 101.71891464207874 0 0 0 0 -11.585471639062089 -4.7643793813176671 0 -4.7643793813176671 142.96645567513042 0 0 0 0 17.409932616447559 26.705759729553392 0 26.705759729553392 118.66302734155761 0 0 0 0 65.065584109263142 7.7987392715440365 0 7.7987392715440365 53.441209644690389 0 0 0 0 -23.724153785676606 8.4727926933701383 0 8.4727926933701383 166.18744221476663 0 0 0 0 -11.06272360500202 54.00282189169593 0 54.00282189169593 102.40602629406203 0 0 0 0 -37.032486987603477 -20.414774988837962 0 -20.414774988837962 116.53320473576605 0 0 0 0 20.187378444549353 -44.943574923890992 0 -44.943574923890992 100.47576804766868 0 0 0 0 -27.733846427050651 6.5486084117655992 0 6.5486084117655992 45.354274203447858 0 0 0 0 17.779561793370036 -9.2831030999259383 0 -9.2831030999259383 24.2997541932491 0 0 0 0 -23.202810255525833 -25.616523767064791 0 -25.616523767064791 51.431129965646505 0 0 0 0 7.2241898682846539 -10.163533704188012 0 -10.163533704188012 54.805725795705257 0 0 0 0 9.946928377612906 -19.457576747034182 0 -19.457576747034182 19.916116359294392 0 0 0 0 -8.6789743658731027 -31.229253725825401 0 -31.229253725825401 23.630702189180852 0 0 0 0 -15.285526019441704 -17.229446127657866 0 -17.229446127657866 17.756419598576031 0 0 0 0 0.36846045739053251 -2.1328194896625927 0 -2.1328194896625927 19.961128748592387 0 0 0 0 -7.038649357117265 -5.9915892762437579 0 -5.9915892762437579 23.384255906879844 0 0 0 0 -50.993129989932072 -33.100397463462286 0 -33.100397463462286 21.87615649230429 0 0 0 0 0.66668919977627472 -3.330354406150434 0 -3.330354406150434 23.635936226776806 0 0 0 0 -80.514670120006031 -22.931555046190624 0 -22.931555046190624 74.193837885184621 0 0 0 0 6.5431868492692047 -3.8318424332355789 0 -3.8318424332355789 16.35329536608333 0 0 0 0 -16.075629921204069 34.712308170903725 0 34.712308170903725 197.27073791966541 0 0 0 0 -14.491774448740216 42.85471160657471 0 42.85471160657471 23.119271437753923 0 0 0 0 -20.788896434342632 -45.10678985310733 0 -45.10678985310733 167.82916089157516 0 0 0 0 -12.541675645861233 -48.673145760942134 0 -48.673145760942134 54.78161086511318 0 0 0 0 32.251571839555822 -27.945554523510509 0 -27.945554523510509 33.39274608319829 0 0 0 0 -29.958898848496275 -2.4375292819786409 0 -2.4375292819786409 -1.0640435514505953 0 0 0 0 22.023730939655934 -138.01231549990734 0 -138.01231549990734 12.271268811484333 0 0 0 0 0.63178878291111884 -3.4450648079997919 0 -3.4450648079997919 36.877723562198412 0 0 0 0 -106.01908964327382 10.839259710071929 0 10.839259710071929 71.856790782032476 0 0 0 0 0.84247284836131719 -3.5444402011896941 0 -3.5444402011896941 2.5000015669351114 0 0 0 0 -64.894532335517823 -43.459334403745743 0 -43.459334403745743 106.93639533268288 0 0 0 0 -21.329798640431477 -15.117528148082783 0 -15.117528148082783 61.475885932464735 0 0 0 0 -125.00022975519332 50.053869912289883 0 50.053869912289883 110.57159334962489 0 0 0 0 68.244386056679105 121.10815378658299 0 121.10815378658299 98.900063677185244 0 0 0 0 0.60884819648845223 3.082172148004247 0 3.082172148004247 39.8547318724668 0 0 0 0 12.752761937178619 -7.6095553463737815 0 -7.6095553463737815 16.320484771560587 0 0 0 0 19.009670541089918 -1.9886243089822528 0 -1.9886243089822528 5.0897211300543859 0 0 0 0 13.552948286025867 2.4021426683075333 0 2.4021426683075333 1.9070230215875199 0 0 0 0 1.1329033863769971 2.2880641520031393 0 2.2880641520031393 12.521547692154058 0 0 0 0 1.884035867064199 4.1724718364457658 0 4.1724718364457658 23.186263130253792 0 0 0 0 14.065139262458075 1.4392266310096602 0 1.4392266310096602 2.9073655866086483 0 0 0 0 12.13444536286579 3.7682927656496759 0 3.7682927656496759 2.6099786790437065 0 0 0 0 9.1313823697596028 7.5698587990761581 0 7.5698587990761581 6.4882860689368727 0 0 0 0 7.9971653878346842 1.6954203626228264 0 1.6954203626228264 14.131955013050174 0 0 0 0 3.5502537009704156 6.1608850380835065 0 6.1608850380835065 9.3059707604261348 0 0 0 0 -2.9393583290833476 8.4831588200631813 0 8.4831588200631813 57.08899152892991 0 0 0 0 16.550837815703289 2.4867973417422036 0 2.4867973417422036 58.931436097584083 0 0 0 0 69.794052090163973 -74.524108847974276 0 -74.524108847974276 53.786864632871584 0 0 0 0 63.244251401422162 37.64774117854904 0 37.64774117854904 37.982897399298963 0 0 0 0 -0.036969158595821505 0.098230209071939356 0 0.098230209071939356 4.3628295278368796 0 0 0 0 -136.56991888158336 105.86329096640839 0 105.86329096640839 322.49718342869892 0 0 0 0 485.35189867582176 226.40037146236864 0 226.40037146236864 -118.33672001515515 0 0 0 0 -44.915014258192286 -35.000021115453819 0 -35.000021115453819 37.450356686291343 0 0 0 0 6.7941425853131445 -4.4201366150556112 0 -4.4201366150556112 2.7173992448229995 0 0 0 0 16.596916380561197 -3.78674522741494 0 -3.78674522741494 5.6733102187645272 0 0 0 0 15.822186342313898 -2.9826008928084775 0 -2.9826008928084775 5.6136202303750906 0 0 0 0 19.859787579189287 -2.2021598707942758 0 -2.2021598707942758 1.4981443719261733 0 0 0 0 22.405239836553392 -0.37615384738819557 0 -0.37615384738819557 4.7570634956355207 0 0 0 0 13.631572008391231 -4.5448741094296565 0 -4.5448741094296565 5.4819256002010661 0 0 0 0 19.240337714153611 -4.7333978495444171 0 -4.7333978495444171 0.58796726867149118 0 0 0 0 10.330041835875818 -9.7554613604479528 0 -9.7554613604479528 -0.56820154987508431 0 0 0 0 1.1362742076235008 -2.6906083485009731 0 -2.6906083485009731 17.319673912665166 0 0 0 0 21.110298390179196 -12.352425848053826 0 -12.352425848053826 0.052872848737024469 0 0 0 0 72.126958703023774 38.891260604716081 0 38.891260604716081 -5.6484903961063537 0 0 0 0 19.478135504994043 -7.4024221936670074 0 -7.4024221936670074 -14.712068488646764 0 0 0 0 63.567866256234993 -18.598770378142945 0 -18.598770378142945 -97.879973723232979 0 0 0 0 6.1076047266187743 -28.176624038002046 0 -28.176624038002046 -12.15883912712161 0 0 0 0 9.5333531817987023 -18.752852627862012 0 -18.752852627862012 -12.133043978872593 0 0 0 0 28.787738414463092 3.0926113431632984 0 3.0926113431632984 -25.690826827696583 0 0 0 0 28.503340559874232 6.5763218303982285 0 6.5763218303982285 -12.261976953217527 0 0 0 0 16.260665117391 25.863329249557864 0 25.863329249557864 23.882134932442568 0 0 0 0 6.4082571207329835 24.939425288084408 0 24.939425288084408 31.331162697286345 0 0 0 0 16.399351083362887 35.949251681161712 0 35.949251681161712 36.022488428076031 0 0 0 0 6.0842203848915233 16.295030566605419 0 16.295030566605419 24.912175693797963 0 0 0 0 21.543122852760462 -188.60700823798834 0 -188.60700823798834 -197.20018025494574 0 0 0 0 3.0849901329579552 71.771759079347248 0 71.771759079347248 183.16388303874555 0 0 0 0 2.7134260153379177 1.2268093226559813 0 1.2268093226559813 0.54737200948937925 0 0 0 0 199.01560946093559 179.01335374325572 0 179.01335374325572 -141.72326095914116 0 0 0 0 44.180497223908787 -47.990420302281564 0 -47.990420302281564 -138.04930604145193 0 0 0 0 87.242315944016809 35.058552704518661 0 35.058552704518661 31.548894203224336 0 0 0 0 92.736847670499628 98.586268392376951 0 98.586268392376951 51.826311364813591 0 0 0 0 64.142277213340094 100.19952954063774 0 100.19952954063774 391.82429026364116 0 0 0 0 227.7384878511898 -258.2111362817468 0 -258.2111362817468 -58.700216438533971 0 0 0 0 -0.052227445643682202 0.19038438687994841 0 0.19038438687994841 -0.36230856640804632 0 0 0 0 70.795739890567347 -18.991581524584035 0 -18.991581524584035 269.68621477221313 0 0 0 0 -124.13741662552957 -330.67381677822414 0 -330.67381677822414 -46.641953086014837 0 0 0 0 133.83961182766234 111.6590871913213 0 111.6590871913213 -331.3733814083098 0 0 0 0 0.26692833287458662 -1.1090611580961962 0 -1.1090611580961962 1.5869121201515668 0 0 0 0 1.5642787037296337 -9.8475303351339356 0 -9.8475303351339356 50.844808994542632 0 0 0 0 -42.082223228455476 15.483137018573871 0 15.483137018573871 65.140953661029926 0 0 0 0 -180.30317762544109 -73.342463350236358 0 -73.342463350236358 435.52475231741118 0 0 0 0 83.598469990918375 56.567786158617309 0 56.567786158617309 -27.54785968826036 0 0 0 0 -92.152390928153181 -266.96668759587919 0 -266.96668759587919 -434.62598135828739 0 0 0 0 -7.3976294169045502 -22.397446293315625 0 -22.397446293315625 54.627747666425421 0 0 0 0 -22.662452404702648 16.093755900172255 0 16.093755900172255 81.441450716025429 0 0 0 0 0.49096753512137981 -0.60268744828208298 0 -0.60268744828208298 13.006511742685021 0 0 0 0 0.063655963998309639 -7.2587641222824004 0 -7.2587641222824004 51.02315023659412 0 0 0 0 -7.0706528723344491 -14.754519594844169 0 -14.754519594844169 69.29893653432373 0 0 0 0 -2.7316632827324003 -3.4478402756976578 0 -3.4478402756976578 7.6519976535149681 0 0 0 0 60.365125224119311 -63.416819208359811 0 -63.416819208359811 -59.092913518641581 0 0 0 0 1.4673807179895562 -3.349060945096241 0 -3.349060945096241 -1.0439456028987308 0 0 0 0 -32.202510121118166 -32.851216217597539 0 -32.851216217597539 -12.643217707256554 0 0 0 0 -13.015066540713633 -57.395059192094777 0 -57.395059192094777 -78.350694436012418 0 0 0 0 2.9905522085121343 -2.2202204243751567 0 -2.2202204243751567 18.359132066582276 0 0 0 0 94.766168846385654 -39.232458247832255 0 -39.232458247832255 -142.00265191161679 0 0 0 0 9.9489178245841643 -5.5003357380450666 0 -5.5003357380450666 4.3063744775245851 0 0 0 0 -87.550811146558544 39.687761292567302 0 39.687761292567302 28.161047738922207 0 0 0 0 -17.762935023349655 -12.358364999588957 0 -12.358364999588957 15.346864201354038 0 0 0 0 -2.2923238120859253 -6.953872110062548 0 -6.953872110062548 29.196172560288687 0 0 0 0 -14.236176623193145 -24.982546910766359 0 -24.982546910766359 22.973230295334361 0 0 0 0 2.2911940663380221 -7.6143867748159657 0 -7.6143867748159657 26.168613185111383 0 0 0 0 5.7348879425774228 -9.3919924952511451 0 -9.3919924952511451 27.929608443650963 0 0 0 0 -10.131357045902206 -23.319811714798561 0 -23.319811714798561 23.180098144379372 0 0 0 0 -10.926417397443046 -19.642529936273604 0 -19.642529936273604 15.007691931590671 0 0 0 0 0.95183039542550318 -26.76995775719115 0 -26.76995775719115 18.40265879213257 0 0 0 0 8.1831198421166533 -22.912846129132959 0 -22.912846129132959 14.002797258959617 0 0 0 0 6.9572883997563295 -26.711720662726293 0 -26.711720662726293 5.3958119283634005 0 0 0 0 8.5671532509298345 -30.86172316667944 0 -30.86172316667944 13.628183496955899 0 0 0 0 19.56819590365447 -42.363240398590278 0 -42.363240398590278 10.88737073467928 0 0 0 0 -17.36538145000759 -13.550574417415191 0 -13.550574417415191 23.62907599264463 0 0 0 0 14.040983628173279 -29.122504675462551 0 -29.122504675462551 -12.996430741859513 0 0 0 0 1.3660889315992264 -0.30826011603144821 0 -0.30826011603144821 0.21840450836296554 0 0 0 0 35.423570301424661 -14.983988610132656 0 -14.983988610132656 33.22489655118261 0 0 0 0 -5.3253244383196545 -9.7874620994407451 0 -9.7874620994407451 -4.5366745073843049 0 0 0 0 7.5002671752144465 -24.650098819474806 0 -24.650098819474806 12.162577207185677 0 0 0 0 -14.222669232959134 5.0514423296262976 0 5.0514423296262976 57.597723362327088 0 0 0 0 -34.487774526267891 8.7566836396254075 0 8.7566836396254075 69.402341866792995 0 0 0 0 -3.7049469585887973 0.32647637764675608 0 0.32647637764675608 10.029995226708081 0 0 0 0 -168.42209756860186 0.53093886641727295 0 0.53093886641727295 331.232525827887 0 0 0 0 -26.864926506543924 19.72077896726114 0 19.72077896726114 43.667609239957528 0 0 0 0 -55.959143161980137 -19.890002403823019 0 -19.890002403823019 32.792039524414577 0 0 0 0 8.7217990309546778 20.506329530384392 0 20.506329530384392 81.911573980367393 0 0 0 0 25.435019313507322 16.636814270284958 0 16.636814270284958 57.079026358122064 0 0 0 0 5.319138851078705 31.641986666421872 0 31.641986666421872 60.068582701913328 0 0 0 0 1.683032722577849 5.1861144301437889 0 5.1861144301437889 49.025779059873457 0 0 0 0 -11.290322440534853 -34.744325952895451 0 -34.744325952895451 54.068846951187879 0 0 0 0 12.184674783141656 22.875634069121588 0 22.875634069121588 66.202069766630302 0 0 0 0 136.17467031602499 56.673140881461222 0 56.673140881461222 -116.42003789598675 0 0 0 0 -0.35660102698219398 -0.16754071916582802 0 -0.16754071916582802 -0.82383252341730895 0 0 0 0 12.25057731836025 8.2392063231600332 0 8.2392063231600332 89.769665984640596 0 0 0 0 -0.081911813438400774 -0.19136197431859614 0 -0.19136197431859614 0.27922173259958072 0 0 0 0 23.008826797573494 -16.935522131432663 0 -16.935522131432663 111.00363730575918 0 0 0 0 0.0050258745898133809 -10.164880923381133 0 -10.164880923381133 -18.0426702518198 0 0 0 0 -17.666082407946245 0.90595080611092271 0 0.90595080611092271 11.922314649142209 0 0 0 0 2.2339843034175644 -14.443753502499021 0 -14.443753502499021 16.087702806849848 0 0 0 0 -21.53650143257628 -18.764892038976541 0 -18.764892038976541 30.146978234144626 0 0 0 0 6.0425852679231298 -32.049755361273128 0 -32.049755361273128 25.898237281624461 0 0 0 0 -3.6279731467127974 -25.755099561087263 0 -25.755099561087263 23.140451189785381 0 0 0 0 5.7222781333369142 -20.394622605672339 0 -20.394622605672339 26.210656974246376 0 0 0 0 -0.018040297544541332 -17.59505778867495 0 -17.59505778867495 26.578686762455618 0 0 0 0 -0.14238946673641417 -55.241044341742963 0 -55.241044341742963 548.96977680522832 0 0 0 0 16.770760211123353 -112.18793341656146 0 -112.18793341656146 312.67657834495185 0 0 0 0 10.92573879408495 -149.95045661180484 0 -149.95045661180484 396.73029429815506 0 0 0 0 0.10125689543255803 -47.607085255174752 0 -47.607085255174752 271.6694629512931 0 0 0 0 42.50702044838954 -79.691530427524413 0 -79.691530427524413 183.27153724051095 0 0 0 0 0.017252275519576289 -18.131633223198907 0 -18.131633223198907 131.60712552770565 0 0 0 0 44.769994035811862 -45.456125643104315 0 -45.456125643104315 121.8780478904082 0 0 0 0 66.852012382535065 -147.26774406479672 0 -147.26774406479672 272.08199778599374 0 0 0 0 42.640518243199743 -41.130788571198721 0 -41.130788571198721 131.34135619310837 0 0 0 0 -7.9775342004452909 -12.747315589243954 0 -12.747315589243954 113.10283348666417 0 0 0 0 105.79071653367805 -74.108928818597633 0 -74.108928818597633 55.295853095070925 0 0 0 0 48.310166734371222 -6.61551557995449 0 -6.61551557995449 57.113436607178301 0 0 0 0 -89.935341552927355 8.428129342446482 0 8.428129342446482 74.249989824154909 0 0 0 0 -20.323511170492644 27.415999302684213 0 27.415999302684213 58.65371939499164 0 0 0 0 -3.5366692851585171 10.996690111941916 0 10.996690111941916 23.75091797314235 0 0 0 0 -4.0011088587880588 6.4011616436354757 0 6.4011616436354757 4.0395914668025057 0 0 0 0 -163.46256325186459 -45.867171152138326 0 -45.867171152138326 61.125793655199232 0 0 0 0 -145.1691699097276 14.300958829498995 0 14.300958829498995 230.32736316652154 0 0 0 0 149.70125729134321 -83.108904531531152 0 -83.108904531531152 -78.75284714512236 0 0 0 0 45.14614074122639 58.46367467748496 0 58.46367467748496 -13.176075075374683 0 0 0 0 47.486786699587874 -68.872506400550549 0 -68.872506400550549 119.90382418912486 0 0 0 0 191.48567431640549 -254.52356370037523 0 -254.52356370037523 191.19001589527761 0 0 0 0 49.655908349072114 -345.39304342107062 0 -345.39304342107062 675.84657004437759 0 0 0 0 41.885256155899839 -279.97679365234944 0 -279.97679365234944 635.4714568311465 0 0 0 0 54.961671328926272 -192.38259267442481 0 -192.38259267442481 308.16997157036531 0 0 0 0 74.424556327829634 -270.72618449425499 0 -270.72618449425499 676.3342126051981 0 0 0 0 213.80188162468346 137.13297670143947 0 137.13297670143947 -372.61692450311966 0 0 0 0 1.4934117560701343 -1.76006813467081 0 -1.76006813467081 -1.5985792552501437 0 0 0 0 223.03117842282137 -311.57204760617606 0 -311.57204760617606 144.54256940941559 0 0 0 0 0.13932192549693098 -0.22935923215579379 0 -0.22935923215579379 18.242771248318547 0 0 0 0 499.35143556529101 -486.70171775855488 0 -486.70171775855488 681.47790718630131 0 0 0 0 -276.59288735413151 1066.9263349945031 0 1066.9263349945031 1425.4410922994357 0 0 0 0 -3.1426436771896085 997.8241158131168 0 997.8241158131168 903.65955635745195 0 0 0 0 -323.06259449413483 687.99884758514963 0 687.99884758514963 953.96582456269243 0 0 0 0 -6.082928101373966 771.02491425439803 0 771.02491425439803 152.10065394762205 0 0 0 0 9.4741807038162733 1111.3418570500289 0 1111.3418570500289 1170.584279780036 0 0 0 0 -301.37440562938673 837.49484643860205 0 837.49484643860205 1624.6842629691528 0 0 0 0 815.60750617798567 -230.51851711821291 0 -230.51851711821291 254.50611989583558 0 0 0 0 -19.177061093455904 -275.38060078956914 0 -275.38060078956914 1271.6661258411259 0 0 0 0 -102.79191838945007 39.351287642835814 0 39.351287642835814 163.03198814132338 0 0 0 0 -1197.9788093986508 -416.60410325722842 0 -416.60410325722842 446.41466433604364 0 0 0 0 -1.0491084410460252 -5.5549582476534107 0 -5.5549582476534107 42.56707676376746 0 0 0 0 -551.72807732021988 -517.53811960126404 0 -517.53811960126404 -94.459157169490936 0 0 0 0 -81.93555032985978 -179.80202470221047 0 -179.80202470221047 -224.14948060228198 0 0 0 0 -961.46689075045106 -111.35806244230844 0 -111.35806244230844 404.61995523496444 0 0 0 0 -5.2619594066139337 5.9622605611718882 0 5.9622605611718882 11.101325450740745 0 0 0 0 -109.29765598194987 -16.037124200032849 0 -16.037124200032849 77.072937599470606 0 0 0 0 -129.04260585594739 -1.7454767312246986 0 -1.7454767312246986 190.89904883841518 0 0 0 0 -607.91673956346176 -417.06274191582816 0 -417.06274191582816 -18.13714264013106 0 0 0 0 0.45605713076088494 -8.0130541963071309 0 -8.0130541963071309 44.813707480532514 0 0 0 0 22.330452330887056 -259.68822863334208 0 -259.68822863334208 -242.21262931748061 0 0 0 0 -54.648510103546869 -87.553434195186128 0 -87.553434195186128 -186.9911876471815 0 0 0 0 25.910637166482957 -328.59058405754331 0 -328.59058405754331 -28.397416063904529 0 0 0 0 -47.70816967580231 -149.72418500424101 0 -149.72418500424101 -47.86792910238546 0 0 0 0 306.2079941362922 -287.40726452567105 0 -287.40726452567105 -168.29157824689901 0 0 0 0 -91.509742009043975 -151.03518457730843 0 -151.03518457730843 349.23864920804044 0 0 0 0 683.59055751490541 74.518180018210842 0 74.518180018210842 188.76090496294273 0 0 0 0 273.45954141232232 -87.385784072783281 0 -87.385784072783281 208.64520641212584 0 0 0 0 331.35995011507003 15.000916928777769 0 15.000916928777769 -73.969244099527714 0 0 0 0 351.51862092007104 -144.53794513383764 0 -144.53794513383764 -243.31787757586062 0 0 0 0 -49.149143441792148 32.394951852196755 0 32.394951852196755 94.293643115386658 0 0 0 0 347.9074090092397 268.48787285839398 0 268.48787285839398 225.58207944750757 0 0 0 0 247.52063936107925 85.169633805591729 0 85.169633805591729 340.6207629518176 0 0 0 0 403.54038982282145 13.444055473868502 0 13.444055473868502 989.18628066298788 0 0 0 0 386.72935529617644 418.75236126003074 0 418.75236126003074 935.39062938785355 0 0 0 0 812.782398215174 512.91692915528984 0 512.91692915528984 934.1752480584837 0 0 0 0 136.47117208176041 -492.54230876398651 0 -492.54230876398651 1822.6385886379721 0 0 0 0 475.09118420198547 641.99234419584172 0 641.99234419584172 94.861538154582377 0 0 0 0 0.88953042138149563 6.0879909006696238 0 6.0879909006696238 11.591538473423952 0 0 0 0 278.48162460073308 54.892313277698122 0 54.892313277698122 2120.845830440383 0 0 0 0 -1.075287410587519 1.3363365987352154 0 1.3363365987352154 8.6860389709803769 0 0 0 0 -11.66722040150853 -175.13371793812257 0 -175.13371793812257 1345.184283464856 0 0 0 0 152.35988788924442 218.12350332425194 0 218.12350332425194 1132.1337156687368 0 0 0 0 242.54175217895863 -594.91029480423094 0 -594.91029480423094 912.48336551563989 0 0 0 0 690.32779202833808 -354.10075024228354 0 -354.10075024228354 19.631228284670215 0 0 0 0 9.0639105501786617 14.711886096927628 0 14.711886096927628 220.12737769020168 0 0 0 0 -10.093616706747865 6.170587136807093 0 6.170587136807093 14.69240769699627 0 0 0 0 1.3645986103372252 12.743904555212794 0 12.743904555212794 20.987729901899002 0 0 0 0 -5.9863542805515895 1.8737634258827285 0 1.8737634258827285 33.198203921644904 0 0 0 0 -19.902685533674457 29.936817496520234 0 29.936817496520234 22.492979085545812 0 0 0 0 203.74059662572108 -116.85462606174769 0 -116.85462606174769 -0.98279283252486493 0 0 0 0 218.42347285597225 -251.72430891535987 0 -251.72430891535987 111.44026665539423 0 0 0 0 -3.0575380848560734 7.6144428524961043 0 7.6144428524961043 41.657882810683304 0 0 0 0 -187.12138007991507 -19.812031532994297 0 -19.812031532994297 125.34535751938529 0 0 0 0 -56.494605683280497 45.166001934645465 0 45.166001934645465 17.456768489922979 0 0 0 0 -29.898870608584275 21.173156565424506 0 21.173156565424506 30.62372155682533 0 0 0 0 10.98521826209344 39.656535003774479 0 39.656535003774479 6.2201867207695614 0 0 0 0 -444.72087289056913 -655.10713306762773 0 -655.10713306762773 -55.96565105560876 0 0 0 0 18.086377787999481 18.269571624521632 0 18.269571624521632 8.2524888284278859 0 0 0 0 -4.1785403982901155 -3.0427440129584298 0 -3.0427440129584298 14.607037691070531 0 0 0 0 45.259229688468395 26.202074350290786 0 26.202074350290786 22.778764039154339 0 0 0 0 13.603186968968309 8.5464773517744561 0 8.5464773517744561 12.962113731176942 0 0 0 0 -1.6681168992036746 -3.9196206737149382 0 -3.9196206737149382 14.373792658569187 0 0 0 0 15.243402247870108 -23.879901110605715 0 -23.879901110605715 41.109683984357616 0 0 0 0 31.57286095173049 154.3096747292675 0 154.3096747292675 40.877264248716529 0 0 0 0 47.438833597208941 50.622320861271874 0 50.622320861271874 29.615197514749525 0 0 0 0 -611.44740414145281 -371.03045609451146 0 -371.03045609451146 225.47824312119337 0 0 0 0 -471.55669475730269 236.05248598548769 0 236.05248598548769 904.27966115860909 0 0 0 0 -227.64042647840051 691.87175245440449 0 691.87175245440449 672.56924640575016 0 0 0 0 132.58517366281188 -303.80920066074759 0 -303.80920066074759 1498.7737205094163 0 0 0 0 -265.43162969961372 620.67727809045755 0 620.67727809045755 1906.7169274972548 0 0 0 0 126.68141925093732 490.50730360778834 0 490.50730360778834 1922.8738354827092 0 0 0 0 64.207357077500518 -533.53278847579713 0 -533.53278847579713 1755.8374235415977 0 0 0 0 63.579446676378751 219.44819144417852 0 219.44819144417852 764.8826378302183 0 0 0 0 -77.731285910567166 -144.5725738109104 0 -144.5725738109104 1215.6291436960819 0 0 0 0 5.8560521466668121 217.10011542119901 0 217.10011542119901 767.972956519945 0 0 0 0 223.94511289712818 -79.170814475692168 0 -79.170814475692168 284.45573727611918 0 0 0 0 548.63031115429055 320.75064435833701 0 320.75064435833701 220.5818990454427 0 0 0 0 1208.0160909016508 403.23962508044497 0 403.23962508044497 458.50333031995979 0 0 0 0 314.82487362528798 -65.236432691828668 0 -65.236432691828668 -280.6163817547349 0 0 0 0 -196.12496244234509 -234.36952444042436 0 -234.36952444042436 -164.95803650416929 0 0 0 0 59.036175608897153 37.156497736339588 0 37.156497736339588 142.1999602984215 0 0 0 0 205.34777200243951 186.13060112113453 0 186.13060112113453 64.126437104903744 0 0 0 0 -37.814933728497138 77.188439674231631 0 77.188439674231631 415.97391857408365 0 0 0 0 -2.2480513020713531 1.4189845050204895 0 1.4189845050204895 -34.607794702489628 0 0 0 0 64.352284711008309 179.25442968710104 0 179.25442968710104 -122.63710924670886 0 0 0 0 -2.8051947906804333 137.18722622007044 0 137.18722622007044 305.68689275201905 0 0 0 0 -0.25893759532560695 14.733863809749892 0 14.733863809749892 155.25203237236565 0 0 0 0 -0.030951320285781941 12.402933293848037 0 12.402933293848037 539.0558319265474 0 0 0 0 14.193363244802363 204.11358591503813 0 204.11358591503813 534.57354115453199 0 0 0 0 -73.808442426776082 -59.15824066575442 0 -59.15824066575442 621.46547878503429 0 0 0 0 -85.065200932949736 -45.075681388188968 0 -45.075681388188968 698.02102340602869 0 0 0 0 -85.377397785192272 -26.784636483986105 0 -26.784636483986105 545.13787834801769 0 0 0 0 -7.8708409151452088 -121.40111608540246 0 -121.40111608540246 157.33943644047395 0 0 0 0 37.915059634566205 -68.551845442336344 0 -68.551845442336344 201.20364205203077 0 0 0 0 76.196721283981333 -100.69277352994686 0 -100.69277352994686 158.29141721119959 0 0 0 0 109.66693742052507 -34.089996502261783 0 -34.089996502261783 269.13539440059685 0 0 0 0 70.895902120857045 -181.64474373632402 0 -181.64474373632402 250.06733915567065 0 0 0 0 70.623879111957194 -169.77794893465034 0 -169.77794893465034 147.07814914784649 0 0 0 0 -157.96253448618631 -219.95546146490233 0 -219.95546146490233 101.7935375517045 0 0 0 0 -314.64497540631925 -37.3561157821714 0 -37.3561157821714 79.447971531553776 0 0 0 0 -25.580078319731911 -56.391513441049028 0 -56.391513441049028 -80.137185828174552 0 0 0 0 -185.46782479869898 112.61392763489857 0 112.61392763489857 53.253034989254957 0 0 0 0 -69.157419423903548 -7.0906304157488194 0 -7.0906304157488194 162.21873056350887 0 0 0 0 -176.80281239572241 8.2665628760987602 0 8.2665628760987602 145.50709316758002 0 0 0 0 -416.36311271898137 -80.353894280240638 0 -80.353894280240638 115.36496951107256 0 0 0 0 -148.58750035782202 7.3072347832326159 0 7.3072347832326159 129.61208737230481 0 0 0 0 -123.01689835712224 116.59977636302483 0 116.59977636302483 205.15041454083257 0 0 0 0 53.977902231589496 66.638881081285945 0 66.638881081285945 120.52008451846632 0 0 0 0 34.630275447918393 35.847418629688036 0 35.847418629688036 94.822212549193864 0 0 0 0 113.92067349166291 2.7423239303061564 0 2.7423239303061564 246.96012363910995 0 0 0 0 35.505636585590395 22.768201759819931 0 22.768201759819931 287.81613658656715 0 0 0 0 51.994421139517726 106.08539244472558 0 106.08539244472558 217.07036026920105 0 0 0 0 192.78755650655421 200.50250785719618 0 200.50250785719618 255.23271846118587 0 0 0 0 373.23127503652449 288.29093315958744 0 288.29093315958744 356.42708934258553 0 0 0 0 228.96625001551047 126.54183482993176 0 126.54183482993176 189.59869909083227 0 0 0 0 319.38545110350958 131.95591070221781 0 131.95591070221781 -90.349655389174586 0 0 0 0 2.7009130843704519 2.2052277180806641 0 2.2052277180806641 1.3870831260581156 0 0 0 0 315.95282840289656 280.8156299768325 0 280.8156299768325 473.23919258850219 0 0 0 0 -8.7629596500501066 282.80491704411543 0 282.80491704411543 567.96115333144189 0 0 0 0 424.24116861960738 116.81655112723092 0 116.81655112723092 318.75109042416807 0 0 0 0 168.75959124397968 76.14468526798737 0 76.14468526798737 291.92076281534219 0 0 0 0 240.21279472082438 -32.150929116991392 0 -32.150929116991392 419.2529274575063 0 0 0 0 5.5134571928257756 3.3855234426237786 0 3.3855234426237786 1.4912465823896923 0 0 0 0 163.20362502675016 209.90427278905554 0 209.90427278905554 -216.81486799783306 0 0 0 0 -172.84759470798281 98.728506425490195 0 98.728506425490195 491.56919365758949 0 0 0 0 -56.969030932960777 252.21418302459278 0 252.21418302459278 565.77978289235034 0 0 0 0 -118.75699186132147 -16.603562626246458 0 -16.603562626246458 336.35887960632681 0 0 0 0 -2.5755935019487879 134.15690176229691 0 134.15690176229691 390.50876271196466 0 0 0 0 -14.238421553523949 234.12917918748644 0 234.12917918748644 770.23499854883266 0 0 0 0 71.123388896150573 37.263435161999951 0 37.263435161999951 761.82764728917368 0 0 0 0 24.505034578586219 148.21016694407808 0 148.21016694407808 673.65768969929195 0 0 0 0 -50.712603833329581 42.121444117689862 0 42.121444117689862 592.60261213521881 0 0 0 0 28.282698558654374 -8.8116296333828359 0 -8.8116296333828359 625.44197992220506 0 0 0 0 18.015209427989248 -141.65486546895409 0 -141.65486546895409 601.3343362962969 0 0 0 0 44.659418258334881 -118.16307458351002 0 -118.16307458351002 446.90086143798544 0 0 0 0 -59.780886676620867 33.479136672238383 0 33.479136672238383 906.05505851267662 0 0 0 0 -12.90319980705317 -205.41612323786831 0 -205.41612323786831 704.63146174886788 0 0 0 0 140.86603995963515 -74.610694805305684 0 -74.610694805305684 302.67771325338367 0 0 0 0 178.40888446149143 6.1759313813454355 0 6.1759313813454355 348.27376028599974 0 0 0 0 163.28316198869106 30.262069779812009 0 30.262069779812009 313.22247368764192 0 0 0 0 197.4034534652385 92.4390662652022 0 92.4390662652022 415.33467754721642 0 0 0 0 30.505425636511973 189.01782029109745 0 189.01782029109745 443.8978580950079 0 0 0 0 76.609635479779172 -5.8251456847865484 0 -5.8251456847865484 455.05281575360641 0 0 0 0 33.56309352944038 -20.778721194304126 0 -20.778721194304126 456.47979702791781 0 0 0 0 44.056555406787083 -99.874670238990802 0 -99.874670238990802 491.00145159011663 0 0 0 0 73.964440636978225 -94.062074528086669 0 -94.062074528086669 429.40997872455046 0 0 0 0 71.332952555672819 -111.03252443735255 0 -111.03252443735255 370.92787986679832 0 0 0 0 67.395352927012937 -121.95038523906987 0 -121.95038523906987 357.59168639565905 0 0 0 0 159.5013522000213 -36.329569664914743 0 -36.329569664914743 308.55705111901625 0 0 0 0 96.679711913869369 -136.3587744193992 0 -136.3587744193992 329.12228284360754 0 0 0 0 59.403793873565817 -176.10231374498898 0 -176.10231374498898 308.86612824939948 0 0 0 0 60.632588913461404 -160.11347313577426 0 -160.11347313577426 344.7209775858646 0 0 0 0 60.107656567331759 -136.30170297396688 0 -136.30170297396688 376.31047130924708 0 0 0 0 61.479763798067324 -147.47549627443368 0 -147.47549627443368 377.98890398687945 0 0 0 0 56.727652104102845 -130.86748654550956 0 -130.86748654550956 452.33152172855625 0 0 0 0 75.355855239728498 -147.08664888072235 0 -147.08664888072235 355.90642898694205 0 0 0 0 76.984699184627971 -157.51202516623016 0 -157.51202516623016 337.75052492291434 0 0 0 0 54.696925992308934 -143.92774671714142 0 -143.92774671714142 376.1989293345614 0 0 0 0 56.786844543762982 -156.83097665184323 0 -156.83097665184323 325.13284022678272 0 0 0 0 51.345584806851548 -148.1307782373915 0 -148.1307782373915 335.47062080650358 0 0 0 0 84.074550185105181 -131.9951061525353 0 -131.9951061525353 266.35273053970013 0 0 0 0 63.926054438550636 -111.72001338592963 0 -111.72001338592963 279.15307478408431 0 0 0 0 19.909036830181321 -128.92190838672104 0 -128.92190838672104 306.22601855856192 0 0 0 0 30.423436680984196 -154.12502615909762 0 -154.12502615909762 331.39005144448311 0 0 0 0 1.319133744312694 -164.53394884384761 0 -164.53394884384761 344.33868991743657 0 0 0 0 40.757834993026563 -178.28353300367417 0 -178.28353300367417 348.86338935856475 0 0 0 0 27.312826378109094 -156.74149047932588 0 -156.74149047932588 347.80523210916726 0 0 0 0 198.68779006136447 -305.35534286782422 0 -305.35534286782422 346.4662805760745 0 0 0 0 127.02789316093003 -250.94319605541386 0 -250.94319605541386 349.14667535176545 0 0 0 0 32.149861342107215 -246.51086466683046 0 -246.51086466683046 732.83109549204528 0 0 0 0 25.053714755946658 -191.99713107542266 0 -191.99713107542266 474.53510320349596 0 0 0 0 65.869193138250012 -160.70594052096567 0 -160.70594052096567 440.70888089248911 0 0 0 0 66.016151858895682 -176.72138988114602 0 -176.72138988114602 385.170596859527 0 0 0 0 170.29773240614622 -152.57917737645039 0 -152.57917737645039 91.686940643659909 0 0 0 0 112.70675622743738 -172.76516979625376 0 -172.76516979625376 218.90321284263337 0 0 0 0 101.31180261285408 -166.05918134462991 0 -166.05918134462991 333.36588882703654 0 0 0 0 145.92584670842916 -128.47954505288362 0 -128.47954505288362 241.76479573211327 0 0 0 0 106.24819072245009 -229.66864331230317 0 -229.66864331230317 387.64532081608922 0 0 0 0 97.723950558205615 -174.4929743631219 0 -174.4929743631219 213.04579264217136 0 0 0 0 172.06862340515181 -213.85039053737637 0 -213.85039053737637 197.60674858245329 0 0 0 0 138.76796909226869 -254.24427588700928 0 -254.24427588700928 110.60851026375167 0 0 0 0 313.08052831642362 -78.422661793752923 0 -78.422661793752923 110.30132080884687 0 0 0 0 113.712810526044 -80.617043225011003 0 -80.617043225011003 216.31968968825822 0 0 0 0 157.87510255761958 2.714546730044276 0 2.714546730044276 130.55968452122761 0 0 0 0 143.11114926954997 -37.52248761240844 0 -37.52248761240844 184.52432810713071 0 0 0 0 4.1497559627207359 0.23045449824584807 0 0.23045449824584807 0.40585100292646104 0 0 0 0 -56.750443294253273 -177.54753066254852 0 -177.54753066254852 401.20379512484942 0 0 0 0 208.68328657897837 -202.64134082706732 0 -202.64134082706732 158.79864564646414 0 0 0 0 118.60632515517318 17.859770441973524 0 17.859770441973524 125.1262355316976 0 0 0 0 -88.915309055156285 91.462815412112832 0 91.462815412112832 28.85233657680692 0 0 0 0 -1.0025954716316061 11.727314129653337 0 11.727314129653337 46.543253239431635 0 0 0 0 -108.47706277570251 315.83385222599645 0 315.83385222599645 185.43731071745424 0 0 0 0 0.42872485017301187 -58.14257888002976 0 -58.14257888002976 337.49307224559016 0 0 0 0 14.873052142981578 -58.042905920407065 0 -58.042905920407065 251.77041088653641 0 0 0 0 -5.2799179540899672 -136.72611471422488 0 -136.72611471422488 379.68581395086949 0 0 0 0 -7.5622154184389956 -120.35790300657754 0 -120.35790300657754 311.62079268663365 0 0 0 0 7.8492999817335658 -117.84557450678403 0 -117.84557450678403 308.36543277480814 0 0 0 0 52.618849601665715 -96.192166172677389 0 -96.192166172677389 260.19501920902985 0 0 0 0 2.4466133693540542 -96.814504355190365 0 -96.814504355190365 278.08944541099481 0 0 0 0 27.564455177131094 -128.48515248901094 0 -128.48515248901094 304.50528507916897 0 0 0 0 4.2795699013604462 -77.605031514394796 0 -77.605031514394796 261.96487684625572 0 0 0 0 60.598919301934075 -50.913644666812615 0 -50.913644666812615 219.79476171263377 0 0 0 0 -43.014455471020483 -14.494570823830145 0 -14.494570823830145 229.19550328250278 0 0 0 0 31.451350420436938 21.532425918812805 0 21.532425918812805 153.48956054349401 0 0 0 0 59.201886708536222 -50.273095387565263 0 -50.273095387565263 229.00766346024466 0 0 0 0 -39.443609603626101 -76.307082276522124 0 -76.307082276522124 258.42566731910665 0 0 0 0 23.181201542784038 -92.857966939896869 0 -92.857966939896869 252.05080968738184 0 0 0 0 20.315495828469693 -2.8165809261845425 0 -2.8165809261845425 389.23225104132143 0 0 0 0 1.9282840015932923 -2.8396126324500344 0 -2.8396126324500344 2.7077047920517145 0 0 0 0 -1019.2031684359972 -148.97962728861603 0 -148.97962728861603 725.77687818327104 0 0 0 0 18.83703368381839 -83.201708701177267 0 -83.201708701177267 217.03234289426473 0 0 0 0 707.64851730150076 196.38135936761682 0 196.38135936761682 188.13995603808871 0 0 0 0 7.2749575076699209 1.0083325495884736 0 1.0083325495884736 0.55917768605986495 0 0 0 0 91.638988178085583 -128.3590555484825 0 -128.3590555484825 152.34685575232288 0 0 0 0 5.0133954270050598 1.2055507826905796 0 1.2055507826905796 0.6648727241215262 0 0 0 0 28.57432403355233 26.029706708737649 0 26.029706708737649 110.69004473881068 0 0 0 0 -3.8691162818904559 -49.665204530738265 0 -49.665204530738265 327.76120851171163 0 0 0 0 -37.356561897712254 -25.319349152279301 0 -25.319349152279301 424.45790748950822 0 0 0 0 -28.886927390133692 40.44184839810373 0 40.44184839810373 695.88381281518377 0 0 0 0 -28.242174273699447 -186.87664000992663 0 -186.87664000992663 370.03345421361155 0 0 0 0 -8.081193315976634 -158.90088107229531 0 -158.90088107229531 357.32429866580787 0 0 0 0 -47.221320070866568 -202.7622436331003 0 -202.7622436331003 515.9558913378205 0 0 0 0 -110.38805833216077 -258.23562662711629 0 -258.23562662711629 717.23843710646179 0 0 0 0 -65.543650982249801 -268.96268056071858 0 -268.96268056071858 370.90980762319668 0 0 0 0 17.57438516325638 -250.39350597857742 0 -250.39350597857742 289.77932276228967 0 0 0 0 6.839733824261657 -224.08810653783439 0 -224.08810653783439 320.26544740187819 0 0 0 0 11.297203726043335 -199.96109127386808 0 -199.96109127386808 335.99918360784068 0 0 0 0 11.168529394593861 -209.38427404820686 0 -209.38427404820686 369.23298615065119 0 0 0 0 -54.498253071044928 -334.94016241358986 0 -334.94016241358986 11.450437367807353 0 0 0 0 10.221504821098478 -169.63305685637783 0 -169.63305685637783 62.214312471820449 0 0 0 0 -68.010910772943021 -415.58065934332808 0 -415.58065934332808 398.01856386227882 0 0 0 0 1.2570499664044781 -2.860896070144193 0 -2.860896070144193 7.0318195783376041 0 0 0 0 189.24883908288018 420.03927665723313 0 420.03927665723313 822.70517117271811 0 0 0 0 -23.398952871167467 -116.94912701015346 0 -116.94912701015346 836.39070805119263 0 0 0 0 344.54830451386249 -159.02072310350889 0 -159.02072310350889 421.82537114879233 0 0 0 0 357.19899173605199 6.3526607325602527 0 6.3526607325602527 284.19942928217642 0 0 0 0 1.8039447841292429 0.81174750889019265 0 0.81174750889019265 0.57498976841218052 0 0 0 0 94.661985560147514 48.352476804473554 0 48.352476804473554 253.53009433699845 0 0 0 0 3.6849035695475436 -188.80124803082617 0 -188.80124803082617 342.33306037538568 0 0 0 0 -55.525347339079872 1.5175769530032994 0 1.5175769530032994 302.22484176366197 0 0 0 0 -68.221077787797185 -83.152395744771638 0 -83.152395744771638 340.16814536243419 0 0 0 0 -84.138049090242248 12.776474364912247 0 12.776474364912247 489.41837787775876 0 0 0 0 -40.314216264337574 28.694915533073072 0 28.694915533073072 503.34299693839421 0 0 0 0 -64.57283646116457 -86.079516960031469 0 -86.079516960031469 211.20087471722945 0 0 0 0 -19.017896415185078 5.5891728345814045 0 5.5891728345814045 298.56139559116491 0 0 0 0 -73.604306436710885 -38.341026261390653 0 -38.341026261390653 339.08763628356974 0 0 0 0 -7.4603398643199625 15.958944624725518 0 15.958944624725518 381.78076026208146 0 0 0 0 -19.010967654642172 57.701001318098861 0 57.701001318098861 359.52953638062718 0 0 0 0 -28.290449621601965 78.424967354903856 0 78.424967354903856 332.7743304042815 0 0 0 0 3.078237229932256 71.970075523062405 0 71.970075523062405 356.76637423838838 0 0 0 0 -11.069212936610484 132.60015812450001 0 132.60015812450001 444.11902088001534 0 0 0 0 21.442484582083125 117.8471154038125 0 117.8471154038125 279.15714584309171 0 0 0 0 49.435592885676897 88.850262601285067 0 88.850262601285067 284.12449547762253 0 0 0 0 -264.63527421640572 52.252099839723996 0 52.252099839723996 16.050863772943558 0 0 0 0 2.851891420373756 -8.5320431564109995 0 -8.5320431564109995 18.07229236374971 0 0 0 0 -88.890223533945118 -114.40378098754809 0 -114.40378098754809 -94.984802718287028 0 0 0 0 -3.3081126946975714 -0.82743349091650487 0 -0.82743349091650487 6.6276576941923686 0 0 0 0 5.9288916320432463 -0.16003923419339117 0 -0.16003923419339117 27.406412818419994 0 0 0 0 -13.321896300860431 -9.3726786106526561 0 -9.3726786106526561 19.170735909225186 0 0 0 0 6.2719090952103338 -2.3595250529887153 0 -2.3595250529887153 6.082035647548139 0 0 0 0 -1.6647772570059649 -5.7788871183703279 0 -5.7788871183703279 19.728723045184552 0 0 0 0 42.643619382785005 57.163399808857321 0 57.163399808857321 151.38502699911623 0 0 0 0 7.7727969722664083 -1.6319735077653945 0 -1.6319735077653945 1.1044598701642236 0 0 0 0 -4.9648822180708976 53.653654648169322 0 53.653654648169322 313.03280964848818 0 0 0 0 -14.240416447785265 47.78435437468579 0 47.78435437468579 330.04774451597359 0 0 0 0 7.2690733723072753 32.149029299629547 0 32.149029299629547 350.4493624226161 0 0 0 0 -70.187274359542698 110.16126716715189 0 110.16126716715189 -123.78934012026002 0 0 0 0 2.9128562706159666 5.2786873988144549 0 5.2786873988144549 12.327611201984041 0 0 0 0 7.4639947564394333 -0.9890677362200222 0 -0.9890677362200222 19.939832447613298 0 0 0 0 5.0104976832537886 0.48524507352340152 0 0.48524507352340152 21.038185214521036 0 0 0 0 -201.65109975244593 144.30864993163323 0 144.30864993163323 45.855749999900581 0 0 0 0 1.7866982154686797 6.2246154181801217 0 6.2246154181801217 21.410868229999721 0 0 0 0 1.1305453693511254 5.7554532519061468 0 5.7554532519061468 21.721713949169498 0 0 0 0 -71.966971826966983 170.70886710446939 0 170.70886710446939 -92.586511472378334 0 0 0 0 -211.62452997429637 183.982618179356 0 183.982618179356 -52.366927989351097 0 0 0 0 -44.715967325540987 217.70714168231279 0 217.70714168231279 -50.959520536849595 0 0 0 0 -89.260054049659857 187.46888965155995 0 187.46888965155995 69.5236407018092 0 0 0 0 -325.13414129587397 385.62872656627951 0 385.62872656627951 93.827740946151607 0 0 0 0 -69.472363641971697 210.51744243245048 0 210.51744243245048 77.54552058534864 0 0 0 0 -69.479084846826709 130.57560702933642 0 130.57560702933642 -91.659433758857631 0 0 0 0 -3.4245302552459069 8.6110830719661919 0 8.6110830719661919 10.927097866496069 0 0 0 0 -582.90866420059103 56.70144949389578 0 56.70144949389578 26.346081736626729 0 0 0 0 -90.607754047737217 -0.76381693414077745 0 -0.76381693414077745 65.416174420748575 0 0 0 0 -74.194661924077536 -4.8543526183057111 0 -4.8543526183057111 62.086027792418463 0 0 0 0 3.5731369947253055 17.599312499268819 0 17.599312499268819 49.925407236812731 0 0 0 0 -197.68358628186184 -16.620406575500965 0 -16.620406575500965 118.66569514820958 0 0 0 0 -176.0262171485615 25.527451166970422 0 25.527451166970422 122.3646078976235 0 0 0 0 -148.72690688268358 -70.609464950892288 0 -70.609464950892288 52.649337878174265 0 0 0 0 -57.345874644142896 -53.707033220649464 0 -53.707033220649464 8.6259883029961202 0 0 0 0 17.594867423285905 22.615757410672813 0 22.615757410672813 30.002774295120616 0 0 0 0 -1.3488594865333265 -0.52383702569260748 0 -0.52383702569260748 27.562076688994864 0 0 0 0 40.956658396658895 -86.968968778663111 0 -86.968968778663111 79.813399772212506 0 0 0 0 -548.71148236840236 100.21991503810568 0 100.21991503810568 102.02863475394406 0 0 0 0 -167.38358940112084 72.818787463351327 0 72.818787463351327 -9.691048135922756 0 0 0 0 2.1901822856478983 -4.7747368206857672 0 -4.7747368206857672 11.70791948152376 0 0 0 0 -1.3366513719506266 -28.073144282214926 0 -28.073144282214926 41.575461910528908 0 0 0 0 8.8282814540598338 -34.304729528656026 0 -34.304729528656026 29.350746762058407 0 0 0 0 -125.58495690215022 -96.785911243288865 0 -96.785911243288865 227.6993343032409 0 0 0 0 -68.892656386681665 6.0596927168480761 0 6.0596927168480761 87.727966309379553 0 0 0 0 -2.7498254700057903 -10.195389665703832 0 -10.195389665703832 9.5070466512975429 0 0 0 0 75.359016696671461 -169.11770802788487 0 -169.11770802788487 116.23510191142122 0 0 0 0 2.1061961627256967 3.022863071711015 0 3.022863071711015 0.75774463182617069 0 0 0 0 -54.98524349725767 -32.77867206038627 0 -32.77867206038627 113.44290518233174 0 0 0 0 113.98836274824589 -210.30082285662138 0 -210.30082285662138 299.91436338079438 0 0 0 0 12.026556683867057 202.70383386706089 0 202.70383386706089 65.205187918112642 0 0 0 0 -172.40215684375926 190.17534944935323 0 190.17534944935323 319.75202309723682 0 0 0 0 -134.52108794752803 208.36168166807329 0 208.36168166807329 90.675647590946028 0 0 0 0 -75.645746883429638 175.83172147726873 0 175.83172147726873 85.263199695239564 0 0 0 0 -101.14740929837376 175.05479090413428 0 175.05479090413428 152.83208775068488 0 0 0 0 -69.721253572921341 208.39216751397908 0 208.39216751397908 -69.977485015631828 0 0 0 0 -78.918542335734401 235.78152514663816 0 235.78152514663816 -157.84601656396262 0 0 0 0 -64.139406637682896 181.98600345003433 0 181.98600345003433 -142.99086014713976 0 0 0 0 -96.568476767501124 216.94168234775861 0 216.94168234775861 -70.566871035968688 0 0 0 0 -219.80519236537839 78.047468831056904 0 78.047468831056904 12.118349436095741 0 0 0 0 -91.523632877518139 236.53742443376541 0 236.53742443376541 -66.248986184320529 0 0 0 0 -86.759745215813382 206.83711258764379 0 206.83711258764379 -233.27912481014209 0 0 0 0 -197.02103402001921 241.98455677760649 0 241.98455677760649 -62.962853437215017 0 0 0 0 -209.1237865182311 293.16678800482441 0 293.16678800482441 -278.93317119353742 0 0 0 0 -170.43769097164005 164.82423180643923 0 164.82423180643923 -378.31547870009672 0 0 0 0 -269.92407350963913 150.946840043267 0 150.946840043267 -297.20310395333945 0 0 0 0 -172.99432102492489 205.81518920643657 0 205.81518920643657 -210.23242465553631 0 0 0 0 -40.658602157477162 157.56331403511649 0 157.56331403511649 -368.66887368583411 0 0 0 0 -47.772162141076024 102.4942568982442 0 102.4942568982442 -146.20002516877139 0 0 0 0 -46.120739661288098 206.21270926952639 0 206.21270926952639 -229.88235340374376 0 0 0 0 -19.691544465944389 98.612297956900875 0 98.612297956900875 -219.02227714059654 0 0 0 0 0.1212581792506171 50.991954534008983 0 50.991954534008983 492.24911858141968 0 0 0 0 5.969021014700286 1.6478699184711303 0 1.6478699184711303 2.5099848535971887 0 0 0 0 1.7763015129733972 0.2817495027069441 0 0.2817495027069441 0.22966409620145001 0 0 0 0 -153.55449695312745 221.31274229559494 0 221.31274229559494 -400.19271421400481 0 0 0 0 -74.09580574937263 24.441010141370498 0 24.441010141370498 817.81331551360199 0 0 0 0 -478.26078474108817 407.85982056119792 0 407.85982056119792 125.54185165615854 0 0 0 0 -176.68180254602794 99.215394735496375 0 99.215394735496375 -57.347974134123433 0 0 0 0 -332.271239175132 389.97354047817862 0 389.97354047817862 -329.74672011287475 0 0 0 0 -2.5937215031340077 12.238478250751307 0 12.238478250751307 93.435241465462894 0 0 0 0 -5.7015343729910484 -0.32958051758362217 0 -0.32958051758362217 20.271411797611989 0 0 0 0 26.964665020367647 -14.516357477315978 0 -14.516357477315978 62.923928491432889 0 0 0 0 -193.32424692311452 -19.329940614851694 0 -19.329940614851694 146.90392935322143 0 0 0 0 83.138543229292281 -165.21612020012708 0 -165.21612020012708 65.888265391378809 0 0 0 0 -124.04083340176612 -176.94567730346171 0 -176.94567730346171 160.55775970163086 0 0 0 0 -739.83533009765119 334.13672489447617 0 334.13672489447617 182.15405148007994 0 0 0 0 -0.85062690126732576 19.371432131148726 0 19.371432131148726 109.3181023767067 0 0 0 0 -606.72316585321732 95.668944268545602 0 95.668944268545602 205.70162137001898 0 0 0 0 -94.65236744734284 -8.2247367469244637 0 -8.2247367469244637 46.544221577139979 0 0 0 0 -344.93721030089 266.66949445015416 0 266.66949445015416 -40.333882127095421 0 0 0 0 41.915154984268156 64.539478483424318 0 64.539478483424318 347.68045404560689 0 0 0 0 29.601738122242296 70.880493005308381 0 70.880493005308381 346.50247678978485 0 0 0 0 -135.34991114984405 263.58899325485436 0 263.58899325485436 370.74395893984911 0 0 0 0 60.277438928653282 16.232733384913445 0 16.232733384913445 142.06512429110444 0 0 0 0 -115.9662474615684 -20.395697944062704 0 -20.395697944062704 261.12928634022683 0 0 0 0 34.553469063280318 43.667290509207305 0 43.667290509207305 309.53573368209618 0 0 0 0 -17.709410163451025 -16.424460729673228 0 -16.424460729673228 299.75955101109867 0 0 0 0 9.7469586014303786 -46.233512102422537 0 -46.233512102422537 332.07842073778011 0 0 0 0 20.367089390756519 -75.150103160789513 0 -75.150103160789513 313.59376150946628 0 0 0 0 17.399173541086498 -12.056115364250672 0 -12.056115364250672 249.41051756886009 0 0 0 0 3.0269647317288531 -5.112892877373838 0 -5.112892877373838 3.2792373369624599 0 0 0 0 -35.84222412054487 -29.638990282475788 0 -29.638990282475788 472.9878940296403 0 0 0 0 -22.034299458804185 1.420284513941624 0 1.420284513941624 348.46170839338447 0 0 0 0 -334.64477499841632 -182.87565951961369 0 -182.87565951961369 209.94691263520508 0 0 0 0 -626.55135952868386 384.33390811580102 0 384.33390811580102 265.31645071224921 0 0 0 0 -228.04636722890677 157.11872238877004 0 157.11872238877004 769.18690881648945 0 0 0 0 0.86682873795703941 -1.8441789620059694 0 -1.8441789620059694 1.311659422502558 0 0 0 0 117.99300565754174 -377.43074035021891 0 -377.43074035021891 -303.06631374370409 0 0 0 0 -212.04004532042882 32.128591939166654 0 32.128591939166654 151.27092661484494 0 0 0 0 -210.93532606958593 -3.9320262263408949 0 -3.9320262263408949 -76.085002102539875 0 0 0 0 4.7441376188407958 32.467220717373493 0 32.467220717373493 15.800430943263564 0 0 0 0 40.901147208845259 9.5781363477397008 0 9.5781363477397008 24.29774715851363 0 0 0 0 -1.3557922186714357 19.330708293261516 0 19.330708293261516 114.33698099154672 0 0 0 0 -254.45897560157573 291.25588432615677 0 291.25588432615677 58.101914657889211 0 0 0 0 125.37491834569573 4.5346451725745283 0 4.5346451725745283 -4.5229779988485461 0 0 0 0 -11.993859278769605 -32.371011535477237 0 -32.371011535477237 85.836154248374442 0 0 0 0 24.295300479986054 -12.134381431247675 0 -12.134381431247675 75.341952156539492 0 0 0 0 -59.848739560055947 -36.323273379296097 0 -36.323273379296097 90.380981968545711 0 0 0 0 69.616633136038217 -15.911516891377687 0 -15.911516891377687 147.2556683868097 0 0 0 0 27.464745244982396 -99.464972264502194 0 -99.464972264502194 188.64703174694114 0 0 0 0 -26.754573398864068 -11.110019416768409 0 -11.110019416768409 110.05821004712061 0 0 0 0 -32.736404275628047 6.917105573225399 0 6.917105573225399 245.27683371008789 0 0 0 0 64.590121063096376 -26.556998521501328 0 -26.556998521501328 478.6742121464722 0 0 0 0 39.230841211491679 182.08405562913686 0 182.08405562913686 305.43600495087685 0 0 0 0 1.2728434610706367 3.1233877865917279 0 3.1233877865917279 5.6988920321958858 0 0 0 0 -476.83193063576732 18.713002094609465 0 18.713002094609465 581.21164890001455 0 0 0 0 345.67026927059669 260.73556298582571 0 260.73556298582571 -88.123650234074375 0 0 0 0 288.87482083618806 -189.82323208286289 0 -189.82323208286289 187.91401663816487 0 0 0 0 -1.7073976650412419 126.93297342853839 0 126.93297342853839 357.14742206383471 0 0 0 0 147.76370172886141 234.54419687516747 0 234.54419687516747 239.11965063862954 0 0 0 0 70.759155963009334 138.47434180436358 0 138.47434180436358 120.27392173779788 0 0 0 0 42.150883845522287 156.59883076117603 0 156.59883076117603 218.11580224193676 0 0 0 0 -80.121945147444876 64.915191290790972 0 64.915191290790972 185.88649730142606 0 0 0 0 -70.692220632113163 17.269947064569351 0 17.269947064569351 182.82161012576398 0 0 0 0 -65.173982490714138 17.637911951427668 0 17.637911951427668 113.81996061275277 0 0 0 0 -261.79402672886363 39.666336211798807 0 39.666336211798807 177.14315649457058 0 0 0 0 -70.63538182639536 4.3487216903140506 0 4.3487216903140506 102.49882448687413 0 0 0 0 -6.4503492154869795 10.364597786371881 0 10.364597786371881 115.96940937052553 0 0 0 0 -6.0766309219942061 7.7428956559944435 0 7.7428956559944435 129.56184772227607 0 0 0 0 -181.149331872125 -68.534304036907997 0 -68.534304036907997 180.69213503970605 0 0 0 0 -292.2473438313591 -62.546797444527328 0 -62.546797444527328 178.3678574110636 0 0 0 0 -81.323661946955099 42.111067110387012 0 42.111067110387012 141.80534786804674 0 0 0 0 -105.92983263695695 -71.162645527276254 0 -71.162645527276254 114.49048953061083 0 0 0 0 34.928954161981892 -74.712509969185703 0 -74.712509969185703 237.31467586258987 0 0 0 0 51.626444805942356 10.853494590446644 0 10.853494590446644 131.4302631631424 0 0 0 0 1.8231845646494458 44.119665977390468 0 44.119665977390468 131.74688077365863 0 0 0 0 -29.545858607991718 -19.574989546468714 0 -19.574989546468714 114.11977112019304 0 0 0 0 -126.32015118299752 -40.294334663321933 0 -40.294334663321933 96.158775026568037 0 0 0 0 -125.98453181550612 -6.574456815907979 0 -6.574456815907979 171.71791637771821 0 0 0 0 -5.7347179850988379 5.261243752942482 0 5.261243752942482 139.56586354802761 0 0 0 0 -279.55373609923345 -41.819049556421305 0 -41.819049556421305 169.72976191078669 0 0 0 0 -204.80558726626998 12.537412533382394 0 12.537412533382394 220.56317012403179 0 0 0 0 -26.484961974382259 42.26930418002712 0 42.26930418002712 128.07216502262236 0 0 0 0 -32.585609809602829 67.449758062186902 0 67.449758062186902 144.25386056233856 0 0 0 0 6.1363883224667006 22.310928139640964 0 22.310928139640964 142.12863677135192 0 0 0 0 -4.8281287858040036 6.504761450804895 0 6.504761450804895 147.37006262278462 0 0 0 0 -242.49847213940515 -57.085263077251511 0 -57.085263077251511 167.92576726575498 0 0 0 0 -102.24833826940994 12.949618616279167 0 12.949618616279167 148.8596658284805 0 0 0 0 -158.15521376759182 -6.469432712345224 0 -6.469432712345224 147.76511276018937 0 0 0 0 -81.544474389983179 -71.039150647033239 0 -71.039150647033239 123.60864516418951 0 0 0 0 -89.153384139176069 -85.330025566883705 0 -85.330025566883705 217.19003459387386 0 0 0 0 -61.295964530206447 -6.5931124485614419 0 -6.5931124485614419 216.16521438045675 0 0 0 0 -66.815696209679572 -36.370100625972555 0 -36.370100625972555 117.24993082397123 0 0 0 0 -67.345306610638204 -53.175773746431332 0 -53.175773746431332 166.24010309021105 0 0 0 0 183.74247987943227 -185.65785410924764 0 -185.65785410924764 178.88624429670381 0 0 0 0 2.8224926856003139 2.7057646764501904 0 2.7057646764501904 -0.33213513130603189 0 0 0 0 84.210625187247388 -47.708173470042311 0 -47.708173470042311 55.128446760869338 0 0 0 0 -2.3649049315321484 -2.4630731967403836 0 -2.4630731967403836 25.768471230511565 0 0 0 0 -74.218312958185379 -159.12958650118389 0 -159.12958650118389 94.643152447964894 0 0 0 0 -186.5731563497784 -22.771137732654097 0 -22.771137732654097 112.11007559739119 0 0 0 0 325.84361895195798 -199.13174240025364 0 -199.13174240025364 49.756295897713244 0 0 0 0 -5.4484909120765224 275.19737154501036 0 275.19737154501036 157.34947194744564 0 0 0 0 76.399282152558953 28.483771032114419 0 28.483771032114419 -75.242556915011846 0 0 0 0 216.59840556131076 188.82284574751338 0 188.82284574751338 199.8220802376236 0 0 0 0 86.556966066031464 97.672811546438652 0 97.672811546438652 376.41890596411395 0 0 0 0 193.72694928671382 -4.8092475769034877 0 -4.8092475769034877 193.29198972993618 0 0 0 0 -13.993325015753726 93.726796128168644 0 93.726796128168644 292.85959518872232 0 0 0 0 176.39259751342297 117.03292867720302 0 117.03292867720302 66.637145511038398 0 0 0 0 28.213366409173432 14.909558242175081 0 14.909558242175081 63.46067118103997 0 0 0 0 38.167816827801971 38.529520126993248 0 38.529520126993248 116.92671564402644 0 0 0 0 5.1821888453368956 39.231970365142843 0 39.231970365142843 125.54794441917329 0 0 0 0 -9.083753892815583 -25.689300185467328 0 -25.689300185467328 31.465109739911401 0 0 0 0 6.166004044544934 -30.069425031681021 0 -30.069425031681021 -13.069785937284905 0 0 0 0 11.598900677307029 -101.96962670450012 0 -101.96962670450012 65.225038364274951 0 0 0 0 18.598200279036291 14.834585304618031 0 14.834585304618031 92.680581898899618 0 0 0 0 -3.3088256600298909 -7.2226099274327034 0 -7.2226099274327034 17.207404469874216 0 0 0 0 -4.5273714181003015 -47.519576397924538 0 -47.519576397924538 46.579904194266419 0 0 0 0 -14.107947581602421 -36.613399354784733 0 -36.613399354784733 41.232360452829219 0 0 0 0 -15.22097836317198 -40.689951157708492 0 -40.689951157708492 43.15424078066917 0 0 0 0 -2.5996653959045943 -9.4660246969033324 0 -9.4660246969033324 16.111165722271835 0 0 0 0 -183.06352149473969 32.088079613855371 0 32.088079613855371 143.51274018106596 0 0 0 0 0.95303078621340731 6.0737788942487256 0 6.0737788942487256 38.144858758680598 0 0 0 0 27.79462729690249 5.3066605962421818 0 5.3066605962421818 23.073719458239793 0 0 0 0 5.2094491240614893 12.050645344467434 0 12.050645344467434 23.945370935049894 0 0 0 0 8.1029614194526403 17.813503527181638 0 17.813503527181638 41.793411261325673 0 0 0 0 45.542948446402534 18.671709776399894 0 18.671709776399894 33.028195636707096 0 0 0 0 66.844986337599948 -20.765130180270717 0 -20.765130180270717 30.590896344312569 0 0 0 0 21.155392924285934 -51.312038417909207 0 -51.312038417909207 92.008484915015288 0 0 0 0 9.1592189048019463 -14.718878643803691 0 -14.718878643803691 44.932764022909396 0 0 0 0 13.323724803657569 -7.5628380262878636 0 -7.5628380262878636 -0.88324170216947095 0 0 0 0 -33.826494296032251 -18.463898639327454 0 -18.463898639327454 51.076717476877093 0 0 0 0 -30.169057793637876 -37.327458563135224 0 -37.327458563135224 80.971447467469261 0 0 0 0 22.7741808559731 34.994731488417528 0 34.994731488417528 -207.63093065156136 0 0 0 0 -6.5490247693877528 -29.753894983992033 0 -29.753894983992033 22.423852098681127 0 0 0 0 -128.74220373229673 -9.4394989364482171 0 -9.4394989364482171 100.75187079511488 0 0 0 0 -134.35325696662827 -122.113253302239 0 -122.113253302239 512.22226717347803 0 0 0 0 27.71942614758882 -43.592381868917073 0 -43.592381868917073 56.438351178087032 0 0 0 0 -74.475655154289598 -65.844724517404757 0 -65.844724517404757 154.03560942125478 0 0 0 0 5.0456928470734965 -124.99257008789436 0 -124.99257008789436 178.63825457777057 0 0 0 0 -1.9617761655413233 -108.44990488134499 0 -108.44990488134499 146.82147066263133 0 0 0 0 84.596053432149802 -94.062880856102311 0 -94.062880856102311 148.36862616491999 0 0 0 0 -37.286235316053535 -153.35273928557035 0 -153.35273928557035 145.8376128101736 0 0 0 0 -33.83877167047649 -144.43105817087053 0 -144.43105817087053 168.92094647917475 0 0 0 0 -152.44675156550147 -108.26317152647061 0 -108.26317152647061 166.83217017755305 0 0 0 0 -15.629281451437237 -185.83857927363169 0 -185.83857927363169 130.72717015483431 0 0 0 0 43.856037348324207 -161.04375621922554 0 -161.04375621922554 141.4238758272586 0 0 0 0 43.22281216911324 -103.90351598402776 0 -103.90351598402776 173.38654708793911 0 0 0 0 140.93784958993001 -39.680059676866222 0 -39.680059676866222 233.18068114937341 0 0 0 0 88.407166643499295 -142.76862433203132 0 -142.76862433203132 204.35873972767149 0 0 0 0 182.88855805545973 -66.044285414831393 0 -66.044285414831393 249.52324240790767 0 0 0 0 88.413570305247049 -112.50469059591705 0 -112.50469059591705 182.99123378897821 0 0 0 0 122.36089376099335 -24.302126175658486 0 -24.302126175658486 201.19406114534831 0 0 0 0 105.5635211297631 -58.343072788684367 0 -58.343072788684367 237.58691676538001 0 0 0 0 48.674917131971597 -25.919453143696956 0 -25.919453143696956 390.03380713896331 0 0 0 0 59.621195397583506 -36.535550940830944 0 -36.535550940830944 225.5068085677849 0 0 0 0 38.236749132245677 -70.699444455707635 0 -70.699444455707635 202.58937229463481 0 0 0 0 96.830533372754189 -37.988550822993602 0 -37.988550822993602 55.545127206223697 0 0 0 0 74.299247411778197 -47.765031960487249 0 -47.765031960487249 86.045519359500759 0 0 0 0 60.210212771116858 -87.029929090308542 0 -87.029929090308542 156.41360545055795 0 0 0 0 -29.65583208537948 -28.682665111621134 0 -28.682665111621134 38.064750918460206 0 0 0 0 -54.418237703516752 -78.810006637579136 0 -78.810006637579136 73.394011091382708 0 0 0 0 -66.627954908372544 -37.429375773783249 0 -37.429375773783249 89.429718776518712 0 0 0 0 -91.444264328733425 -102.90914288189015 0 -102.90914288189015 115.66003055075998 0 0 0 0 -93.751376492870122 -78.133294283463329 0 -78.133294283463329 202.91137974623416 0 0 0 0 -101.35796505407689 -105.13564318698059 0 -105.13564318698059 198.87979125260608 0 0 0 0 -105.38762214909912 -100.61174472751372 0 -100.61174472751372 194.69310364186094 0 0 0 0 -104.77420656969731 -106.84863360760346 0 -106.84863360760346 255.52519086081156 0 0 0 0 -68.394996316974414 -117.22791190809949 0 -117.22791190809949 168.61707410776216 0 0 0 0 -32.263447593603331 -36.138308742690342 0 -36.138308742690342 93.223414434084617 0 0 0 0 -19.668749146096161 -34.639985607488825 0 -34.639985607488825 59.950940203375694 0 0 0 0 45.508779594852115 -228.16729327691792 0 -228.16729327691792 8.1204689236765262 0 0 0 0 -4.5521855874843133 -23.339483054636922 0 -23.339483054636922 -18.355749257762739 0 0 0 0 -50.042047699946124 37.781042476446601 0 37.781042476446601 268.90567635126808 0 0 0 0 -335.94851386380833 4.4468787378555135 0 4.4468787378555135 303.60826290104524 0 0 0 0 -5.2634978480792443 -18.215415548347323 0 -18.215415548347323 90.654917523536781 0 0 0 0 -82.52719104866037 287.54204147896689 0 287.54204147896689 320.64611090217659 0 0 0 0 -9.804279919116178 -7.0636820003405809 0 -7.0636820003405809 148.45509317385898 0 0 0 0 -29.199982958987107 6.6913852506202716 0 6.6913852506202716 143.89597538393537 0 0 0 0 -207.82051423820371 -10.273291697867535 0 -10.273291697867535 257.03335750515544 0 0 0 0 -7.821961069431282 -24.232627626357882 0 -24.232627626357882 52.021597253960707 0 0 0 0 328.03803158648225 -477.78815038424 0 -477.78815038424 69.087683141438902 0 0 0 0 -196.48864608016447 250.7784461862193 0 250.7784461862193 242.86805895100042 0 0 0 0 22.141993328879835 -250.87503008297426 0 -250.87503008297426 216.4143890177329 0 0 0 0 0.20533732028438934 -1.9832673035361719 0 -1.9832673035361719 7.0861111478763092 0 0 0 0 46.95536633089614 -151.12369586345744 0 -151.12369586345744 73.994398928494775 0 0 0 0 -54.864095107741377 -140.24951726274594 0 -140.24951726274594 156.1294216372753 0 0 0 0 -17.110289536068194 -47.343732739695952 0 -47.343732739695952 -15.937134871615854 0 0 0 0 18.387602785688614 -120.05879324045418 0 -120.05879324045418 65.994942228586297 0 0 0 0 -72.33119917967997 -35.238140914490941 0 -35.238140914490941 77.274136880193964 0 0 0 0 -80.286046962793989 -43.8192335880276 0 -43.8192335880276 100.35363931986285 0 0 0 0 -328.04197624692097 40.478471293012262 0 40.478471293012262 151.65539161129072 0 0 0 0 -83.603203254934442 25.654668217871404 0 25.654668217871404 12.277594778497587 0 0 0 0 -93.678724094655081 29.418848761681147 0 29.418848761681147 36.868466622559936 0 0 0 0 11.355424107641738 131.25515744155837 0 131.25515744155837 83.978307918695691 0 0 0 0 2.1116713712495461 -4.3228542541913244 0 -4.3228542541913244 23.535346281848049 0 0 0 0 130.5834623550154 -119.09494669884998 0 -119.09494669884998 6.963262590161321 0 0 0 0 283.24730257018382 288.15146096733224 0 288.15146096733224 107.2772452887657 0 0 0 0 -34.422082371778743 -48.043819437134573 0 -48.043819437134573 66.006182415058674 0 0 0 0 -0.15778016985404975 6.5248746239010984 0 6.5248746239010984 56.656019691263914 0 0 0 0 -1.3124036683457234 7.497493483641847 0 7.497493483641847 85.934783514247101 0 0 0 0 0.75257503003736659 2.3606287090711646 0 2.3606287090711646 75.355974023810319 0 0 0 0 -20.446786477597016 -4.7020099109848132 0 -4.7020099109848132 72.477094812374503 0 0 0 0 1.5816042416333911 -9.0451820609475462 0 -9.0451820609475462 45.074710282895275 0 0 0 0 -20.428777467624968 -31.984513694369525 0 -31.984513694369525 16.525327372212814 0 0 0 0 -3.0522383622078522 -24.979312540364806 0 -24.979312540364806 32.44473788403927 0 0 0 0 -33.638996680227137 -38.437400782682062 0 -38.437400782682062 21.922138257545157 0 0 0 0 -39.390874050679486 -54.219360131402027 0 -54.219360131402027 -0.039720738195683225 0 0 0 0 -40.056109224864485 2.5480294295675776 0 2.5480294295675776 353.35606942361665 0 0 0 0 -34.680825613819252 6.5229596734334336 0 6.5229596734334336 166.74446407902906 0 0 0 0 -32.405786352981522 78.321526443954099 0 78.321526443954099 166.10159800593101 0 0 0 0 4.6305321580603049 37.423396409600173 0 37.423396409600173 81.344122409576812 0 0 0 0 51.544091302864217 61.070335362753667 0 61.070335362753667 88.486676955395524 0 0 0 0 -2.9542755206426392 17.691502067019414 0 17.691502067019414 26.379317155352588 0 0 0 0 -1.8377751017602755 -1.7665644618161949 0 -1.7665644618161949 68.124449723701858 0 0 0 0 -2.0050127211279687 7.1292870391425822 0 7.1292870391425822 129.90825429870165 0 0 0 0 -3.8967983025104331 4.1238034760413029 0 4.1238034760413029 41.063405445132673 0 0 0 0 -95.934386005181295 30.386701143758728 0 30.386701143758728 137.55211968398908 0 0 0 0 -2.6244270722263146 -0.75734662273329789 0 -0.75734662273329789 68.673450792962029 0 0 0 0 5.4359108267228535 1.6142532315014293 0 1.6142532315014293 95.771930331427797 0 0 0 0 -148.35437105364326 -52.393584656389066 0 -52.393584656389066 152.49691126583321 0 0 0 0 -8.4576562259753487 20.264652170487288 0 20.264652170487288 21.372926241505482 0 0 0 0 -13.300890452235762 -10.865971758672458 0 -10.865971758672458 138.44354085597206 0 0 0 0 -13.082214026835572 -15.201054817593104 0 -15.201054817593104 113.16608688808901 0 0 0 0 -17.520571858217409 4.595535986854884 0 4.595535986854884 121.58621773533378 0 0 0 0 -10.211334062927563 -1.9824351736679091 0 -1.9824351736679091 126.72349093856246 0 0 0 0 -35.564816969454114 8.5852627263157046 0 8.5852627263157046 42.151142154809349 0 0 0 0 -5.7111013045919208 -1.6170552889088157 0 -1.6170552889088157 15.572105344661718 0 0 0 0 -110.46170762173006 124.06523048948293 0 124.06523048948293 -56.809176049726375 0 0 0 0 -96.393521213185522 -88.439413113437695 0 -88.439413113437695 113.02614221302792 0 0 0 0 -1.9404225684996987 -0.92815911225663683 0 -0.92815911225663683 0.31352974467249695 0 0 0 0 -88.40166017739034 58.808942976433968 0 58.808942976433968 196.56663004154689 0 0 0 0 -290.62692711163618 14.527916786681089 0 14.527916786681089 192.11761523801033 0 0 0 0 -81.243886178018442 9.77724627608427 0 9.77724627608427 116.42700618686649 0 0 0 0 -17.83362242645444 60.718804158005696 0 60.718804158005696 64.892635716401855 0 0 0 0 -22.875245094821594 50.308140116727827 0 50.308140116727827 74.067164945914556 0 0 0 0 31.090605465052249 16.843698341264826 0 16.843698341264826 101.86155460334703 0 0 0 0 -0.1696599708591533 -12.26398164674986 0 -12.26398164674986 120.43985837224 0 0 0 0 29.009757612584281 -28.260067373571587 0 -28.260067373571587 100.20161616924815 0 0 0 0 -190.83878016643575 -32.80693999885807 0 -32.80693999885807 195.70419547338315 0 0 0 0 7.5724162572087153 -21.309272704465002 0 -21.309272704465002 102.01108850961282 0 0 0 0 -0.4927288055918968 -7.6337790084003352 0 -7.6337790084003352 112.22687098360417 0 0 0 0 -66.960234133257472 -70.138222334337115 0 -70.138222334337115 81.939929749278235 0 0 0 0 -112.25164445723112 -38.205218510051964 0 -38.205218510051964 115.50737041648335 0 0 0 0 43.817022599445409 -19.054243640021014 0 -19.054243640021014 83.77806433310343 0 0 0 0 -189.06683528081601 23.023537684234611 0 23.023537684234611 202.025555581351 0 0 0 0 130.06056946205535 1.8762741265927616 0 1.8762741265927616 9.3218583538496205 0 0 0 0 -0.29665521141914475 -1.5182467737642753 0 -1.5182467737642753 10.112452189733077 0 0 0 0 -32.324378100214744 -19.703584656097519 0 -19.703584656097519 1179.7054180053528 0 0 0 0 1.6963550698955565 -0.30815019126029597 0 -0.30815019126029597 1.6780957641731185 0 0 0 0 -0.28022018831325113 -29.009232465101377 0 -29.009232465101377 545.57144780728049 0 0 0 0 4.3847333842067542 -1.7232553018969625 0 -1.7232553018969625 0.49408662595074304 0 0 0 0 49.470970781217147 -12.498762483774044 0 -12.498762483774044 -104.04671328117638 0 0 0 0 -33.060739200818944 -43.94963193939293 0 -43.94963193939293 541.44416002180151 0 0 0 0 -35.249798050392201 -49.422611383033654 0 -49.422611383033654 536.17991952107695 0 0 0 0 69.378748861805434 28.197730288775347 0 28.197730288775347 427.91729789284364 0 0 0 0 68.872169180626543 9.8961324994069741 0 9.8961324994069741 432.80940020249545 0 0 0 0 166.20995985192712 45.149271875648992 0 45.149271875648992 362.69905736248984 0 0 0 0 139.85074072783573 91.176356133200898 0 91.176356133200898 501.03154911318416 0 0 0 0 29.608911968702159 -89.483125089449459 0 -89.483125089449459 653.39196746685775 0 0 0 0 305.61033609136484 -0.090271747574661276 0 -0.090271747574661276 332.82067636051943 0 0 0 0 92.744639190575981 180.65677171800053 0 180.65677171800053 1112.9779777838776 0 0 0 0 102.5150722180806 51.849497890892962 0 51.849497890892962 652.61373202769028 0 0 0 0 25.521237026847757 -84.286499026539786 0 -84.286499026539786 958.72980985892355 0 0 0 0 148.41658404495683 139.37778012247145 0 139.37778012247145 672.91798121137253 0 0 0 0 196.08830834203582 -61.060819948485005 0 -61.060819948485005 205.43033480032176 0 0 0 0 140.65564283326785 -17.162618345719238 0 -17.162618345719238 347.02763779617817 0 0 0 0 -10.252491294388165 -99.443297302164865 0 -99.443297302164865 363.18045956979768 0 0 0 0 54.98738200452317 124.67399852951712 0 124.67399852951712 165.42545509996853 0 0 0 0 424.7729806476782 285.98174622953957 0 285.98174622953957 563.21271655026794 0 0 0 0 134.58103559919346 -37.962925411569813 0 -37.962925411569813 482.12053689111053 0 0 0 0 -124.80398980276823 -131.62850339185024 0 -131.62850339185024 -26.165667440178368 0 0 0 0 -55.377266376777698 -7.7700776150686579 0 -7.7700776150686579 192.32440744355608 0 0 0 0 -163.71530512937534 179.32403298613099 0 179.32403298613099 165.39150092631098 0 0 0 0 -89.209681027317856 68.793353380791814 0 68.793353380791814 260.60518503530329 0 0 0 0 123.37432220287155 219.32704459477463 0 219.32704459477463 176.58222532922809 0 0 0 0 86.619339307316295 168.53309821471157 0 168.53309821471157 126.41142460434912 0 0 0 0 -42.885856932410206 98.117513804138071 0 98.117513804138071 118.30374846914128 0 0 0 0 -45.511587258751206 71.514110184378296 0 71.514110184378296 57.527587489976213 0 0 0 0 -41.605591989407912 73.481368852106243 0 73.481368852106243 47.169145123801627 0 0 0 0 -92.704194036382887 49.045081799298714 0 49.045081799298714 78.448939445457654 0 0 0 0 -0.96838843163244448 -1.678044898724707 0 -1.678044898724707 12.394772236672125 0 0 0 0 -172.80349018078027 -112.17132501981177 0 -112.17132501981177 258.79673474003175 0 0 0 0 172.92776663782843 -113.60293220962194 0 -113.60293220962194 -61.3502218012909 0 0 0 0 -55.056284291345037 -102.97291257590405 0 -102.97291257590405 -54.129396684988023 0 0 0 0 11.11819820853907 1.8046600944335296 0 1.8046600944335296 -66.86273426545813 0 0 0 0 198.79532766435347 71.270710284317488 0 71.270710284317488 -42.280875942880812 0 0 0 0 32.132856075777454 125.21916224262168 0 125.21916224262168 100.94762345651588 0 0 0 0 -53.389160045115432 15.17296496746394 0 15.17296496746394 2.2777435522839369 0 0 0 0 0.47870500595371812 -1.5244758035000867 0 -1.5244758035000867 6.1770605922231994 0 0 0 0 -38.759543885325456 50.217081933069494 0 50.217081933069494 30.887648146315769 0 0 0 0 -59.233826151138601 74.271644917551384 0 74.271644917551384 323.83617825598321 0 0 0 0 50.325321552305923 57.431797995113811 0 57.431797995113811 -100.34370998902159 0 0 0 0 6.9155537729230723 -0.23109780156065085 0 -0.23109780156065085 -0.41083492267757293 0 0 0 0 424.81675040554956 191.45860778638416 0 191.45860778638416 -166.87402610457502 0 0 0 0 6.9706344921476244 -1.1221731129563111 0 -1.1221731129563111 1.1653937111793553 0 0 0 0 -235.17963963748844 8.0183551409736538 0 8.0183551409736538 909.64284948290879 0 0 0 0 211.03235807025521 -435.20080727519417 0 -435.20080727519417 670.95983766670906 0 0 0 0 1.7813229316165042 2.9695731219434585 0 2.9695731219434585 6.3155353632499072 0 0 0 0 11.448511314443749 -136.20511240907945 0 -136.20511240907945 488.16019945775224 0 0 0 0 -28.85678702011819 105.85439951357876 0 105.85439951357876 521.0415510524665 0 0 0 0 25.930137454524811 -16.924284220065601 0 -16.924284220065601 762.53410892248849 0 0 0 0 0.97950838625568437 -1.0345811034726573 0 -1.0345811034726573 3.3732644875212969 0 0 0 0 -162.3990894407998 -180.24374350377548 0 -180.24374350377548 797.96469721412177 0 0 0 0 281.576239352372 -163.94068235121722 0 -163.94068235121722 98.082905530682183 0 0 0 0 2.6465510354116759 -291.61818088456494 0 -291.61818088456494 476.58918375145367 0 0 0 0 -3.8207254871033456 1.8853250561714958 0 1.8853250561714958 79.138005633907596 0 0 0 0 2.6726055517364777 -2.5611724857907134 0 -2.5611724857907134 0.73020716896145998 0 0 0 0 12.534787180020885 13.000898387232155 0 13.000898387232155 39.495818260787019 0 0 0 0 14.957728451921867 21.547849958376901 0 21.547849958376901 61.608354108637286 0 0 0 0 4.34210875557892 26.508922428078222 0 26.508922428078222 59.448197188165068 0 0 0 0 5.9713198535547178 34.35839866499191 0 34.35839866499191 91.790438602965878 0 0 0 0 -34.696347526485852 9.9941093724137318 0 9.9941093724137318 123.14325894295871 0 0 0 0 7.5039396733372996 -14.493111972235056 0 -14.493111972235056 118.25889451827413 0 0 0 0 -51.929709767735176 0.11607547236053506 0 0.11607547236053506 117.71020402262366 0 0 0 0 -32.770188931882203 -37.456766536998657 0 -37.456766536998657 173.39771992935857 0 0 0 0 141.40098881270592 -129.74050363073184 0 -129.74050363073184 420.05135837891066 0 0 0 0 -17.866064247173711 -46.689727100168966 0 -46.689727100168966 105.98612345803122 0 0 0 0 0.078891536379728677 -28.843686499036266 0 -28.843686499036266 495.36849462419923 0 0 0 0 -98.99041324126847 -132.80085570065421 0 -132.80085570065421 392.71770465241025 0 0 0 0 -12.798737379330362 0.4976851402216198 0 0.4976851402216198 107.58223944178098 0 0 0 0 2.0275965558887821 -1.7521209408010989 0 -1.7521209408010989 -0.43963164403825772 0 0 0 0 366.2841244591641 -130.74921631950929 0 -130.74921631950929 202.63227888429537 0 0 0 0 12.729012583059671 -99.588537618868941 0 -99.588537618868941 202.59220139235549 0 0 0 0 78.076163883594859 -138.43338095304171 0 -138.43338095304171 212.39208457943823 0 0 0 0 -31.134533380860404 -68.478582343554081 0 -68.478582343554081 125.83055826344935 0 0 0 0 44.603152768375423 -178.04657202117232 0 -178.04657202117232 259.28340358190781 0 0 0 0 -141.40078267128925 -31.095812254833618 0 -31.095812254833618 204.23990616371884 0 0 0 0 1.017649449065946 -1.2400627642727642 0 -1.2400627642727642 -0.087733448343310982 0 0 0 0 2.6656449850028565 -157.72519983194906 0 -157.72519983194906 479.27515709149884 0 0 0 0 9.8438390891007259 -36.729433548576708 0 -36.729433548576708 155.95289554303599 0 0 0 0 -31.568390614090049 -76.054778141686256 0 -76.054778141686256 248.01285759160692 0 0 0 0 -48.335463980595023 20.002955088129966 0 20.002955088129966 124.44536918020822 0 0 0 0 -104.35596059128193 84.647709388897056 0 84.647709388897056 256.86447022602624 0 0 0 0 -84.891637491344909 73.73724729634705 0 73.73724729634705 9.1322331329793087 0 0 0 0 -5.2576755048362429 76.993149942334639 0 76.993149942334639 72.213839337102399 0 0 0 0 -43.416413090247488 147.29936709383219 0 147.29936709383219 393.82288141666504 0 0 0 0 -90.041910016879115 170.45365964475241 0 170.45365964475241 60.584986872225272 0 0 0 0 -6.0139790572972345 42.447510941887231 0 42.447510941887231 -40.815458350429253 0 0 0 0 -232.49206183791426 192.57807509938169 0 192.57807509938169 60.827469371753978 0 0 0 0 -54.20908160366389 -157.25159271538723 0 -157.25159271538723 406.0653733951367 0 0 0 0 0.39822390134555719 1.822430349807485 0 1.822430349807485 2.5844128913834936 0 0 0 0 -253.23993217613872 -170.15486855916242 0 -170.15486855916242 462.96215506306044 0 0 0 0 60.889283672533566 156.24460702387842 0 156.24460702387842 95.080115780376218 0 0 0 0 -9.2527487018965076 67.782051202806542 0 67.782051202806542 -1.1532722786250815 0 0 0 0 -132.04675604035583 -256.75684806212394 0 -256.75684806212394 293.27704511809134 0 0 0 0 -331.10408585375558 79.16970471382183 0 79.16970471382183 97.566029858371621 0 0 0 0 -146.46339245113603 77.532438180041481 0 77.532438180041481 -34.210517579769657 0 0 0 0 0.51314295500908469 3.3097455467041748 0 3.3097455467041748 5.4182639693071337 0 0 0 0 -182.02887949300006 77.604357888016239 0 77.604357888016239 -23.594552119699074 0 0 0 0 -248.98839559376506 120.15014926817821 0 120.15014926817821 8.4607802740410989 0 0 0 0 2.6862329678015158 125.72557283828064 0 125.72557283828064 -55.969965654972839 0 0 0 0 -104.05252600992756 129.54449619220941 0 129.54449619220941 -48.006118191391579 0 0 0 0 -139.8056689146996 137.24242314412095 0 137.24242314412095 -34.490554081119626 0 0 0 0 -177.36286337258616 181.74101727795278 0 181.74101727795278 -56.548573787868008 0 0 0 0 7.9837176483631085 25.257163507369548 0 25.257163507369548 60.789268231569437 0 0 0 0 -214.73799312789538 101.54211754388598 0 101.54211754388598 77.855534524489485 0 0 0 0 6.1665392915816195 21.739451483848875 0 21.739451483848875 54.853213101720357 0 0 0 0 -147.73888970761783 120.01570044268738 0 120.01570044268738 -39.614629082615465 0 0 0 0 -205.53214244575861 178.20627990024514 0 178.20627990024514 -3.6034408184423228 0 0 0 0 -126.76897983035383 39.213010666953778 0 39.213010666953778 65.660458278791339 0 0 0 0 0.54505515547211258 3.5457500590329332 0 3.5457500590329332 4.3713280272327495 0 0 0 0 -60.127708977494422 8.1254255079438735 0 8.1254255079438735 -15.964364607330936 0 0 0 0 -269.12344032902979 111.54063121247054 0 111.54063121247054 0.24125586506852414 0 0 0 0 -263.54485517995261 95.548585236068902 0 95.548585236068902 -17.284413857894833 0 0 0 0 -385.46082712394764 71.20348853827636 0 71.20348853827636 24.834843904172885 0 0 0 0 -332.01960219219279 145.28444794748066 0 145.28444794748066 27.697351307364443 0 0 0 0 -374.79064545418089 64.372307335232108 0 64.372307335232108 -31.050886739307316 0 0 0 0 0.47260208693555905 2.4648928852205465 0 2.4648928852205465 1.3894764252845704 0 0 0 0 6.5863435936535097 164.48196982591344 0 164.48196982591344 55.161460560870182 0 0 0 0 -22.018038932076706 109.05252113625647 0 109.05252113625647 -26.475513889676222 0 0 0 0 -45.930417358320028 107.53712413277754 0 107.53712413277754 110.6995475629974 0 0 0 0 -58.355279633282407 83.005502080732185 0 83.005502080732185 72.56786006008042 0 0 0 0 85.384229918157416 -2.0942453395946359 0 -2.0942453395946359 25.862394192266038 0 0 0 0 7.6971424107787243 78.720494144562508 0 78.720494144562508 -50.547264836477552 0 0 0 0 94.10089554277738 37.009762610394318 0 37.009762610394318 -8.267946493357158 0 0 0 0 28.396323547683096 -54.118493991838477 0 -54.118493991838477 288.62606261645124 0 0 0 0 185.70916934287288 -33.855457377889252 0 -33.855457377889252 35.340699244952702 0 0 0 0 -17.740837585286499 -22.692381064000074 0 -22.692381064000074 339.35053720962151 0 0 0 0 110.82541240689443 117.38860566165022 0 117.38860566165022 99.814449013218109 0 0 0 0 -17.603857989159224 84.897537725704751 0 84.897537725704751 12.495473067945568 0 0 0 0 -197.09109435363189 167.34603561111726 0 167.34603561111726 65.990422218517779 0 0 0 0 -53.941987454621085 -5.2511702061465257 0 -5.2511702061465257 9.0795881505109719 0 0 0 0 61.414643654180509 63.155049841090658 0 63.155049841090658 -68.565743765553634 0 0 0 0 -169.14066905108575 88.263914871185989 0 88.263914871185989 -17.006513247362818 0 0 0 0 2.7270801873233914 7.3472267649374885 0 7.3472267649374885 18.140494143478264 0 0 0 0 18.977222915515767 7.0547612679392842 0 7.0547612679392842 149.20276379770075 0 0 0 0 49.42592883041425 -155.71039735421891 0 -155.71039735421891 222.45147367166646 0 0 0 0 -18.257516905736338 181.81003113516363 0 181.81003113516363 48.538994368704152 0 0 0 0 38.327911924186992 -62.611681344294993 0 -62.611681344294993 1.5589911822426075 0 0 0 0 102.47686583403356 73.563364974606884 0 73.563364974606884 24.723739583696442 0 0 0 0 242.94011533424828 37.186577574399962 0 37.186577574399962 28.586116579674126 0 0 0 0 47.590797619994532 12.674519862457146 0 12.674519862457146 -40.467196902216529 0 0 0 0 50.333651622921707 -10.872147490269526 0 -10.872147490269526 -54.684285494899086 0 0 0 0 154.83078237714381 16.262838614926295 0 16.262838614926295 -73.515636109616025 0 0 0 0 
</DataArray>
<DataArray type="Float64" Name="cross_section_updated" format="ascii">
1 1 1 1 1 0.01068886378392565 1 1 1 1 1 1 1 1 1 1 0.012127858850704802 1 1 0.010617875986787095 1 0.010012245620035543 1 1 1 1 0.011549442842934443 1 1 1 1 1 1 0.010593361508409872 1 1 1 1 1 1 0.011294514026467506 0.01226001750559735 1 1 0.011553274567588033 0.010147579805982869 1 1 1 1 1 1 1 1 1 1 0.0085694887677849121 0.011309048162220274 1 1 1 0.015910526885619874 1 1 1 1 0.012139327892215564 1 1 1 1 1 1 1 1 1 1 1 0.016067600227933836 1 1 1 0.017826727545858456 1 1 1 0.010639425639537972 1 1 1 1 0.010153829818718079 1 1 1 1 1 1 0.0098757823991673498 1 1 0.0099026739825888929 1 1 1 1 0.014018402768792284 1 1 1 1 1 0.010792061648226941 1 1 1 1 1 1 1 1 1 1 1 1 1 1 1 1 1 1 1 1 1 1 0.0094783163180248604 1 1 1 0.010515499444939107 1 1 1 1 1 1 0.0084929985966677168 1 1 1 1 1 1 1 1 1 1 1 1 1 1 1 1 1 1 1 1 1 1 1 0.0095722382733893375 1 0.0090505545914142012 1 1 1 1 1 1 1 1 1 1 1 1 0.010772837026207984 1 1 1 1 1 1 1 1 1 1 1 1 0.010723295320250311 1 1 1 1 1 1 1 1 1 1 1 1 0.010213641382885334 1 1 1 0.0098894434321109646 0.011678896232907274 1 1 1 1 1 1 1 0.011564898674434927 1 1 1 1 1 1 1 1 1 0.0091159277206700855 1 1 0.0097388328368197396 1 1 1 1 1 1 1 1 1 1 1 1 1 1 1 1 1 1 0.0097674697696802631 1 1 1 1 1 1 1 1 1 0.009370534003170514 1 1 1 1 1 1 1 1 1 1 1 1 1 1 1 0.01036428885286772 1 1 1 1 1 1 1 1 1 1 1 1 1 1 1 1 1 1 0.0093145385517361332 1 1 1 1 0.0097758953183430218 1 1 1 1 1 1 1 1 0.0093451640202746617 1 1 0.0097114743182458736 1 1 1 1 1 1 1 1 1 1 1 1 1 1 1 1 1 1 1 1 1 1 1 0.019617697325817633 1 1 1 1 0.01932777256441686 1 1 1 1 1 0.0097696737912894016 0.0097879066728185742 1 1 0.012027286772293198 0.015814486239290677 1 1 1 1 1 1 1 0.011478649445879058 1 1 1 1 1 1 1 1 0.010984458068840935 1 1 1 1 1 1 1 1 0.010062521445817121 1 1 1 1 0.010200217123185865 1 1 1 1 1 1 0.010330427163797059 1 1 1 1 1 1 1 1 1 1 1 1 1 1 1 1 1 1 1 1 1 1 1 1 1 1 1 1 1 0.0099119091849111871 1 1 1 1 1 1 1 1 0.0097456119584960962 1 1 1 0.010294812002860631 1 1 0.010015326930836036 1 1 1 1 1 1 1 1 0.0091470511873192085 1 1 1 0.0097434973889517808 1 0.01124817631393607 1 1 1 1 0.015548083308397452 1 1 0.015935600113426041 1 1 0.019483043188673443 1 1 1 0.011276493428757833 1 1 1 1 1 1 1 1 1 1 1 1 1 1 1 1 1 1 1 1 1 1 1 0.010414450848378961 1 1 1 1 1 1 1 1 0.009621551905530653 1 1 1 1 1 1 1 1 1 1 1 1 1 0.0098394597235443495 1 1 1 1 1 1 1 1 1 1 1 1 1 1 1 1 1 1 1 1 1 0.010857248215245635 1 1 1 0.010112922461944387 1 1 0.012166967812096094 1 1 1 1 0.0099494660513886769 1 1 1 1 1 1 1 0.010084003740456177 1 0.012723805129172625 1 1 1 1 1 1 1 1 1 1 1 1 1 1 1 1 1 1 1 1 1 1 0.008808149204908142 1 0.013437061764680246 1 0.012406433686128187 1 1 0.0087749658202346606 0.011232506405956256 1 1 1 1 1 1 1 1 1 1 1 1 1 1 1 1 1 0.0089392877672303615 1 1 1 1 0.010960187781586989 1 1 1 1 0.017910718712415456 0.015959834044049027 1 -8.6736173798840355e-18 1 1 1 1 1 1 1 1 1 1 1 1 1 1 1 1 1 1 1 1 1 1 1 1 1 1 0.011319704165823584 1 1 1 1 1 1 1 1 1 1 1 1 0.010350867668595755 1 1 1 0.011755458444162375 1 0.0090957388242224029 1 1 1 1 1 1 1 1 1 1 0.0098723492801100054 1 1 1 0.010500663097934007 1 1 1 1 1 1 1 1 1 0.011510945389910425 1 1 1 1 0.012053458922442402 1 1 1 1 1 1 1 1 1 0.0095646297408850944 1 1 0.008523995833764425 1 1 1 1 1 0.010268966657945895 1 1 1 1 0.0090244999465743502 1 1 1 1 1 1 1 0.010531409865823011 0.0094370450400275037 1 1 1 1 1 1 0.0099339774029494413 1 0.009770242383358654 1 1 0.013958719590268263 1 0.0093653588910549528 1 1 1 0.0098161531277082565 1 1 1 1 0.013843666173225324 1 1 0.013616193428060154 1 0.0090410296262446229 0.01298814749879551 1 0.009950575645208036 0.0086143411005278961 1 1 0.01294004085560687 1 0.011581822655825779 1 1 1 0.0096536257292030286 0.010138110938967701 1 1 1 1 1 0.011048179917605132 1 1 1 1 1 1 1 1 0.010996355761880242 1 0.010415538068720935 1 1 1 1 0.01001132063950904 0.010914353787782273 1 1 0.010006755148670362 1 1 1 1 1 0.010767420537205778 1 1 0.010035246558891797 1 0.012973676723793261 1 0.0090903351063857524 0.0091085067781367969 1 0.011985259940069369 1 0.009025260223789959 0.010620119428792546 0.01126470252914229 1 1 0.0092726577265856182 1 0.0089563595422783963 1 1 0.0087185573502009429 1 1 1 1 1 0.0093766127526238637 1 1 0.011663613439826736 1 1 1 1 0.011283339259810394 1 1 1 1 1 1 1 0.011949102038858905 1 0.011005398737820558 1 1 1 0.010857064708406312 1 1 1 1 1 1 1 1 1 1 1 1 1 1 1 1 1 1 0.010319347435758967 1 1 1 1 1 1 1 1 1 0.010287131043950157 1 1 1 1 1 1 1 1 1 1 1 1 1 0.010018636140286835 1 1 1 1 1 1 1 1 1 1 1 1 1 1 1 1 1 1 1 1 1 1 1 1 1 1 1 1 1 1 1 1 1 1 1 1 1 1 1 1 0.010359846017717935 1 1 1 1 1 1 1 1 1 1 1 1 1 1 1 0.010733523443942111 0.010033528003438815 1 1 0.010585796848519027 1 1 1 1 1 1 1 1 1 1 1 1 1 1 1 1 1 1 1 1 0.010019951675552466 1 0.010011416652242144 1 1 1 1 1 0.010096944563619311 0.010098478771911112 1 1 1 1 1 1 1 1 1 1 1 1 1 1 1 1 1 1 1 1 1 1 1 1 1 1 1 1 1 1 1 1 1 1 1 1 1 1 1 1 1 1 1 1 1 1 1 1 1 1 1 1 1 1 1 1 0.009993396836667081 1 1 1 1 1 1 1 0.010848894497199935 1 1 1 1 0.010374890191055889 1 1 1 1 1 1 1 1 1 1 1 1 1 1 1 0.010604241222394319 1 1 1 1 0.011520763770387165 1 1 1 1 0.011801456906497389 1 1 0.016931742816705418 1 1 0.009907465753266665 1 1 1 1 0.0170361148628261 1 1 1 1 1 1 1 1 1 1 1 1 1 1 1 1 1 1 1 1 1 1 1 1 0.011327984079227797 1 0.014904593199589944 1 1 1 1 1 1 1 1 1 1 1 1 0.010533114628322645 1 1 1 1 1 0.011581037120007978 1 1 1 1 1 1 1 1 1 1 1 0.010997351840347003 0.0096763989617082696 1 1 0.010197395341724265 1 1 1 1 0.010022402264576099 1 1 0.0099464657265054771 1 1 1 1 1 1 0.010140841804807529 1 1 1 1 1 1 1 1 1 1 1 1 1 1 1 1 1 0.012076187880758257 1 1 0.0099638654967813545 1 1 1 0.012532915444840824 1 0.0099337154427747952 1 1 1 1 0.011077861201198424 1 1 1 1 1 1 1 0.010380909572827536 1 1 1 1 0.012150424140269829 0.010093649250536081 1 1 0.0099953327739128739 1 1 1 0.010374369189337693 1 1 0.014787371019211152 1 1 0.010100705368992055 1 1 0.010621624105744822 1 1 1 0.011900599163669642 1 1 1 1 1 1 1 1 1 1 1 0.015793864324590731 1 1 1 0.0091431500860842119 0.01050815096254685 1 1 0.010019276760924621 1 1 0.012109648078471598 1 1 0.010080929690085465 1 0.010525614470110183 1 1 1 0.012031495770729858 0.012242992900353878 0.01001852674266244 1 1 0.0085691156476166066 1 1 1 1 1 0.010078695434904771 1 1 1 1 0.010117575023447914 1 1 0.010157222531263417 1 1 0.012671047523729929 0.011969921343971563 1 1 1 1 0.01000917105069182 1 1 1 0.016189129777405109 1 0.010659595513149012 1 1 1 1 1 1 1 1 0.010162941721715077 1 1 1 0.011639711724991397 1 1 1 1 1 1 1 1 1 1 1 0.010001749374619517 1 1 1 1 1 0.014503652458662412 0.015106695336274113 1 0.012747980906947018 0.0071303772783896779 1 1 1 0.011783619876284169 1 0.010008539266859202 1 1 0.011455797841031146 1 1 1 1 1 1 1 1 1 0.015458170210773586 1 1 1 1 0.0095390424841774683 1 1 1 1 1 1 1 1 1 0.010018555888137297 1 1 1 1 1 0.010571126655141008 0.013686236472303564 1 1 0.010007296448406078 1 1 1 1 1 0.015194258044218499 1 0.014836162155807535 1 1 1 0.014177297951493063 1 1 1 1 1 1 1 1 1 0.012674594283715869 0.0098139237272685843 1 1 1 0.010006478394626272 1 1 0.010481209621979806 0.010017947101360298 1 1 1 0.012544404523564184 1 1 1 1 1 1 0.010287894144396115 1 1 1 0.010288005818039014 0.010827911087654888 1 1 1 0.01022657104464283 0.012063438725929644 1 1 0.011430671667999806 1 1 1 0.012274855457312484 1 0.010669483369382995 1 1 1 0.010177656404627731 1 1 1 1 1 1 0.010086913386341392 0.0099560443446187544 1 0.011865371303912218 1 1 0.010909333525269021 1 0.010622003122594816 0.010066775994327634 1 1 0.010126862608367699 1 1 1 1 1 0.010316384380620909 1 1 1 1 0.0098260334431871446 1 1 1 1 1 1 1 0.010069927629942205 1 1 1 1 0.019346277441500307 1 1 1 1 1 1 1 1 1 1 0.0133895415785736 1 1 0.017531341955394047 0.01204629348305248 1 1 1 1 1 1 1 0.010479898910124578 1 1 1 0.0099202129622481695 0.019246874621396994 1 1 1 1 1 1 1 1 0.010062784364207825 1 1 1 1 0.02060033206351863 1 1 1 1 1 0.010570921087197442 1 1 1 1 1 1 1 1 1 1 1 1 1 1 1 1 1 1 1 1 1 0.011495681659635533 1 1 0.011541412696345808 1 1 1 1 0.011050845241343109 1 1 1 1 1 1 1 1 1 1 1 1 1 1 1 1 1 1 1 1 1 1 1 1 1 1 1 1 1 1 1 1 1 1 1 1 1 1 1 1 1 1 1 1 1 1 1 1 1 0.012061727975151872 1 1 1 1 1 1 0.011850386577769092 1 1 1 1 0.010713419175055309 1 0.011011786495137572 1 1 0.010029464520985533 1 1 1 1 1 1 1 1 1 1 1 1 1 0.01270428401938448 1 1 0.013834994547445082 1 1 0.007398754589483773 1 0.0092567439898221891 1 1 1 1 1 1 1 1 1 1 1 1 1 1 1 1 1 1 1 1 1 1 0.0091256940188763017 1 1 1 1 1 1 1 1 1 1 1 1 1 1 1 1 1 1 1 1 1 1 1 1 1 1 1 1 1 1 1 1 1 1 0.0100638608443417 1 1 1 1 1 1 0.0099932549951165118 1 1 0.011341582430374765 0.0093167636323508145 1 1 1 1 1 1 1 0.0093041853396205222 1 1 0.012938609798779499 1 1 1 1 1 1 0.012271064233708532 1 1 1 0.010220023452247895 1 0.010658651375239147 1 1 1 0.01134390242464078 1 1 1 0.01118647783025222 1 1 1 1 1 0.011714875944636062 1 1 0.010311866456020034 1 0.0099806917112057643 0.010974761077325113 1 1 0.010533399204787443 1 0.0094741735307295807 1 1 1 1 1 0.010145870608312934 1 1 0.012417062886217427 1 0.010003787852724339 1 1 0.011584732907212644 1 1 1 1 1 0.0098204917167519674 0.010527880278106826 0.010017236152563466 1 1 1 1 1 1 1 1 1 1 0.010001122865154878 1 1 0.011059592037922329 1 1 0.010522254469307567 0.011000196541145757 0.010864411663206669 1 0.011197660813163771 1 1 1 1 0.011189739479495616 1 0.010000820205271573 1 1 1 0.011144571476066165 1 0.011060220698458962 1 0.011416792933723077 1 1 1 0.0093790327982714687 1 1 0.0099928394714204338 1 0.011540360581018323 0.010410201583502504 0.010426229776585492 1 1 0.010902003971437453 1 0.010468442980920216 0.012685426520342028 1 1 1 1 1 1 1 1 1 1 1 1 0.012273537454883569 1 1 1 1 0.012143900740055212 1 1 1 0.010881236460524225 0.011192587301995493 0.010850543488956668 1 1 1 0.010914773960841274 1 0.010868781610696583 1 0.010736813280194732 1 1 1 1 1 1 0.010091136574890573 1 1 0.009788544721583723 0.012687188667569283 0.012791444656861072 1 1 1 0.016733433193483326 1 0.010013200799803047 1 1 1 1 1 1 1 0.01028527885476066 1 1 1 1 0.0099544736568818442 1 1 1 0.011086585277232367 1 0.014581477076866202 0.012603832242423202 1 0.011095250268840031 1 1 1 1 1 1 1 1 1 1 1 1 1 1 0.011584269430786208 1 1 1 1 1 1 1 1 1 1 1 0.010845141920900339 1 1 1 1 1 1 1 1 1 1 1 1 1 1 1 1 1 0.010746457516966831 1 1 1 1 0.010009162787908591 1 1 1 1 1 1 1 1 1 1 1 1 1 1 1 1 0.0099684956874801119 1 0.011319365915587834 1 1 1 1 0.011097564181958189 1 1 0.010556663505718857 1 1 0.011192377641238854 1 1 0.010000432714808345 0.010575051243387198 1 1 0.010493547417358707 1 1 0.010112795421977436 1 1 1 0.010310436731321846 1 1 1 1 0.010099674284199882 1 0.0114340378270106 1 1 1 1 1 1 1 1 1 1 1 1 1 1 1 1 1 1 1 1 1 1 1 1 1 0.010557841096305944 1 1 0.0099366573438851163 1 1 1 1 1 1 1 1 1 1 1 0.0099422072348372623 1 1 1 1 0.010088227793935093 1 1 0.010363874471544837 1 1 1 1 1 0.010194844837994035 1 0.010125431560599914 1 1 1 1 1 1 1 1 1 1 1 1 1 1 1 1 1 1 1 1 1 1 1 1 1 0.011109131679882023 1 0.010418439318861973 1 0.013017516686296235 0.0082485313678354998 1 1 1 1 1 0.011179713717293871 1 1 1 1 1 1 0.010450330666929734 1 1 1 1 1 1 0.014880877817689604 0.010280243531216905 1 1 1 1 0.0093791381765359512 1 1 1 1 1 1 1 1 1 1 1 1 1 1 1 1 1 1 0.0065885692953692003 1 0.01623266608351908 0.0088481769459528327 1 1 1 1 1 1 1 0.015044390332722221 1 1 1 0.013809354803570491 0.0099803403956116379 1 1 1 1 1 1 1 1 1 1 1 1 1 1 1 1 1 1 1 1 1 1 1 1 1 1 1 1 0.013205551953734577 1 1 1 1 0.011223319326662142 1 1 1 1 1 1 1 1 1 1 1 1 1 1 1 1 1 1 0.010297447366808685 1 1 1 1 1 1 1 1 0.013047426450580692 0.0099959916762381428 1 0.0099213080752973207 1 1 1 1 1 1 1 1 1 1 1 0.010727560484363696 1 0.010652652746236923 1 1 1 1 1 1 1 1 1 0.010585803767564433 1 1 1 0.010417445314210669 0.010371990081541431 1 1 1 0.010580535294809139 0.010010585049786906 1 0.010032370347985597 1 1 1 1 1 1 1 1 1 0.011766035491007102 1 1 1 1 1 1 1 0.009076631233887314 1 1 1 1 1 1 0.0097108232170241959 1 1 1 1 1 1 0.010570476054518772 1 1 1 1 1 1 1 1 1 1 1 1 1 1 1 0.011174905973959533 1 1 1 1 1 1 1 1 1 1 1 1 1 1 1 0.011897613697936496 1 1 1 1 1 1 1 1 1 1 0.014879292230177173 1 1 1 0.009979655835842139 1 1 1 1 1 1 1 0.013653421681756457 1 1 1 0.008837125276834723 1 1 0.013813643936691163 1 1 1 0.011223454563947192 0.010475935861210019 1 1 1 0.012421051058605562 1 1 1 1 1 1 1 0.0093581247211368124 1 1 1 1 1 0.0098617506236910388 1 1 1 1 0.0095856333840134179 1 1 1 1 1 1 1 1 0.0097965405882811437 1 1 1 1 1 1 1 1 1 1 1 1 1 1 1 1 1 1 1 1 1 1 1 1 1 1 1 1 1 1 1 1 1 0.0087675875581812394 1 1 0.013253438959474567 1 1 1 0.010201929990145962 0.01149017455317411 1 1 1 1 0.010617694949828466 0.011506453549877454 1 1 1 1 1 0.010796024796378742 1 1 1 1 1 1 1 0.0092421470821418047 1 1 1 1 1 0.011739247086462698 1 1 1 0.010620133862730332 1 1 1 1 1 0.012722352841872588 0.0098496798700731109 1 1 1 1 1 1 1 1 1 1 1 0.012720487114734723 1 1 0.013844087398318557 1 1 1 1 1 1 1 1 1 1 1 1 1 0.011442281737607734 0.01377298019334261 1 1 1 1 1 1 1 1 1 1 1 1 1 1 0.015116400348402018 1 1 1 0.009711526587283659 1 1 1 1 1 1 1 1 1 1 1 1 1 1 0.013172352310994773 1 0.0097347779324570838 1 0.0093391138163982507 1 1 1 1 1 0.0103050048308438 0.0091338896420907374 1 1 1 1 1 0.011779018486142654 1 1 1 1 1 1 1 1 1 1 0.010723175643083104 1 1 1 1 1 1 1 1 1 1 1 1 1 1 1 1 1 1 1 1 0.011067179214704414 1 1 1 1 1 1 1 1 1 1 1 1 1 1 1 1 1 1 1 1 1 1 1 1 1 0.0099706132103586573 1 1 1 1 1 1 1 0.0095518262691780629 1 1 1 0.010189026872277207 1 1 1 1 0.010244485067779686 1 0.0099260798013149961 1 1 1 1 1 1 0.0099511263687503699 1 1 1 0.010061622490002007 1 1 1 1 0.011537571205361453 1 0.0096463448114550345 1 0.010872099307523047 1 1 1 0.0086118100176960158 1 0.0091445434270007731 1 1 1 1 1 1 1 1 0.011240080038204809 1 1 1 1 1 1 0.010498976417237991 1 1 1 1 1 0.0092494692684560783 0.0099711184032385009 0.016806836174526878 1 1 1 1 1 1 1 1 1 1 1 1 1 0.0094803489240146699 1 0.013175654058917761 1 1 1 1 1 1 1 1 1 0.011265345871287757 1 1 0.0055730122488031062 0.01154020083014163 1 1 0.010601257195318833 1 1 1 1 0.010716900311043458 1 1 1 1 0.0078391860921629974 1 1 1 1 1 0.012252365608549153 1 1 1 1 0.0094742955903993117 1 1 1 0.016445310549728497 1 1 1 1 1 0.014134722994688894 1 1 1 1 1 1 1 1 1 0.010427873156429998 1 1 1 1 1 1 1 1 1 0.010506667732951731 1 1 1 1 1 1 1 1 1 1 0.016284654125878081 1 1 0.01031495576538189 1 0.011323883230170379 1 1 1 1 1 1 1 1 1 1 0.016981348344651523 1 0.016686232563419175 1 1 1 1 1 1 1 1 1 1 1 0.011407609363155994 1 1 1 0.019698252140932879 1 1 1 1 0.021502518983836632 1 1 0.022171449310223766 1 1 1 1 1 1 1 1 1 1 1 1 1 1 1 1 1 1 1 1 1 1 1 1 1 1 1 0.02241959205297207 1 1 1 1 0.014507348300717975 1 0.0099711811547384243 0.016672911371573514 1 1 1 1 1 0.017966655595369831 0.012099870436637883 1 1 1 1 1 1 1 1 1 1 1 1 1 1 1 1 1 1 1 0.016958764926534406 1 1 1 1 0.010656424990275052 1 1 1 1 1 1 1 0.0095167541484468439 0.010719299100950009 1 1 0.01000478933753552 1 1 0.0093548270629909662 1 0.010363798905413337 1 0.011784448394262905 1 1 1 1 1 0.0098406760891164291 1 1 0.011024256445466139 1 0.0099708180384992743 1 1 1 1 1 1 1 1 1 1 1 1 1 1 1 1 0.0099242851167901224 1 0.010028800805438883 1 1 1 1 1 1 1 1 1 1 1 1 1 1 1 1 1 1 1 1 1 1 1 1 1 1 1 1 1 1 1 1 1 1 1 0.010199426019845519 1 1 1 1 0.010520224202295722 1 1 1 1 1 1 1 1 1 1 1 1 1 0.015330327160718187 1 0.016869971288011782 1 1 1 0.019660163215123719 0.018482501627860141 1 1 1 1 1 0.018424361030830297 1 1 1 1 0.017390199940655313 1 1 0.014447751566393406 1 1 1 1 1 1 1 1 1 1 1 1 1 1 1 1 1 1 1 1 1 1 1 1 1 1 1 1 1 1 1 1 1 1 1 1 0.010546602751565761 1 1 1 1 1 1 1 1 1 1 1 1 1 1 1 1 1 1 1 1 1 1 1 1 1 1 1 1 1 1 1 1 0.0098167894800106608 1 0.010105066903580002 1 1 1 1 0.0099603618354408615 1 1 1 1 0.010016354337997515 1 1 1 1 1 1 1 1 1 1 1 1 1 1 1 1 1 1 1 0.0099884809823488387 1 1 1 1 1 1 0.0094403832429844035 1 1 1 1 1 0.0099817136181029782 1 1 1 1 1 1 1 1 1 1 1 0.0096935018377648282 1 1 1 1 1 1 1 1 0.0096028051157577791 1 1 1 1 1 1 1 0.0098860355507213431 1 1 1 1 1 1 1 1 1 1 1 1 1 1 1 1 1 1 1 1 0.010130977852012536 1 0.0093735646069167625 1 1 1 1 1 1 1 1 1 0.010396856749609527 0.011043970835627017 1 1 0.0097974071329443579 1 1 1 0.01003625432681695 1 1 1 1 0.0093250880196939778 1 1 1 0.0097722060470388922 1 1 1 1 1 1 1 1 1 1 1 0.014043389438587784 1 1 0.010048703060507501 1 1 1 1 0.0098650494039778727 1 1 0.011824532849700399 1 1 1 1 1 1 1 1 1 1 1 1 1 0.011749256217908493 1 1 1 1 1 1 0.01132656677029497 1 1 1 0.012745732610580172 1 1 1 1 1 1 1 1 0.012043729173717078 1 1 1 0.0092332460988067012 1 1 1 0.011582729296494612 1 0.0097414897104244821 1 1 1 1 1 1 1 1 1 1 0.0098997740800908941 1 0.0097959220581275673 1 0.011986521433710602 1 0.0089080052980127396 1 1 1 1 1 1 1 1 0.010152164498526161 1 0.010374044550519114 1 1 1 1 0.0095918399966762914 1 1 1 1 1 0.0072449580139678279 1 1 1 1 0.01161219009793389 1 1 1 1 1 0.012428452697425122 1 0.0077158491257080762 1 0.0085860675013672526 0.010630051510555167 1 1 1 1 0.0091065063337853851 1 1 1 1 1 1 1 1 1 1 1 1 1 1 1 1 1 1 1 1 1 1 0.0097773451701122262 1 0.0091710829822056507 1 0.011943416057977935 1 1 1 0.010808008264998496 1 0.010052698456370364 1 1 1 0.012669851612032894 1 1 1 1 1 1 1 1 1 1 1 1 1 1 1 1 1 1 1 1 1 1 1 1 1 1 1 1 1 1 1 1 1 1 1 1 1 1 1 1 1 1 1 1 1 1 1 1 1 1 1 1 1 1 1 1 1 1 1 1 1 1 1 1 1 1 1 1 1 1 1 1 1 1 1 1 1 1 1 0.010427117626153691 1 1 1 1 1 1 0.0098104526266745117 1 1 1 1 1 1 0.005528980798104273 1 1 1 1 1 0.0099487697685812834 1 1 1 0.0059862884411040502 1 1 1 1 1 1 0.0094566334883714118 1 1 0.0085124130521575421 1 0.0096820495271537927 0.0065625709702962663 1 1 1 0.0097854847689671995 1 1 1 1 1 1 1 1 1 1 1 1 1 1 1 1 1 1 1 1 1 1 1 1 1 1 1 1 1 1 1 1 1 1 1 1 0.0099286663878906407 1 1 1 1 1 0.0097538253009254675 1 1 1 1 1 1 1 1 1 0.010269061257854605 0.01090859551215255 1 1 0.010213077294479046 1 0.010064245412273604 1 1 0.009942404026496876 0.010613715074540502 1 1 0.010913530740749971 1 1 1 1 1 1 1 1 1 1 1 1 1 0.010145198984856248 1 1 1 1 1 1 1 1 1 1 1 1 1 1 1 1 1 1 1 1 0.0097658793999256775 1 1 1 1 0.010089352802008039 1 1 0.010585725429391948 1 1 1 1 1 1 1 1 1 1 1 0.010643908156223247 1 1 1 1 1 1 1 1 1 1 1 1 1 1 0.011613784330448546 1 1 1 1 0.0093406836159969694 1 1 1 1 1 0.0089931475983240795 1 1 1 1 1 1 1 1 1 1 1 1 1 0.010351278687912377 1 1 1 1 1 1 1 1 1 1 1 1 1 1 1 1 1 1 0.012033709296276777 0.0099988482469275212 1 1 1 1 1 1 1 1 1 1 0.012046043536322054 1 1 1 1 1 1 1 1 1 1 1 0.010432861679153572 1 1 1 1 0.010770467156660355 1 1 1 1 1 1 1 1 1 1 1 1 0.010288252638197522 1 1 1 1 1 1 1 1 1 1 1 1 1 1 1 1 1 1 1 1 1 0.010343179697487643 0.0098923728973651232 1 1 1 1 1 1 1 1 1 1 1 0.011222855373843092 0.0099922037190426759 1 1 1 1 1 0.011290737105255164 1 1 1 1 0.010076869249531004 0.010405880885019732 1 0.0099536632663809865 1 1 0.0099993620322640607 1 0.012049976133869057 1 1 1 0.0099902515890820318 1 1 1 1 0.0099898080491123298 1 1 1 1 1 0.013653020652891108 1 1 1 0.011560066204544859 1 1 1 1 1 0.010062380672298898 1 1 1 1 1 0.010196737688194289 1 1 0.011763047824634653 1 1 0.011335468020095416 1 1 1 0.011555577128015283 1 1 1 0.011411776418745611 1 1 1 0.011540292394231608 1 1 1 0.010301333056764206 1 0.0099852767430498712 1 1 1 1 1 1 1 0.012114905914014729 1 1 1 0.010144609040956055 1 1 1 1 1 1 1 1 1 1 1 1 1 1 1 1 1 1 1 1 1 1 1 1 1 1 1 1 1 1 1 1 1 1 1 1 1 1 1 1 1 1 1 1 1 1 1 1 1 1 1 1 1 1 1 1 1 1 1 1 1 1 1 1 1 1 1 1 1 1 1 1 1 1 1 1 1 1 0.0097958507372777736 1 1 0.0096583555128709579 1 1 1 1 1 1 1 1 1 1 1 1 1 1 0.010437430054461582 1 1 0.0099916454922589198 1 1 0.010865826610771319 1 1 1 1 1 1 1 1 1 1 1 1 1 1 1 1 1 1 1 1 1 1 1 1 1 1 1 1 1 1 1 1 1 0.0099291291471704582 1 1 1 1 1 1 1 1 1 1 1 1 1 1 1 1 1 1 1 1 1 1 1 1 1 1 1 1 1 1 1 1 1 1 1 1 1 0.010240363675091178 1 1 1 1 1 1 1 1 1 1 1 1 1 1 1 1 1 1 1 1 1 1 1 1 1 1 1 1 1 1 1 1 1 1 1 1 1 1 1 1 1 1 1 1 1 1 1 1 1 1 1 1 1 1 1 1 1 1 0.010167657948880783 1 1 1 1 1 1 1 1 1 1 1 1 1 1 1 1 0.010191024506444006 1 1 0.009968479899269864 1 0.010449127177328453 0.010530388856843284 1 1 1 1 1 1 1 1 1 1 1 1 1 1 1 1 1 1 1 1 1 1 1 1 1 1 1 1 1 1 1 1 1 1 1 1 1 1 1 1 0.0098848366856096933 1 1 1 1 0.0094086285195700281 1 1 1 1 1 0.009325641744473416 0.011977661847269378 1 1 1 0.0089856495559075163 0.012174405963137845 0.011521723407327017 1 1 1 1 1 1 1 0.011992349896075864 1 1 0.012227369990076412 1 1 0.012304100987184301 1 1 0.0095683369225480364 1 1 1 1 1 1 0.010142418984262351 1 1 0.010321625963849657 1 1 1 1 1 1 1 1 1 1 1 1 1 1 1 1 1 1 1 1 1 1 1 1 1 1 0.0097375071336731536 1 1 1 1 1 1 1 1 1 1 1 1 1 1 1 1 1 1 1 1 1 1 1 1 1 1 1 1 1 1 1 1 1 1 1 1 1 1 1 1 1 1 1 1 1 1 1 1 1 1 1 1 1 1 1 1 0.011074502116712797 1 1 0.010089188355666908 0.010423079483112982 1 1 0.010003619515676628 0.011126028950584774 1 1 1 0.011267273487312403 1 0.01008458472311048 1 1 1 0.014158210564144928 1 1 1 1 1 1 1 1 1 1 1 1 1 1 0.010851561982428405 1 1 1 1 1 0.010643717529094352 1 1 1 1 1 1 1 1 0.01012625310616844 1 1 1 1 1 0.012137876844311246 1 1 1 1 1 1 1 1 1 1 1 1 1 1 0.01035209624367369 1 1 1 0.011979434305965198 0.012701266633118741 1 1 1 1 1 1 1 1 0.011052465088875547 1 0.013014643901565735 1 0.0099840629725867804 1 0.01035631838728971 1 1 0.010474464195458472 1 0.010080832907573655 1 1 1 1 1 1 1 1 1 1 1 0.010526465567343648 1 1 1 1 1 1 1 1 1 1 0.010163041005559547 1 1 1 1 1 1 1 1 1 1 1 1 1 1 1 0.010025297546856422 1 1 1 1 1 1 1 1 0.010026174159537117 1 1 0.0099296608410427666 0.011279511492956832 1 0.013388863854932187 0.010326062422107065 1 0.011516058080626173 1 1 0.010780517054946424 1 0.01064250318471106 1 0.011068304492661933 1 0.010005743891962319 1 1 1 1 1 0.0099879011149800606 1 1 1 0.010401934942451375 1 1 1 1 1 1 1 1 1 0.011087411736917168 1 1 1 1 1 1 1 1 1 1 1 1 1 1 1 1 1 1 1 0.0097040714822748172 1 1 1 1 1 1 1 0.0089208041030551487 1 0.013185728605718807 1 1 1 1 0.011642343876296944 1 1 1 1 1 1 0.011324984830925016 1 1 1 1 1 1 1 1 1 1 1 1 1 1 1 1 1 0.009954953914120216 1 1 1 1 0.014842586335540182 1 0.010130548324879788 1 1 1 0.014819124210735321 0.010003080363657109 1 1 1 1 1 0.010043963268005452 1 1 1 0.010147347144917926 1 1 1 0.013014125472130472 0.010432384492311243 1 1 1 1 1 0.010147549459222662 0.011309724381619517 1 0.010954381832713026 1 1 1 1 1 1 1 1 1 1 1 1 1 1 1 1 0.010012067168707658 1 1 1 1 0.010273802451240537 1 1 0.011230697196088008 1 1 1 1 1 1 1 1 1 1 1 1 1 1 1 1 1 1 0.0092342931372032967 1 1 1 1 1 1 1 1 0.0081629959849370513 1 1 0.011826880366232063 1 1 1 1 0.0092459379081439672 1 1 1 1 1 1 0.01123328879853326 0.010653031249134423 1 1 1 1 1 0.013204451807124106 1 1 1 1 0.016672990670363565 1 1 0.015630383635596091 1 1 1 1 0.019977407039573018 0.011930465634697915 1 1 1 1 0.012877847004520916 0.010653167199557672 1 1 1 1 1 1 1 1 1 1 0.023243957993465448 1 1 1 1 1 0.024832676192204209 0.0099541024648945459 1 1 1 1 1 1 1 1 1 1 1 1 0.010918464092650243 1 1 1 1 1 1 1 1 0.010380131314457633 1 1 1 0.010972730652935435 1 1 1 1 0.012425894933401386 1 1 0.012671384280620574 1 1 1 1 1 1 1 1 1 1 1 1 1 1 1 1 1 1 1 1 1 1 1 1 0.010623991232017177 1 1 1 1 1 1 1 1 1 1 1 1 1 1 1 1 1 1 1 1 1 1 1 1 1 1 1 1 0.02197484465169211 1 1 0.0088801941526376969 1 1 0.010405138547468612 1 1 1 1 0.01121822000015462 1 1 1 1 1 0.02100480526543233 1 1 1 1 1 1 0.010813937756427432 1 1 1 1 1 1 1 1 0.0099670039742799782 1 1 1 1 1 1 1 1 1 1 1 1 1 1 1 1 1 1 0.013390038078477095 1 1 0.019047540504699981 1 0.010357670541804979 1 1 0.021078533386065246 1 1 1 1 1 1 1 1 1 1 1 1 1 1 1 1 1 1 1 1 1 1 1 1 1 1 1 1 1 1 1 0.010585764207710256 1 1 0.01476252124457967 1 1 0.0099631535619016647 0.016030541266566972 1 1 1 1 1 1 1 1 1 1 1 1 1 1 1 1 1 1 1 1 1 1 1 1 1 1 1 1 1 1 1 1 1 0.0099569061976353974 1 0.0103766160876938 1 0.010240984068135008 1 1 1 1 1 0.010395177031134762 1 1 1 1 1 0.010301491045675435 1 0.010634769381125736 1 0.010594842560250018 1 1 1 1 1 1 1 1 0.010849357126431923 1 0.010462179492329252 1 1 0.011388057507402688 1 1 1 1 1 1 0.010480740925536086 1 0.01075021109853859 0.0099901518308230103 1 1 1 1 1 1 1 1 0.011245471015425969 1 1 0.010959728098216028 1 1 0.011304605129269311 1 0.011660819020888806 1 1 1 0.010608238456244196 0.01004937696940853 1 0.011942155270375496 1 1 1 1 1 1 1 1 1 1 1 1 1 1 1 1 1 1 1 0.010348375517343581 1 1 1 1 1 1 1 1 1 1 1 1 1 1 1 1 1 1 1 1 1 1 1 1 1 1 1 1 1 1 1 1 1 1 1 1 1 1 1 1 1 1 1 1 1 1 1 1 1 1 1 1 1 1 0.016326025762326342 1 1 1 1 0.011391112904104189 1 1 1 1 1 1 1 1 1 1 1 1 1 1 1 1 0.0099066056256850964 1 0.010418302389347215 1 1 1 1 1 1 1 0.010003787714149091 0.0087270453961511094 0.010010255919254852 1 1 1 1 0.011143313757965153 0.010141326861959087 0.010938973809792604 0.010823706389419986 0.010960061616408268 1 1 0.01560918798464773 1 1 1 1 0.014137763988242711 1 1 1 1 1 1 1 0.01027892922128717 1 1 0.011265115670146675 0.012753856305824452 1 1 1 1 1 1 0.0093901471715763692 1 0.0086462495082194127 0.011275083772277398 1 0.0095050882379527357 0.011526866456774948 1 1 1 1 0.012474211803849469 1 0.011874571600212741 1 1 0.010011723677889753 1 1 0.00970727676865152 1 0.012720207800964851 1 1 0.013901730249706963 1 0.010864011154311636 1 1 1 1 0.010382869574431564 1 1 1 1 0.010131305434744619 1 1 0.01383676077971607 1 1 1 1 1 1 0.010302848222668127 1 1 1 1 1 1 1 1 1 0.010006895335730981 1 0.0091145858583350364 1 1 1 1 1 1 1 0.010181327959915977 1 1 1 1 1 1 1 1 1 1 1 0.0099482721828694047 0.0098913604234631899 1 1 0.0098001962469635526 0.0097736230205420042 1 1 0.0098632134914333203 1 1 1 0.010951100344344985 1 0.0097661681108650346 0.010672278417613252 1 1 1 0.009391427462972295 0.0096644368207722195 1 1 0.010548957125899611 1 1 0.010000230004962935 1 0.010199573582418728 1 0.010058090000589501 1 1 1 1 1 0.010103947897066467 1 1 0.010660234586055101 1 0.010726253850969735 0.010771739575456362 1 0.0099686689731611575 0.0099914556127462702 1 1 1 1 1 1 0.010031682064449765 0.009567136057264395 1 0.011209114230695573 1 1 1 1 0.010463163958698658 1 1 1 1 1 1 1 1 1 1 1 1 1 1 1 1 1 1 1 1 1 1 1 1 1 1 1 1 1 1 1 1 1 1 1 1 1 1 1 1 1 1 1 1 1 1 1 1 1 1 1 1 1 1 1 1 1 1 1 1 1 1 1 1 1 1 1 1 1 1 1 1 1 1 1 1 1 1 1 1 1 0.010301214670919224 1 1 1 1 1 1 0.010910804147573668 1 1 1 1 1 1 0.0099657709194832054 1 1 0.011297837059032133 1 1 1 1 1 1 1 1 1 1 1 1 1 1 0.01253631436539572 1 1 1 1 1 0.0099993439794392007 1 1 1 1 0.01356092481361286 1 1 1 1 1 1 1 1 1 1 1 1 1 1 1 1 1 1 1 1 1 1 1 1 1 1 1 1 1 1 1 1 1 1 1 0.015652400607922577 1 1 1 1 1 1 1 1 1 1 1 1 1 1 1 1 1 1 1 1 1 1 1 1 1 1 1 1 1 1 1 1 1 1 1 1 1 1 1 1 1 1 1 1 1 1 1 1 1 1 1 1 1 1 1 1 1 1 1 1 1 1 1 1 1 1 1 1 1 1 1 1 1 1 1 1 1 1 1 1 1 1 1 1 1 1 1 1 1 1 1 1 1 1 1 1 1 1 1 1 0.010081186993916627 1 1 1 1 1 1 1 1 1 1 1 1 1 1 1 1 1 1 1 1 1 1 0.010136046104215349 1 0.0097365706954427502 1 1 1 1 1 0.0099842969014893104 0.0098645208746585937 1 1 0.010197078829633882 1 0.010032469700604538 1 1 0.0099703547161799858 1 1 1 1 1 1 1 1 1 1 1 1 1 1 1 1 1 1 0.012031697024996582 1 1 1 0.011606905965552715 1 1 1 0.012570819267461838 1 0.0099297993627674094 1 1 1 1 1 1 1 1 1 1 0.01302014257468039 1 1 1 1 0.010056670370036415 0.010172698556855294 0.013260317052394289 1 1 1 1 1 1 1 1 0.012337111848284793 1 1 1 1 1 1 1 1 0.010006938568502969 1 1 0.012358863978040036 1 1 1 1 1 0.0099973666520585397 1 0.012053656904178976 1 0.0096273110066672982 0.011490339467857668 1 0.0093869257078980761 1 1 0.0092570169073530346 1 0.0093041058034713832 1 1 1 1 1 1 1 1 0.011525974613802132 1 0.011416943106165024 0.010008385148206636 1 0.008786776225545561 1 0.011820775822359294 1 1 1 0.011184035987085179 0.0096500783381894516 1 1 0.011696776426058481 1 0.010012024242794453 1 0.012394157768237612 1 1 1 1 1 0.010951973828478432 1 1 1 1 1 1 1 1 1 0.010488172065085033 1 0.010009896081500451 1 1 1 1 1 1 1 0.0097127052221515093 1 1 1 0.010021324299058552 1 0.011010757943496895 0.010166070978954885 1 1 1 1 1 0.0099974136603569012 0.010115238470993328 1 1 1 1 1 1 1 1 0.0093787385578634128 1 0.009141339920084833 1 0.011061013740053976 1 1 1 1 1 0.0104574690464182 1 1 1 1 1 1 1 1 1 1 1 1 1 1 1 1 1 1 1 1 1 1 0.010510160905258447 1 1 1 1 1 0.010453429650988612 1 1 1 1 0.010908867035673366 1 1 1 1 1 1 1 0.010027209503870406 1 1 0.011094130087764151 1 1 1 1 1 1 1 1 1 1 1 1 1 0.010479135297140911 1 0.010627752885390376 1 1 1 1 1 1 1 1 1 1 1 1 1 0.010839590905407592 1 1 1 0.0099931888513350234 1 1 0.0099993489658506164 1 0.01031574862409745 1 1 1 1 1 1 0.0099401487128142341 1 1 1 1 1 1 1 0.010823466768806016 1 1 0.010605315805902722 1 0.011482792495694099 1 0.010155900565157567 0.010396269886753823 0.010866339554763233 1 1 1 0.010962471872278813 1 1 0.010071343562439865 1 0.0097440037659317531 1 1 1 1 1 1 1 1 1 1 1 1 1 1 1 1 0.010530966797371392 1 0.010111726309297164 1 1 1 1 1 1 1 1 1 1 1 1 1 1 1 1 0.0099225031832478224 1 1 1 1 0.010377308195206301 1 1 1 1 1 1 1 1 1 1 1 1 1 1 1 1 1 1 1 1 0.018087956857422059 1 1 1 1 0.017901809761097943 1 1 1 1 1 1 0.01712589879081548 1 1 1 1 1 1 1 1 1 1 1 1 1 1 0.010331500047471865 0.009972851203709495 1 1 1 1 0.01614030113377244 1 1 1 1 0.014990608114396824 0.0099377166068670437 1 1 1 1 1 1 1 1 1 1 1 1 1 1 0.0099890706795821606 1 0.01163041423244169 1 1 1 1 1 1 1 1 1 1 1 1 1 1 1 1 1 1 1 1 1 1 1 1 1 1 1 1 1 1 1 1 1 1 1 1 1 1 1 1 1 0.010756652055603987 1 1 1 1 1 1 1 1 1 1 0.010571400804230344 1 1 1 1 1 1 1 1 1 1 1 1 1 1 1 1 0.010102967064997737 1 1 0.009929750874436219 1 0.010153674145738902 1 1 1 1 1 0.010159366806566894 1 0.010366130921209332 1 1 0.0099912618998237238 1 1 1 1 1 1 1 1 1 1 1 1 1 1 1 1 0.011022541279456951 1 1 0.010496075712113291 1 1 1 1 1 1 1 1 1 1 1 1 1 1 1 1 1 1 1 1 1 1 1 1 1 1 1 1 1 1 1 1 1 1 1 0.010163213543471909 1 1 1 0.010021491727461191 1 1 1 1 1 1 1 1 0.010506445945444202 1 1 1 0.010051876487183066 1 1 0.010119025505656996 1 1 1 1 0.011068476708482464 0.0084025437987721094 1 0.012457163173978726 1 1 1 1 1 0.0099909005941078901 1 0.0096713167008879285 1 0.011805810201875988 1 1 1 1 1 1 1 0.0097510694216899549 1 1 1 1 1 0.01010075004873825 1 1 1 0.010066431802184427 1 1 1 0.0099057928822911014 1 1 0.013030466870225639 1 1 0.014424097711562821 1 1 1 1 1 1 1 1 1 0.011129400308233055 1 1 1 1 1 1 0.013206689663067197 1 1 1 0.010093118523273131 0.0099841667714146692 1 1 1 1 1 1 1 1 1 1 1 1 1 1 1 1 1 1 1 1 0.012005135185254649 1 1 1 1 1 1 1 1 0.010683251069357913 1 1 1 1 1 1 1 1 1 1 1 1 1 0.009576262416796209 1 1 0.0099752824335810879 1 1 1 1 1 1 1 1 1 1 1 1 1 1 1 1 1 1 1 1 1 1 1 1 1 1 1 1 1 1 1 1 1 1 1 1 1 1 1 1 1 1 1 1 1 1 1 1 1 1 1 1 1 0.0098089732107389839 1 1 1 1 1 1 1 1 1 1 1 1 1 1 1 1 1 1 1 1 1 1 1 1 1 1 1 1 1 1 1 1 1 1 1 1 1 1 1 1 1 1 1 1 1 1 1 1 1 1 1 1 1 1 1 1 1 1 1 1 1 0.009903180328447881 1 1 1 1 1 1 1 1 1 0.010355878395430843 1 1 1 1 1 1 1 0.009982686577630049 1 1 1 1 1 1 1 1 0.010919369785142727 1 1 1 1 1 1 1 0.011013220544033041 0.010169037203044658 1 1 1 1 1 1 1 1 1 1 1 1 1 1 1 1 1 1 1 1 1 1 0.010255721863322919 1 1 1 1 1 1 1 1 1 1 1 1 1 1 1 1 1 1 1 1 1 1 1 1 1 1 1 1 1 1 1 1 1 1 1 1 1 1 1 1 1 1 1 0.010640894129552398 1 1 1 1 1 1 1 1 1 0.012456375115275035 1 1 1 1 1 1 0.010852816416303165 1 1 1 1 1 1 1 0.0099166988702892225 1 0.010150247948712983 1 1 0.010981577143761049 1 1 1 1 0.011211839004145088 1 0.010972555782677845 1 0.010352300175118543 1 1 0.010058831242802472 1 1 1 1 1 1 1 1 1 1 1 1 0.0098541542208353348 1 1 1 1 1 1 1 1 1 1 1 1 1 1 1 1 1 1 1 1 1 1 1 1 1 1 1 1 1 1 0.010060809556529743 1 1 1 1 1 1 1 1 1 1 1 1 1 0.013671089152312054 1 1 0.014222990471943907 1 1 1 0.011848444380107055 0.010347006206676104 1 1 0.0098941292782141303 0.012452917234909773 1 1 1 1 1 1 1 1 1 1 1 1 1 0.013746410057994748 1 1 1 1 0.0096185500414277085 1 0.013110849808019794 1 1 0.01069032330153395 0.0099955448785701961 1 1 1 1 0.010011534264095316 1 1 1 0.012384642447758111 1 1 1 1 1 1 1 1 1 1 1 1 1 1 0.010002348418195778 0.012331360120658092 1 1 1 1 1 1 1 0.013847185441827441 1 1 0.01002430539027597 1 0.011757887757018847 1 1 1 1 1 0.010859566872274721 0.010880636934037508 1 1 0.012295958884947012 1 1 0.012542471593193419 1 0.010864019537365469 1 1 1 1 1 0.011255071978423731 0.012768549383104432 1 1 1 1 1 0.0099874575095977997 1 0.0096598903302999584 1 1 1 1 0.0098855921012045902 1 1 1 1 0.01022799430575101 1 1 1 1 1 1 1 1 0.009986752971108499 1 1 0.010306985164042909 1 1 1 1 1 1 1 1 1 0.010505440155123268 1 1 1 1 1 1 1 1 1 1 1 1 1 0.014877651082740403 1 1 1 1 0.014581493498042664 1 1 1 1 1 1 0.010980275114390901 1 1 1 0.010001380493659002 1 0.012015259488409308 0.010003778181935026 1 1 1 1 1 1 1 1 1 1 1 1 0.010282018464311156 1 1 1 1 1 0.010087573823512132 1 0.0099503952726340654 1 1 1 1 1 1 0.010012893957868273 1 1 1 1 1 1 1 1 1 1 1 1 1 1 1 1 0.010579895572168123 1 1 1 1 1 1 1 1 1 1 0.01168786892383028 1 1 1 0.011774882229034486 0.010077110584042108 1 1 1 1 1 0.010292155649501575 0.010561268893435689 1 0.01145089896551286 1 1 0.0122105366529874 1 1 1 1 0.01280069007871504 1 1 1 1 1 1 1 1 1 1 1 1 0.012854551514491094 1 1 1 1 0.012975582251675652 1 1 1 0.010776801748959709 1 1 1 0.0088322631340979913 1 1 1 0.010243594197100142 1 1 1 0.010092146067454613 1 1 1 1 1 1 1 1 1 1 1 1 1 0.01202252566701055 1 1 1 0.010004906674412206 1 1 1 1 1 1 0.011242153500541757 1 1 1 1 1 1 1 1 1 1 1 1 0.010418532887370296 1 1 1 1 1 0.010766200186928995 1 1 1 1 0.010670456892889991 1 1 1 1 1 1 1 1 1 1 1 0.0099607861524440566 1 1 1 1 1 1 0.010917312126651276 1 1 1 1 1 1 1 1 1 1 1 1 1 1 1 1 1 1 1 1 1 0.0091960538590600722 1 1 1 1 0.0095320990065125427 1 1 1 1 1 1 1 1 1 1 0.010573942696320962 1 0.011976938956607477 1 1 1 1 0.010196950422783846 1 1 1 1 1 1 1 1 0.013854980147371014 1 1 1 1 1 0.010668729862828774 1 1 1 0.011358550632645946 1 1 1 1 1 0.013487542062874888 1 1 1 1 1 1 0.013600560369168757 0.01109674078649776 1 1 1 0.01466778359998014 1 1 0.012781548990489845 0.010753633081546077 0.0099489452513797441 1 1 1 0.012682665407687366 1 1 1 0.013188777675400984 1 1 1 1 1 1 1 1 1 1 1 0.01250877466718949 0.010527786321145295 1 1 1 1 0.011448606695956112 1 1 1 1 1 1 1 1 1 1 1 1 1 0.013757078712336007 1 1 1 0.010536654809963398 1 1 1 1 1 1 1 1 0.0098478473861032638 1 1 0.011174573488600225 1 1 1 1 1 1 0.012248771996266906 1 1 1 1 0.0084457914231131481 1 1 0.0099914335547529997 0.013141320449622457 1 0.016309461398792892 0.0041099159132504132 1 1 0.011147492199855502 1 1 0.011283310371181098 1 1 1 1 1 1 1 1 0.0078842830583029898 1 1 1 0.012308472016379895 1 1 1 1 1 1 1 1 1 1 1 1 1 1 1 1 1 1 1 1 1 1 1 1 1 1 1 1 1 1 1 1 1 0.009667773056153673 1 1 1 1 1 1 1 1 1 1 1 1 1 1 1 1 1 0.010967359692738782 1 1 1 1 1 1 1 1 1 0.011076133323675841 1 1 1 1 1 0.011180968907709331 1 0.010107158943280922 1 1 1 1 1 1 1 1 1 1 1 1 1 1 1 1 1 1 1 1 1 0.010318141123865344 1 1 1 1 1 1 1 1 1 1 1 0.010174070608493686 0.014845895401262214 1 1 1 0.010315070768502774 1 1 1 1 1 1 1 1 1 0.01397083139963474 1 1 1 1 1 1 1 0.010141000160009085 1 0.011621343222632884 1 1 1 1 1 1 1 1 1 1 1 1 1 1 1 1 1 1 1 1 1 1 0.010451671327688724 1 1 1 1 1 1 1 1 1 1 1 1 1 1 1 1 1 1 1 0.010131899529821794 1 1 1 1 1 1 1 1 1 1 1 1 1 1 1 1 1 1 1 1 1 1 1 1 1 1 1 1 1 1 1 1 1 1 1 1 1 1 1 1 1 1 1 1 1 1 1 1 1 1 1 1 1 1 1 1 1 1 1 1 1 1 1 1 1 1 1 1 1 1 1 1 1 1 1 1 1 1 1 1 1 1 1 1 1 1 1 1 1 1 1 1 1 1 1 1 1 1 1 1 1 1 1 1 1 1 1 0.0098970246305861327 0.010241760082817521 1 1 1 1 1 1 0.0098201788644947489 0.010110375343854975 1 1 1 1 1 1 1 1 1 1 1 1 1 1 0.0099230043170844568 1 1 1 1 1 1 1 1 1 1 1 1 1 1 1 1 1 0.010289501257986843 1 1 1 1 1 1 1 1 1 1 0.010338373264331367 1 1 1 0.010627590165602878 1 1 1 1 1 1 1 1 1 1 1 1 1 1 1 0.010152574525192345 1 1 0.013199880793882766 1 1 1 1 1 1 1 1 1 1 1 1 1 1 1 1 0.011088885734794943 1 1 0.010871771815590618 1 1 1 1 1 0.010330003211334621 1 1 1 1 1 1 0.010365445684763521 0.01175602147554799 1 1 1 0.010282379717777707 1 1 0.01422495446744329 0.013032854199701006 1 1 1 1 0.01267747697678325 0.013066447787156606 1 1 1 0.012766119422128972 1 1 1 1 1 1 0.011029636090544971 0.01266884914409902 1 1 0.0099996829056926816 1 0.011915569165005035 0.010135699340472024 1 1 1 1 0.010708611160436752 1 1 0.010436352607944288 1 1 1 1 0.013529332880914922 1 1 1 1 1 1 1 0.010149383259293489 1 1 1 1 1 1 1 1 1 1 1 1 1 1 1 1 1 1 1 0.01011606316530082 1 1 1 1 0.012604263616348133 1 1 1 1 1 0.010330971253630373 1 1 1 1 0.011449116667639793 1 1 1 1 0.010492201291741408 1 1 1 1 1 0.010268568561637513 1 1 1 1 0.016907266946208956 1 1 1 1 1 1 0.014702496991355993 1 1 0.012577598216787273 0.010053951160379332 1 1 0.011108283552853515 1 1 1 1 0.010710416097956773 1 0.01030356799225113 1 1 1 0.010840692468755402 0.011100389873543545 0.010807612724233702 1 1 1 1 1 0.012363975306069884 1 1 0.0099794271311491045 1 1 1 1 1 1 1 1 1 1 1 0.0099192411210104192 1 1 1 1 1 0.0099524873201032957 1 0.011566368333973226 0.014023443965569392 1 1 1 0.010280243749497014 0.012971981062754379 1 1 0.0097599557993617095 1 1 1 0.012649360279942961 1 0.012586319065151586 1 1 1 0.013758056204238388 1 1 1 0.01001823581019259 0.012005774627019163 1 1 1 1 1 1 1 1 1 1 1 1 1 1 1 1 1 1 1 1 1 1 1 1 1 1 1 1 1 1 1 1 1 1 1 1 1 1 1 1 1 1 1 1 1 1 1 1 1 0.011272734637729853 1 1 0.010695841152528189 1 1 1 0.0099924300291060492 1 1 1 1 0.011399922879339195 1 1 1 0.011459470446673743 1 1 0.010704613346302464 1 1 1 0.011537873038461609 1 0.011312456465090808 1 0.011064563821237969 1 1 1 1 1 0.010821225157821407 1 1 1 1 1 1 1 1 1 1 1 1 1 1 1 1 0.010088575387036672 1 1 0.010021404493784362 1 1 1 1 1 1 0.011049565630045249 1 1 0.010476631906480662 1 1 1 1 0.010970624586995369 0.010873781099120433 0.010415866086609809 0.010919717387746837 1 1 1 1 1 1 1 1 0.010018438390516603 0.010805246897082264 1 1 1 1 0.010079889757666095 1 1 1 1 1 1 1 0.010384488053599724 1 1 1 1 1 1 1 1 1 1 1 1 1 1 1 1 1 1 1 1 1 1 1 1 1 1 1 1 1 1 1 1 1 1 1 1 1 1 1 1 1 1 1 1 1 1 1 1 1 1 1 1 1 1 1 1 1 1 1 1 1 1 0.012120736423071821 1 1 1 1 1 0.012485800069955181 0.011552871072618015 1 1 1 0.011481504372969523 1 1 0.010186636306711853 1 0.012627655544352741 1 1 0.012413302028037282 1 1 1 1 1 1 1 1 1 1 1 1 1 1 1 1 1 1 1 1 1 1 1 1 1 1 1 1 1 1 0.010515533997416702 1 1 1 1 1 1 0.014578850374048984 1 1 1 0.012513366646849017 1 1 1 1 1 1 1 0.0095694614475690457 1 1 1 1 1 1 1 1 0.013373604833662522 1 1 0.012345745717939109 1 1 1 1 1 1 1 1 1 1 1 1 1 1 1 1 1 1 1 1 1 1 1 1 1 1 0.010947175552774269 1 1 1 1 1 1 1 1 1 0.011580605417405933 1 1 1 1 1 1 1 1 1 0.0093065177968703287 1 0.0094638388089056669 1 1 0.010313975241349997 1 0.0097324986315447653 1 1 1 1 1 1 1 0.012090049221509538 1 1 1 1 1 1 1 1 1 1 1 1 1 1 1 0.010211846595820338 1 1 0.010253234851509276 1 1 1 1 1 0.010076259589918209 1 1 0.010779608519300359 1 1 0.012260053800861604 0.009863332329194504 1 1 0.013638352952285972 1 1 1 0.014109865393597288 1 0.011128189265720076 1 1 1 1 0.0094404930504263657 1 1 1 1 1 1 1 1 1 0.010305282537569845 1 1 1 1 1 1 1 1 0.010051097282697853 1 1 1 1 0.01402568259651242 1 0.012513200935031138 1 1 1 1 1 0.0099676173819180248 1 0.015177167741172696 0.011143220685838149 1 1 0.010542700877024821 1 1 1 1 1 0.01028860758099555 1 0.010336420648973688 1 1 1 1 1 0.01027083698943341 1 1 0.013237572382696523 1 0.011557608449567281 1 1 1 1 1 1 0.011624946692149191 1 1 1 1 0.011477382789496941 1 1 0.010636495927342173 0.010664666279448762 1 1 1 1 1 1 0.010812507616448827 1 1 1 1 1 1 1 1 1 1 0.010547807177818933 1 1 1 0.010965297818849281 1 1 1 1 1 1 1 1 1 1 0.010447691531535193 1 1 1 1 1 1 1 1 1 1 1 1 1 1 1 1 1 1 0.010471201761044185 1 1 1 1 1 0.010617472597692697 1 0.010313946031805519 1 1 1 1 1 1 1 1 1 1 0.012915257774774045 1 1 1 0.012640221698763044 1 1 1 1 1 1 1 1 1 1 1 1 1 1 1 1 0.011621068904303873 1 1 1 1 1 1 1 0.010990184076434935 1 1 1 1 0.011203606520025234 1 1 1 1 0.010016459929987887 1 1 0.010594551930134147 1 1 0.011748199615103389 1 1 1 1 0.013443939904882548 0.01000652529013938 1 1 1 1 1 1 1 1 1 1 1 1 1 1 1 1 1 1 1 1 1 0.012078543405631678 1 1 1 1 0.010076746779493127 1 1 1 1 1 1 1 1 0.01001133893145203 1 0.0098344928524973091 0.011643573564581211 1 1 1 0.010288525244701039 1 1 1 1 1 1 1 1 1 0.01068651898542654 1 0.014337956281103232 1 1 1 0.0099690474570864798 1 1 0.01340988693426547 1 0.016470207110769481 1 1 1 1 0.011124642095831357 0.012825448644358138 1 1 1 1 0.01297534062668582 1 0.012916997108049059 0.0099609483213858162 1 1 1 1 1 1 1 1 1 1 1 1 1 1 1 1 0.013047186195944353 1 1 1 1 1 1 1 1 1 1 1 1 1 1 1 1 1 1 1 1 1 1 1 1 1 1 1 1 1 1 1 1 1 1 1 1 1 0.010067642679937112 1 1 1 1 1 0.010851642791485443 1 1 1 0.010394050672251274 1 1 1 1 1 1 0.0098899876559405495 0.01134292143948378 1 1 1 1 0.010462828472509955 1 1 1 1 1 1 1 0.01098574243380623 1 1 1 1 1 0.019937347499873553 1 1 1 0.018302953171173073 1 1 1 1 0.01144026680481406 1 1 1 1 1 1 0.010513953625813106 1 1 1 1 1 1 1 1 1 1 1 0.010544069478503114 1 1 1 1 1 1 1 1 1 1 1 1 1 1 0.010216602641132194 1 1 0.0098625260071711577 1 0.010243846004965283 0.009945070708805244 1 1 1 1 1 1 1 1 1 1 1 1 1 1 1 1 1 1 1 1 1 0.010246606365705978 1 1 1 1 1 1 1 1 1 1 1 1 1 1 1 1 1 1 1 1 1 1 1 1 1 1 1 1 1 1 1 1 1 1 1 1 1 1 1 1 1 1 1 1 1 1 1 1 1 1 1 1 1 1 1 1 1 1 1 1 1 1 1 1 1 1 0.010288206962683238 1 1 1 1 0.012190824962817327 0.013846014379378928 1 1 1 1 0.015972802316560272 1 1 1 1 1 1 1 1 1 1 1 1 0.010633796723198573 1 1 1 1 1 1 1 1 1 1 1 1 0.017025951195591593 1 1 1 1 1 1 1 1 1 1 0.01714750664751475 1 1 0.01684040711543023 1 1 1 1 1 1 1 1 1 1 1 1 1 1 1 1 1 1 1 1 1 1 1 1 1 0.011649578969710441 1 1 0.012257192722848427 1 1 0.010167675195157008 1 1 1 1 1 1 0.010633096768328673 1 1 1 1 0.012378619311891215 1 1 1 1 1 1 1 1 1 1 1 1 1 1 1 1 1 1 1 1 1 0.015700610861099477 1 1 1 1 1 1 1 1 1 1 1 1 1 1 1 0.010318629389215898 1 0.010318034520885356 1 1 1 1 1 1 1 1 1 1 1 1 1 0.0096189384685604236 1 1 1 1 1 1 0.0092574945934129019 1 1 0.0096385561248524768 1 1 1 1 1 1 1 1 0.010312581373263211 1 1 1 1 1 1 0.010164519500350935 1 1 1 1 1 1 1 1 1 1 1 1 1 1 1 1 1 1 1 1 1 1 0.010243794739703447 1 1 1 1 1 1 1 1 1 1 1 1 1 1 1 1 1 1 1 1 1 1 0.010148061872912287 1 1 1 1 0.010002713867851997 1 1 0.012212087240662889 1 1 0.015711445530937083 1 1 1 1 1 0.0099550587927150682 0.012741559655784404 1 0.0086603296665818223 0.013040478366953632 1 1 1 0.0099507594111681967 1 1 0.0096465614619568492 1 1 1 1 1 1 1 1 1 1 1 1 1 1 1 1 1 1 1 1 1 1 1 1 1 1 1 1 1 1 1 1 1 1 1 1 1 1 1 1 1 1 1 1 1 1 0.010625201584369144 1 1 1 1 1 1 1 1 1 1 1 1 1 0.016563179371110556 1 1 0.010818245657559301 0.0093575857069940101 1 1 1 1 1 1 1 0.017145554752734403 1 1 0.017260932154893667 1 1 1 0.010275149330788443 1 1 1 0.010180395744551046 1 1 1 1 1 1 1 1 1 1 1 1 1 1 1 1 1 1 1 1 1 0.0098249934646275922 1 1 1 1 0.0099581169860142871 1 0.010007195909026706 1 0.01481001052771419 1 1 0.011183027828799756 0.014882407290959824 1 1 1 1 1 1 1 0.010563242408935121 1 0.016180608633296567 1 1 1 1 1 1 1 1 1 0.010387852309659208 1 0.010750289320659218 1 1 1 0.012811041669224643 1 1 0.010423293207828418 1 0.010127648328577992 1 1 1 0.011761455779322812 1 1 1 1 1 1 1 1 1 1 1 0.0094449716893299264 1 1 1 1 0.0087490773142618033 1 1 1 1 1 1 1 1 1 1 1 1 1 1 1 1 1 1 1 1 0.012111867376818714 1 1 1 0.0097930510026478044 1 0.0099111649989323432 0.012205670572760017 0.012049713134979363 1 1 1 1 1 1 1 1 1 1 1 1 0.012966438156460805 1 1 0.010011925430313593 1 0.013399145749816559 1 0.010446175263495127 1 1 0.0099993425873058303 1 1 1 1 0.012442495032589526 1 1 1 1 1 1 1 0.012679302223093958 1 1 1 1 1 1 1 1 1 1 0.010004680167874837 1 1 1 1 1 1 1 1 1 1 1 1 1 0.012637093904472251 1 1 1 0.011007772644491799 0.012840951004005702 0.010315623532433258 1 1 1 1 1 1 0.010117222607496609 1 1 1 1 1 0.010039289808040303 1 1 1 1 1 1 0.013189543395808892 1 1 0.010113115017048868 1 1 0.0098728214655105732 1 1 1 0.0096528250557269511 1 1 0.0095148115737158003 1 1 1 0.011518004472372844 1 1 0.011960019321809609 0.011161376871976374 1 1 1 1 0.013267753244473551 1 1 1 1 1 1 1 1 1 1 1 1 1 1 1 1 1 1 1 1 1 1 1 1 1 1 1 1 1 1 1 0.009840946784689707 1 1 1 1 1 1 1 1 0.010035433540239919 1 1 1 1 1 1 1 1 1 1 1 0.01050403902470454 1 1 1 1 1 1 1 1 1 1 1 1 1 1 1 1 1 0.010163864498466393 1 1 1 1 1 0.010325773774100174 1 1 0.010033236172331404 1 1 1 1 1 1 0.010153471287198786 1 1 1 0.011132731016134677 1 1 0.011898139526435191 1 1 1 0.0095671469784931167 1 0.015563658147158356 1 1 1 1 0.010012995633504992 1 1 1 1 1 0.0089495782546786008 0.0092533871317194479 1 1 1 1 1 1 1 1 1 1 1 1 0.016375538891924321 1 1 1 1 1 1 1 1 1 1 1 1 1 0.012314675560590698 1 1 1 0.011918468495039971 1 1 0.011270072177117446 1 1 0.0099754384503676959 1 0.0095841867403058095 1 1 0.0081897169992019795 1 1 1 1 0.011373686956117381 0.010011993907935201 1 0.0095236109984548501 1 1 1 1 1 1 1 1 1 1 1 1 1 0.010004627699929301 1 1 1 1 1 0.0097214168583666383 1 1 1 1 1 1 1 1 1 1 1 1 1 1 1 1 1 1 1 1 1 1 1 1 1 1 1 1 1 1 1 0.017567866436998088 1 1 1 1 0.017493547080044618 1 1 1 0.010122473146881762 1 1 1 1 1 1 1 1 1 1 1 1 1 1 1 0.017118368593644233 1 1 1 1 1 1 1 1 1 1 1 1 1 1 0.011646714286173091 0.011660755883206904 1 0.010317917801744665 1 0.010794218727800092 1 1 1 1 1 1 1 1 1 1 1 0.011986610218561955 1 1 1 1 1 0.011356768235663995 1 1 1 1 1 1 0.01026721071618957 1 1 1 1 1 1 1 1 1 1 1 1 1 1 1 1 1 1 1 1 1 1 1 1 0.010417866411682061 1 1 1 1 1 0.01013720088895944 1 1 1 1 1 1 1 1 1 1 1 1 1 1 1 1 1 1 1 1 1 1 1 1 0.010588646235148255 1 1 1 0.01008411308914082 1 1 1 1 1 1 1 1 1 1 1 1 1 1 1 1 1 1 1 1 1 1 1 1 1 1 1 1 1 1 0.012018882963313068 1 1 0.012151956235241762 1 1 1 1 1 1 1 1 1 0.013720172161189204 1 0.010109609782797119 1 1 1 1 1 1 1 1 0.011280888143443461 1 1 1 0.011530863000694577 1 1 1 1 1 1 0.010435120026341817 1 1 1 0.010960323343255165 1 1 1 1 1 1 1 1 1 1 1 1 1 1 1 1 1 1 1 1 1 1 0.010325465515088506 1 1 1 1 1 1 0.0099721330798846885 1 1 1 0.010213170117383487 0.01522883638340887 1 1 1 1 1 1 0.010414600785249237 0.015194783660509664 1 0.009996262498862124 1 0.009778136234138847 1 1 0.011694614636330779 1 0.011330193667826777 1 1 1 1 0.012742031944623955 0.011942780225965411 1 1 1 1 1 1 1 1 1 0.010134587641544422 1 1 1 1 1 0.0097212386650782773 1 1 1 1 1 1 1 1 1 1 0.0099696908031679746 1 0.010005048517803376 1 1 1 1 1 1 1 1 1 1 1 1 1 1 1 1 1 1 1 1 1 1 1 1 0.0099215762169285945 1 1 1 1 1 1 1 1 1 1 1 0.0099822285013656895 1 0.011811490173735211 1 1 1 1 1 1 1 1 1 1 1 0.014323073268216656 1 1 1 0.010565650890589813 1 1 1 0.014594779569780787 1 1 1 1 1 1 1 1 1 1 1 1 1 1 1 1 1 1 0.011432069285220925 1 0.010445062818020934 1 1 1 1 1 0.010137445872953435 1 0.012684106963321633 1 1 1 0.013878874177999363 1 1 1 1 1 1 0.011163796062519681 1 1 0.011305782967654996 1 1 1 1 1 1 1 1 1 1 1 1 1 1 1 1 1 1 1 1 1 1 1 1 1 1 1 1 1 1 1 1 1 1 1 1 1 1 1 1 1 1 1 1 1 1 1 1 1 1 1 1 1 1 0.01039984907078606 1 1 1 1 1 0.010725314585874566 1 1 1 1 1 1 1 1 1 1 1 1 1 1 1 1 1 1 1 1 1 1 1 1 1 1 1 1 1 1 1 1 1 1 1 1 1 1 1 1 1 1 1 1 1 1 1 1 1 1 1 1 1 1 1 1 1 1 1 1 1 1 0.010415555075141468 1 1 1 1 0.014640008448810936 1 1 1 1 1 1 1 1 1 1 1 1 1 1 1 1 1 0.010490745966773091 1 1 1 0.010741318525935659 1 0.010522164369837092 1 1 1 1 1 1 1 1 1 1 1 1 1 1 1 1 0.010789522898143181 1 1 1 1 0.010196400919042895 1 1 1 1 1 1 1 1 1 1 1 1 1 1 1 1 1 0.012126347132961656 1 0.0096641303747697655 1 1 0.010568689962966851 0.0118477700399061 1 0.010727183596449041 1 1 1 1 0.011454345534267843 1 1 1 0.0121888229756356 1 1 1 1 1 1 1 1 0.0098558931430725721 1 1 1 0.015356356797518718 1 1 1 1 1 0.011914519816026075 1 1 1 0.010782643096563646 0.01259068597685418 1 1 1 0.010088525726524369 1 0.010273366264003755 1 1 1 1 1 1 1 1 1 1 1 1 1 1 1 1 1 1 1 1 1 1 1 1 0.010632447416392115 0.010182190660223961 1 1 1 1 1 0.019098857349686919 0.0098638314106254538 1 1 1 1 1 0.020975098400467282 1 1 1 1 1 1 1 1 1 1 1 1 1 0.010586245841862626 1 1 1 1 1 0.010191878938360786 1 1 1 1 1 0.021417650970715262 1 1 1 1 1 1 1 1 1 1 1 0.010723598664640661 1 1 1 1 1 1 1 1 1 1 1 1 0.020985808525015012 0.022393578318297355 1 1 1 1 1 1 1 1 1 1 0.023446755788889807 1 1 1 1 1 0.0241725523793281 1 1 1 1 1 1 1 1 1 0.010249000446915988 1 0.012028796645019622 1 1 1 1 1 1 1 1 1 1 1 1 1 0.011604849781950201 1 1 1 0.010721021030294001 1 0.012132457996019974 1 1 1 0.013546106817960462 1 0.012983561299916613 1 1 1 1 1 1 1 1 1 0.011971990860408736 1 1 1 1 1 1 1 1 1 1 1 1 1 1 1 1 1 1 1 1 1 1 1 1 1 0.010194785505246814 1 1 1 1 1 1 1 1 0.011389446617201482 1 1 0.010107259664301732 1 1 0.019392864028621587 1 0.024681863928840309 1 1 0.011929355777746181 1 1 1 0.010734544320541649 1 1 1 1 1 1 1 1 1 1 0.012289798359986309 1 1 1 1 1 0.017284258999463724 1 0.014469743394397626 1 0.014510029331718468 1 1 1 1 1 1 1 0.010138140933746036 0.016698588773388454 1 1 1 0.015592071564363683 0.010694531404218714 1 0.0099982308275635701 1 1 1 1 1 0.0094197094200119472 1 1 0.0097880304278808034 1 1 1 1 1 1 0.022129905226473442 1 1 1 0.021185805241622446 1 1 1 1 1 0.010968328029049486 1 0.01015724379237878 1 0.010353389234005087 1 1 1 1 1 1 1 1 1 1 1 1 1 1 1 1 1 1 1 1 1 1 1 1 1 1 1 1 1 0.011165373658969004 1 1 1 1 1 1 1 0.01062306405263427 1 1 1 0.010651790935649968 1 0.010628024471999311 1 1 0.010778389689114666 1 1 1 0.010371553368610989 1 1 1 1 0.010156806133993806 1 1 1 1 1 1 1 1 1 1 1 1 1 0.010122453137282793 1 1 1 1 1 1 0.010047598178957225 1 1 1 1 1 1 1 1 1 1 1 1 0.010315221832777876 1 1 1 1 1 1 0.010642001499007134 1 1 1 1 1 1 0.016944738997135025 1 0.01614946630312987 1 1 1 0.0105489519034413 1 1 1 1 1 1 0.01022217223721204 1 1 1 1 1 1 1 1 1 1 1 1 1 1 1 1 0.012091891333861274 1 1 1 1 1 1 1 1 1 
</DataArray>
</CellData>
</Piece>
</UnstructuredGrid>
</VTKFile>
